# vtk DataFile Version 3.0
vtk output
ASCII
DATASET UNSTRUCTURED_GRID
POINTS       496 double 
  0.00000000E+00  3.00000000E+02  0.00000000E+00
  0.00000000E+00  2.80000000E+02  0.00000000E+00
  0.00000000E+00  2.60000000E+02  0.00000000E+00
  0.00000000E+00  2.40000000E+02  0.00000000E+00
  0.00000000E+00  2.20000000E+02  0.00000000E+00
  0.00000000E+00  2.00000000E+02  0.00000000E+00
  0.00000000E+00  1.80000000E+02  0.00000000E+00
  0.00000000E+00  1.60000000E+02  0.00000000E+00
  0.00000000E+00  1.40000000E+02  0.00000000E+00
  0.00000000E+00  1.20000000E+02  0.00000000E+00
  0.00000000E+00  1.00000000E+02  0.00000000E+00
  0.00000000E+00  8.00000000E+01  0.00000000E+00
  0.00000000E+00  6.00000000E+01  0.00000000E+00
  0.00000000E+00  4.00000000E+01  0.00000000E+00
  0.00000000E+00  2.00000000E+01  0.00000000E+00
  0.00000000E+00  4.99600361E-14  0.00000000E+00
  2.00000000E+01  3.00000000E+02  0.00000000E+00
  2.00000000E+01  2.80000000E+02  0.00000000E+00
  2.00000000E+01  2.60000000E+02  0.00000000E+00
  2.00000000E+01  2.40000000E+02  0.00000000E+00
  2.00000000E+01  2.20000000E+02  0.00000000E+00
  2.00000000E+01  2.00000000E+02  0.00000000E+00
  2.00000000E+01  1.80000000E+02  0.00000000E+00
  2.00000000E+01  1.60000000E+02  0.00000000E+00
  2.00000000E+01  1.40000000E+02  0.00000000E+00
  2.00000000E+01  1.20000000E+02  0.00000000E+00
  2.00000000E+01  1.00000000E+02  0.00000000E+00
  2.00000000E+01  8.00000000E+01  0.00000000E+00
  2.00000000E+01  6.00000000E+01  0.00000000E+00
  2.00000000E+01  4.00000000E+01  0.00000000E+00
  2.00000000E+01  2.00000000E+01  0.00000000E+00
  2.00000000E+01  4.99600361E-14  0.00000000E+00
  4.00000000E+01  3.00000000E+02  0.00000000E+00
  4.00000000E+01  2.80000000E+02  0.00000000E+00
  4.00000000E+01  2.60000000E+02  0.00000000E+00
  4.00000000E+01  2.40000000E+02  0.00000000E+00
  4.00000000E+01  2.20000000E+02  0.00000000E+00
  4.00000000E+01  2.00000000E+02  0.00000000E+00
  4.00000000E+01  1.80000000E+02  0.00000000E+00
  4.00000000E+01  1.60000000E+02  0.00000000E+00
  4.00000000E+01  1.40000000E+02  0.00000000E+00
  4.00000000E+01  1.20000000E+02  0.00000000E+00
  4.00000000E+01  1.00000000E+02  0.00000000E+00
  4.00000000E+01  8.00000000E+01  0.00000000E+00
  4.00000000E+01  6.00000000E+01  0.00000000E+00
  4.00000000E+01  4.00000000E+01  0.00000000E+00
  4.00000000E+01  2.00000000E+01  0.00000000E+00
  4.00000000E+01  4.99600361E-14  0.00000000E+00
  6.00000000E+01  3.00000000E+02  0.00000000E+00
  6.00000000E+01  2.80000000E+02  0.00000000E+00
  6.00000000E+01  2.60000000E+02  0.00000000E+00
  6.00000000E+01  2.40000000E+02  0.00000000E+00
  6.00000000E+01  2.20000000E+02  0.00000000E+00
  6.00000000E+01  2.00000000E+02  0.00000000E+00
  6.00000000E+01  1.80000000E+02  0.00000000E+00
  6.00000000E+01  1.60000000E+02  0.00000000E+00
  6.00000000E+01  1.40000000E+02  0.00000000E+00
  6.00000000E+01  1.20000000E+02  0.00000000E+00
  6.00000000E+01  1.00000000E+02  0.00000000E+00
  6.00000000E+01  8.00000000E+01  0.00000000E+00
  6.00000000E+01  6.00000000E+01  0.00000000E+00
  6.00000000E+01  4.00000000E+01  0.00000000E+00
  6.00000000E+01  2.00000000E+01  0.00000000E+00
  6.00000000E+01  4.99600361E-14  0.00000000E+00
  8.00000000E+01  3.00000000E+02  0.00000000E+00
  8.00000000E+01  2.80000000E+02  0.00000000E+00
  8.00000000E+01  2.60000000E+02  0.00000000E+00
  8.00000000E+01  2.40000000E+02  0.00000000E+00
  8.00000000E+01  2.20000000E+02  0.00000000E+00
  8.00000000E+01  2.00000000E+02  0.00000000E+00
  8.00000000E+01  1.80000000E+02  0.00000000E+00
  8.00000000E+01  1.60000000E+02  0.00000000E+00
  8.00000000E+01  1.40000000E+02  0.00000000E+00
  8.00000000E+01  1.20000000E+02  0.00000000E+00
  8.00000000E+01  1.00000000E+02  0.00000000E+00
  8.00000000E+01  8.00000000E+01  0.00000000E+00
  8.00000000E+01  6.00000000E+01  0.00000000E+00
  8.00000000E+01  4.00000000E+01  0.00000000E+00
  8.00000000E+01  2.00000000E+01  0.00000000E+00
  8.00000000E+01  4.99600361E-14  0.00000000E+00
  1.00000000E+02  3.00000000E+02  0.00000000E+00
  1.00000000E+02  2.80000000E+02  0.00000000E+00
  1.00000000E+02  2.60000000E+02  0.00000000E+00
  1.00000000E+02  2.40000000E+02  0.00000000E+00
  1.00000000E+02  2.20000000E+02  0.00000000E+00
  1.00000000E+02  2.00000000E+02  0.00000000E+00
  1.00000000E+02  1.80000000E+02  0.00000000E+00
  1.00000000E+02  1.60000000E+02  0.00000000E+00
  1.00000000E+02  1.40000000E+02  0.00000000E+00
  1.00000000E+02  1.20000000E+02  0.00000000E+00
  1.00000000E+02  1.00000000E+02  0.00000000E+00
  1.00000000E+02  8.00000000E+01  0.00000000E+00
  1.00000000E+02  6.00000000E+01  0.00000000E+00
  1.00000000E+02  4.00000000E+01  0.00000000E+00
  1.00000000E+02  2.00000000E+01  0.00000000E+00
  1.00000000E+02  4.99600361E-14  0.00000000E+00
  1.20000000E+02  3.00000000E+02  0.00000000E+00
  1.20000000E+02  2.80000000E+02  0.00000000E+00
  1.20000000E+02  2.60000000E+02  0.00000000E+00
  1.20000000E+02  2.40000000E+02  0.00000000E+00
  1.20000000E+02  2.20000000E+02  0.00000000E+00
  1.20000000E+02  2.00000000E+02  0.00000000E+00
  1.20000000E+02  1.80000000E+02  0.00000000E+00
  1.20000000E+02  1.60000000E+02  0.00000000E+00
  1.20000000E+02  1.40000000E+02  0.00000000E+00
  1.20000000E+02  1.20000000E+02  0.00000000E+00
  1.20000000E+02  1.00000000E+02  0.00000000E+00
  1.20000000E+02  8.00000000E+01  0.00000000E+00
  1.20000000E+02  6.00000000E+01  0.00000000E+00
  1.20000000E+02  4.00000000E+01  0.00000000E+00
  1.20000000E+02  2.00000000E+01  0.00000000E+00
  1.20000000E+02  4.99600361E-14  0.00000000E+00
  1.40000000E+02  3.00000000E+02  0.00000000E+00
  1.40000000E+02  2.80000000E+02  0.00000000E+00
  1.40000000E+02  2.60000000E+02  0.00000000E+00
  1.40000000E+02  2.40000000E+02  0.00000000E+00
  1.40000000E+02  2.20000000E+02  0.00000000E+00
  1.40000000E+02  2.00000000E+02  0.00000000E+00
  1.40000000E+02  1.80000000E+02  0.00000000E+00
  1.40000000E+02  1.60000000E+02  0.00000000E+00
  1.40000000E+02  1.40000000E+02  0.00000000E+00
  1.40000000E+02  1.20000000E+02  0.00000000E+00
  1.40000000E+02  1.00000000E+02  0.00000000E+00
  1.40000000E+02  8.00000000E+01  0.00000000E+00
  1.40000000E+02  6.00000000E+01  0.00000000E+00
  1.40000000E+02  4.00000000E+01  0.00000000E+00
  1.40000000E+02  2.00000000E+01  0.00000000E+00
  1.40000000E+02  4.99600361E-14  0.00000000E+00
  1.60000000E+02  3.00000000E+02  0.00000000E+00
  1.60000000E+02  2.80000000E+02  0.00000000E+00
  1.60000000E+02  2.60000000E+02  0.00000000E+00
  1.60000000E+02  2.40000000E+02  0.00000000E+00
  1.60000000E+02  2.20000000E+02  0.00000000E+00
  1.60000000E+02  2.00000000E+02  0.00000000E+00
  1.60000000E+02  1.80000000E+02  0.00000000E+00
  1.60000000E+02  1.60000000E+02  0.00000000E+00
  1.60000000E+02  1.40000000E+02  0.00000000E+00
  1.60000000E+02  1.20000000E+02  0.00000000E+00
  1.60000000E+02  1.00000000E+02  0.00000000E+00
  1.60000000E+02  8.00000000E+01  0.00000000E+00
  1.60000000E+02  6.00000000E+01  0.00000000E+00
  1.60000000E+02  4.00000000E+01  0.00000000E+00
  1.60000000E+02  2.00000000E+01  0.00000000E+00
  1.60000000E+02  4.99600361E-14  0.00000000E+00
  1.80000000E+02  3.00000000E+02  0.00000000E+00
  1.80000000E+02  2.80000000E+02  0.00000000E+00
  1.80000000E+02  2.60000000E+02  0.00000000E+00
  1.80000000E+02  2.40000000E+02  0.00000000E+00
  1.80000000E+02  2.20000000E+02  0.00000000E+00
  1.80000000E+02  2.00000000E+02  0.00000000E+00
  1.80000000E+02  1.80000000E+02  0.00000000E+00
  1.80000000E+02  1.60000000E+02  0.00000000E+00
  1.80000000E+02  1.40000000E+02  0.00000000E+00
  1.80000000E+02  1.20000000E+02  0.00000000E+00
  1.80000000E+02  1.00000000E+02  0.00000000E+00
  1.80000000E+02  8.00000000E+01  0.00000000E+00
  1.80000000E+02  6.00000000E+01  0.00000000E+00
  1.80000000E+02  4.00000000E+01  0.00000000E+00
  1.80000000E+02  2.00000000E+01  0.00000000E+00
  1.80000000E+02  4.99600361E-14  0.00000000E+00
  2.00000000E+02  3.00000000E+02  0.00000000E+00
  2.00000000E+02  2.80000000E+02  0.00000000E+00
  2.00000000E+02  2.60000000E+02  0.00000000E+00
  2.00000000E+02  2.40000000E+02  0.00000000E+00
  2.00000000E+02  2.20000000E+02  0.00000000E+00
  2.00000000E+02  2.00000000E+02  0.00000000E+00
  2.00000000E+02  1.80000000E+02  0.00000000E+00
  2.00000000E+02  1.60000000E+02  0.00000000E+00
  2.00000000E+02  1.40000000E+02  0.00000000E+00
  2.00000000E+02  1.20000000E+02  0.00000000E+00
  2.00000000E+02  1.00000000E+02  0.00000000E+00
  2.00000000E+02  8.00000000E+01  0.00000000E+00
  2.00000000E+02  6.00000000E+01  0.00000000E+00
  2.00000000E+02  4.00000000E+01  0.00000000E+00
  2.00000000E+02  2.00000000E+01  0.00000000E+00
  2.00000000E+02  4.99600361E-14  0.00000000E+00
  2.20000000E+02  3.00000000E+02  0.00000000E+00
  2.20000000E+02  2.80000000E+02  0.00000000E+00
  2.20000000E+02  2.60000000E+02  0.00000000E+00
  2.20000000E+02  2.40000000E+02  0.00000000E+00
  2.20000000E+02  2.20000000E+02  0.00000000E+00
  2.20000000E+02  2.00000000E+02  0.00000000E+00
  2.20000000E+02  1.80000000E+02  0.00000000E+00
  2.20000000E+02  1.60000000E+02  0.00000000E+00
  2.20000000E+02  1.40000000E+02  0.00000000E+00
  2.20000000E+02  1.20000000E+02  0.00000000E+00
  2.20000000E+02  1.00000000E+02  0.00000000E+00
  2.20000000E+02  8.00000000E+01  0.00000000E+00
  2.20000000E+02  6.00000000E+01  0.00000000E+00
  2.20000000E+02  4.00000000E+01  0.00000000E+00
  2.20000000E+02  2.00000000E+01  0.00000000E+00
  2.20000000E+02  4.99600361E-14  0.00000000E+00
  2.40000000E+02  3.00000000E+02  0.00000000E+00
  2.40000000E+02  2.80000000E+02  0.00000000E+00
  2.40000000E+02  2.60000000E+02  0.00000000E+00
  2.40000000E+02  2.40000000E+02  0.00000000E+00
  2.40000000E+02  2.20000000E+02  0.00000000E+00
  2.40000000E+02  2.00000000E+02  0.00000000E+00
  2.40000000E+02  1.80000000E+02  0.00000000E+00
  2.40000000E+02  1.60000000E+02  0.00000000E+00
  2.40000000E+02  1.40000000E+02  0.00000000E+00
  2.40000000E+02  1.20000000E+02  0.00000000E+00
  2.40000000E+02  1.00000000E+02  0.00000000E+00
  2.40000000E+02  8.00000000E+01  0.00000000E+00
  2.40000000E+02  6.00000000E+01  0.00000000E+00
  2.40000000E+02  4.00000000E+01  0.00000000E+00
  2.40000000E+02  2.00000000E+01  0.00000000E+00
  2.40000000E+02  4.99600361E-14  0.00000000E+00
  2.60000000E+02  3.00000000E+02  0.00000000E+00
  2.60000000E+02  2.80000000E+02  0.00000000E+00
  2.60000000E+02  2.60000000E+02  0.00000000E+00
  2.60000000E+02  2.40000000E+02  0.00000000E+00
  2.60000000E+02  2.20000000E+02  0.00000000E+00
  2.60000000E+02  2.00000000E+02  0.00000000E+00
  2.60000000E+02  1.80000000E+02  0.00000000E+00
  2.60000000E+02  1.60000000E+02  0.00000000E+00
  2.60000000E+02  1.40000000E+02  0.00000000E+00
  2.60000000E+02  1.20000000E+02  0.00000000E+00
  2.60000000E+02  1.00000000E+02  0.00000000E+00
  2.60000000E+02  8.00000000E+01  0.00000000E+00
  2.60000000E+02  6.00000000E+01  0.00000000E+00
  2.60000000E+02  4.00000000E+01  0.00000000E+00
  2.60000000E+02  2.00000000E+01  0.00000000E+00
  2.60000000E+02  4.99600361E-14  0.00000000E+00
  2.80000000E+02  3.00000000E+02  0.00000000E+00
  2.80000000E+02  2.80000000E+02  0.00000000E+00
  2.80000000E+02  2.60000000E+02  0.00000000E+00
  2.80000000E+02  2.40000000E+02  0.00000000E+00
  2.80000000E+02  2.20000000E+02  0.00000000E+00
  2.80000000E+02  2.00000000E+02  0.00000000E+00
  2.80000000E+02  1.80000000E+02  0.00000000E+00
  2.80000000E+02  1.60000000E+02  0.00000000E+00
  2.80000000E+02  1.40000000E+02  0.00000000E+00
  2.80000000E+02  1.20000000E+02  0.00000000E+00
  2.80000000E+02  1.00000000E+02  0.00000000E+00
  2.80000000E+02  8.00000000E+01  0.00000000E+00
  2.80000000E+02  6.00000000E+01  0.00000000E+00
  2.80000000E+02  4.00000000E+01  0.00000000E+00
  2.80000000E+02  2.00000000E+01  0.00000000E+00
  2.80000000E+02  4.99600361E-14  0.00000000E+00
  3.00000000E+02  3.00000000E+02  0.00000000E+00
  3.00000000E+02  2.80000000E+02  0.00000000E+00
  3.00000000E+02  2.60000000E+02  0.00000000E+00
  3.00000000E+02  2.40000000E+02  0.00000000E+00
  3.00000000E+02  2.20000000E+02  0.00000000E+00
  3.00000000E+02  2.00000000E+02  0.00000000E+00
  3.00000000E+02  1.80000000E+02  0.00000000E+00
  3.00000000E+02  1.60000000E+02  0.00000000E+00
  3.00000000E+02  1.40000000E+02  0.00000000E+00
  3.00000000E+02  1.20000000E+02  0.00000000E+00
  3.00000000E+02  1.00000000E+02  0.00000000E+00
  3.00000000E+02  8.00000000E+01  0.00000000E+00
  3.00000000E+02  6.00000000E+01  0.00000000E+00
  3.00000000E+02  4.00000000E+01  0.00000000E+00
  3.00000000E+02  2.00000000E+01  0.00000000E+00
  3.00000000E+02  4.99600361E-14  0.00000000E+00
  3.20000000E+02  3.00000000E+02  0.00000000E+00
  3.20000000E+02  2.80000000E+02  0.00000000E+00
  3.20000000E+02  2.60000000E+02  0.00000000E+00
  3.20000000E+02  2.40000000E+02  0.00000000E+00
  3.20000000E+02  2.20000000E+02  0.00000000E+00
  3.20000000E+02  2.00000000E+02  0.00000000E+00
  3.20000000E+02  1.80000000E+02  0.00000000E+00
  3.20000000E+02  1.60000000E+02  0.00000000E+00
  3.20000000E+02  1.40000000E+02  0.00000000E+00
  3.20000000E+02  1.20000000E+02  0.00000000E+00
  3.20000000E+02  1.00000000E+02  0.00000000E+00
  3.20000000E+02  8.00000000E+01  0.00000000E+00
  3.20000000E+02  6.00000000E+01  0.00000000E+00
  3.20000000E+02  4.00000000E+01  0.00000000E+00
  3.20000000E+02  2.00000000E+01  0.00000000E+00
  3.20000000E+02  4.99600361E-14  0.00000000E+00
  3.40000000E+02  3.00000000E+02  0.00000000E+00
  3.40000000E+02  2.80000000E+02  0.00000000E+00
  3.40000000E+02  2.60000000E+02  0.00000000E+00
  3.40000000E+02  2.40000000E+02  0.00000000E+00
  3.40000000E+02  2.20000000E+02  0.00000000E+00
  3.40000000E+02  2.00000000E+02  0.00000000E+00
  3.40000000E+02  1.80000000E+02  0.00000000E+00
  3.40000000E+02  1.60000000E+02  0.00000000E+00
  3.40000000E+02  1.40000000E+02  0.00000000E+00
  3.40000000E+02  1.20000000E+02  0.00000000E+00
  3.40000000E+02  1.00000000E+02  0.00000000E+00
  3.40000000E+02  8.00000000E+01  0.00000000E+00
  3.40000000E+02  6.00000000E+01  0.00000000E+00
  3.40000000E+02  4.00000000E+01  0.00000000E+00
  3.40000000E+02  2.00000000E+01  0.00000000E+00
  3.40000000E+02  4.99600361E-14  0.00000000E+00
  3.60000000E+02  3.00000000E+02  0.00000000E+00
  3.60000000E+02  2.80000000E+02  0.00000000E+00
  3.60000000E+02  2.60000000E+02  0.00000000E+00
  3.60000000E+02  2.40000000E+02  0.00000000E+00
  3.60000000E+02  2.20000000E+02  0.00000000E+00
  3.60000000E+02  2.00000000E+02  0.00000000E+00
  3.60000000E+02  1.80000000E+02  0.00000000E+00
  3.60000000E+02  1.60000000E+02  0.00000000E+00
  3.60000000E+02  1.40000000E+02  0.00000000E+00
  3.60000000E+02  1.20000000E+02  0.00000000E+00
  3.60000000E+02  1.00000000E+02  0.00000000E+00
  3.60000000E+02  8.00000000E+01  0.00000000E+00
  3.60000000E+02  6.00000000E+01  0.00000000E+00
  3.60000000E+02  4.00000000E+01  0.00000000E+00
  3.60000000E+02  2.00000000E+01  0.00000000E+00
  3.60000000E+02  4.99600361E-14  0.00000000E+00
  3.80000000E+02  3.00000000E+02  0.00000000E+00
  3.80000000E+02  2.80000000E+02  0.00000000E+00
  3.80000000E+02  2.60000000E+02  0.00000000E+00
  3.80000000E+02  2.40000000E+02  0.00000000E+00
  3.80000000E+02  2.20000000E+02  0.00000000E+00
  3.80000000E+02  2.00000000E+02  0.00000000E+00
  3.80000000E+02  1.80000000E+02  0.00000000E+00
  3.80000000E+02  1.60000000E+02  0.00000000E+00
  3.80000000E+02  1.40000000E+02  0.00000000E+00
  3.80000000E+02  1.20000000E+02  0.00000000E+00
  3.80000000E+02  1.00000000E+02  0.00000000E+00
  3.80000000E+02  8.00000000E+01  0.00000000E+00
  3.80000000E+02  6.00000000E+01  0.00000000E+00
  3.80000000E+02  4.00000000E+01  0.00000000E+00
  3.80000000E+02  2.00000000E+01  0.00000000E+00
  3.80000000E+02  4.99600361E-14  0.00000000E+00
  4.00000000E+02  3.00000000E+02  0.00000000E+00
  4.00000000E+02  2.80000000E+02  0.00000000E+00
  4.00000000E+02  2.60000000E+02  0.00000000E+00
  4.00000000E+02  2.40000000E+02  0.00000000E+00
  4.00000000E+02  2.20000000E+02  0.00000000E+00
  4.00000000E+02  2.00000000E+02  0.00000000E+00
  4.00000000E+02  1.80000000E+02  0.00000000E+00
  4.00000000E+02  1.60000000E+02  0.00000000E+00
  4.00000000E+02  1.40000000E+02  0.00000000E+00
  4.00000000E+02  1.20000000E+02  0.00000000E+00
  4.00000000E+02  1.00000000E+02  0.00000000E+00
  4.00000000E+02  8.00000000E+01  0.00000000E+00
  4.00000000E+02  6.00000000E+01  0.00000000E+00
  4.00000000E+02  4.00000000E+01  0.00000000E+00
  4.00000000E+02  2.00000000E+01  0.00000000E+00
  4.00000000E+02  4.99600361E-14  0.00000000E+00
  4.20000000E+02  3.00000000E+02  0.00000000E+00
  4.20000000E+02  2.80000000E+02  0.00000000E+00
  4.20000000E+02  2.60000000E+02  0.00000000E+00
  4.20000000E+02  2.40000000E+02  0.00000000E+00
  4.20000000E+02  2.20000000E+02  0.00000000E+00
  4.20000000E+02  2.00000000E+02  0.00000000E+00
  4.20000000E+02  1.80000000E+02  0.00000000E+00
  4.20000000E+02  1.60000000E+02  0.00000000E+00
  4.20000000E+02  1.40000000E+02  0.00000000E+00
  4.20000000E+02  1.20000000E+02  0.00000000E+00
  4.20000000E+02  1.00000000E+02  0.00000000E+00
  4.20000000E+02  8.00000000E+01  0.00000000E+00
  4.20000000E+02  6.00000000E+01  0.00000000E+00
  4.20000000E+02  4.00000000E+01  0.00000000E+00
  4.20000000E+02  2.00000000E+01  0.00000000E+00
  4.20000000E+02  4.99600361E-14  0.00000000E+00
  4.40000000E+02  3.00000000E+02  0.00000000E+00
  4.40000000E+02  2.80000000E+02  0.00000000E+00
  4.40000000E+02  2.60000000E+02  0.00000000E+00
  4.40000000E+02  2.40000000E+02  0.00000000E+00
  4.40000000E+02  2.20000000E+02  0.00000000E+00
  4.40000000E+02  2.00000000E+02  0.00000000E+00
  4.40000000E+02  1.80000000E+02  0.00000000E+00
  4.40000000E+02  1.60000000E+02  0.00000000E+00
  4.40000000E+02  1.40000000E+02  0.00000000E+00
  4.40000000E+02  1.20000000E+02  0.00000000E+00
  4.40000000E+02  1.00000000E+02  0.00000000E+00
  4.40000000E+02  8.00000000E+01  0.00000000E+00
  4.40000000E+02  6.00000000E+01  0.00000000E+00
  4.40000000E+02  4.00000000E+01  0.00000000E+00
  4.40000000E+02  2.00000000E+01  0.00000000E+00
  4.40000000E+02  4.99600361E-14  0.00000000E+00
  4.60000000E+02  3.00000000E+02  0.00000000E+00
  4.60000000E+02  2.80000000E+02  0.00000000E+00
  4.60000000E+02  2.60000000E+02  0.00000000E+00
  4.60000000E+02  2.40000000E+02  0.00000000E+00
  4.60000000E+02  2.20000000E+02  0.00000000E+00
  4.60000000E+02  2.00000000E+02  0.00000000E+00
  4.60000000E+02  1.80000000E+02  0.00000000E+00
  4.60000000E+02  1.60000000E+02  0.00000000E+00
  4.60000000E+02  1.40000000E+02  0.00000000E+00
  4.60000000E+02  1.20000000E+02  0.00000000E+00
  4.60000000E+02  1.00000000E+02  0.00000000E+00
  4.60000000E+02  8.00000000E+01  0.00000000E+00
  4.60000000E+02  6.00000000E+01  0.00000000E+00
  4.60000000E+02  4.00000000E+01  0.00000000E+00
  4.60000000E+02  2.00000000E+01  0.00000000E+00
  4.60000000E+02  4.99600361E-14  0.00000000E+00
  4.80000000E+02  3.00000000E+02  0.00000000E+00
  4.80000000E+02  2.80000000E+02  0.00000000E+00
  4.80000000E+02  2.60000000E+02  0.00000000E+00
  4.80000000E+02  2.40000000E+02  0.00000000E+00
  4.80000000E+02  2.20000000E+02  0.00000000E+00
  4.80000000E+02  2.00000000E+02  0.00000000E+00
  4.80000000E+02  1.80000000E+02  0.00000000E+00
  4.80000000E+02  1.60000000E+02  0.00000000E+00
  4.80000000E+02  1.40000000E+02  0.00000000E+00
  4.80000000E+02  1.20000000E+02  0.00000000E+00
  4.80000000E+02  1.00000000E+02  0.00000000E+00
  4.80000000E+02  8.00000000E+01  0.00000000E+00
  4.80000000E+02  6.00000000E+01  0.00000000E+00
  4.80000000E+02  4.00000000E+01  0.00000000E+00
  4.80000000E+02  2.00000000E+01  0.00000000E+00
  4.80000000E+02  4.99600361E-14  0.00000000E+00
  5.00000000E+02  3.00000000E+02  0.00000000E+00
  5.00000000E+02  2.80000000E+02  0.00000000E+00
  5.00000000E+02  2.60000000E+02  0.00000000E+00
  5.00000000E+02  2.40000000E+02  0.00000000E+00
  5.00000000E+02  2.20000000E+02  0.00000000E+00
  5.00000000E+02  2.00000000E+02  0.00000000E+00
  5.00000000E+02  1.80000000E+02  0.00000000E+00
  5.00000000E+02  1.60000000E+02  0.00000000E+00
  5.00000000E+02  1.40000000E+02  0.00000000E+00
  5.00000000E+02  1.20000000E+02  0.00000000E+00
  5.00000000E+02  1.00000000E+02  0.00000000E+00
  5.00000000E+02  8.00000000E+01  0.00000000E+00
  5.00000000E+02  6.00000000E+01  0.00000000E+00
  5.00000000E+02  4.00000000E+01  0.00000000E+00
  5.00000000E+02  2.00000000E+01  0.00000000E+00
  5.00000000E+02  4.99600361E-14  0.00000000E+00
  5.20000000E+02  3.00000000E+02  0.00000000E+00
  5.20000000E+02  2.80000000E+02  0.00000000E+00
  5.20000000E+02  2.60000000E+02  0.00000000E+00
  5.20000000E+02  2.40000000E+02  0.00000000E+00
  5.20000000E+02  2.20000000E+02  0.00000000E+00
  5.20000000E+02  2.00000000E+02  0.00000000E+00
  5.20000000E+02  1.80000000E+02  0.00000000E+00
  5.20000000E+02  1.60000000E+02  0.00000000E+00
  5.20000000E+02  1.40000000E+02  0.00000000E+00
  5.20000000E+02  1.20000000E+02  0.00000000E+00
  5.20000000E+02  1.00000000E+02  0.00000000E+00
  5.20000000E+02  8.00000000E+01  0.00000000E+00
  5.20000000E+02  6.00000000E+01  0.00000000E+00
  5.20000000E+02  4.00000000E+01  0.00000000E+00
  5.20000000E+02  2.00000000E+01  0.00000000E+00
  5.20000000E+02  4.99600361E-14  0.00000000E+00
  5.40000000E+02  3.00000000E+02  0.00000000E+00
  5.40000000E+02  2.80000000E+02  0.00000000E+00
  5.40000000E+02  2.60000000E+02  0.00000000E+00
  5.40000000E+02  2.40000000E+02  0.00000000E+00
  5.40000000E+02  2.20000000E+02  0.00000000E+00
  5.40000000E+02  2.00000000E+02  0.00000000E+00
  5.40000000E+02  1.80000000E+02  0.00000000E+00
  5.40000000E+02  1.60000000E+02  0.00000000E+00
  5.40000000E+02  1.40000000E+02  0.00000000E+00
  5.40000000E+02  1.20000000E+02  0.00000000E+00
  5.40000000E+02  1.00000000E+02  0.00000000E+00
  5.40000000E+02  8.00000000E+01  0.00000000E+00
  5.40000000E+02  6.00000000E+01  0.00000000E+00
  5.40000000E+02  4.00000000E+01  0.00000000E+00
  5.40000000E+02  2.00000000E+01  0.00000000E+00
  5.40000000E+02  4.99600361E-14  0.00000000E+00
  5.60000000E+02  3.00000000E+02  0.00000000E+00
  5.60000000E+02  2.80000000E+02  0.00000000E+00
  5.60000000E+02  2.60000000E+02  0.00000000E+00
  5.60000000E+02  2.40000000E+02  0.00000000E+00
  5.60000000E+02  2.20000000E+02  0.00000000E+00
  5.60000000E+02  2.00000000E+02  0.00000000E+00
  5.60000000E+02  1.80000000E+02  0.00000000E+00
  5.60000000E+02  1.60000000E+02  0.00000000E+00
  5.60000000E+02  1.40000000E+02  0.00000000E+00
  5.60000000E+02  1.20000000E+02  0.00000000E+00
  5.60000000E+02  1.00000000E+02  0.00000000E+00
  5.60000000E+02  8.00000000E+01  0.00000000E+00
  5.60000000E+02  6.00000000E+01  0.00000000E+00
  5.60000000E+02  4.00000000E+01  0.00000000E+00
  5.60000000E+02  2.00000000E+01  0.00000000E+00
  5.60000000E+02  4.99600361E-14  0.00000000E+00
  5.80000000E+02  3.00000000E+02  0.00000000E+00
  5.80000000E+02  2.80000000E+02  0.00000000E+00
  5.80000000E+02  2.60000000E+02  0.00000000E+00
  5.80000000E+02  2.40000000E+02  0.00000000E+00
  5.80000000E+02  2.20000000E+02  0.00000000E+00
  5.80000000E+02  2.00000000E+02  0.00000000E+00
  5.80000000E+02  1.80000000E+02  0.00000000E+00
  5.80000000E+02  1.60000000E+02  0.00000000E+00
  5.80000000E+02  1.40000000E+02  0.00000000E+00
  5.80000000E+02  1.20000000E+02  0.00000000E+00
  5.80000000E+02  1.00000000E+02  0.00000000E+00
  5.80000000E+02  8.00000000E+01  0.00000000E+00
  5.80000000E+02  6.00000000E+01  0.00000000E+00
  5.80000000E+02  4.00000000E+01  0.00000000E+00
  5.80000000E+02  2.00000000E+01  0.00000000E+00
  5.80000000E+02  4.99600361E-14  0.00000000E+00
  6.00000000E+02  3.00000000E+02  0.00000000E+00
  6.00000000E+02  2.80000000E+02  0.00000000E+00
  6.00000000E+02  2.60000000E+02  0.00000000E+00
  6.00000000E+02  2.40000000E+02  0.00000000E+00
  6.00000000E+02  2.20000000E+02  0.00000000E+00
  6.00000000E+02  2.00000000E+02  0.00000000E+00
  6.00000000E+02  1.80000000E+02  0.00000000E+00
  6.00000000E+02  1.60000000E+02  0.00000000E+00
  6.00000000E+02  1.40000000E+02  0.00000000E+00
  6.00000000E+02  1.20000000E+02  0.00000000E+00
  6.00000000E+02  1.00000000E+02  0.00000000E+00
  6.00000000E+02  8.00000000E+01  0.00000000E+00
  6.00000000E+02  6.00000000E+01  0.00000000E+00
  6.00000000E+02  4.00000000E+01  0.00000000E+00
  6.00000000E+02  2.00000000E+01  0.00000000E+00
  6.00000000E+02  4.99600361E-14  0.00000000E+00
CELLS       450      2250
         4           0           1          17          16
         4           1           2          18          17
         4           2           3          19          18
         4           3           4          20          19
         4           4           5          21          20
         4           5           6          22          21
         4           6           7          23          22
         4           7           8          24          23
         4           8           9          25          24
         4           9          10          26          25
         4          10          11          27          26
         4          11          12          28          27
         4          12          13          29          28
         4          13          14          30          29
         4          14          15          31          30
         4          16          17          33          32
         4          17          18          34          33
         4          18          19          35          34
         4          19          20          36          35
         4          20          21          37          36
         4          21          22          38          37
         4          22          23          39          38
         4          23          24          40          39
         4          24          25          41          40
         4          25          26          42          41
         4          26          27          43          42
         4          27          28          44          43
         4          28          29          45          44
         4          29          30          46          45
         4          30          31          47          46
         4          32          33          49          48
         4          33          34          50          49
         4          34          35          51          50
         4          35          36          52          51
         4          36          37          53          52
         4          37          38          54          53
         4          38          39          55          54
         4          39          40          56          55
         4          40          41          57          56
         4          41          42          58          57
         4          42          43          59          58
         4          43          44          60          59
         4          44          45          61          60
         4          45          46          62          61
         4          46          47          63          62
         4          48          49          65          64
         4          49          50          66          65
         4          50          51          67          66
         4          51          52          68          67
         4          52          53          69          68
         4          53          54          70          69
         4          54          55          71          70
         4          55          56          72          71
         4          56          57          73          72
         4          57          58          74          73
         4          58          59          75          74
         4          59          60          76          75
         4          60          61          77          76
         4          61          62          78          77
         4          62          63          79          78
         4          64          65          81          80
         4          65          66          82          81
         4          66          67          83          82
         4          67          68          84          83
         4          68          69          85          84
         4          69          70          86          85
         4          70          71          87          86
         4          71          72          88          87
         4          72          73          89          88
         4          73          74          90          89
         4          74          75          91          90
         4          75          76          92          91
         4          76          77          93          92
         4          77          78          94          93
         4          78          79          95          94
         4          80          81          97          96
         4          81          82          98          97
         4          82          83          99          98
         4          83          84         100          99
         4          84          85         101         100
         4          85          86         102         101
         4          86          87         103         102
         4          87          88         104         103
         4          88          89         105         104
         4          89          90         106         105
         4          90          91         107         106
         4          91          92         108         107
         4          92          93         109         108
         4          93          94         110         109
         4          94          95         111         110
         4          96          97         113         112
         4          97          98         114         113
         4          98          99         115         114
         4          99         100         116         115
         4         100         101         117         116
         4         101         102         118         117
         4         102         103         119         118
         4         103         104         120         119
         4         104         105         121         120
         4         105         106         122         121
         4         106         107         123         122
         4         107         108         124         123
         4         108         109         125         124
         4         109         110         126         125
         4         110         111         127         126
         4         112         113         129         128
         4         113         114         130         129
         4         114         115         131         130
         4         115         116         132         131
         4         116         117         133         132
         4         117         118         134         133
         4         118         119         135         134
         4         119         120         136         135
         4         120         121         137         136
         4         121         122         138         137
         4         122         123         139         138
         4         123         124         140         139
         4         124         125         141         140
         4         125         126         142         141
         4         126         127         143         142
         4         128         129         145         144
         4         129         130         146         145
         4         130         131         147         146
         4         131         132         148         147
         4         132         133         149         148
         4         133         134         150         149
         4         134         135         151         150
         4         135         136         152         151
         4         136         137         153         152
         4         137         138         154         153
         4         138         139         155         154
         4         139         140         156         155
         4         140         141         157         156
         4         141         142         158         157
         4         142         143         159         158
         4         144         145         161         160
         4         145         146         162         161
         4         146         147         163         162
         4         147         148         164         163
         4         148         149         165         164
         4         149         150         166         165
         4         150         151         167         166
         4         151         152         168         167
         4         152         153         169         168
         4         153         154         170         169
         4         154         155         171         170
         4         155         156         172         171
         4         156         157         173         172
         4         157         158         174         173
         4         158         159         175         174
         4         160         161         177         176
         4         161         162         178         177
         4         162         163         179         178
         4         163         164         180         179
         4         164         165         181         180
         4         165         166         182         181
         4         166         167         183         182
         4         167         168         184         183
         4         168         169         185         184
         4         169         170         186         185
         4         170         171         187         186
         4         171         172         188         187
         4         172         173         189         188
         4         173         174         190         189
         4         174         175         191         190
         4         176         177         193         192
         4         177         178         194         193
         4         178         179         195         194
         4         179         180         196         195
         4         180         181         197         196
         4         181         182         198         197
         4         182         183         199         198
         4         183         184         200         199
         4         184         185         201         200
         4         185         186         202         201
         4         186         187         203         202
         4         187         188         204         203
         4         188         189         205         204
         4         189         190         206         205
         4         190         191         207         206
         4         192         193         209         208
         4         193         194         210         209
         4         194         195         211         210
         4         195         196         212         211
         4         196         197         213         212
         4         197         198         214         213
         4         198         199         215         214
         4         199         200         216         215
         4         200         201         217         216
         4         201         202         218         217
         4         202         203         219         218
         4         203         204         220         219
         4         204         205         221         220
         4         205         206         222         221
         4         206         207         223         222
         4         208         209         225         224
         4         209         210         226         225
         4         210         211         227         226
         4         211         212         228         227
         4         212         213         229         228
         4         213         214         230         229
         4         214         215         231         230
         4         215         216         232         231
         4         216         217         233         232
         4         217         218         234         233
         4         218         219         235         234
         4         219         220         236         235
         4         220         221         237         236
         4         221         222         238         237
         4         222         223         239         238
         4         224         225         241         240
         4         225         226         242         241
         4         226         227         243         242
         4         227         228         244         243
         4         228         229         245         244
         4         229         230         246         245
         4         230         231         247         246
         4         231         232         248         247
         4         232         233         249         248
         4         233         234         250         249
         4         234         235         251         250
         4         235         236         252         251
         4         236         237         253         252
         4         237         238         254         253
         4         238         239         255         254
         4         240         241         257         256
         4         241         242         258         257
         4         242         243         259         258
         4         243         244         260         259
         4         244         245         261         260
         4         245         246         262         261
         4         246         247         263         262
         4         247         248         264         263
         4         248         249         265         264
         4         249         250         266         265
         4         250         251         267         266
         4         251         252         268         267
         4         252         253         269         268
         4         253         254         270         269
         4         254         255         271         270
         4         256         257         273         272
         4         257         258         274         273
         4         258         259         275         274
         4         259         260         276         275
         4         260         261         277         276
         4         261         262         278         277
         4         262         263         279         278
         4         263         264         280         279
         4         264         265         281         280
         4         265         266         282         281
         4         266         267         283         282
         4         267         268         284         283
         4         268         269         285         284
         4         269         270         286         285
         4         270         271         287         286
         4         272         273         289         288
         4         273         274         290         289
         4         274         275         291         290
         4         275         276         292         291
         4         276         277         293         292
         4         277         278         294         293
         4         278         279         295         294
         4         279         280         296         295
         4         280         281         297         296
         4         281         282         298         297
         4         282         283         299         298
         4         283         284         300         299
         4         284         285         301         300
         4         285         286         302         301
         4         286         287         303         302
         4         288         289         305         304
         4         289         290         306         305
         4         290         291         307         306
         4         291         292         308         307
         4         292         293         309         308
         4         293         294         310         309
         4         294         295         311         310
         4         295         296         312         311
         4         296         297         313         312
         4         297         298         314         313
         4         298         299         315         314
         4         299         300         316         315
         4         300         301         317         316
         4         301         302         318         317
         4         302         303         319         318
         4         304         305         321         320
         4         305         306         322         321
         4         306         307         323         322
         4         307         308         324         323
         4         308         309         325         324
         4         309         310         326         325
         4         310         311         327         326
         4         311         312         328         327
         4         312         313         329         328
         4         313         314         330         329
         4         314         315         331         330
         4         315         316         332         331
         4         316         317         333         332
         4         317         318         334         333
         4         318         319         335         334
         4         320         321         337         336
         4         321         322         338         337
         4         322         323         339         338
         4         323         324         340         339
         4         324         325         341         340
         4         325         326         342         341
         4         326         327         343         342
         4         327         328         344         343
         4         328         329         345         344
         4         329         330         346         345
         4         330         331         347         346
         4         331         332         348         347
         4         332         333         349         348
         4         333         334         350         349
         4         334         335         351         350
         4         336         337         353         352
         4         337         338         354         353
         4         338         339         355         354
         4         339         340         356         355
         4         340         341         357         356
         4         341         342         358         357
         4         342         343         359         358
         4         343         344         360         359
         4         344         345         361         360
         4         345         346         362         361
         4         346         347         363         362
         4         347         348         364         363
         4         348         349         365         364
         4         349         350         366         365
         4         350         351         367         366
         4         352         353         369         368
         4         353         354         370         369
         4         354         355         371         370
         4         355         356         372         371
         4         356         357         373         372
         4         357         358         374         373
         4         358         359         375         374
         4         359         360         376         375
         4         360         361         377         376
         4         361         362         378         377
         4         362         363         379         378
         4         363         364         380         379
         4         364         365         381         380
         4         365         366         382         381
         4         366         367         383         382
         4         368         369         385         384
         4         369         370         386         385
         4         370         371         387         386
         4         371         372         388         387
         4         372         373         389         388
         4         373         374         390         389
         4         374         375         391         390
         4         375         376         392         391
         4         376         377         393         392
         4         377         378         394         393
         4         378         379         395         394
         4         379         380         396         395
         4         380         381         397         396
         4         381         382         398         397
         4         382         383         399         398
         4         384         385         401         400
         4         385         386         402         401
         4         386         387         403         402
         4         387         388         404         403
         4         388         389         405         404
         4         389         390         406         405
         4         390         391         407         406
         4         391         392         408         407
         4         392         393         409         408
         4         393         394         410         409
         4         394         395         411         410
         4         395         396         412         411
         4         396         397         413         412
         4         397         398         414         413
         4         398         399         415         414
         4         400         401         417         416
         4         401         402         418         417
         4         402         403         419         418
         4         403         404         420         419
         4         404         405         421         420
         4         405         406         422         421
         4         406         407         423         422
         4         407         408         424         423
         4         408         409         425         424
         4         409         410         426         425
         4         410         411         427         426
         4         411         412         428         427
         4         412         413         429         428
         4         413         414         430         429
         4         414         415         431         430
         4         416         417         433         432
         4         417         418         434         433
         4         418         419         435         434
         4         419         420         436         435
         4         420         421         437         436
         4         421         422         438         437
         4         422         423         439         438
         4         423         424         440         439
         4         424         425         441         440
         4         425         426         442         441
         4         426         427         443         442
         4         427         428         444         443
         4         428         429         445         444
         4         429         430         446         445
         4         430         431         447         446
         4         432         433         449         448
         4         433         434         450         449
         4         434         435         451         450
         4         435         436         452         451
         4         436         437         453         452
         4         437         438         454         453
         4         438         439         455         454
         4         439         440         456         455
         4         440         441         457         456
         4         441         442         458         457
         4         442         443         459         458
         4         443         444         460         459
         4         444         445         461         460
         4         445         446         462         461
         4         446         447         463         462
         4         448         449         465         464
         4         449         450         466         465
         4         450         451         467         466
         4         451         452         468         467
         4         452         453         469         468
         4         453         454         470         469
         4         454         455         471         470
         4         455         456         472         471
         4         456         457         473         472
         4         457         458         474         473
         4         458         459         475         474
         4         459         460         476         475
         4         460         461         477         476
         4         461         462         478         477
         4         462         463         479         478
         4         464         465         481         480
         4         465         466         482         481
         4         466         467         483         482
         4         467         468         484         483
         4         468         469         485         484
         4         469         470         486         485
         4         470         471         487         486
         4         471         472         488         487
         4         472         473         489         488
         4         473         474         490         489
         4         474         475         491         490
         4         475         476         492         491
         4         476         477         493         492
         4         477         478         494         493
         4         478         479         495         494
CELL_TYPES        450
9
9
9
9
9
9
9
9
9
9
9
9
9
9
9
9
9
9
9
9
9
9
9
9
9
9
9
9
9
9
9
9
9
9
9
9
9
9
9
9
9
9
9
9
9
9
9
9
9
9
9
9
9
9
9
9
9
9
9
9
9
9
9
9
9
9
9
9
9
9
9
9
9
9
9
9
9
9
9
9
9
9
9
9
9
9
9
9
9
9
9
9
9
9
9
9
9
9
9
9
9
9
9
9
9
9
9
9
9
9
9
9
9
9
9
9
9
9
9
9
9
9
9
9
9
9
9
9
9
9
9
9
9
9
9
9
9
9
9
9
9
9
9
9
9
9
9
9
9
9
9
9
9
9
9
9
9
9
9
9
9
9
9
9
9
9
9
9
9
9
9
9
9
9
9
9
9
9
9
9
9
9
9
9
9
9
9
9
9
9
9
9
9
9
9
9
9
9
9
9
9
9
9
9
9
9
9
9
9
9
9
9
9
9
9
9
9
9
9
9
9
9
9
9
9
9
9
9
9
9
9
9
9
9
9
9
9
9
9
9
9
9
9
9
9
9
9
9
9
9
9
9
9
9
9
9
9
9
9
9
9
9
9
9
9
9
9
9
9
9
9
9
9
9
9
9
9
9
9
9
9
9
9
9
9
9
9
9
9
9
9
9
9
9
9
9
9
9
9
9
9
9
9
9
9
9
9
9
9
9
9
9
9
9
9
9
9
9
9
9
9
9
9
9
9
9
9
9
9
9
9
9
9
9
9
9
9
9
9
9
9
9
9
9
9
9
9
9
9
9
9
9
9
9
9
9
9
9
9
9
9
9
9
9
9
9
9
9
9
9
9
9
9
9
9
9
9
9
9
9
9
9
9
9
9
9
9
9
9
9
9
9
9
9
9
9
9
9
9
9
9
9
9
9
9
9
9
9
9
9
9
9
9
9
9
9
9
9
9
9
9
9
9
9
9
9
9
9
9
9
9
9
9
9
9
9
9
9
9
9
9
9
9
9
9
9
9
9
9
9
POINT_DATA       496
SCALARS p double 
LOOKUP_TABLE default
   36446298.7171331     
   36442666.1392689     
   36431901.1023676     
   36414150.0098716     
   36389573.3127730     
   36358322.2317842     
   36320521.2378368     
   36276240.5762967     
   36229289.9315730     
   36185167.4335951     
   36145916.8115465     
   36112220.5319046     
   36084761.2124764     
   36064230.5248380     
   36051335.7751395     
   36046803.0991520     
   36409766.3556715     
   36406159.0603504     
   36395458.1719609     
   36377795.0759344     
   36353316.6030953     
   36322164.3593472     
   36284457.9044013     
   36240266.7935848     
   36193407.3602258     
   36149375.7301112     
   36110204.7067629     
   36076575.1830736     
   36049168.1775373     
   36028674.3771978     
   36015801.0436879     
   36011275.0852244     
   36300279.7266293     
   36296740.0573594     
   36286217.6372168     
   36268806.7824998     
   36244616.2393270     
   36213758.4244875     
   36176337.6625367     
   36132420.0715127     
   36085838.4967220     
   36042080.4192251     
   36003149.4364178     
   35969721.5136298     
   35942472.2827592     
   35922089.5775051     
   35909280.6293941     
   35904774.8192795     
   36118167.2252796     
   36114714.0163541     
   36104444.2641698     
   36087414.7487870     
   36063681.6552034     
   36033308.9063352     
   35996371.4098410     
   35952925.5457222     
   35906820.4213955     
   35863520.5935009     
   35824994.9377934     
   35791907.1286756     
   35764923.4546395     
   35744727.1680271     
   35732025.9104940     
   35727553.6494784     
   35863964.2081653     
   35860584.7114903     
   35850581.1503457     
   35834003.6566192     
   35810862.6001792     
   35781158.5816375     
   35744914.5724762     
   35702162.1684133     
   35656744.7373804     
   35614097.9189912     
   35576150.3222791     
   35543546.2988541     
   35516938.8895401     
   35497005.7629476     
   35484455.8779082     
   35480030.4784455     
   35538390.5037021     
   35535046.9963500     
   35525259.1936979     
   35509127.6354184     
   35486655.8183410     
   35457787.4296451     
   35422468.3417505     
   35380673.9202129     
   35336181.1755959     
   35294384.6975184     
   35257193.5115921     
   35225220.6624954     
   35199103.0664451     
   35179511.3710793     
   35167156.9273629     
   35162791.5431140     
   35142318.2651040     
   35138965.8934251     
   35129299.9371912     
   35113530.6476781     
   35091723.5807374     
   35063814.9133380     
   35029670.9987320     
   34989161.8496876     
   34945871.5131821     
   34905125.7588629     
   34868867.7233975     
   34837676.9841130     
   34812166.3599008     
   34792996.6064223     
   34780882.3300788     
   34776589.9212320     
   34676743.1794869     
   34673349.6709884     
   34663706.9673738     
   34648167.4840253     
   34626930.5239476     
   34600018.6736656     
   34567281.0411485     
   34528444.6302452     
   34486706.2074869     
   34447207.9059333     
   34412070.4313811     
   34381822.2787616     
   34357042.5183058     
   34338379.3928201     
   34326551.5262517     
   34322344.9496558     
   34142775.0668158     
   34139333.3835154     
   34129653.4422415     
   34114219.4514090     
   34093399.9215274     
   34067400.3863233     
   34036188.1645111     
   33999435.3035675     
   33959651.5925625     
   33921644.5960413     
   33887851.0611911     
   33858719.5905884     
   33834805.4246650     
   33816741.2331151     
   33805249.7782927     
   33801142.0676849     
   33541651.7817843     
   33538179.5267774     
   33528465.2486591     
   33513085.5367605     
   33492557.3388606     
   33467306.7426609     
   33437566.0405787     
   33403194.5090787     
   33365827.2359010     
   33329655.3166926     
   33297410.9574980     
   33269581.4164880     
   33246682.6086001     
   33229325.5817470     
   33218228.7642414     
   33214234.1013885     
   32874769.7031228     
   32871301.2876581     
   32861619.3614202     
   32846354.2012031     
   32826121.6341852     
   32801514.6870259     
   32773056.0323331     
   32741030.0374313     
   32706441.5766362     
   32672558.6304509     
   32642076.0004318     
   32615747.6656663     
   32594048.1504737     
   32577533.6891078     
   32566909.8501999     
   32563045.4861713     
   32143718.6971399     
   32140298.6178165     
   32130768.2036726     
   32115791.9501971     
   32096044.6935495     
   32072201.5088940     
   32044935.9753356     
   32014929.4539000     
   31983076.0929268     
   31951699.7914505     
   31923250.0177640     
   31898693.2968845     
   31878397.5764722     
   31862913.9318990     
   31852891.9924045     
   31849184.3276620     
   31350310.3447761     
   31346991.5532080     
   31337776.3062926     
   31323365.7860117     
   31304472.8745604     
   31281791.1446806     
   31256005.4959689     
   31227867.0130129     
   31198350.1754715     
   31169249.1326761     
   31142707.8903774     
   31119945.7585912     
   31101304.2082384     
   31087121.1185867     
   31077968.0487130     
   31074453.6965820     
   30496595.8553738     
   30493435.6825170     
   30484743.9220110     
   30471280.4353775     
   30453766.8863027     
   30432839.8641745     
   30409098.4361687     
   30383211.0941371     
   30356022.5631760     
   30328889.9552115     
   30303807.1376587     
   30282261.9637626     
   30264856.9722322     
   30251931.8203223     
   30243858.0085366     
   30240985.7538516     
   29584872.0339434     
   29581911.9581763     
   29574010.5181201     
   29562007.8197795     
   29546523.1200636     
   29528023.5874943     
   29506966.2920681     
   29483911.0924365     
   29459598.9339697     
   29435013.5471014     
   29411563.8088219     
   29390870.7048500     
   29374131.6107418     
   29361922.7768731     
   29354561.9705647     
   29352303.5005721     
   28617666.2136716     
   28614898.1911195     
   28608177.1060014     
   28598300.8058016     
   28585542.7118981     
   28570102.1035364     
   28552293.7666946     
   28532608.4728133     
   28511698.8444443     
   28490382.2167221     
   28469671.8652697     
   28450761.1955587     
   28434970.1569366     
   28423275.5204382     
   28416172.4990788     
   28413940.6189540     
   27597629.3095271     
   27595241.1903192     
   27590218.2754271     
   27583158.7596185     
   27573734.7701635     
   27561841.5892036     
   27547726.6483741     
   27531834.2499755     
   27514742.0696222     
   27497130.1310660     
   27479784.3018622     
   27463633.4876308     
   27449718.5083717     
   27439003.8880419     
   27432203.4534730     
   27429934.0948027     
   26527671.5245109     
   26526260.9482034     
   26523486.2804035     
   26519677.6275387     
   26513970.0760330     
   26505972.7661265     
   26495892.6683866     
   26484119.2171595     
   26471140.3556517     
   26457506.9592747     
   26443833.3903151     
   26430814.5590496     
   26419234.8456608     
   26409944.7701746     
   26403810.6959529     
   26401760.9822840     
   25411170.9669230     
   25410952.3038098     
   25410662.7597407     
   25410438.6619423     
   25408935.3341215     
   25405199.6513846     
   25399455.5131483     
   25392051.9243639     
   25383379.4042343     
   25373860.4678652     
   25363952.7068205     
   25354171.6776020     
   25345133.4201022     
   25337594.6184500     
   25332455.0451685     
   25330719.1376197     
   24251149.9723323     
   24251956.1297359     
   24254294.8515161     
   24257958.8228986     
   24261193.5882722     
   24262261.1731288     
   24261173.8090478     
   24258336.6709909     
   24254074.4830392     
   24248696.8938717     
   24242533.8335448     
   24235978.4327022     
   24229542.5624594     
   24223904.0867475     
   24219911.9640592     
   24218533.0466376     
   23051417.4481496     
   23053083.0801407     
   23057994.6144621     
   23065647.7463002     
   23073839.5643043     
   23080120.6733964     
   23083975.4851512     
   23085841.9708222     
   23086013.4645438     
   23084723.7330899     
   23082214.6907405     
   23078799.5637868     
   23074919.1217644     
   23071179.7551742     
   23068356.0728325     
   23067343.6436201     
   21816572.2596337     
   21819050.6124523     
   21826283.1710338     
   21837650.8420583     
   21850703.0342830     
   21862202.6167720     
   21871068.2966061     
   21877649.5426850     
   21882181.8320305     
   21884846.3943530     
   21885832.5906825     
   21885402.1148364     
   21883943.6257960     
   21882004.2180053     
   21880291.1147880     
   21879631.0322149     
   20551334.7239288     
   20554593.1427639     
   20563919.1709450     
   20578605.0820734     
   20596072.2944609     
   20612412.2695753     
   20626034.4978807     
   20637110.2839722     
   20645772.6461026     
   20652143.4346328     
   20656373.0567642     
   20658690.0772804     
   20659445.5735983     
   20659141.7928639     
   20658434.3938451     
   20658097.6281105     
   19260611.6991618     
   19264589.9219175     
   19275789.6623444     
   19293344.7266770     
   19314529.8811799     
   19335028.5180904     
   19352806.7277620     
   19367854.7296081     
   19380181.5043948     
   19389835.2640439     
   19396925.0338268     
   19401651.0537552     
   19404336.8060591     
   19405451.6412757     
   19405613.4902969     
   19405560.8057304     
   17949614.1491440     
   17954210.6302356     
   17966979.2149908     
   17986792.3039368     
   18010834.6585844     
   18034540.7768471     
   18055559.8110673     
   18073735.6320556     
   18088971.5440200     
   18101248.0486920     
   18110633.8431615     
   18117302.2483713     
   18121550.1317058     
   18123815.4490802     
   18124683.4027232     
   18124867.6177110     
   16623857.0950489     
   16628926.0921519     
   16642805.9377638     
   16664072.0012163     
   16689875.2903534     
   16715557.1689980     
   16738590.2250260     
   16758725.9060656     
   16775801.3080829     
   16789762.8024973     
   16800660.1478105     
   16808647.1232571     
   16813988.8622969     
   16817080.6257004     
   16818466.1576623     
   16818833.7443896     
   15289211.9257879     
   15294562.8867413     
   15308916.9379066     
   15330545.2704556     
   15356663.5627811     
   15382740.4698598     
   15406213.0651992     
   15426795.6482562     
   15444315.0941210     
   15458736.2639794     
   15470127.0525597     
   15478635.7165209     
   15484489.5886680     
   15488020.4443307     
   15489706.9229630     
   15490197.8187033     
   13952000.2967457     
   13957373.0136820     
   13971316.1709974     
   13991782.0374159     
   14016268.8803900     
   14040708.9225285     
   14062637.7783648     
   14081774.1338332     
   14098011.9284953     
   14111398.6328136     
   14122051.5624499     
   14130120.4353508     
   14135786.8763496     
   14139300.3761741     
   14141041.1411250     
   14141592.5943991     
   12619152.9831497     
   12624133.5156903     
   12636337.9048153     
   12653522.9730052     
   12673715.1339869     
   12693887.3033042     
   12711777.8874121     
   12727162.1493937     
   12740099.9853676     
   12750756.2262070     
   12759285.9020345     
   12765821.5607993     
   12770491.1229038     
   12773448.7661724     
   12774967.5026340     
   12775517.8628050     
   11298502.4190360     
   11302305.8644044     
   11310473.7362934     
   11321276.0213148     
   11333781.9692729     
   11346147.7914606     
   11356898.0577899     
   11365880.9603308     
   11373349.4404387     
   11379508.9090130     
   11384471.6436038     
   11388310.8237322     
   11391092.3020014     
   11392887.0969661     
   11393809.6988782     
   11394356.3388950     
   10000000.0000000     
   10000000.0000000     
   10000000.0000000     
   10000000.0000000     
   10000000.0000000     
   10000000.0000000     
   10000000.0000000     
   10000000.0000000     
   10000000.0000000     
   10000000.0000000     
   10000000.0000000     
   10000000.0000000     
   10000000.0000000     
  10000000.00000000     
   10000000.0000000     
   10000000.0000000     
VECTORS u double 
    0.00000E+00        -0.29486E-01         0.00000E+00
    0.00000E+00        -0.27199E-01         0.00000E+00
    0.00000E+00        -0.24962E-01         0.00000E+00
    0.00000E+00        -0.22780E-01         0.00000E+00
    0.00000E+00        -0.20654E-01         0.00000E+00
    0.00000E+00        -0.18585E-01         0.00000E+00
    0.00000E+00        -0.16574E-01         0.00000E+00
    0.00000E+00        -0.14619E-01         0.00000E+00
    0.00000E+00        -0.12715E-01         0.00000E+00
    0.00000E+00        -0.10835E-01         0.00000E+00
    0.00000E+00        -0.89746E-02         0.00000E+00
    0.00000E+00        -0.71332E-02         0.00000E+00
    0.00000E+00        -0.53126E-02         0.00000E+00
    0.00000E+00        -0.35148E-02         0.00000E+00
    0.00000E+00        -0.17428E-02         0.00000E+00
    0.00000E+00         0.00000E+00         0.00000E+00
    0.10142E-02        -0.29526E-01         0.00000E+00
    0.93357E-03        -0.27236E-01         0.00000E+00
    0.85160E-03        -0.24998E-01         0.00000E+00
    0.76880E-03        -0.22814E-01         0.00000E+00
    0.68640E-03        -0.20686E-01         0.00000E+00
    0.60564E-03        -0.18616E-01         0.00000E+00
    0.52795E-03        -0.16603E-01         0.00000E+00
    0.45459E-03        -0.14646E-01         0.00000E+00
    0.38683E-03        -0.12739E-01         0.00000E+00
    0.32433E-03        -0.10856E-01         0.00000E+00
    0.26591E-03        -0.89925E-02         0.00000E+00
    0.21049E-03        -0.71478E-02         0.00000E+00
    0.15709E-03        -0.53238E-02         0.00000E+00
    0.10478E-03        -0.35224E-02         0.00000E+00
    0.52697E-04        -0.17467E-02         0.00000E+00
    0.00000E+00         0.00000E+00         0.00000E+00
    0.20234E-02        -0.29645E-01         0.00000E+00
    0.18618E-02        -0.27350E-01         0.00000E+00
    0.16973E-02        -0.25106E-01         0.00000E+00
    0.15315E-02        -0.22917E-01         0.00000E+00
    0.13667E-02        -0.20784E-01         0.00000E+00
    0.12054E-02        -0.18709E-01         0.00000E+00
    0.10505E-02        -0.16690E-01         0.00000E+00
    0.90449E-03        -0.14726E-01         0.00000E+00
    0.76973E-03        -0.12811E-01         0.00000E+00
    0.64543E-03        -0.10919E-01         0.00000E+00
    0.52922E-03        -0.90461E-02         0.00000E+00
    0.41895E-03        -0.71916E-02         0.00000E+00
    0.31269E-03        -0.53572E-02         0.00000E+00
    0.20858E-03        -0.35452E-02         0.00000E+00
    0.10491E-03        -0.17583E-02         0.00000E+00
    0.00000E+00         0.00000E+00         0.00000E+00
    0.30227E-02        -0.29846E-01         0.00000E+00
    0.27792E-02        -0.27540E-01         0.00000E+00
    0.25315E-02        -0.25287E-01         0.00000E+00
    0.22821E-02        -0.23089E-01         0.00000E+00
    0.20349E-02        -0.20948E-01         0.00000E+00
    0.17936E-02        -0.18863E-01         0.00000E+00
    0.15624E-02        -0.16835E-01         0.00000E+00
    0.13451E-02        -0.14859E-01         0.00000E+00
    0.11448E-02        -0.12930E-01         0.00000E+00
    0.96011E-03        -0.11024E-01         0.00000E+00
    0.78734E-03        -0.91353E-02         0.00000E+00
    0.62336E-03        -0.72644E-02         0.00000E+00
    0.46529E-03        -0.54129E-02         0.00000E+00
    0.31041E-03        -0.35831E-02         0.00000E+00
    0.15614E-03        -0.17776E-02         0.00000E+00
    0.00000E+00         0.00000E+00         0.00000E+00
    0.40059E-02        -0.30127E-01         0.00000E+00
    0.36801E-02        -0.27809E-01         0.00000E+00
    0.33484E-02        -0.25543E-01         0.00000E+00
    0.30151E-02        -0.23333E-01         0.00000E+00
    0.26852E-02        -0.21179E-01         0.00000E+00
    0.23647E-02        -0.19081E-01         0.00000E+00
    0.20587E-02        -0.17038E-01         0.00000E+00
    0.17720E-02        -0.15045E-01         0.00000E+00
    0.15083E-02        -0.13097E-01         0.00000E+00
    0.12653E-02        -0.11170E-01         0.00000E+00
    0.10378E-02        -0.92597E-02         0.00000E+00
    0.82171E-03        -0.73660E-02         0.00000E+00
    0.61341E-03        -0.54907E-02         0.00000E+00
    0.40929E-03        -0.36359E-02         0.00000E+00
    0.20592E-03        -0.18045E-02         0.00000E+00
    0.00000E+00         0.00000E+00         0.00000E+00
    0.49664E-02        -0.30489E-01         0.00000E+00
    0.45578E-02        -0.28156E-01         0.00000E+00
    0.41420E-02        -0.25875E-01         0.00000E+00
    0.37246E-02        -0.23649E-01         0.00000E+00
    0.33126E-02        -0.21478E-01         0.00000E+00
    0.29138E-02        -0.19363E-01         0.00000E+00
    0.25347E-02        -0.17299E-01         0.00000E+00
    0.21812E-02        -0.15284E-01         0.00000E+00
    0.18569E-02        -0.13311E-01         0.00000E+00
    0.15580E-02        -0.11358E-01         0.00000E+00
    0.12780E-02        -0.94191E-02         0.00000E+00
    0.10121E-02        -0.74960E-02         0.00000E+00
    0.75560E-03        -0.55901E-02         0.00000E+00
    0.50423E-03        -0.37035E-02         0.00000E+00
    0.25374E-03        -0.18390E-02         0.00000E+00
    0.00000E+00         0.00000E+00         0.00000E+00
    0.58960E-02        -0.30934E-01         0.00000E+00
    0.54052E-02        -0.28583E-01         0.00000E+00
    0.49059E-02        -0.26285E-01         0.00000E+00
    0.44051E-02        -0.24039E-01         0.00000E+00
    0.39123E-02        -0.21848E-01         0.00000E+00
    0.34367E-02        -0.19709E-01         0.00000E+00
    0.29867E-02        -0.17620E-01         0.00000E+00
    0.25691E-02        -0.15576E-01         0.00000E+00
    0.21871E-02        -0.13572E-01         0.00000E+00
    0.18354E-02        -0.11586E-01         0.00000E+00
    0.15057E-02        -0.96129E-02         0.00000E+00
    0.11925E-02        -0.76540E-02         0.00000E+00
    0.89039E-03        -0.57109E-02         0.00000E+00
    0.59427E-03        -0.37856E-02         0.00000E+00
    0.29912E-03        -0.18808E-02         0.00000E+00
    0.00000E+00         0.00000E+00         0.00000E+00
    0.67857E-02        -0.31459E-01         0.00000E+00
    0.62137E-02        -0.29091E-01         0.00000E+00
    0.56325E-02        -0.26773E-01         0.00000E+00
    0.50511E-02        -0.24506E-01         0.00000E+00
    0.44802E-02        -0.22290E-01         0.00000E+00
    0.39305E-02        -0.20122E-01         0.00000E+00
    0.34119E-02        -0.18000E-01         0.00000E+00
    0.29323E-02        -0.15921E-01         0.00000E+00
    0.24959E-02        -0.13878E-01         0.00000E+00
    0.20947E-02        -0.11854E-01         0.00000E+00
    0.17186E-02        -0.98403E-02         0.00000E+00
    0.13611E-02        -0.78395E-02         0.00000E+00
    0.10163E-02        -0.58527E-02         0.00000E+00
    0.67839E-03        -0.38820E-02         0.00000E+00
    0.34154E-03        -0.19300E-02         0.00000E+00
    0.00000E+00         0.00000E+00         0.00000E+00
    0.76252E-02        -0.32064E-01         0.00000E+00
    0.69740E-02        -0.29678E-01         0.00000E+00
    0.63143E-02        -0.27341E-01         0.00000E+00
    0.56564E-02        -0.25050E-01         0.00000E+00
    0.50123E-02        -0.22805E-01         0.00000E+00
    0.43928E-02        -0.20602E-01         0.00000E+00
    0.38085E-02        -0.18441E-01         0.00000E+00
    0.32688E-02        -0.16318E-01         0.00000E+00
    0.27801E-02        -0.14230E-01         0.00000E+00
    0.23336E-02        -0.12160E-01         0.00000E+00
    0.19144E-02        -0.10101E-01         0.00000E+00
    0.15161E-02        -0.80515E-02         0.00000E+00
    0.11319E-02        -0.60147E-02         0.00000E+00
    0.75554E-03        -0.39921E-02         0.00000E+00
    0.38045E-03        -0.19862E-02         0.00000E+00
    0.00000E+00         0.00000E+00         0.00000E+00
    0.84042E-02        -0.32747E-01         0.00000E+00
    0.76764E-02        -0.30344E-01         0.00000E+00
    0.69428E-02        -0.27986E-01         0.00000E+00
    0.62150E-02        -0.25670E-01         0.00000E+00
    0.55042E-02        -0.23393E-01         0.00000E+00
    0.48212E-02        -0.21151E-01         0.00000E+00
    0.41762E-02        -0.18943E-01         0.00000E+00
    0.35790E-02        -0.16768E-01         0.00000E+00
    0.30390E-02        -0.14625E-01         0.00000E+00
    0.25494E-02        -0.12505E-01         0.00000E+00
    0.20911E-02        -0.10393E-01         0.00000E+00
    0.16555E-02        -0.82894E-02         0.00000E+00
    0.12356E-02        -0.61965E-02         0.00000E+00
    0.82458E-03        -0.41157E-02         0.00000E+00
    0.41523E-03        -0.20493E-02         0.00000E+00
    0.00000E+00         0.00000E+00         0.00000E+00
    0.91120E-02        -0.33506E-01         0.00000E+00
    0.83121E-02        -0.31085E-01         0.00000E+00
    0.75108E-02        -0.28706E-01         0.00000E+00
    0.67201E-02        -0.26363E-01         0.00000E+00
    0.59506E-02        -0.24051E-01         0.00000E+00
    0.52122E-02        -0.21768E-01         0.00000E+00
    0.45139E-02        -0.19509E-01         0.00000E+00
    0.38642E-02        -0.17275E-01         0.00000E+00
    0.32722E-02        -0.15067E-01         0.00000E+00
    0.27398E-02        -0.12886E-01         0.00000E+00
    0.22466E-02        -0.10716E-01         0.00000E+00
    0.17775E-02        -0.85521E-02         0.00000E+00
    0.13258E-02        -0.63970E-02         0.00000E+00
    0.88421E-03        -0.42521E-02         0.00000E+00
    0.44513E-03        -0.21190E-02         0.00000E+00
    0.00000E+00         0.00000E+00         0.00000E+00
    0.97399E-02        -0.34338E-01         0.00000E+00
    0.88725E-02        -0.31899E-01         0.00000E+00
    0.80106E-02        -0.29497E-01         0.00000E+00
    0.71652E-02        -0.27125E-01         0.00000E+00
    0.63460E-02        -0.24777E-01         0.00000E+00
    0.55614E-02        -0.22449E-01         0.00000E+00
    0.48188E-02        -0.20137E-01         0.00000E+00
    0.41247E-02        -0.17840E-01         0.00000E+00
    0.34850E-02        -0.15561E-01         0.00000E+00
    0.29060E-02        -0.13304E-01         0.00000E+00
    0.23786E-02        -0.11068E-01         0.00000E+00
    0.18805E-02        -0.88382E-02         0.00000E+00
    0.14007E-02        -0.66154E-02         0.00000E+00
    0.93285E-03        -0.44006E-02         0.00000E+00
    0.46909E-03        -0.21950E-02         0.00000E+00
    0.00000E+00         0.00000E+00         0.00000E+00
    0.10280E-01        -0.35238E-01         0.00000E+00
    0.93505E-02        -0.32780E-01         0.00000E+00
    0.84354E-02        -0.30354E-01         0.00000E+00
    0.75441E-02        -0.27952E-01         0.00000E+00
    0.66846E-02        -0.25566E-01         0.00000E+00
    0.58636E-02        -0.23190E-01         0.00000E+00
    0.50866E-02        -0.20822E-01         0.00000E+00
    0.43579E-02        -0.18461E-01         0.00000E+00
    0.36807E-02        -0.16109E-01         0.00000E+00
    0.30576E-02        -0.13770E-01         0.00000E+00
    0.24891E-02        -0.11450E-01         0.00000E+00
    0.19623E-02        -0.91467E-02         0.00000E+00
    0.14584E-02        -0.68506E-02         0.00000E+00
    0.96862E-03        -0.45604E-02         0.00000E+00
    0.48537E-03        -0.22770E-02         0.00000E+00
    0.00000E+00         0.00000E+00         0.00000E+00
    0.10724E-01        -0.36202E-01         0.00000E+00
    0.97391E-02        -0.33724E-01         0.00000E+00
    0.87790E-02        -0.31273E-01         0.00000E+00
    0.78510E-02        -0.28838E-01         0.00000E+00
    0.69611E-02        -0.26410E-01         0.00000E+00
    0.61140E-02        -0.23985E-01         0.00000E+00
    0.53131E-02        -0.21559E-01         0.00000E+00
    0.45600E-02        -0.19132E-01         0.00000E+00
    0.38556E-02        -0.16706E-01         0.00000E+00
    0.32001E-02        -0.14285E-01         0.00000E+00
    0.25926E-02        -0.11876E-01         0.00000E+00
    0.20292E-02        -0.94830E-02         0.00000E+00
    0.14996E-02        -0.71028E-02         0.00000E+00
    0.98951E-03        -0.47313E-02         0.00000E+00
    0.49054E-03        -0.23658E-02         0.00000E+00
    0.00000E+00         0.00000E+00         0.00000E+00
    0.11065E-01        -0.37224E-01         0.00000E+00
    0.10033E-01        -0.34725E-01         0.00000E+00
    0.90360E-02        -0.32246E-01         0.00000E+00
    0.80808E-02        -0.29775E-01         0.00000E+00
    0.71711E-02        -0.27304E-01         0.00000E+00
    0.63088E-02        -0.24826E-01         0.00000E+00
    0.54946E-02        -0.22339E-01         0.00000E+00
    0.47275E-02        -0.19844E-01         0.00000E+00
    0.40063E-02        -0.17343E-01         0.00000E+00
    0.33290E-02        -0.14841E-01         0.00000E+00
    0.26941E-02        -0.12343E-01         0.00000E+00
    0.20991E-02        -0.98554E-02         0.00000E+00
    0.15389E-02        -0.73803E-02         0.00000E+00
    0.10054E-02        -0.49166E-02         0.00000E+00
    0.49294E-03        -0.24589E-02         0.00000E+00
    0.00000E+00         0.00000E+00         0.00000E+00
    0.11298E-01        -0.38298E-01         0.00000E+00
    0.10225E-01        -0.35775E-01         0.00000E+00
    0.92015E-02        -0.33266E-01         0.00000E+00
    0.82298E-02        -0.30756E-01         0.00000E+00
    0.73113E-02        -0.28237E-01         0.00000E+00
    0.64450E-02        -0.25704E-01         0.00000E+00
    0.56282E-02        -0.23155E-01         0.00000E+00
    0.48576E-02        -0.20590E-01         0.00000E+00
    0.41297E-02        -0.18013E-01         0.00000E+00
    0.34411E-02        -0.15428E-01         0.00000E+00
    0.27894E-02        -0.12840E-01         0.00000E+00
    0.21723E-02        -0.10256E-01         0.00000E+00
    0.15877E-02        -0.76802E-02         0.00000E+00
    0.10327E-02        -0.51135E-02         0.00000E+00
    0.50481E-03        -0.25541E-02         0.00000E+00
    0.00000E+00         0.00000E+00         0.00000E+00
    0.11416E-01        -0.39416E-01         0.00000E+00
    0.10312E-01        -0.36867E-01         0.00000E+00
    0.92717E-02        -0.34323E-01         0.00000E+00
    0.82952E-02        -0.31771E-01         0.00000E+00
    0.73796E-02        -0.29201E-01         0.00000E+00
    0.65202E-02        -0.26609E-01         0.00000E+00
    0.57114E-02        -0.23995E-01         0.00000E+00
    0.49477E-02        -0.21359E-01         0.00000E+00
    0.42235E-02        -0.18704E-01         0.00000E+00
    0.35342E-02        -0.16035E-01         0.00000E+00
    0.28762E-02        -0.13356E-01         0.00000E+00
    0.22470E-02        -0.10674E-01         0.00000E+00
    0.16457E-02        -0.79938E-02         0.00000E+00
    0.10717E-02        -0.53196E-02         0.00000E+00
    0.52399E-03        -0.26543E-02         0.00000E+00
    0.00000E+00         0.00000E+00         0.00000E+00
    0.11415E-01        -0.40568E-01         0.00000E+00
    0.10288E-01        -0.37989E-01         0.00000E+00
    0.92441E-02        -0.35407E-01         0.00000E+00
    0.82757E-02        -0.32807E-01         0.00000E+00
    0.73744E-02        -0.30182E-01         0.00000E+00
    0.65323E-02        -0.27530E-01         0.00000E+00
    0.57419E-02        -0.24849E-01         0.00000E+00
    0.49954E-02        -0.22141E-01         0.00000E+00
    0.42856E-02        -0.19408E-01         0.00000E+00
    0.36063E-02        -0.16653E-01         0.00000E+00
    0.29523E-02        -0.13882E-01         0.00000E+00
    0.23207E-02        -0.11101E-01         0.00000E+00
    0.17099E-02        -0.83153E-02         0.00000E+00
    0.11195E-02        -0.55325E-02         0.00000E+00
    0.54964E-03        -0.27589E-02         0.00000E+00
    0.00000E+00         0.00000E+00         0.00000E+00
    0.11292E-01        -0.41754E-01         0.00000E+00
    0.10151E-01        -0.39132E-01         0.00000E+00
    0.91178E-02        -0.36503E-01         0.00000E+00
    0.81703E-02        -0.33851E-01         0.00000E+00
    0.72938E-02        -0.31169E-01         0.00000E+00
    0.64791E-02        -0.28455E-01         0.00000E+00
    0.57170E-02        -0.25707E-01         0.00000E+00
    0.49980E-02        -0.22926E-01         0.00000E+00
    0.43133E-02        -0.20114E-01         0.00000E+00
    0.36546E-02        -0.17274E-01         0.00000E+00
    0.30151E-02        -0.14411E-01         0.00000E+00
    0.23901E-02        -0.11531E-01         0.00000E+00
    0.17765E-02        -0.86407E-02         0.00000E+00
    0.11732E-02        -0.57495E-02         0.00000E+00
    0.58053E-03        -0.28663E-02         0.00000E+00
    0.00000E+00         0.00000E+00         0.00000E+00
    0.11054E-01        -0.42965E-01         0.00000E+00
    0.99112E-02        -0.40286E-01         0.00000E+00
    0.88947E-02        -0.37598E-01         0.00000E+00
    0.79769E-02        -0.34891E-01         0.00000E+00
    0.71357E-02        -0.32150E-01         0.00000E+00
    0.63580E-02        -0.29373E-01         0.00000E+00
    0.56339E-02        -0.26557E-01         0.00000E+00
    0.49526E-02        -0.23703E-01         0.00000E+00
    0.43032E-02        -0.20813E-01         0.00000E+00
    0.36754E-02        -0.17889E-01         0.00000E+00
    0.30603E-02        -0.14936E-01         0.00000E+00
    0.24506E-02        -0.11959E-01         0.00000E+00
    0.18414E-02        -0.89663E-02         0.00000E+00
    0.12296E-02        -0.59681E-02         0.00000E+00
    0.61510E-03        -0.29753E-02         0.00000E+00
    0.00000E+00         0.00000E+00         0.00000E+00
    0.10702E-01        -0.44181E-01         0.00000E+00
    0.95696E-02        -0.41439E-01         0.00000E+00
    0.85777E-02        -0.38687E-01         0.00000E+00
    0.76961E-02        -0.35917E-01         0.00000E+00
    0.68980E-02        -0.33115E-01         0.00000E+00
    0.61666E-02        -0.30273E-01         0.00000E+00
    0.54900E-02        -0.27389E-01         0.00000E+00
    0.48558E-02        -0.24462E-01         0.00000E+00
    0.42512E-02        -0.21495E-01         0.00000E+00
    0.36639E-02        -0.18490E-01         0.00000E+00
    0.30825E-02        -0.15449E-01         0.00000E+00
    0.24971E-02        -0.12379E-01         0.00000E+00
    0.18999E-02        -0.92883E-02         0.00000E+00
    0.12855E-02        -0.61858E-02         0.00000E+00
    0.65170E-03        -0.30848E-02         0.00000E+00
    0.00000E+00         0.00000E+00         0.00000E+00
    0.10231E-01        -0.45386E-01         0.00000E+00
    0.91237E-02        -0.42577E-01         0.00000E+00
    0.81664E-02        -0.39757E-01         0.00000E+00
    0.73280E-02        -0.36920E-01         0.00000E+00
    0.65800E-02        -0.34053E-01         0.00000E+00
    0.59030E-02        -0.31143E-01         0.00000E+00
    0.52824E-02        -0.28190E-01         0.00000E+00
    0.47039E-02        -0.25192E-01         0.00000E+00
    0.41525E-02        -0.22151E-01         0.00000E+00
    0.36141E-02        -0.19067E-01         0.00000E+00
    0.30750E-02        -0.15944E-01         0.00000E+00
    0.25227E-02        -0.12788E-01         0.00000E+00
    0.19463E-02        -0.96030E-02         0.00000E+00
    0.13369E-02        -0.64006E-02         0.00000E+00
    0.68846E-03        -0.31937E-02         0.00000E+00
    0.00000E+00         0.00000E+00         0.00000E+00
    0.96368E-02        -0.46563E-01         0.00000E+00
    0.85688E-02        -0.43687E-01         0.00000E+00
    0.76578E-02        -0.40797E-01         0.00000E+00
    0.68719E-02        -0.37889E-01         0.00000E+00
    0.61815E-02        -0.34953E-01         0.00000E+00
    0.55661E-02        -0.31974E-01         0.00000E+00
    0.50087E-02        -0.28950E-01         0.00000E+00
    0.44926E-02        -0.25882E-01         0.00000E+00
    0.40014E-02        -0.22769E-01         0.00000E+00
    0.35189E-02        -0.19612E-01         0.00000E+00
    0.30298E-02        -0.16414E-01         0.00000E+00
    0.25192E-02        -0.13177E-01         0.00000E+00
    0.19733E-02        -0.99066E-02         0.00000E+00
    0.13785E-02        -0.66101E-02         0.00000E+00
    0.72308E-03        -0.33012E-02         0.00000E+00
    0.00000E+00         0.00000E+00         0.00000E+00
    0.89141E-02        -0.47697E-01         0.00000E+00
    0.79007E-02        -0.44752E-01         0.00000E+00
    0.70491E-02        -0.41790E-01         0.00000E+00
    0.63261E-02        -0.38810E-01         0.00000E+00
    0.57019E-02        -0.35802E-01         0.00000E+00
    0.51550E-02        -0.32752E-01         0.00000E+00
    0.46663E-02        -0.29658E-01         0.00000E+00
    0.42177E-02        -0.26520E-01         0.00000E+00
    0.37913E-02        -0.23340E-01         0.00000E+00
    0.33701E-02        -0.20117E-01         0.00000E+00
    0.29374E-02        -0.16851E-01         0.00000E+00
    0.24768E-02        -0.13543E-01         0.00000E+00
    0.19716E-02        -0.10194E-01         0.00000E+00
    0.14035E-02        -0.68117E-02         0.00000E+00
    0.75246E-03        -0.34061E-02         0.00000E+00
    0.00000E+00         0.00000E+00         0.00000E+00
    0.80591E-02        -0.48771E-01         0.00000E+00
    0.71163E-02        -0.45757E-01         0.00000E+00
    0.63384E-02        -0.42723E-01         0.00000E+00
    0.56898E-02        -0.39668E-01         0.00000E+00
    0.51406E-02        -0.36586E-01         0.00000E+00
    0.46684E-02        -0.33464E-01         0.00000E+00
    0.42527E-02        -0.30300E-01         0.00000E+00
    0.38743E-02        -0.27097E-01         0.00000E+00
    0.35153E-02        -0.23854E-01         0.00000E+00
    0.31585E-02        -0.20571E-01         0.00000E+00
    0.27872E-02        -0.17246E-01         0.00000E+00
    0.23839E-02        -0.13877E-01         0.00000E+00
    0.19298E-02        -0.10462E-01         0.00000E+00
    0.14022E-02        -0.70028E-02         0.00000E+00
    0.77160E-03        -0.35081E-02         0.00000E+00
    0.00000E+00         0.00000E+00         0.00000E+00
    0.70685E-02        -0.49769E-01         0.00000E+00
    0.62139E-02        -0.46684E-01         0.00000E+00
    0.55248E-02        -0.43576E-01         0.00000E+00
    0.49628E-02        -0.40447E-01         0.00000E+00
    0.44971E-02        -0.37291E-01         0.00000E+00
    0.41048E-02        -0.34096E-01         0.00000E+00
    0.37643E-02        -0.30865E-01         0.00000E+00
    0.34568E-02        -0.27600E-01         0.00000E+00
    0.31653E-02        -0.24301E-01         0.00000E+00
    0.28741E-02        -0.20967E-01         0.00000E+00
    0.25673E-02        -0.17593E-01         0.00000E+00
    0.22275E-02        -0.14173E-01         0.00000E+00
    0.18345E-02        -0.10703E-01         0.00000E+00
    0.13625E-02        -0.71797E-02         0.00000E+00
    0.77312E-03        -0.36048E-02         0.00000E+00
    0.00000E+00         0.00000E+00         0.00000E+00
    0.59397E-02        -0.50670E-01         0.00000E+00
    0.51927E-02        -0.47515E-01         0.00000E+00
    0.46091E-02        -0.44333E-01         0.00000E+00
    0.41458E-02        -0.41128E-01         0.00000E+00
    0.37713E-02        -0.37898E-01         0.00000E+00
    0.34622E-02        -0.34634E-01         0.00000E+00
    0.31971E-02        -0.31340E-01         0.00000E+00
    0.29587E-02        -0.28020E-01         0.00000E+00
    0.27327E-02        -0.24673E-01         0.00000E+00
    0.25060E-02        -0.21296E-01         0.00000E+00
    0.22649E-02        -0.17883E-01         0.00000E+00
    0.19934E-02        -0.14426E-01         0.00000E+00
    0.16710E-02        -0.10915E-01         0.00000E+00
    0.12698E-02        -0.73400E-02         0.00000E+00
    0.74479E-03        -0.36969E-02         0.00000E+00
    0.00000E+00         0.00000E+00         0.00000E+00
    0.46702E-02        -0.51453E-01         0.00000E+00
    0.40540E-02        -0.48228E-01         0.00000E+00
    0.35938E-02        -0.44971E-01         0.00000E+00
    0.32404E-02        -0.41691E-01         0.00000E+00
    0.29626E-02        -0.38391E-01         0.00000E+00
    0.27374E-02        -0.35064E-01         0.00000E+00
    0.25452E-02        -0.31716E-01         0.00000E+00
    0.23726E-02        -0.28350E-01         0.00000E+00
    0.22087E-02        -0.24963E-01         0.00000E+00
    0.20438E-02        -0.21553E-01         0.00000E+00
    0.18674E-02        -0.18111E-01         0.00000E+00
    0.16665E-02        -0.14628E-01         0.00000E+00
    0.14227E-02        -0.11090E-01         0.00000E+00
    0.11076E-02        -0.74808E-02         0.00000E+00
    0.67331E-03        -0.37839E-02         0.00000E+00
    0.00000E+00         0.00000E+00         0.00000E+00
    0.32574E-02        -0.52091E-01         0.00000E+00
    0.28019E-02        -0.48796E-01         0.00000E+00
    0.24842E-02        -0.45464E-01         0.00000E+00
    0.22486E-02        -0.42114E-01         0.00000E+00
    0.20688E-02        -0.38752E-01         0.00000E+00
    0.19247E-02        -0.35375E-01         0.00000E+00
    0.18014E-02        -0.31986E-01         0.00000E+00
    0.16901E-02        -0.28584E-01         0.00000E+00
    0.15843E-02        -0.25169E-01         0.00000E+00
    0.14777E-02        -0.21734E-01         0.00000E+00
    0.13634E-02        -0.18272E-01         0.00000E+00
    0.12325E-02        -0.14774E-01         0.00000E+00
    0.10716E-02        -0.11223E-01         0.00000E+00
    0.85728E-03        -0.75967E-02         0.00000E+00
    0.54218E-03        -0.38642E-02         0.00000E+00
    0.00000E+00         0.00000E+00         0.00000E+00
    0.16985E-02        -0.52546E-01         0.00000E+00
    0.14461E-02        -0.49181E-01         0.00000E+00
    0.12866E-02        -0.45782E-01         0.00000E+00
    0.11698E-02        -0.42376E-01         0.00000E+00
    0.10842E-02        -0.38970E-01         0.00000E+00
    0.10156E-02        -0.35560E-01         0.00000E+00
    0.95628E-03        -0.32146E-01         0.00000E+00
    0.90225E-03        -0.28723E-01         0.00000E+00
    0.85081E-03        -0.25289E-01         0.00000E+00
    0.79901E-03        -0.21840E-01         0.00000E+00
    0.74345E-03        -0.18366E-01         0.00000E+00
    0.67976E-03        -0.14860E-01         0.00000E+00
    0.60120E-03        -0.11304E-01         0.00000E+00
    0.49500E-03        -0.76762E-02         0.00000E+00
    0.33105E-03        -0.39345E-02         0.00000E+00
    0.00000E+00         0.00000E+00         0.00000E+00
    0.00000E+00        -0.52742E-01         0.00000E+00
    0.00000E+00        -0.49323E-01         0.00000E+00
    0.00000E+00        -0.45893E-01         0.00000E+00
    0.00000E+00        -0.42464E-01         0.00000E+00
    0.00000E+00        -0.39042E-01         0.00000E+00
    0.00000E+00        -0.35621E-01         0.00000E+00
    0.00000E+00        -0.32198E-01         0.00000E+00
    0.00000E+00        -0.28768E-01         0.00000E+00
    0.00000E+00        -0.25329E-01         0.00000E+00
    0.00000E+00        -0.21874E-01         0.00000E+00
    0.00000E+00        -0.18397E-01         0.00000E+00
    0.00000E+00        -0.14887E-01         0.00000E+00
    0.00000E+00        -0.11331E-01         0.00000E+00
    0.00000E+00        -0.77052E-02         0.00000E+00
    0.00000E+00        -0.39681E-02         0.00000E+00
    0.00000E+00         0.00000E+00         0.00000E+00
CELL_DATA        450
VECTORS vDarcy double 
    0.26057E-09        -0.25829E-10         0.00000E+00
    0.26025E-09        -0.76579E-10         0.00000E+00
    0.25970E-09        -0.12634E-09         0.00000E+00
    0.25903E-09        -0.17499E-09         0.00000E+00
    0.25832E-09        -0.22261E-09         0.00000E+00
    0.25763E-09        -0.26935E-09         0.00000E+00
    0.25696E-09        -0.31559E-09         0.00000E+00
    0.25632E-09        -0.33463E-09         0.00000E+00
    0.25566E-09        -0.31444E-09         0.00000E+00
    0.25504E-09        -0.27972E-09         0.00000E+00
    0.25451E-09        -0.24013E-09         0.00000E+00
    0.25408E-09        -0.19569E-09         0.00000E+00
    0.25375E-09        -0.14631E-09         0.00000E+00
    0.25354E-09        -0.91900E-10         0.00000E+00
    0.25344E-09        -0.32306E-10         0.00000E+00
    0.78095E-09        -0.25497E-10         0.00000E+00
    0.78005E-09        -0.75713E-10         0.00000E+00
    0.77850E-09        -0.12512E-09         0.00000E+00
    0.77656E-09        -0.17362E-09         0.00000E+00
    0.77446E-09        -0.22120E-09         0.00000E+00
    0.77238E-09        -0.26799E-09         0.00000E+00
    0.77037E-09        -0.31429E-09         0.00000E+00
    0.76839E-09        -0.33331E-09         0.00000E+00
    0.76640E-09        -0.31314E-09         0.00000E+00
    0.76454E-09        -0.27857E-09         0.00000E+00
    0.76294E-09        -0.23917E-09         0.00000E+00
    0.76164E-09        -0.19494E-09         0.00000E+00
    0.76066E-09        -0.14579E-09         0.00000E+00
    0.76002E-09        -0.91594E-10         0.00000E+00
    0.75971E-09        -0.32210E-10         0.00000E+00
    0.12991E-08        -0.24947E-10         0.00000E+00
    0.12978E-08        -0.74174E-10         0.00000E+00
    0.12955E-08        -0.12286E-09         0.00000E+00
    0.12925E-08        -0.17095E-09         0.00000E+00
    0.12891E-08        -0.21842E-09         0.00000E+00
    0.12856E-08        -0.26524E-09         0.00000E+00
    0.12822E-08        -0.31163E-09         0.00000E+00
    0.12788E-08        -0.33061E-09         0.00000E+00
    0.12754E-08        -0.31052E-09         0.00000E+00
    0.12723E-08        -0.27627E-09         0.00000E+00
    0.12696E-08        -0.23724E-09         0.00000E+00
    0.12674E-08        -0.19342E-09         0.00000E+00
    0.12658E-08        -0.14472E-09         0.00000E+00
    0.12647E-08        -0.90979E-10         0.00000E+00
    0.12642E-08        -0.32018E-10         0.00000E+00
    0.18134E-08        -0.24375E-10         0.00000E+00
    0.18122E-08        -0.72321E-10         0.00000E+00
    0.18096E-08        -0.11988E-09         0.00000E+00
    0.18058E-08        -0.16721E-09         0.00000E+00
    0.18013E-08        -0.21430E-09         0.00000E+00
    0.17964E-08        -0.26104E-09         0.00000E+00
    0.17914E-08        -0.30746E-09         0.00000E+00
    0.17864E-08        -0.32645E-09         0.00000E+00
    0.17816E-08        -0.30655E-09         0.00000E+00
    0.17771E-08        -0.27275E-09         0.00000E+00
    0.17733E-08        -0.23429E-09         0.00000E+00
    0.17702E-08        -0.19113E-09         0.00000E+00
    0.17679E-08        -0.14312E-09         0.00000E+00
    0.17664E-08        -0.90053E-10         0.00000E+00
    0.17656E-08        -0.31731E-10         0.00000E+00
    0.23227E-08        -0.23983E-10         0.00000E+00
    0.23217E-08        -0.70600E-10         0.00000E+00
    0.23193E-08        -0.11668E-09         0.00000E+00
    0.23153E-08        -0.16270E-09         0.00000E+00
    0.23099E-08        -0.20893E-09         0.00000E+00
    0.23036E-08        -0.25526E-09         0.00000E+00
    0.22968E-08        -0.30156E-09         0.00000E+00
    0.22901E-08        -0.32069E-09         0.00000E+00
    0.22836E-08        -0.30118E-09         0.00000E+00
    0.22778E-08        -0.26799E-09         0.00000E+00
    0.22728E-08        -0.23031E-09         0.00000E+00
    0.22688E-08        -0.18804E-09         0.00000E+00
    0.22658E-08        -0.14096E-09         0.00000E+00
    0.22638E-08        -0.88814E-10         0.00000E+00
    0.22628E-08        -0.31349E-10         0.00000E+00
    0.28257E-08        -0.23885E-10         0.00000E+00
    0.28253E-08        -0.69393E-10         0.00000E+00
    0.28235E-08        -0.11379E-09         0.00000E+00
    0.28197E-08        -0.15794E-09         0.00000E+00
    0.28139E-08        -0.20251E-09         0.00000E+00
    0.28062E-08        -0.24776E-09         0.00000E+00
    0.27974E-08        -0.29355E-09         0.00000E+00
    0.27885E-08        -0.31309E-09         0.00000E+00
    0.27803E-08        -0.29439E-09         0.00000E+00
    0.27732E-08        -0.26195E-09         0.00000E+00
    0.27670E-08        -0.22526E-09         0.00000E+00
    0.27620E-08        -0.18412E-09         0.00000E+00
    0.27582E-08        -0.13823E-09         0.00000E+00
    0.27558E-08        -0.87257E-10         0.00000E+00
    0.27547E-08        -0.30874E-10         0.00000E+00
    0.33215E-08        -0.24062E-10         0.00000E+00
    0.33215E-08        -0.68872E-10         0.00000E+00
    0.33205E-08        -0.11167E-09         0.00000E+00
    0.33176E-08        -0.15353E-09         0.00000E+00
    0.33120E-08        -0.19553E-09         0.00000E+00
    0.33033E-08        -0.23854E-09         0.00000E+00
    0.32923E-08        -0.28299E-09         0.00000E+00
    0.32807E-08        -0.30325E-09         0.00000E+00
    0.32706E-08        -0.28618E-09         0.00000E+00
    0.32621E-08        -0.25461E-09         0.00000E+00
    0.32547E-08        -0.21910E-09         0.00000E+00
    0.32486E-08        -0.17934E-09         0.00000E+00
    0.32441E-08        -0.13491E-09         0.00000E+00
    0.32412E-08        -0.85376E-10         0.00000E+00
    0.32399E-08        -0.30306E-10         0.00000E+00
    0.38093E-08        -0.24380E-10         0.00000E+00
    0.38095E-08        -0.68918E-10         0.00000E+00
    0.38091E-08        -0.11047E-09         0.00000E+00
    0.38072E-08        -0.15000E-09         0.00000E+00
    0.38024E-08        -0.18871E-09         0.00000E+00
    0.37936E-08        -0.22807E-09         0.00000E+00
    0.37807E-08        -0.26958E-09         0.00000E+00
    0.37662E-08        -0.29073E-09         0.00000E+00
    0.37538E-08        -0.27640E-09         0.00000E+00
    0.37436E-08        -0.24581E-09         0.00000E+00
    0.37347E-08        -0.21175E-09         0.00000E+00
    0.37276E-08        -0.17364E-09         0.00000E+00
    0.37223E-08        -0.13096E-09         0.00000E+00
    0.37189E-08        -0.83151E-10         0.00000E+00
    0.37173E-08        -0.29646E-10         0.00000E+00
    0.42880E-08        -0.24659E-10         0.00000E+00
    0.42881E-08        -0.69169E-10         0.00000E+00
    0.42880E-08        -0.10989E-09         0.00000E+00
    0.42866E-08        -0.14746E-09         0.00000E+00
    0.42828E-08        -0.18277E-09         0.00000E+00
    0.42748E-08        -0.21737E-09         0.00000E+00
    0.42610E-08        -0.25364E-09         0.00000E+00
    0.42438E-08        -0.27512E-09         0.00000E+00
    0.42286E-08        -0.26452E-09         0.00000E+00
    0.42164E-08        -0.23548E-09         0.00000E+00
    0.42061E-08        -0.20311E-09         0.00000E+00
    0.41978E-08        -0.16692E-09         0.00000E+00
    0.41915E-08        -0.12630E-09         0.00000E+00
    0.41876E-08        -0.80540E-10         0.00000E+00
    0.41857E-08        -0.28889E-10         0.00000E+00
    0.47566E-08        -0.24753E-10         0.00000E+00
    0.47564E-08        -0.69171E-10         0.00000E+00
    0.47557E-08        -0.10928E-09         0.00000E+00
    0.47542E-08        -0.14536E-09         0.00000E+00
    0.47507E-08        -0.17779E-09         0.00000E+00
    0.47438E-08        -0.20753E-09         0.00000E+00
    0.47307E-08        -0.23676E-09         0.00000E+00
    0.47124E-08        -0.25658E-09         0.00000E+00
    0.46942E-08        -0.24980E-09         0.00000E+00
    0.46796E-08        -0.22366E-09         0.00000E+00
    0.46679E-08        -0.19310E-09         0.00000E+00
    0.46582E-08        -0.15901E-09         0.00000E+00
    0.46508E-08        -0.12077E-09         0.00000E+00
    0.46461E-08        -0.77442E-10         0.00000E+00
    0.46439E-08        -0.28020E-10         0.00000E+00
    0.52137E-08        -0.24565E-10         0.00000E+00
    0.52129E-08        -0.68510E-10         0.00000E+00
    0.52112E-08        -0.10784E-09         0.00000E+00
    0.52084E-08        -0.14256E-09         0.00000E+00
    0.52038E-08        -0.17276E-09         0.00000E+00
    0.51967E-08        -0.19869E-09         0.00000E+00
    0.51852E-08        -0.22118E-09         0.00000E+00
    0.51681E-08        -0.23690E-09         0.00000E+00
    0.51493E-08        -0.23268E-09         0.00000E+00
    0.51330E-08        -0.21012E-09         0.00000E+00
    0.51194E-08        -0.18142E-09         0.00000E+00
    0.51079E-08        -0.14972E-09         0.00000E+00
    0.50992E-08        -0.11408E-09         0.00000E+00
    0.50933E-08        -0.73605E-10         0.00000E+00
    0.50905E-08        -0.26995E-10         0.00000E+00
    0.56578E-08        -0.24029E-10         0.00000E+00
    0.56562E-08        -0.66840E-10         0.00000E+00
    0.56529E-08        -0.10478E-09         0.00000E+00
    0.56478E-08        -0.13777E-09         0.00000E+00
    0.56405E-08        -0.16588E-09         0.00000E+00
    0.56309E-08        -0.18915E-09         0.00000E+00
    0.56189E-08        -0.20730E-09         0.00000E+00
    0.56038E-08        -0.21880E-09         0.00000E+00
    0.55873E-08        -0.21561E-09         0.00000E+00
    0.55722E-08        -0.19605E-09         0.00000E+00
    0.55589E-08        -0.16869E-09         0.00000E+00
    0.55465E-08        -0.13881E-09         0.00000E+00
    0.55359E-08        -0.10576E-09         0.00000E+00
    0.55281E-08        -0.68357E-10         0.00000E+00
    0.55243E-08        -0.25746E-10         0.00000E+00
    0.60871E-08        -0.23100E-10         0.00000E+00
    0.60845E-08        -0.63844E-10         0.00000E+00
    0.60792E-08        -0.99378E-10         0.00000E+00
    0.60708E-08        -0.12980E-09         0.00000E+00
    0.60595E-08        -0.15547E-09         0.00000E+00
    0.60459E-08        -0.17657E-09         0.00000E+00
    0.60304E-08        -0.19260E-09         0.00000E+00
    0.60140E-08        -0.20215E-09         0.00000E+00
    0.59986E-08        -0.20047E-09         0.00000E+00
    0.59863E-08        -0.18403E-09         0.00000E+00
    0.59766E-08        -0.15795E-09         0.00000E+00
    0.59678E-08        -0.12850E-09         0.00000E+00
    0.59588E-08        -0.96632E-10         0.00000E+00
    0.59504E-08        -0.61407E-10         0.00000E+00
    0.59442E-08        -0.22766E-10         0.00000E+00
    0.64999E-08        -0.21819E-10         0.00000E+00
    0.64963E-08        -0.59154E-10         0.00000E+00
    0.64882E-08        -0.90785E-10         0.00000E+00
    0.64756E-08        -0.11763E-09         0.00000E+00
    0.64596E-08        -0.14055E-09         0.00000E+00
    0.64413E-08        -0.15970E-09         0.00000E+00
    0.64216E-08        -0.17447E-09         0.00000E+00
    0.64011E-08        -0.18358E-09         0.00000E+00
    0.63817E-08        -0.18435E-09         0.00000E+00
    0.63667E-08        -0.17300E-09         0.00000E+00
    0.63578E-08        -0.15056E-09         0.00000E+00
    0.63522E-08        -0.12170E-09         0.00000E+00
    0.63472E-08        -0.89587E-10         0.00000E+00
    0.63421E-08        -0.55014E-10         0.00000E+00
    0.63373E-08        -0.18288E-10         0.00000E+00
    0.68948E-08        -0.20419E-10         0.00000E+00
    0.68898E-08        -0.52124E-10         0.00000E+00
    0.68780E-08        -0.77989E-10         0.00000E+00
    0.68606E-08        -0.10067E-09         0.00000E+00
    0.68398E-08        -0.12098E-09         0.00000E+00
    0.68173E-08        -0.13853E-09         0.00000E+00
    0.67936E-08        -0.15234E-09         0.00000E+00
    0.67694E-08        -0.16119E-09         0.00000E+00
    0.67455E-08        -0.16361E-09         0.00000E+00
    0.67240E-08        -0.15740E-09         0.00000E+00
    0.67078E-08        -0.14116E-09         0.00000E+00
    0.66980E-08        -0.11594E-09         0.00000E+00
    0.66928E-08        -0.85195E-10         0.00000E+00
    0.66899E-08        -0.51551E-10         0.00000E+00
    0.66889E-08        -0.16004E-10         0.00000E+00
    0.72700E-08        -0.18378E-10         0.00000E+00
    0.72625E-08        -0.41858E-10         0.00000E+00
    0.72463E-08        -0.60362E-10         0.00000E+00
    0.72243E-08        -0.79060E-10         0.00000E+00
    0.71997E-08        -0.97420E-10         0.00000E+00
    0.71738E-08        -0.11378E-09         0.00000E+00
    0.71471E-08        -0.12680E-09         0.00000E+00
    0.71199E-08        -0.13544E-09         0.00000E+00
    0.70930E-08        -0.13874E-09         0.00000E+00
    0.70678E-08        -0.13563E-09         0.00000E+00
    0.70459E-08        -0.12496E-09         0.00000E+00
    0.70293E-08        -0.10587E-09         0.00000E+00
    0.70191E-08        -0.79863E-10         0.00000E+00
    0.70145E-08        -0.49549E-10         0.00000E+00
    0.70134E-08        -0.16041E-10         0.00000E+00
    0.76228E-08        -0.13538E-10         0.00000E+00
    0.76113E-08        -0.27789E-10         0.00000E+00
    0.75916E-08        -0.38732E-10         0.00000E+00
    0.75667E-08        -0.53925E-10         0.00000E+00
    0.75395E-08        -0.70884E-10         0.00000E+00
    0.75112E-08        -0.86224E-10         0.00000E+00
    0.74821E-08        -0.98592E-10         0.00000E+00
    0.74527E-08        -0.10716E-09         0.00000E+00
    0.74239E-08        -0.11135E-09         0.00000E+00
    0.73966E-08        -0.11054E-09         0.00000E+00
    0.73723E-08        -0.10395E-09         0.00000E+00
    0.73528E-08        -0.90852E-10         0.00000E+00
    0.73393E-08        -0.71288E-10         0.00000E+00
    0.73318E-08        -0.46092E-10         0.00000E+00
    0.73286E-08        -0.15391E-10         0.00000E+00
    0.79528E-08        -0.58056E-11         0.00000E+00
    0.79397E-08        -0.10919E-10         0.00000E+00
    0.79180E-08        -0.14370E-10         0.00000E+00
    0.78902E-08        -0.25695E-10         0.00000E+00
    0.78600E-08        -0.41809E-10         0.00000E+00
    0.78294E-08        -0.56387E-10         0.00000E+00
    0.77983E-08        -0.68334E-10         0.00000E+00
    0.77674E-08        -0.77151E-10         0.00000E+00
    0.77374E-08        -0.82499E-10         0.00000E+00
    0.77093E-08        -0.84027E-10         0.00000E+00
    0.76843E-08        -0.81242E-10         0.00000E+00
    0.76637E-08        -0.73467E-10         0.00000E+00
    0.76483E-08        -0.59966E-10         0.00000E+00
    0.76385E-08        -0.40171E-10         0.00000E+00
    0.76338E-08        -0.13489E-10         0.00000E+00
    0.82625E-08         0.20932E-11         0.00000E+00
    0.82495E-08         0.73011E-11         0.00000E+00
    0.82263E-08         0.12256E-10         0.00000E+00
    0.81955E-08         0.61690E-11         0.00000E+00
    0.81615E-08        -0.95063E-11         0.00000E+00
    0.81278E-08        -0.24340E-10         0.00000E+00
    0.80950E-08        -0.36487E-10         0.00000E+00
    0.80630E-08        -0.46086E-10         0.00000E+00
    0.80326E-08        -0.53076E-10         0.00000E+00
    0.80045E-08        -0.57260E-10         0.00000E+00
    0.79797E-08        -0.58206E-10         0.00000E+00
    0.79589E-08        -0.55134E-10         0.00000E+00
    0.79428E-08        -0.46950E-10         0.00000E+00
    0.79319E-08        -0.32535E-10         0.00000E+00
    0.79264E-08        -0.11098E-10         0.00000E+00
    0.85449E-08         0.88056E-11         0.00000E+00
    0.85327E-08         0.25829E-10         0.00000E+00
    0.85094E-08         0.40317E-10         0.00000E+00
    0.84776E-08         0.40707E-10         0.00000E+00
    0.84414E-08         0.26180E-10         0.00000E+00
    0.84052E-08         0.98592E-11         0.00000E+00
    0.83709E-08        -0.34580E-11         0.00000E+00
    0.83384E-08        -0.14573E-10         0.00000E+00
    0.83081E-08        -0.23753E-10         0.00000E+00
    0.82806E-08        -0.30895E-10         0.00000E+00
    0.82564E-08        -0.35521E-10         0.00000E+00
    0.82361E-08        -0.36753E-10         0.00000E+00
    0.82202E-08        -0.33410E-10         0.00000E+00
    0.82092E-08        -0.24282E-10         0.00000E+00
    0.82037E-08        -0.85193E-11         0.00000E+00
    0.87939E-08         0.14760E-10         0.00000E+00
    0.87829E-08         0.43257E-10         0.00000E+00
    0.87615E-08         0.67753E-10         0.00000E+00
    0.87311E-08         0.75673E-10         0.00000E+00
    0.86953E-08         0.63337E-10         0.00000E+00
    0.86589E-08         0.45312E-10         0.00000E+00
    0.86244E-08         0.30092E-10         0.00000E+00
    0.85921E-08         0.16756E-10         0.00000E+00
    0.85626E-08         0.48975E-11         0.00000E+00
    0.85361E-08        -0.54248E-11         0.00000E+00
    0.85131E-08        -0.13699E-10         0.00000E+00
    0.84938E-08        -0.19019E-10         0.00000E+00
    0.84788E-08        -0.20229E-10         0.00000E+00
    0.84684E-08        -0.16161E-10         0.00000E+00
    0.84631E-08        -0.59579E-11         0.00000E+00
    0.90092E-08         0.20431E-10         0.00000E+00
    0.89992E-08         0.58973E-10         0.00000E+00
    0.89801E-08         0.92791E-10         0.00000E+00
    0.89528E-08         0.10870E-09         0.00000E+00
    0.89199E-08         0.99156E-10         0.00000E+00
    0.88859E-08         0.80096E-10         0.00000E+00
    0.88531E-08         0.62891E-10         0.00000E+00
    0.88225E-08         0.46997E-10         0.00000E+00
    0.87947E-08         0.32183E-10         0.00000E+00
    0.87700E-08         0.18578E-10         0.00000E+00
    0.87487E-08         0.67198E-11         0.00000E+00
    0.87311E-08        -0.25040E-11         0.00000E+00
    0.87174E-08        -0.79902E-11         0.00000E+00
    0.87080E-08        -0.86217E-11         0.00000E+00
    0.87032E-08        -0.35507E-11         0.00000E+00
    0.91895E-08         0.25768E-10         0.00000E+00
    0.91806E-08         0.73091E-10         0.00000E+00
    0.91640E-08         0.11481E-09         0.00000E+00
    0.91408E-08         0.13765E-09         0.00000E+00
    0.91130E-08         0.13119E-09         0.00000E+00
    0.90835E-08         0.11183E-09         0.00000E+00
    0.90548E-08         0.93037E-10         0.00000E+00
    0.90277E-08         0.74752E-10         0.00000E+00
    0.90031E-08         0.57072E-10         0.00000E+00
    0.89814E-08         0.40315E-10         0.00000E+00
    0.89627E-08         0.25084E-10         0.00000E+00
    0.89473E-08         0.12256E-10         0.00000E+00
    0.89354E-08         0.28887E-11         0.00000E+00
    0.89273E-08        -0.19430E-11         0.00000E+00
    0.89231E-08        -0.13871E-11         0.00000E+00
    0.93327E-08         0.30528E-10         0.00000E+00
    0.93254E-08         0.85337E-10         0.00000E+00
    0.93122E-08         0.13305E-09         0.00000E+00
    0.92943E-08         0.16104E-09         0.00000E+00
    0.92730E-08         0.15740E-09         0.00000E+00
    0.92503E-08         0.13815E-09         0.00000E+00
    0.92278E-08         0.11831E-09         0.00000E+00
    0.92065E-08         0.98152E-10         0.00000E+00
    0.91870E-08         0.78097E-10         0.00000E+00
    0.91696E-08         0.58673E-10         0.00000E+00
    0.91547E-08         0.40578E-10         0.00000E+00
    0.91423E-08         0.24693E-10         0.00000E+00
    0.91327E-08         0.12038E-10         0.00000E+00
    0.91261E-08         0.36674E-11         0.00000E+00
    0.91227E-08         0.46842E-12         0.00000E+00
    0.94368E-08         0.34406E-10         0.00000E+00
    0.94317E-08         0.94865E-10         0.00000E+00
    0.94231E-08         0.14624E-09         0.00000E+00
    0.94121E-08         0.17746E-09         0.00000E+00
    0.93991E-08         0.17584E-09         0.00000E+00
    0.93852E-08         0.15685E-09         0.00000E+00
    0.93714E-08         0.13641E-09         0.00000E+00
    0.93581E-08         0.11505E-09         0.00000E+00
    0.93458E-08         0.93427E-10         0.00000E+00
    0.93346E-08         0.72225E-10         0.00000E+00
    0.93246E-08         0.52186E-10         0.00000E+00
    0.93161E-08         0.34148E-10         0.00000E+00
    0.93094E-08         0.19076E-10         0.00000E+00
    0.93046E-08         0.80246E-11         0.00000E+00
    0.93021E-08         0.19649E-11         0.00000E+00
    0.94992E-08         0.37085E-10         0.00000E+00
    0.94972E-08         0.10049E-09         0.00000E+00
    0.94948E-08         0.15268E-09         0.00000E+00
    0.94929E-08         0.18483E-09         0.00000E+00
    0.94908E-08         0.18426E-09         0.00000E+00
    0.94882E-08         0.16556E-09         0.00000E+00
    0.94854E-08         0.14496E-09         0.00000E+00
    0.94825E-08         0.12317E-09         0.00000E+00
    0.94795E-08         0.10105E-09         0.00000E+00
    0.94764E-08         0.79356E-10         0.00000E+00
    0.94729E-08         0.58733E-10         0.00000E+00
    0.94694E-08         0.39863E-10         0.00000E+00
    0.94661E-08         0.23581E-10         0.00000E+00
    0.94635E-08         0.10938E-10         0.00000E+00
    0.94620E-08         0.30567E-11         0.00000E+00
    0.95168E-08         0.38160E-10         0.00000E+00
    0.95190E-08         0.10070E-09         0.00000E+00
    0.95253E-08         0.14982E-09         0.00000E+00
    0.95359E-08         0.18012E-09         0.00000E+00
    0.95480E-08         0.17981E-09         0.00000E+00
    0.95598E-08         0.16161E-09         0.00000E+00
    0.95708E-08         0.14139E-09         0.00000E+00
    0.95808E-08         0.12017E-09         0.00000E+00
    0.95893E-08         0.98996E-10         0.00000E+00
    0.95959E-08         0.78477E-10         0.00000E+00
    0.96003E-08         0.59018E-10         0.00000E+00
    0.96027E-08         0.41015E-10         0.00000E+00
    0.96035E-08         0.25080E-10         0.00000E+00
    0.96034E-08         0.12202E-10         0.00000E+00
    0.96031E-08         0.37111E-11         0.00000E+00
    0.94857E-08         0.36836E-10         0.00000E+00
    0.94942E-08         0.93040E-10         0.00000E+00
    0.95129E-08         0.13398E-09         0.00000E+00
    0.95406E-08         0.15901E-09         0.00000E+00
    0.95716E-08         0.15878E-09         0.00000E+00
    0.96016E-08         0.14173E-09         0.00000E+00
    0.96298E-08         0.12287E-09         0.00000E+00
    0.96552E-08         0.10385E-09         0.00000E+00
    0.96770E-08         0.85583E-10         0.00000E+00
    0.96945E-08         0.68284E-10         0.00000E+00
    0.97077E-08         0.51989E-10         0.00000E+00
    0.97169E-08         0.36795E-10         0.00000E+00
    0.97226E-08         0.23037E-10         0.00000E+00
    0.97255E-08         0.11604E-10         0.00000E+00
    0.97264E-08         0.39224E-11         0.00000E+00
    0.94002E-08         0.31248E-10         0.00000E+00
    0.94199E-08         0.72480E-10         0.00000E+00
    0.94579E-08         0.99583E-10         0.00000E+00
    0.95088E-08         0.11635E-09         0.00000E+00
    0.95645E-08         0.11579E-09         0.00000E+00
    0.96182E-08         0.10193E-09         0.00000E+00
    0.96668E-08         0.86722E-10         0.00000E+00
    0.97094E-08         0.72628E-10         0.00000E+00
    0.97451E-08         0.59851E-10         0.00000E+00
    0.97741E-08         0.48024E-10         0.00000E+00
    0.97966E-08         0.36928E-10         0.00000E+00
    0.98131E-08         0.26522E-10         0.00000E+00
    0.98242E-08         0.16916E-10         0.00000E+00
    0.98306E-08         0.86901E-11         0.00000E+00
    0.98329E-08         0.39049E-11         0.00000E+00
    0.92506E-08         0.13528E-10         0.00000E+00
    0.92946E-08         0.29056E-10         0.00000E+00
    0.93631E-08         0.38432E-10         0.00000E+00
    0.94469E-08         0.44497E-10         0.00000E+00
    0.95360E-08         0.44001E-10         0.00000E+00
    0.96187E-08         0.38254E-10         0.00000E+00
    0.96893E-08         0.31967E-10         0.00000E+00
    0.97482E-08         0.26578E-10         0.00000E+00
    0.97970E-08         0.21921E-10         0.00000E+00
    0.98368E-08         0.17662E-10         0.00000E+00
    0.98684E-08         0.13664E-10         0.00000E+00
    0.98921E-08         0.98995E-11         0.00000E+00
    0.99086E-08         0.63879E-11         0.00000E+00
    0.99184E-08         0.32837E-11         0.00000E+00
    0.99239E-08         0.19457E-11         0.00000E+00
POINT_DATA        496
VECTORS vDarcyNodal double 
    0.26066E-09        -0.25919E-10         0.00000E+00
    0.26048E-09        -0.51363E-10         0.00000E+00
    0.26001E-09        -0.10173E-09         0.00000E+00
    0.25938E-09        -0.15100E-09         0.00000E+00
    0.25868E-09        -0.19915E-09         0.00000E+00
    0.25797E-09        -0.24632E-09         0.00000E+00
    0.25729E-09        -0.29280E-09         0.00000E+00
    0.25664E-09        -0.32543E-09         0.00000E+00
    0.25599E-09        -0.32486E-09         0.00000E+00
    0.25533E-09        -0.29738E-09         0.00000E+00
    0.25475E-09        -0.26018E-09         0.00000E+00
    0.25427E-09        -0.21812E-09         0.00000E+00
    0.25389E-09        -0.17116E-09         0.00000E+00
    0.25362E-09        -0.11921E-09         0.00000E+00
    0.25346E-09        -0.62153E-10         0.00000E+00
    0.25341E-09        -0.32330E-10         0.00000E+00
    0.52093E-09        -0.25738E-10         0.00000E+00
    0.52059E-09        -0.51044E-10         0.00000E+00
    0.51971E-09        -0.10119E-09         0.00000E+00
    0.51849E-09        -0.15033E-09         0.00000E+00
    0.51710E-09        -0.19845E-09         0.00000E+00
    0.51569E-09        -0.24563E-09         0.00000E+00
    0.51432E-09        -0.29214E-09         0.00000E+00
    0.51302E-09        -0.32478E-09         0.00000E+00
    0.51169E-09        -0.32421E-09         0.00000E+00
    0.51037E-09        -0.29677E-09         0.00000E+00
    0.50921E-09        -0.25966E-09         0.00000E+00
    0.50824E-09        -0.21770E-09         0.00000E+00
    0.50748E-09        -0.17084E-09         0.00000E+00
    0.50694E-09        -0.11900E-09         0.00000E+00
    0.50662E-09        -0.62053E-10         0.00000E+00
    0.50652E-09        -0.32282E-10         0.00000E+00
    0.10403E-08        -0.25256E-10         0.00000E+00
    0.10397E-08        -0.50166E-10         0.00000E+00
    0.10382E-08        -0.99648E-10         0.00000E+00
    0.10359E-08        -0.14840E-09         0.00000E+00
    0.10332E-08        -0.19637E-09         0.00000E+00
    0.10304E-08        -0.24356E-09         0.00000E+00
    0.10276E-08        -0.29014E-09         0.00000E+00
    0.10250E-08        -0.32281E-09         0.00000E+00
    0.10222E-08        -0.32224E-09         0.00000E+00
    0.10196E-08        -0.29494E-09         0.00000E+00
    0.10173E-08        -0.25808E-09         0.00000E+00
    0.10153E-08        -0.21641E-09         0.00000E+00
    0.10138E-08        -0.16988E-09         0.00000E+00
    0.10127E-08        -0.11838E-09         0.00000E+00
    0.10120E-08        -0.61751E-10         0.00000E+00
    0.10118E-08        -0.32138E-10         0.00000E+00
    0.15565E-08        -0.24638E-10         0.00000E+00
    0.15559E-08        -0.48955E-10         0.00000E+00
    0.15540E-08        -0.97384E-10         0.00000E+00
    0.15510E-08        -0.14541E-09         0.00000E+00
    0.15473E-08        -0.19300E-09         0.00000E+00
    0.15431E-08        -0.24010E-09         0.00000E+00
    0.15389E-08        -0.28673E-09         0.00000E+00
    0.15347E-08        -0.31942E-09         0.00000E+00
    0.15305E-08        -0.31890E-09         0.00000E+00
    0.15265E-08        -0.29185E-09         0.00000E+00
    0.15229E-08        -0.25542E-09         0.00000E+00
    0.15200E-08        -0.21425E-09         0.00000E+00
    0.15176E-08        -0.16827E-09         0.00000E+00
    0.15160E-08        -0.11732E-09         0.00000E+00
    0.15150E-08        -0.61246E-10         0.00000E+00
    0.15147E-08        -0.31899E-10         0.00000E+00
    0.20683E-08        -0.24112E-10         0.00000E+00
    0.20678E-08        -0.47741E-10         0.00000E+00
    0.20661E-08        -0.94820E-10         0.00000E+00
    0.20628E-08        -0.14168E-09         0.00000E+00
    0.20583E-08        -0.18850E-09         0.00000E+00
    0.20529E-08        -0.23524E-09         0.00000E+00
    0.20471E-08        -0.28177E-09         0.00000E+00
    0.20411E-08        -0.31449E-09         0.00000E+00
    0.20353E-08        -0.31411E-09         0.00000E+00
    0.20299E-08        -0.28745E-09         0.00000E+00
    0.20251E-08        -0.25163E-09         0.00000E+00
    0.20211E-08        -0.21117E-09         0.00000E+00
    0.20179E-08        -0.16598E-09         0.00000E+00
    0.20157E-08        -0.11584E-09         0.00000E+00
    0.20144E-08        -0.60538E-10         0.00000E+00
    0.20140E-08        -0.31564E-10         0.00000E+00
    0.25743E-08        -0.23854E-10         0.00000E+00
    0.25741E-08        -0.46841E-10         0.00000E+00
    0.25729E-08        -0.92456E-10         0.00000E+00
    0.25699E-08        -0.13770E-09         0.00000E+00
    0.25651E-08        -0.18313E-09         0.00000E+00
    0.25587E-08        -0.22895E-09         0.00000E+00
    0.25511E-08        -0.27505E-09         0.00000E+00
    0.25431E-08        -0.30776E-09         0.00000E+00
    0.25354E-08        -0.30776E-09         0.00000E+00
    0.25286E-08        -0.28171E-09         0.00000E+00
    0.25225E-08        -0.24667E-09         0.00000E+00
    0.25174E-08        -0.20717E-09         0.00000E+00
    0.25134E-08        -0.16301E-09         0.00000E+00
    0.25106E-08        -0.11393E-09         0.00000E+00
    0.25090E-08        -0.59625E-10         0.00000E+00
    0.25085E-08        -0.31135E-10         0.00000E+00
    0.30735E-08        -0.23916E-10         0.00000E+00
    0.30737E-08        -0.46436E-10         0.00000E+00
    0.30731E-08        -0.90725E-10         0.00000E+00
    0.30709E-08        -0.13403E-09         0.00000E+00
    0.30664E-08        -0.17732E-09         0.00000E+00
    0.30594E-08        -0.22132E-09         0.00000E+00
    0.30501E-08        -0.26626E-09         0.00000E+00
    0.30395E-08        -0.29888E-09         0.00000E+00
    0.30296E-08        -0.29971E-09         0.00000E+00
    0.30214E-08        -0.27463E-09         0.00000E+00
    0.30139E-08        -0.24054E-09         0.00000E+00
    0.30077E-08        -0.20221E-09         0.00000E+00
    0.30029E-08        -0.15934E-09         0.00000E+00
    0.29995E-08        -0.11156E-09         0.00000E+00
    0.29976E-08        -0.58506E-10         0.00000E+00
    0.29970E-08        -0.30613E-10         0.00000E+00
    0.35652E-08        -0.24208E-10         0.00000E+00
    0.35655E-08        -0.46498E-10         0.00000E+00
    0.35655E-08        -0.89818E-10         0.00000E+00
    0.35642E-08        -0.13117E-09         0.00000E+00
    0.35606E-08        -0.17173E-09         0.00000E+00
    0.35537E-08        -0.21274E-09         0.00000E+00
    0.35432E-08        -0.25527E-09         0.00000E+00
    0.35297E-08        -0.28736E-09         0.00000E+00
    0.35172E-08        -0.28972E-09         0.00000E+00
    0.35073E-08        -0.26617E-09         0.00000E+00
    0.34984E-08        -0.23317E-09         0.00000E+00
    0.34910E-08        -0.19623E-09         0.00000E+00
    0.34852E-08        -0.15492E-09         0.00000E+00
    0.34812E-08        -0.10873E-09         0.00000E+00
    0.34789E-08        -0.57176E-10         0.00000E+00
    0.34782E-08        -0.30000E-10         0.00000E+00
    0.40485E-08        -0.24551E-10         0.00000E+00
    0.40487E-08        -0.46800E-10         0.00000E+00
    0.40489E-08        -0.89570E-10         0.00000E+00
    0.40482E-08        -0.12930E-09         0.00000E+00
    0.40456E-08        -0.16697E-09         0.00000E+00
    0.40396E-08        -0.20403E-09         0.00000E+00
    0.40288E-08        -0.24238E-09         0.00000E+00
    0.40128E-08        -0.27294E-09         0.00000E+00
    0.39972E-08        -0.27741E-09         0.00000E+00
    0.39852E-08        -0.25604E-09         0.00000E+00
    0.39748E-08        -0.22439E-09         0.00000E+00
    0.39661E-08        -0.18915E-09         0.00000E+00
    0.39593E-08        -0.14969E-09         0.00000E+00
    0.39546E-08        -0.10539E-09         0.00000E+00
    0.39519E-08        -0.55621E-10         0.00000E+00
    0.39511E-08        -0.29293E-10         0.00000E+00
    0.45222E-08        -0.24767E-10         0.00000E+00
    0.45223E-08        -0.47028E-10         0.00000E+00
    0.45222E-08        -0.89493E-10         0.00000E+00
    0.45215E-08        -0.12806E-09         0.00000E+00
    0.45193E-08        -0.16325E-09         0.00000E+00
    0.45142E-08        -0.19610E-09         0.00000E+00
    0.45043E-08        -0.22862E-09         0.00000E+00
    0.44874E-08        -0.25582E-09         0.00000E+00
    0.44688E-08        -0.26223E-09         0.00000E+00
    0.44540E-08        -0.24396E-09         0.00000E+00
    0.44421E-08        -0.21421E-09         0.00000E+00
    0.44320E-08        -0.18088E-09         0.00000E+00
    0.44240E-08        -0.14353E-09         0.00000E+00
    0.44184E-08        -0.10145E-09         0.00000E+00
    0.44152E-08        -0.53808E-10         0.00000E+00
    0.44143E-08        -0.28485E-10         0.00000E+00
    0.49852E-08        -0.24738E-10         0.00000E+00
    0.49850E-08        -0.46896E-10         0.00000E+00
    0.49842E-08        -0.88962E-10         0.00000E+00
    0.49827E-08        -0.12658E-09         0.00000E+00
    0.49798E-08        -0.15989E-09         0.00000E+00
    0.49747E-08        -0.18922E-09         0.00000E+00
    0.49658E-08        -0.21567E-09         0.00000E+00
    0.49501E-08        -0.23753E-09         0.00000E+00
    0.49304E-08        -0.24414E-09         0.00000E+00
    0.49132E-08        -0.22950E-09         0.00000E+00
    0.48995E-08        -0.20256E-09         0.00000E+00
    0.48878E-08        -0.17124E-09         0.00000E+00
    0.48784E-08        -0.13625E-09         0.00000E+00
    0.48716E-08        -0.96756E-10         0.00000E+00
    0.48677E-08        -0.51654E-10         0.00000E+00
    0.48667E-08        -0.27555E-10         0.00000E+00
    0.54360E-08        -0.24391E-10         0.00000E+00
    0.54354E-08        -0.46179E-10         0.00000E+00
    0.54337E-08        -0.87385E-10         0.00000E+00
    0.54305E-08        -0.12381E-09         0.00000E+00
    0.54256E-08        -0.15543E-09         0.00000E+00
    0.54186E-08        -0.18223E-09         0.00000E+00
    0.54090E-08        -0.20420E-09         0.00000E+00
    0.53950E-08        -0.22056E-09         0.00000E+00
    0.53769E-08        -0.22544E-09         0.00000E+00
    0.53597E-08        -0.21330E-09         0.00000E+00
    0.53455E-08        -0.18898E-09         0.00000E+00
    0.53327E-08        -0.15991E-09         0.00000E+00
    0.53218E-08        -0.12756E-09         0.00000E+00
    0.53134E-08        -0.90929E-10         0.00000E+00
    0.53081E-08        -0.48946E-10         0.00000E+00
    0.53068E-08        -0.26436E-10         0.00000E+00
    0.58729E-08        -0.23667E-10         0.00000E+00
    0.58719E-08        -0.44690E-10         0.00000E+00
    0.58688E-08        -0.84236E-10         0.00000E+00
    0.58633E-08        -0.11874E-09         0.00000E+00
    0.58552E-08        -0.14823E-09         0.00000E+00
    0.58447E-08        -0.17280E-09         0.00000E+00
    0.58321E-08        -0.19225E-09         0.00000E+00
    0.58173E-08        -0.20555E-09         0.00000E+00
    0.58005E-08        -0.20898E-09         0.00000E+00
    0.57853E-08        -0.19836E-09         0.00000E+00
    0.57732E-08        -0.17576E-09         0.00000E+00
    0.57624E-08        -0.14760E-09         0.00000E+00
    0.57520E-08        -0.11701E-09         0.00000E+00
    0.57428E-08        -0.83188E-10         0.00000E+00
    0.57358E-08        -0.45156E-10         0.00000E+00
    0.57328E-08        -0.25055E-10         0.00000E+00
    0.62942E-08        -0.22533E-10         0.00000E+00
    0.62928E-08        -0.42254E-10         0.00000E+00
    0.62880E-08        -0.78986E-10         0.00000E+00
    0.62793E-08        -0.11043E-09         0.00000E+00
    0.62671E-08        -0.13704E-09         0.00000E+00
    0.62521E-08        -0.15924E-09         0.00000E+00
    0.62351E-08        -0.17692E-09         0.00000E+00
    0.62169E-08        -0.18921E-09         0.00000E+00
    0.61982E-08        -0.19364E-09         0.00000E+00
    0.61820E-08        -0.18613E-09         0.00000E+00
    0.61709E-08        -0.16621E-09         0.00000E+00
    0.61635E-08        -0.13884E-09         0.00000E+00
    0.61566E-08        -0.10811E-09         0.00000E+00
    0.61495E-08        -0.74851E-10         0.00000E+00
    0.61430E-08        -0.39017E-10         0.00000E+00
    0.61385E-08        -0.20476E-10         0.00000E+00
    0.66981E-08        -0.21104E-10         0.00000E+00
    0.66966E-08        -0.38719E-10         0.00000E+00
    0.66895E-08        -0.70954E-10         0.00000E+00
    0.66766E-08        -0.97985E-10         0.00000E+00
    0.66596E-08        -0.12114E-09         0.00000E+00
    0.66399E-08        -0.14100E-09         0.00000E+00
    0.66187E-08        -0.15724E-09         0.00000E+00
    0.65965E-08        -0.16884E-09         0.00000E+00
    0.65740E-08        -0.17429E-09         0.00000E+00
    0.65532E-08        -0.17122E-09         0.00000E+00
    0.65375E-08        -0.15734E-09         0.00000E+00
    0.65281E-08        -0.13342E-09         0.00000E+00
    0.65222E-08        -0.10318E-09         0.00000E+00
    0.65178E-08        -0.69751E-10         0.00000E+00
    0.65143E-08        -0.34285E-10         0.00000E+00
    0.65119E-08        -0.16099E-10         0.00000E+00
    0.70834E-08        -0.19733E-10         0.00000E+00
    0.70814E-08        -0.33823E-10         0.00000E+00
    0.70710E-08        -0.59159E-10         0.00000E+00
    0.70533E-08        -0.80677E-10         0.00000E+00
    0.70316E-08        -0.10051E-09         0.00000E+00
    0.70080E-08        -0.11851E-09         0.00000E+00
    0.69831E-08        -0.13364E-09         0.00000E+00
    0.69575E-08        -0.14469E-09         0.00000E+00
    0.69317E-08        -0.15050E-09         0.00000E+00
    0.69068E-08        -0.14979E-09         0.00000E+00
    0.68850E-08        -0.14121E-09         0.00000E+00
    0.68688E-08        -0.12368E-09         0.00000E+00
    0.68586E-08        -0.97959E-10         0.00000E+00
    0.68532E-08        -0.66995E-10         0.00000E+00
    0.68512E-08        -0.33269E-10         0.00000E+00
    0.68512E-08        -0.15909E-10         0.00000E+00
    0.74488E-08        -0.17023E-10         0.00000E+00
    0.74440E-08        -0.26413E-10         0.00000E+00
    0.74298E-08        -0.43062E-10         0.00000E+00
    0.74081E-08        -0.58746E-10         0.00000E+00
    0.73829E-08        -0.75973E-10         0.00000E+00
    0.73563E-08        -0.92690E-10         0.00000E+00
    0.73287E-08        -0.10694E-09         0.00000E+00
    0.73005E-08        -0.11755E-09         0.00000E+00
    0.72722E-08        -0.12368E-09         0.00000E+00
    0.72447E-08        -0.12458E-09         0.00000E+00
    0.72196E-08        -0.11937E-09         0.00000E+00
    0.71986E-08        -0.10715E-09         0.00000E+00
    0.71835E-08        -0.87773E-10         0.00000E+00
    0.71749E-08        -0.62418E-10         0.00000E+00
    0.71714E-08        -0.32322E-10         0.00000E+00
    0.71707E-08        -0.16174E-10         0.00000E+00
    0.77917E-08        -0.10054E-10         0.00000E+00
    0.77839E-08        -0.14915E-10         0.00000E+00
    0.77670E-08        -0.23460E-10         0.00000E+00
    0.77426E-08        -0.33911E-10         0.00000E+00
    0.77143E-08        -0.48838E-10         0.00000E+00
    0.76852E-08        -0.64419E-10         0.00000E+00
    0.76554E-08        -0.77875E-10         0.00000E+00
    0.76251E-08        -0.88205E-10         0.00000E+00
    0.75951E-08        -0.94832E-10         0.00000E+00
    0.75662E-08        -0.97307E-10         0.00000E+00
    0.75397E-08        -0.95117E-10         0.00000E+00
    0.75169E-08        -0.87655E-10         0.00000E+00
    0.74995E-08        -0.74368E-10         0.00000E+00
    0.74881E-08        -0.54962E-10         0.00000E+00
    0.74822E-08        -0.29162E-10         0.00000E+00
    0.74802E-08        -0.14608E-10         0.00000E+00
    0.81116E-08        -0.15583E-11         0.00000E+00
    0.81037E-08        -0.18108E-11         0.00000E+00
    0.80854E-08        -0.18302E-11         0.00000E+00
    0.80588E-08        -0.61551E-11         0.00000E+00
    0.80269E-08        -0.18667E-10         0.00000E+00
    0.79946E-08        -0.33778E-10         0.00000E+00
    0.79626E-08        -0.46847E-10         0.00000E+00
    0.79307E-08        -0.57281E-10         0.00000E+00
    0.78997E-08        -0.64819E-10         0.00000E+00
    0.78703E-08        -0.69220E-10         0.00000E+00
    0.78435E-08        -0.70154E-10         0.00000E+00
    0.78205E-08        -0.67055E-10         0.00000E+00
    0.78021E-08        -0.59066E-10         0.00000E+00
    0.77890E-08        -0.45174E-10         0.00000E+00
    0.77813E-08        -0.24498E-10         0.00000E+00
    0.77789E-08        -0.12370E-10         0.00000E+00
    0.84070E-08         0.57441E-11         0.00000E+00
    0.84003E-08         0.11204E-10         0.00000E+00
    0.83818E-08         0.21386E-10         0.00000E+00
    0.83538E-08         0.24578E-10         0.00000E+00
    0.83193E-08         0.15328E-10         0.00000E+00
    0.82836E-08        -0.70482E-13         0.00000E+00
    0.82495E-08        -0.13982E-10         0.00000E+00
    0.82165E-08        -0.25293E-10         0.00000E+00
    0.81850E-08        -0.34344E-10         0.00000E+00
    0.81557E-08        -0.41117E-10         0.00000E+00
    0.81294E-08        -0.45313E-10         0.00000E+00
    0.81067E-08        -0.46285E-10         0.00000E+00
    0.80883E-08        -0.43018E-10         0.00000E+00
    0.80747E-08        -0.34312E-10         0.00000E+00
    0.80664E-08        -0.19136E-10         0.00000E+00
    0.80638E-08        -0.98254E-11         0.00000E+00
    0.86724E-08         0.11867E-10         0.00000E+00
    0.86665E-08         0.23429E-10         0.00000E+00
    0.86491E-08         0.44758E-10         0.00000E+00
    0.86218E-08         0.56444E-10         0.00000E+00
    0.85869E-08         0.51557E-10         0.00000E+00
    0.85498E-08         0.36107E-10         0.00000E+00
    0.85144E-08         0.20381E-10         0.00000E+00
    0.84809E-08         0.72600E-11         0.00000E+00
    0.84497E-08        -0.39836E-11         0.00000E+00
    0.84211E-08        -0.13533E-10         0.00000E+00
    0.83956E-08        -0.21105E-10         0.00000E+00
    0.83738E-08        -0.25990E-10         0.00000E+00
    0.83561E-08        -0.27145E-10         0.00000E+00
    0.83429E-08        -0.23380E-10         0.00000E+00
    0.83347E-08        -0.13666E-10         0.00000E+00
    0.83321E-08        -0.72134E-11         0.00000E+00
    0.89044E-08         0.17654E-10         0.00000E+00
    0.88988E-08         0.34587E-10         0.00000E+00
    0.88833E-08         0.66250E-10         0.00000E+00
    0.88584E-08         0.86979E-10         0.00000E+00
    0.88255E-08         0.87450E-10         0.00000E+00
    0.87898E-08         0.72539E-10         0.00000E+00
    0.87551E-08         0.55021E-10         0.00000E+00
    0.87224E-08         0.39586E-10         0.00000E+00
    0.86922E-08         0.25635E-10         0.00000E+00
    0.86650E-08         0.13004E-10         0.00000E+00
    0.86411E-08         0.19795E-11         0.00000E+00
    0.86207E-08        -0.67287E-11         0.00000E+00
    0.86042E-08        -0.12104E-10         0.00000E+00
    0.85920E-08        -0.13011E-10         0.00000E+00
    0.85844E-08        -0.84535E-11         0.00000E+00
    0.85819E-08        -0.47025E-11         0.00000E+00
    0.91020E-08         0.23207E-10         0.00000E+00
    0.90968E-08         0.44815E-10         0.00000E+00
    0.90829E-08         0.85513E-10         0.00000E+00
    0.90612E-08         0.11451E-09         0.00000E+00
    0.90324E-08         0.12040E-09         0.00000E+00
    0.90005E-08         0.10671E-09         0.00000E+00
    0.89689E-08         0.87963E-10         0.00000E+00
    0.89389E-08         0.70300E-10         0.00000E+00
    0.89113E-08         0.53543E-10         0.00000E+00
    0.88865E-08         0.37756E-10         0.00000E+00
    0.88649E-08         0.23317E-10         0.00000E+00
    0.88466E-08         0.10944E-10         0.00000E+00
    0.88318E-08         0.16089E-11         0.00000E+00
    0.88210E-08        -0.36016E-11         0.00000E+00
    0.88142E-08        -0.37191E-11         0.00000E+00
    0.88120E-08        -0.23990E-11         0.00000E+00
    0.92635E-08         0.28329E-10         0.00000E+00
    0.92589E-08         0.54043E-10         0.00000E+00
    0.92470E-08         0.10239E-09         0.00000E+00
    0.92291E-08         0.13795E-09         0.00000E+00
    0.92060E-08         0.14844E-09         0.00000E+00
    0.91800E-08         0.13631E-09         0.00000E+00
    0.91538E-08         0.11690E-09         0.00000E+00
    0.91287E-08         0.97487E-10         0.00000E+00
    0.91055E-08         0.78279E-10         0.00000E+00
    0.90846E-08         0.59629E-10         0.00000E+00
    0.90664E-08         0.42081E-10         0.00000E+00
    0.90510E-08         0.26396E-10         0.00000E+00
    0.90386E-08         0.13536E-10         0.00000E+00
    0.90295E-08         0.45469E-11         0.00000E+00
    0.90238E-08         0.38879E-12         0.00000E+00
    0.90219E-08        -0.37527E-12         0.00000E+00
    0.93867E-08         0.32727E-10         0.00000E+00
    0.93831E-08         0.61821E-10         0.00000E+00
    0.93740E-08         0.11600E-09         0.00000E+00
    0.93612E-08         0.15614E-09         0.00000E+00
    0.93451E-08         0.17001E-09         0.00000E+00
    0.93270E-08         0.15925E-09         0.00000E+00
    0.93085E-08         0.13956E-09         0.00000E+00
    0.92906E-08         0.11897E-09         0.00000E+00
    0.92739E-08         0.97969E-10         0.00000E+00
    0.92588E-08         0.77139E-10         0.00000E+00
    0.92454E-08         0.57169E-10         0.00000E+00
    0.92339E-08         0.38874E-10         0.00000E+00
    0.92245E-08         0.23194E-10         0.00000E+00
    0.92175E-08         0.11158E-10         0.00000E+00
    0.92132E-08         0.37469E-11         0.00000E+00
    0.92116E-08         0.13120E-11         0.00000E+00
    0.94694E-08         0.36085E-10         0.00000E+00
    0.94670E-08         0.67449E-10         0.00000E+00
    0.94619E-08         0.12511E-09         0.00000E+00
    0.94560E-08         0.16756E-09         0.00000E+00
    0.94490E-08         0.18329E-09         0.00000E+00
    0.94409E-08         0.17343E-09         0.00000E+00
    0.94325E-08         0.15369E-09         0.00000E+00
    0.94242E-08         0.13249E-09         0.00000E+00
    0.94163E-08         0.11051E-09         0.00000E+00
    0.94089E-08         0.88512E-10         0.00000E+00
    0.94020E-08         0.67241E-10         0.00000E+00
    0.93956E-08         0.47460E-10         0.00000E+00
    0.93899E-08         0.30030E-10         0.00000E+00
    0.93855E-08         0.15943E-10         0.00000E+00
    0.93826E-08         0.62425E-11         0.00000E+00
    0.93815E-08         0.26178E-11         0.00000E+00
    0.95086E-08         0.38086E-10         0.00000E+00
    0.95078E-08         0.70130E-10         0.00000E+00
    0.95083E-08         0.12807E-09         0.00000E+00
    0.95118E-08         0.16995E-09         0.00000E+00
    0.95170E-08         0.18579E-09         0.00000E+00
    0.95218E-08         0.17638E-09         0.00000E+00
    0.95261E-08         0.15683E-09         0.00000E+00
    0.95300E-08         0.13564E-09         0.00000E+00
    0.95333E-08         0.11371E-09         0.00000E+00
    0.95356E-08         0.91896E-10         0.00000E+00
    0.95366E-08         0.70848E-10         0.00000E+00
    0.95365E-08         0.51136E-10         0.00000E+00
    0.95355E-08         0.33413E-10         0.00000E+00
    0.95341E-08         0.18576E-10         0.00000E+00
    0.95329E-08         0.77524E-11         0.00000E+00
    0.95322E-08         0.34956E-11         0.00000E+00
    0.95006E-08         0.38234E-10         0.00000E+00
    0.95024E-08         0.68734E-10         0.00000E+00
    0.95108E-08         0.12245E-09         0.00000E+00
    0.95274E-08         0.15998E-09         0.00000E+00
    0.95491E-08         0.17414E-09         0.00000E+00
    0.95705E-08         0.16504E-09         0.00000E+00
    0.95908E-08         0.14617E-09         0.00000E+00
    0.96097E-08         0.12592E-09         0.00000E+00
    0.96263E-08         0.10546E-09         0.00000E+00
    0.96400E-08         0.85577E-10         0.00000E+00
    0.96504E-08         0.66648E-10         0.00000E+00
    0.96576E-08         0.48898E-10         0.00000E+00
    0.96620E-08         0.32681E-10         0.00000E+00
    0.96641E-08         0.18706E-10         0.00000E+00
    0.96648E-08         0.81606E-11         0.00000E+00
    0.96647E-08         0.39265E-11         0.00000E+00
    0.94402E-08         0.35438E-10         0.00000E+00
    0.94462E-08         0.61142E-10         0.00000E+00
    0.94678E-08         0.10457E-09         0.00000E+00
    0.95030E-08         0.13301E-09         0.00000E+00
    0.95463E-08         0.14365E-09         0.00000E+00
    0.95898E-08         0.13546E-09         0.00000E+00
    0.96300E-08         0.11843E-09         0.00000E+00
    0.96665E-08         0.10080E-09         0.00000E+00
    0.96980E-08         0.83980E-10         0.00000E+00
    0.97240E-08         0.68291E-10         0.00000E+00
    0.97445E-08         0.53626E-10         0.00000E+00
    0.97598E-08         0.39886E-10         0.00000E+00
    0.97702E-08         0.27150E-10         0.00000E+00
    0.97765E-08         0.15935E-10         0.00000E+00
    0.97795E-08         0.73655E-11         0.00000E+00
    0.97796E-08         0.39184E-11         0.00000E+00
    0.93165E-08         0.27058E-10         0.00000E+00
    0.93349E-08         0.42587E-10         0.00000E+00
    0.93794E-08         0.67492E-10         0.00000E+00
    0.94415E-08         0.82933E-10         0.00000E+00
    0.95140E-08         0.88503E-10         0.00000E+00
    0.95864E-08         0.82260E-10         0.00000E+00
    0.96505E-08         0.70225E-10         0.00000E+00
    0.97056E-08         0.58548E-10         0.00000E+00
    0.97519E-08         0.48501E-10         0.00000E+00
    0.97901E-08         0.39585E-10         0.00000E+00
    0.98207E-08         0.31327E-10         0.00000E+00
    0.98442E-08         0.23564E-10         0.00000E+00
    0.98610E-08         0.16288E-10         0.00000E+00
    0.98717E-08         0.96722E-11         0.00000E+00
    0.98773E-08         0.52297E-11         0.00000E+00
    0.98794E-08         0.38915E-11         0.00000E+00
    0.92371E-08         0.00000E+00         0.00000E+00
    0.92648E-08         0.00000E+00         0.00000E+00
    0.93242E-08        -0.24851E-22         0.00000E+00
    0.94020E-08         0.21405E-26         0.00000E+00
    0.94917E-08         0.28995E-22         0.00000E+00
    0.95802E-08         0.00000E+00         0.00000E+00
    0.96571E-08         0.00000E+00         0.00000E+00
    0.97214E-08        -0.24857E-22         0.00000E+00
    0.97749E-08        -0.29000E-22         0.00000E+00
    0.98190E-08         0.29002E-22         0.00000E+00
    0.98546E-08         0.33145E-22         0.00000E+00
    0.98821E-08        -0.33146E-22         0.00000E+00
    0.99021E-08        -0.41429E-23         0.00000E+00
    0.99150E-08         0.33147E-22         0.00000E+00
    0.99219E-08         0.82869E-23         0.00000E+00
    0.99259E-08         0.00000E+00         0.00000E+00
CELL_DATA        450
TENSORS stressef double 
   -0.25293E+06         0.54377E+04         0.00000E+00
    0.54377E+04        -0.23567E+08         0.00000E+00
    0.00000E+00         0.00000E+00        -0.62009E+07
 
   -0.26905E+06         0.15290E+05         0.00000E+00
    0.15290E+05        -0.23553E+08         0.00000E+00
    0.00000E+00         0.00000E+00        -0.61419E+07
 
   -0.29316E+06         0.23989E+05         0.00000E+00
    0.23989E+05        -0.23528E+08         0.00000E+00
    0.00000E+00         0.00000E+00        -0.60457E+07
 
   -0.33268E+06         0.31188E+05         0.00000E+00
    0.31188E+05        -0.23494E+08         0.00000E+00
    0.00000E+00         0.00000E+00        -0.59041E+07
 
   -0.39732E+06         0.36522E+05         0.00000E+00
    0.36522E+05        -0.23454E+08         0.00000E+00
    0.00000E+00         0.00000E+00        -0.57079E+07
 
   -0.49200E+06         0.39835E+05         0.00000E+00
    0.39835E+05        -0.23413E+08         0.00000E+00
    0.00000E+00         0.00000E+00        -0.54601E+07
 
   -0.61874E+06         0.41462E+05         0.00000E+00
    0.41462E+05        -0.23373E+08         0.00000E+00
    0.00000E+00         0.00000E+00        -0.51703E+07
 
   -0.81184E+06         0.41664E+05         0.00000E+00
    0.41664E+05        -0.23338E+08         0.00000E+00
    0.00000E+00         0.00000E+00        -0.48847E+07
 
   -0.14913E+07         0.42803E+05         0.00000E+00
    0.42803E+05        -0.23300E+08         0.00000E+00
    0.00000E+00         0.00000E+00        -0.49582E+07
 
   -0.22161E+07         0.47592E+05         0.00000E+00
    0.47592E+05        -0.23252E+08         0.00000E+00
    0.00000E+00         0.00000E+00        -0.50936E+07
 
   -0.28932E+07         0.55861E+05         0.00000E+00
    0.55861E+05        -0.23185E+08         0.00000E+00
    0.00000E+00         0.00000E+00        -0.52157E+07
 
   -0.35333E+07         0.67313E+05         0.00000E+00
    0.67313E+05        -0.23093E+08         0.00000E+00
    0.00000E+00         0.00000E+00        -0.53253E+07
 
   -0.41463E+07         0.81736E+05         0.00000E+00
    0.81736E+05        -0.22968E+08         0.00000E+00
    0.00000E+00         0.00000E+00        -0.54229E+07
 
   -0.47415E+07         0.98998E+05         0.00000E+00
    0.98998E+05        -0.22805E+08         0.00000E+00
    0.00000E+00         0.00000E+00        -0.55093E+07
 
   -0.53279E+07         0.11901E+06         0.00000E+00
    0.11901E+06        -0.22596E+08         0.00000E+00
    0.00000E+00         0.00000E+00        -0.55848E+07
 
   -0.30544E+06         0.16110E+05         0.00000E+00
    0.16110E+05        -0.23640E+08         0.00000E+00
    0.00000E+00         0.00000E+00        -0.62383E+07
 
   -0.32328E+06         0.45532E+05         0.00000E+00
    0.45532E+05        -0.23627E+08         0.00000E+00
    0.00000E+00         0.00000E+00        -0.61776E+07
 
   -0.34973E+06         0.71604E+05         0.00000E+00
    0.71604E+05        -0.23602E+08         0.00000E+00
    0.00000E+00         0.00000E+00        -0.60787E+07
 
   -0.39255E+06         0.92897E+05         0.00000E+00
    0.92897E+05        -0.23569E+08         0.00000E+00
    0.00000E+00         0.00000E+00        -0.59333E+07
 
   -0.46102E+06         0.10855E+06         0.00000E+00
    0.10855E+06        -0.23531E+08         0.00000E+00
    0.00000E+00         0.00000E+00        -0.57340E+07
 
   -0.55923E+06         0.11813E+06         0.00000E+00
    0.11813E+06        -0.23492E+08         0.00000E+00
    0.00000E+00         0.00000E+00        -0.54856E+07
 
   -0.68888E+06         0.12274E+06         0.00000E+00
    0.12274E+06        -0.23455E+08         0.00000E+00
    0.00000E+00         0.00000E+00        -0.51973E+07
 
   -0.88428E+06         0.12324E+06         0.00000E+00
    0.12324E+06        -0.23422E+08         0.00000E+00
    0.00000E+00         0.00000E+00        -0.49157E+07
 
   -0.15570E+07         0.12690E+06         0.00000E+00
    0.12690E+06        -0.23388E+08         0.00000E+00
    0.00000E+00         0.00000E+00        -0.49890E+07
 
   -0.22744E+07         0.14148E+06         0.00000E+00
    0.14148E+06        -0.23342E+08         0.00000E+00
    0.00000E+00         0.00000E+00        -0.51233E+07
 
   -0.29447E+07         0.16643E+06         0.00000E+00
    0.16643E+06        -0.23278E+08         0.00000E+00
    0.00000E+00         0.00000E+00        -0.52445E+07
 
   -0.35785E+07         0.20084E+06         0.00000E+00
    0.20084E+06        -0.23188E+08         0.00000E+00
    0.00000E+00         0.00000E+00        -0.53533E+07
 
   -0.41857E+07         0.24411E+06         0.00000E+00
    0.24411E+06        -0.23065E+08         0.00000E+00
    0.00000E+00         0.00000E+00        -0.54502E+07
 
   -0.47753E+07         0.29587E+06         0.00000E+00
    0.29587E+06        -0.22904E+08         0.00000E+00
    0.00000E+00         0.00000E+00        -0.55359E+07
 
   -0.53562E+07         0.35587E+06         0.00000E+00
    0.35587E+06        -0.22697E+08         0.00000E+00
    0.00000E+00         0.00000E+00        -0.56107E+07
 
   -0.41054E+06         0.26255E+05         0.00000E+00
    0.26255E+05        -0.23786E+08         0.00000E+00
    0.00000E+00         0.00000E+00        -0.63118E+07
 
   -0.43179E+06         0.74845E+05         0.00000E+00
    0.74845E+05        -0.23773E+08         0.00000E+00
    0.00000E+00         0.00000E+00        -0.62475E+07
 
   -0.46320E+06         0.11773E+06         0.00000E+00
    0.11773E+06        -0.23751E+08         0.00000E+00
    0.00000E+00         0.00000E+00        -0.61438E+07
 
   -0.51277E+06         0.15250E+06         0.00000E+00
    0.15250E+06        -0.23720E+08         0.00000E+00
    0.00000E+00         0.00000E+00        -0.59921E+07
 
   -0.58904E+06         0.17742E+06         0.00000E+00
    0.17742E+06        -0.23685E+08         0.00000E+00
    0.00000E+00         0.00000E+00        -0.57869E+07
 
   -0.69415E+06         0.19232E+06         0.00000E+00
    0.19232E+06        -0.23650E+08         0.00000E+00
    0.00000E+00         0.00000E+00        -0.55372E+07
 
   -0.82958E+06         0.19915E+06         0.00000E+00
    0.19915E+06        -0.23619E+08         0.00000E+00
    0.00000E+00         0.00000E+00        -0.52522E+07
 
   -0.10287E+07         0.19974E+06         0.00000E+00
    0.19974E+06        -0.23593E+08         0.00000E+00
    0.00000E+00         0.00000E+00        -0.49778E+07
 
   -0.16878E+07         0.20651E+06         0.00000E+00
    0.20651E+06        -0.23564E+08         0.00000E+00
    0.00000E+00         0.00000E+00        -0.50503E+07
 
   -0.23903E+07         0.23159E+06         0.00000E+00
    0.23159E+06        -0.23523E+08         0.00000E+00
    0.00000E+00         0.00000E+00        -0.51827E+07
 
   -0.30473E+07         0.27361E+06         0.00000E+00
    0.27361E+06        -0.23463E+08         0.00000E+00
    0.00000E+00         0.00000E+00        -0.53021E+07
 
   -0.36689E+07         0.33110E+06         0.00000E+00
    0.33110E+06        -0.23377E+08         0.00000E+00
    0.00000E+00         0.00000E+00        -0.54093E+07
 
   -0.42644E+07         0.40322E+06         0.00000E+00
    0.40322E+06        -0.23259E+08         0.00000E+00
    0.00000E+00         0.00000E+00        -0.55047E+07
 
   -0.48428E+07         0.48940E+06         0.00000E+00
    0.48940E+06        -0.23102E+08         0.00000E+00
    0.00000E+00         0.00000E+00        -0.55889E+07
 
   -0.54127E+07         0.58926E+06         0.00000E+00
    0.58926E+06        -0.22900E+08         0.00000E+00
    0.00000E+00         0.00000E+00        -0.56625E+07
 
   -0.56883E+06         0.35484E+05         0.00000E+00
    0.35484E+05        -0.24004E+08         0.00000E+00
    0.00000E+00         0.00000E+00        -0.64211E+07
 
   -0.59482E+06         0.10220E+06         0.00000E+00
    0.10220E+06        -0.23994E+08         0.00000E+00
    0.00000E+00         0.00000E+00        -0.63524E+07
 
   -0.63412E+06         0.16108E+06         0.00000E+00
    0.16108E+06        -0.23974E+08         0.00000E+00
    0.00000E+00         0.00000E+00        -0.62411E+07
 
   -0.69447E+06         0.20820E+06         0.00000E+00
    0.20820E+06        -0.23947E+08         0.00000E+00
    0.00000E+00         0.00000E+00        -0.60797E+07
 
   -0.78203E+06         0.24086E+06         0.00000E+00
    0.24086E+06        -0.23918E+08         0.00000E+00
    0.00000E+00         0.00000E+00        -0.58679E+07
 
   -0.89768E+06         0.25974E+06         0.00000E+00
    0.25974E+06        -0.23890E+08         0.00000E+00
    0.00000E+00         0.00000E+00        -0.56162E+07
 
   -0.10413E+07         0.26758E+06         0.00000E+00
    0.26758E+06        -0.23867E+08         0.00000E+00
    0.00000E+00         0.00000E+00        -0.53364E+07
 
   -0.12443E+07         0.26827E+06         0.00000E+00
    0.26827E+06        -0.23849E+08         0.00000E+00
    0.00000E+00         0.00000E+00        -0.50718E+07
 
   -0.18822E+07         0.27898E+06         0.00000E+00
    0.27898E+06        -0.23828E+08         0.00000E+00
    0.00000E+00         0.00000E+00        -0.51420E+07
 
   -0.25629E+07         0.31573E+06         0.00000E+00
    0.31573E+06        -0.23794E+08         0.00000E+00
    0.00000E+00         0.00000E+00        -0.52715E+07
 
   -0.32005E+07         0.37526E+06         0.00000E+00
    0.37526E+06        -0.23741E+08         0.00000E+00
    0.00000E+00         0.00000E+00        -0.53883E+07
 
   -0.38039E+07         0.45599E+06         0.00000E+00
    0.45599E+06        -0.23661E+08         0.00000E+00
    0.00000E+00         0.00000E+00        -0.54930E+07
 
   -0.43820E+07         0.55690E+06         0.00000E+00
    0.55690E+06        -0.23549E+08         0.00000E+00
    0.00000E+00         0.00000E+00        -0.55862E+07
 
   -0.49437E+07         0.67735E+06         0.00000E+00
    0.67735E+06        -0.23398E+08         0.00000E+00
    0.00000E+00         0.00000E+00        -0.56683E+07
 
   -0.54974E+07         0.81688E+06         0.00000E+00
    0.81688E+06        -0.23203E+08         0.00000E+00
    0.00000E+00         0.00000E+00        -0.57400E+07
 
   -0.78132E+06         0.43353E+05         0.00000E+00
    0.43353E+05        -0.24293E+08         0.00000E+00
    0.00000E+00         0.00000E+00        -0.65623E+07
 
   -0.81305E+06         0.12620E+06         0.00000E+00
    0.12620E+06        -0.24286E+08         0.00000E+00
    0.00000E+00         0.00000E+00        -0.64899E+07
 
   -0.86291E+06         0.19964E+06         0.00000E+00
    0.19964E+06        -0.24272E+08         0.00000E+00
    0.00000E+00         0.00000E+00        -0.63714E+07
 
   -0.93884E+06         0.25750E+06         0.00000E+00
    0.25750E+06        -0.24252E+08         0.00000E+00
    0.00000E+00         0.00000E+00        -0.61981E+07
 
   -0.10414E+07         0.29651E+06         0.00000E+00
    0.29651E+06        -0.24231E+08         0.00000E+00
    0.00000E+00         0.00000E+00        -0.59785E+07
 
   -0.11711E+07         0.31797E+06         0.00000E+00
    0.31797E+06        -0.24212E+08         0.00000E+00
    0.00000E+00         0.00000E+00        -0.57245E+07
 
   -0.13242E+07         0.32550E+06         0.00000E+00
    0.32550E+06        -0.24199E+08         0.00000E+00
    0.00000E+00         0.00000E+00        -0.54520E+07
 
   -0.15309E+07         0.32631E+06         0.00000E+00
    0.32631E+06        -0.24190E+08         0.00000E+00
    0.00000E+00         0.00000E+00        -0.51998E+07
 
   -0.21373E+07         0.34240E+06         0.00000E+00
    0.34240E+06        -0.24180E+08         0.00000E+00
    0.00000E+00         0.00000E+00        -0.52634E+07
 
   -0.27912E+07         0.39182E+06         0.00000E+00
    0.39182E+06        -0.24155E+08         0.00000E+00
    0.00000E+00         0.00000E+00        -0.53893E+07
 
   -0.34035E+07         0.46938E+06         0.00000E+00
    0.46938E+06        -0.24110E+08         0.00000E+00
    0.00000E+00         0.00000E+00        -0.55027E+07
 
   -0.39831E+07         0.57351E+06         0.00000E+00
    0.57351E+06        -0.24038E+08         0.00000E+00
    0.00000E+00         0.00000E+00        -0.56042E+07
 
   -0.45384E+07         0.70310E+06         0.00000E+00
    0.70310E+06        -0.23934E+08         0.00000E+00
    0.00000E+00         0.00000E+00        -0.56944E+07
 
   -0.50778E+07         0.85753E+06         0.00000E+00
    0.85753E+06        -0.23791E+08         0.00000E+00
    0.00000E+00         0.00000E+00        -0.57738E+07
 
   -0.56098E+07         0.10364E+07         0.00000E+00
    0.10364E+07        -0.23605E+08         0.00000E+00
    0.00000E+00         0.00000E+00        -0.58429E+07
 
   -0.10499E+07         0.49550E+05         0.00000E+00
    0.49550E+05        -0.24654E+08         0.00000E+00
    0.00000E+00         0.00000E+00        -0.67319E+07
 
   -0.10878E+07         0.14539E+06         0.00000E+00
    0.14539E+06        -0.24651E+08         0.00000E+00
    0.00000E+00         0.00000E+00        -0.66561E+07
 
   -0.11518E+07         0.23034E+06         0.00000E+00
    0.23034E+06        -0.24644E+08         0.00000E+00
    0.00000E+00         0.00000E+00        -0.65288E+07
 
   -0.12456E+07         0.29680E+06         0.00000E+00
    0.29680E+06        -0.24635E+08         0.00000E+00
    0.00000E+00         0.00000E+00        -0.63472E+07
 
   -0.13683E+07         0.34136E+06         0.00000E+00
    0.34136E+06        -0.24626E+08         0.00000E+00
    0.00000E+00         0.00000E+00        -0.61208E+07
 
   -0.15149E+07         0.36487E+06         0.00000E+00
    0.36487E+06        -0.24619E+08         0.00000E+00
    0.00000E+00         0.00000E+00        -0.58666E+07
 
   -0.16788E+07         0.37171E+06         0.00000E+00
    0.37171E+06        -0.24617E+08         0.00000E+00
    0.00000E+00         0.00000E+00        -0.56022E+07
 
   -0.18858E+07         0.37222E+06         0.00000E+00
    0.37222E+06        -0.24618E+08         0.00000E+00
    0.00000E+00         0.00000E+00        -0.53613E+07
 
   -0.24522E+07         0.39492E+06         0.00000E+00
    0.39492E+06        -0.24620E+08         0.00000E+00
    0.00000E+00         0.00000E+00        -0.54143E+07
 
   -0.30735E+07         0.45795E+06         0.00000E+00
    0.45795E+06        -0.24605E+08         0.00000E+00
    0.00000E+00         0.00000E+00        -0.55357E+07
 
   -0.36552E+07         0.55423E+06         0.00000E+00
    0.55423E+06        -0.24569E+08         0.00000E+00
    0.00000E+00         0.00000E+00        -0.56449E+07
 
   -0.42058E+07         0.68185E+06         0.00000E+00
    0.68185E+06        -0.24507E+08         0.00000E+00
    0.00000E+00         0.00000E+00        -0.57425E+07
 
   -0.47330E+07         0.83981E+06         0.00000E+00
    0.83981E+06        -0.24412E+08         0.00000E+00
    0.00000E+00         0.00000E+00        -0.58290E+07
 
   -0.52449E+07         0.10278E+07         0.00000E+00
    0.10278E+07        -0.24280E+08         0.00000E+00
    0.00000E+00         0.00000E+00        -0.59050E+07
 
   -0.57497E+07         0.12455E+07         0.00000E+00
    0.12455E+07        -0.24105E+08         0.00000E+00
    0.00000E+00         0.00000E+00        -0.59709E+07
 
   -0.13770E+07         0.53802E+05         0.00000E+00
    0.53802E+05        -0.25085E+08         0.00000E+00
    0.00000E+00         0.00000E+00        -0.69239E+07
 
   -0.14223E+07         0.15835E+06         0.00000E+00
    0.15835E+06        -0.25086E+08         0.00000E+00
    0.00000E+00         0.00000E+00        -0.68454E+07
 
   -0.15018E+07         0.25000E+06         0.00000E+00
    0.25000E+06        -0.25089E+08         0.00000E+00
    0.00000E+00         0.00000E+00        -0.67110E+07
 
   -0.16170E+07         0.32164E+06         0.00000E+00
    0.32164E+06        -0.25095E+08         0.00000E+00
    0.00000E+00         0.00000E+00        -0.65236E+07
 
   -0.17624E+07         0.37065E+06         0.00000E+00
    0.37065E+06        -0.25103E+08         0.00000E+00
    0.00000E+00         0.00000E+00        -0.62964E+07
 
   -0.19277E+07         0.39786E+06         0.00000E+00
    0.39786E+06        -0.25113E+08         0.00000E+00
    0.00000E+00         0.00000E+00        -0.60478E+07
 
   -0.21054E+07         0.40596E+06         0.00000E+00
    0.40596E+06        -0.25123E+08         0.00000E+00
    0.00000E+00         0.00000E+00        -0.57923E+07
 
   -0.23073E+07         0.40549E+06         0.00000E+00
    0.40549E+06        -0.25134E+08         0.00000E+00
    0.00000E+00         0.00000E+00        -0.55572E+07
 
   -0.28248E+07         0.43505E+06         0.00000E+00
    0.43505E+06        -0.25147E+08         0.00000E+00
    0.00000E+00         0.00000E+00        -0.55944E+07
 
   -0.34080E+07         0.51302E+06         0.00000E+00
    0.51302E+06        -0.25144E+08         0.00000E+00
    0.00000E+00         0.00000E+00        -0.57104E+07
 
   -0.39546E+07         0.62855E+06         0.00000E+00
    0.62855E+06        -0.25118E+08         0.00000E+00
    0.00000E+00         0.00000E+00        -0.58145E+07
 
   -0.44716E+07         0.77941E+06         0.00000E+00
    0.77941E+06        -0.25066E+08         0.00000E+00
    0.00000E+00         0.00000E+00        -0.59075E+07
 
   -0.49657E+07         0.96517E+06         0.00000E+00
    0.96517E+06        -0.24983E+08         0.00000E+00
    0.00000E+00         0.00000E+00        -0.59897E+07
 
   -0.54447E+07         0.11859E+07         0.00000E+00
    0.11859E+07        -0.24863E+08         0.00000E+00
    0.00000E+00         0.00000E+00        -0.60616E+07
 
   -0.59168E+07         0.14418E+07         0.00000E+00
    0.14418E+07        -0.24701E+08         0.00000E+00
    0.00000E+00         0.00000E+00        -0.61236E+07
 
   -0.17660E+07         0.55942E+05         0.00000E+00
    0.55942E+05        -0.25586E+08         0.00000E+00
    0.00000E+00         0.00000E+00        -0.71334E+07
 
   -0.18203E+07         0.16360E+06         0.00000E+00
    0.16360E+06        -0.25592E+08         0.00000E+00
    0.00000E+00         0.00000E+00        -0.70502E+07
 
   -0.19175E+07         0.25567E+06         0.00000E+00
    0.25567E+06        -0.25606E+08         0.00000E+00
    0.00000E+00         0.00000E+00        -0.69101E+07
 
   -0.20554E+07         0.32746E+06         0.00000E+00
    0.32746E+06        -0.25630E+08         0.00000E+00
    0.00000E+00         0.00000E+00        -0.67219E+07
 
   -0.22212E+07         0.37955E+06         0.00000E+00
    0.37955E+06        -0.25659E+08         0.00000E+00
    0.00000E+00         0.00000E+00        -0.65048E+07
 
   -0.24060E+07         0.41262E+06         0.00000E+00
    0.41262E+06        -0.25690E+08         0.00000E+00
    0.00000E+00         0.00000E+00        -0.62704E+07
 
   -0.26002E+07         0.42634E+06         0.00000E+00
    0.42634E+06        -0.25718E+08         0.00000E+00
    0.00000E+00         0.00000E+00        -0.60282E+07
 
   -0.27965E+07         0.42743E+06         0.00000E+00
    0.42743E+06        -0.25743E+08         0.00000E+00
    0.00000E+00         0.00000E+00        -0.57938E+07
 
   -0.32529E+07         0.46240E+06         0.00000E+00
    0.46240E+06        -0.25762E+08         0.00000E+00
    0.00000E+00         0.00000E+00        -0.58030E+07
 
   -0.37930E+07         0.55686E+06         0.00000E+00
    0.55686E+06        -0.25769E+08         0.00000E+00
    0.00000E+00         0.00000E+00        -0.59124E+07
 
   -0.43010E+07         0.69117E+06         0.00000E+00
    0.69117E+06        -0.25754E+08         0.00000E+00
    0.00000E+00         0.00000E+00        -0.60110E+07
 
   -0.47799E+07         0.86479E+06         0.00000E+00
    0.86479E+06        -0.25714E+08         0.00000E+00
    0.00000E+00         0.00000E+00        -0.60987E+07
 
   -0.52363E+07         0.10774E+07         0.00000E+00
    0.10774E+07        -0.25643E+08         0.00000E+00
    0.00000E+00         0.00000E+00        -0.61759E+07
 
   -0.56772E+07         0.13297E+07         0.00000E+00
    0.13297E+07        -0.25538E+08         0.00000E+00
    0.00000E+00         0.00000E+00        -0.62430E+07
 
   -0.61109E+07         0.16228E+07         0.00000E+00
    0.16228E+07        -0.25392E+08         0.00000E+00
    0.00000E+00         0.00000E+00        -0.63006E+07
 
   -0.22209E+07         0.55633E+05         0.00000E+00
    0.55633E+05        -0.26155E+08         0.00000E+00
    0.00000E+00         0.00000E+00        -0.73541E+07
 
   -0.22869E+07         0.15959E+06         0.00000E+00
    0.15959E+06        -0.26168E+08         0.00000E+00
    0.00000E+00         0.00000E+00        -0.72653E+07
 
   -0.24052E+07         0.24503E+06         0.00000E+00
    0.24503E+06        -0.26196E+08         0.00000E+00
    0.00000E+00         0.00000E+00        -0.71174E+07
 
   -0.25613E+07         0.31199E+06         0.00000E+00
    0.31199E+06        -0.26237E+08         0.00000E+00
    0.00000E+00         0.00000E+00        -0.69375E+07
 
   -0.27441E+07         0.36425E+06         0.00000E+00
    0.36425E+06        -0.26289E+08         0.00000E+00
    0.00000E+00         0.00000E+00        -0.67411E+07
 
   -0.29447E+07         0.40381E+06         0.00000E+00
    0.40381E+06        -0.26344E+08         0.00000E+00
    0.00000E+00         0.00000E+00        -0.65337E+07
 
   -0.31549E+07         0.42998E+06         0.00000E+00
    0.42998E+06        -0.26395E+08         0.00000E+00
    0.00000E+00         0.00000E+00        -0.63156E+07
 
   -0.33586E+07         0.43931E+06         0.00000E+00
    0.43931E+06        -0.26432E+08         0.00000E+00
    0.00000E+00         0.00000E+00        -0.60930E+07
 
   -0.37302E+07         0.47748E+06         0.00000E+00
    0.47748E+06        -0.26458E+08         0.00000E+00
    0.00000E+00         0.00000E+00        -0.60430E+07
 
   -0.42282E+07         0.58741E+06         0.00000E+00
    0.58741E+06        -0.26479E+08         0.00000E+00
    0.00000E+00         0.00000E+00        -0.61414E+07
 
   -0.46932E+07         0.74089E+06         0.00000E+00
    0.74089E+06        -0.26477E+08         0.00000E+00
    0.00000E+00         0.00000E+00        -0.62339E+07
 
   -0.51304E+07         0.93698E+06         0.00000E+00
    0.93698E+06        -0.26448E+08         0.00000E+00
    0.00000E+00         0.00000E+00        -0.63157E+07
 
   -0.55451E+07         0.11751E+07         0.00000E+00
    0.11751E+07        -0.26391E+08         0.00000E+00
    0.00000E+00         0.00000E+00        -0.63872E+07
 
   -0.59427E+07         0.14571E+07         0.00000E+00
    0.14571E+07        -0.26302E+08         0.00000E+00
    0.00000E+00         0.00000E+00        -0.64489E+07
 
   -0.63316E+07         0.17857E+07         0.00000E+00
    0.17857E+07        -0.26174E+08         0.00000E+00
    0.00000E+00         0.00000E+00        -0.65011E+07
 
   -0.27457E+07         0.51890E+05         0.00000E+00
    0.51890E+05        -0.26791E+08         0.00000E+00
    0.00000E+00         0.00000E+00        -0.75810E+07
 
   -0.28303E+07         0.14472E+06         0.00000E+00
    0.14472E+06        -0.26812E+08         0.00000E+00
    0.00000E+00         0.00000E+00        -0.74771E+07
 
   -0.29677E+07         0.21744E+06         0.00000E+00
    0.21744E+06        -0.26853E+08         0.00000E+00
    0.00000E+00         0.00000E+00        -0.73283E+07
 
   -0.31387E+07         0.27512E+06         0.00000E+00
    0.27512E+06        -0.26914E+08         0.00000E+00
    0.00000E+00         0.00000E+00        -0.71648E+07
 
   -0.33315E+07         0.32345E+06         0.00000E+00
    0.32345E+06        -0.26988E+08         0.00000E+00
    0.00000E+00         0.00000E+00        -0.69986E+07
 
   -0.35401E+07         0.36687E+06         0.00000E+00
    0.36687E+06        -0.27068E+08         0.00000E+00
    0.00000E+00         0.00000E+00        -0.68297E+07
 
   -0.37597E+07         0.40720E+06         0.00000E+00
    0.40720E+06        -0.27147E+08         0.00000E+00
    0.00000E+00         0.00000E+00        -0.66519E+07
 
   -0.39832E+07         0.43872E+06         0.00000E+00
    0.43872E+06        -0.27212E+08         0.00000E+00
    0.00000E+00         0.00000E+00        -0.64561E+07
 
   -0.42640E+07         0.48376E+06         0.00000E+00
    0.48376E+06        -0.27249E+08         0.00000E+00
    0.00000E+00         0.00000E+00        -0.63244E+07
 
   -0.47112E+07         0.60317E+06         0.00000E+00
    0.60317E+06        -0.27275E+08         0.00000E+00
    0.00000E+00         0.00000E+00        -0.63972E+07
 
   -0.51295E+07         0.77795E+06         0.00000E+00
    0.77795E+06        -0.27283E+08         0.00000E+00
    0.00000E+00         0.00000E+00        -0.64825E+07
 
   -0.55233E+07         0.99541E+06         0.00000E+00
    0.99541E+06        -0.27267E+08         0.00000E+00
    0.00000E+00         0.00000E+00        -0.65580E+07
 
   -0.58928E+07         0.12570E+07         0.00000E+00
    0.12570E+07        -0.27224E+08         0.00000E+00
    0.00000E+00         0.00000E+00        -0.66233E+07
 
   -0.62423E+07         0.15657E+07         0.00000E+00
    0.15657E+07        -0.27151E+08         0.00000E+00
    0.00000E+00         0.00000E+00        -0.66788E+07
 
   -0.65792E+07         0.19272E+07         0.00000E+00
    0.19272E+07        -0.27045E+08         0.00000E+00
    0.00000E+00         0.00000E+00        -0.67249E+07
 
   -0.33474E+07         0.43558E+05         0.00000E+00
    0.43558E+05        -0.27493E+08         0.00000E+00
    0.00000E+00         0.00000E+00        -0.78033E+07
 
   -0.34542E+07         0.11799E+06         0.00000E+00
    0.11799E+06        -0.27522E+08         0.00000E+00
    0.00000E+00         0.00000E+00        -0.76839E+07
 
   -0.36090E+07         0.17302E+06         0.00000E+00
    0.17302E+06        -0.27578E+08         0.00000E+00
    0.00000E+00         0.00000E+00        -0.75397E+07
 
   -0.37895E+07         0.21744E+06         0.00000E+00
    0.21744E+06        -0.27657E+08         0.00000E+00
    0.00000E+00         0.00000E+00        -0.74003E+07
 
   -0.39856E+07         0.25838E+06         0.00000E+00
    0.25838E+06        -0.27751E+08         0.00000E+00
    0.00000E+00         0.00000E+00        -0.72714E+07
 
   -0.41930E+07         0.30158E+06         0.00000E+00
    0.30158E+06        -0.27855E+08         0.00000E+00
    0.00000E+00         0.00000E+00        -0.71486E+07
 
   -0.44102E+07         0.35124E+06         0.00000E+00
    0.35124E+06        -0.27959E+08         0.00000E+00
    0.00000E+00         0.00000E+00        -0.70219E+07
 
   -0.46393E+07         0.40886E+06         0.00000E+00
    0.40886E+06        -0.28053E+08         0.00000E+00
    0.00000E+00         0.00000E+00        -0.68740E+07
 
   -0.48747E+07         0.48165E+06         0.00000E+00
    0.48165E+06        -0.28124E+08         0.00000E+00
    0.00000E+00         0.00000E+00        -0.67038E+07
 
   -0.52316E+07         0.60974E+06         0.00000E+00
    0.60974E+06        -0.28155E+08         0.00000E+00
    0.00000E+00         0.00000E+00        -0.66842E+07
 
   -0.56110E+07         0.80148E+06         0.00000E+00
    0.80148E+06        -0.28172E+08         0.00000E+00
    0.00000E+00         0.00000E+00        -0.67566E+07
 
   -0.59578E+07         0.10407E+07         0.00000E+00
    0.10407E+07        -0.28167E+08         0.00000E+00
    0.00000E+00         0.00000E+00        -0.68249E+07
 
   -0.62815E+07         0.13225E+07         0.00000E+00
    0.13225E+07        -0.28137E+08         0.00000E+00
    0.00000E+00         0.00000E+00        -0.68838E+07
 
   -0.65785E+07         0.16533E+07         0.00000E+00
    0.16533E+07        -0.28084E+08         0.00000E+00
    0.00000E+00         0.00000E+00        -0.69324E+07
 
   -0.68545E+07         0.20431E+07         0.00000E+00
    0.20431E+07        -0.28002E+08         0.00000E+00
    0.00000E+00         0.00000E+00        -0.69714E+07
 
   -0.40336E+07         0.30266E+05         0.00000E+00
    0.30266E+05        -0.28259E+08         0.00000E+00
    0.00000E+00         0.00000E+00        -0.80135E+07
 
   -0.41635E+07         0.78529E+05         0.00000E+00
    0.78529E+05        -0.28297E+08         0.00000E+00
    0.00000E+00         0.00000E+00        -0.78818E+07
 
   -0.43307E+07         0.11180E+06         0.00000E+00
    0.11180E+06        -0.28367E+08         0.00000E+00
    0.00000E+00         0.00000E+00        -0.77519E+07
 
   -0.45145E+07         0.14027E+06         0.00000E+00
    0.14027E+06        -0.28462E+08         0.00000E+00
    0.00000E+00         0.00000E+00        -0.76442E+07
 
   -0.47074E+07         0.17168E+06         0.00000E+00
    0.17168E+06        -0.28575E+08         0.00000E+00
    0.00000E+00         0.00000E+00        -0.75573E+07
 
   -0.49051E+07         0.21285E+06         0.00000E+00
    0.21285E+06        -0.28698E+08         0.00000E+00
    0.00000E+00         0.00000E+00        -0.74839E+07
 
   -0.51078E+07         0.26947E+06         0.00000E+00
    0.26947E+06        -0.28820E+08         0.00000E+00
    0.00000E+00         0.00000E+00        -0.74106E+07
 
   -0.53174E+07         0.34684E+06         0.00000E+00
    0.34684E+06        -0.28933E+08         0.00000E+00
    0.00000E+00         0.00000E+00        -0.73207E+07
 
   -0.55448E+07         0.44845E+06         0.00000E+00
    0.44845E+06        -0.29028E+08         0.00000E+00
    0.00000E+00         0.00000E+00        -0.71957E+07
 
   -0.57985E+07         0.59895E+06         0.00000E+00
    0.59895E+06        -0.29109E+08         0.00000E+00
    0.00000E+00         0.00000E+00        -0.70666E+07
 
   -0.61259E+07         0.81355E+06         0.00000E+00
    0.81355E+06        -0.29142E+08         0.00000E+00
    0.00000E+00         0.00000E+00        -0.70629E+07
 
   -0.64366E+07         0.10724E+07         0.00000E+00
    0.10724E+07        -0.29146E+08         0.00000E+00
    0.00000E+00         0.00000E+00        -0.71165E+07
 
   -0.67134E+07         0.13715E+07         0.00000E+00
    0.13715E+07        -0.29131E+08         0.00000E+00
    0.00000E+00         0.00000E+00        -0.71689E+07
 
   -0.69563E+07         0.17192E+07         0.00000E+00
    0.17192E+07        -0.29094E+08         0.00000E+00
    0.00000E+00         0.00000E+00        -0.72100E+07
 
   -0.71612E+07         0.21267E+07         0.00000E+00
    0.21267E+07        -0.29042E+08         0.00000E+00
    0.00000E+00         0.00000E+00        -0.72406E+07
 
   -0.48120E+07         0.11313E+05         0.00000E+00
    0.11313E+05        -0.29086E+08         0.00000E+00
    0.00000E+00         0.00000E+00        -0.82087E+07
 
   -0.49611E+07         0.26894E+05         0.00000E+00
    0.26894E+05        -0.29133E+08         0.00000E+00
    0.00000E+00         0.00000E+00        -0.80725E+07
 
   -0.51337E+07         0.34547E+05         0.00000E+00
    0.34547E+05        -0.29216E+08         0.00000E+00
    0.00000E+00         0.00000E+00        -0.79663E+07
 
   -0.53140E+07         0.44890E+05         0.00000E+00
    0.44890E+05        -0.29327E+08         0.00000E+00
    0.00000E+00         0.00000E+00        -0.78969E+07
 
   -0.54950E+07         0.66556E+05         0.00000E+00
    0.66556E+05        -0.29455E+08         0.00000E+00
    0.00000E+00         0.00000E+00        -0.78572E+07
 
   -0.56743E+07         0.10681E+06         0.00000E+00
    0.10681E+06        -0.29592E+08         0.00000E+00
    0.00000E+00         0.00000E+00        -0.78346E+07
 
   -0.58524E+07         0.17131E+06         0.00000E+00
    0.17131E+06        -0.29726E+08         0.00000E+00
    0.00000E+00         0.00000E+00        -0.78138E+07
 
   -0.60338E+07         0.26376E+06         0.00000E+00
    0.26376E+06        -0.29849E+08         0.00000E+00
    0.00000E+00         0.00000E+00        -0.77788E+07
 
   -0.62247E+07         0.38895E+06         0.00000E+00
    0.38895E+06        -0.29953E+08         0.00000E+00
    0.00000E+00         0.00000E+00        -0.77125E+07
 
   -0.64387E+07         0.55587E+06         0.00000E+00
    0.55587E+06        -0.30039E+08         0.00000E+00
    0.00000E+00         0.00000E+00        -0.76075E+07
 
   -0.66741E+07         0.78935E+06         0.00000E+00
    0.78935E+06        -0.30124E+08         0.00000E+00
    0.00000E+00         0.00000E+00        -0.74948E+07
 
   -0.69468E+07         0.10804E+07         0.00000E+00
    0.10804E+07        -0.30176E+08         0.00000E+00
    0.00000E+00         0.00000E+00        -0.74716E+07
 
   -0.71884E+07         0.14041E+07         0.00000E+00
    0.14041E+07        -0.30185E+08         0.00000E+00
    0.00000E+00         0.00000E+00        -0.74909E+07
 
   -0.73851E+07         0.17611E+07         0.00000E+00
    0.17611E+07        -0.30175E+08         0.00000E+00
    0.00000E+00         0.00000E+00        -0.75121E+07
 
   -0.75110E+07         0.21623E+07         0.00000E+00
    0.21623E+07        -0.30170E+08         0.00000E+00
    0.00000E+00         0.00000E+00        -0.75362E+07
 
   -0.56897E+07        -0.12886E+05         0.00000E+00
   -0.12886E+05        -0.29972E+08         0.00000E+00
    0.00000E+00         0.00000E+00        -0.83842E+07
 
   -0.58494E+07        -0.36075E+05         0.00000E+00
   -0.36075E+05        -0.30026E+08         0.00000E+00
    0.00000E+00         0.00000E+00        -0.82585E+07
 
   -0.60188E+07        -0.57802E+05         0.00000E+00
   -0.57802E+05        -0.30121E+08         0.00000E+00
    0.00000E+00         0.00000E+00        -0.81858E+07
 
   -0.61856E+07        -0.66734E+05         0.00000E+00
   -0.66734E+05        -0.30245E+08         0.00000E+00
    0.00000E+00         0.00000E+00        -0.81620E+07
 
   -0.63448E+07        -0.53565E+05         0.00000E+00
   -0.53565E+05        -0.30386E+08         0.00000E+00
    0.00000E+00         0.00000E+00        -0.81733E+07
 
   -0.64955E+07        -0.11503E+05         0.00000E+00
   -0.11503E+05        -0.30531E+08         0.00000E+00
    0.00000E+00         0.00000E+00        -0.82024E+07
 
   -0.66411E+07         0.63331E+05         0.00000E+00
    0.63331E+05        -0.30671E+08         0.00000E+00
    0.00000E+00         0.00000E+00        -0.82320E+07
 
   -0.67863E+07         0.17316E+06         0.00000E+00
    0.17316E+06        -0.30798E+08         0.00000E+00
    0.00000E+00         0.00000E+00        -0.82460E+07
 
   -0.69377E+07         0.31977E+06         0.00000E+00
    0.31977E+06        -0.30904E+08         0.00000E+00
    0.00000E+00         0.00000E+00        -0.82310E+07
 
   -0.71014E+07         0.50841E+06         0.00000E+00
    0.50841E+06        -0.30986E+08         0.00000E+00
    0.00000E+00         0.00000E+00        -0.81784E+07
 
   -0.72847E+07         0.74772E+06         0.00000E+00
    0.74772E+06        -0.31049E+08         0.00000E+00
    0.00000E+00         0.00000E+00        -0.80949E+07
 
   -0.74919E+07         0.10445E+07         0.00000E+00
    0.10445E+07        -0.31112E+08         0.00000E+00
    0.00000E+00         0.00000E+00        -0.80127E+07
 
   -0.76953E+07         0.13923E+07         0.00000E+00
    0.13923E+07        -0.31167E+08         0.00000E+00
    0.00000E+00         0.00000E+00        -0.79603E+07
 
   -0.78610E+07         0.17652E+07         0.00000E+00
    0.17652E+07        -0.31196E+08         0.00000E+00
    0.00000E+00         0.00000E+00        -0.79495E+07
 
   -0.79907E+07         0.21393E+07         0.00000E+00
    0.21393E+07        -0.31212E+08         0.00000E+00
    0.00000E+00         0.00000E+00        -0.80024E+07
 
   -0.66725E+07        -0.41054E+05         0.00000E+00
   -0.41054E+05        -0.30914E+08         0.00000E+00
    0.00000E+00         0.00000E+00        -0.85452E+07
 
   -0.68308E+07        -0.10949E+06         0.00000E+00
   -0.10949E+06        -0.30974E+08         0.00000E+00
    0.00000E+00         0.00000E+00        -0.84440E+07
 
   -0.69854E+07        -0.16393E+06         0.00000E+00
   -0.16393E+06        -0.31079E+08         0.00000E+00
    0.00000E+00         0.00000E+00        -0.84151E+07
 
   -0.71263E+07        -0.19200E+06         0.00000E+00
   -0.19200E+06        -0.31214E+08         0.00000E+00
    0.00000E+00         0.00000E+00        -0.84438E+07
 
   -0.72511E+07        -0.18449E+06         0.00000E+00
   -0.18449E+06        -0.31362E+08         0.00000E+00
    0.00000E+00         0.00000E+00        -0.85087E+07
 
   -0.73631E+07        -0.13728E+06         0.00000E+00
   -0.13728E+06        -0.31511E+08         0.00000E+00
    0.00000E+00         0.00000E+00        -0.85886E+07
 
   -0.74679E+07        -0.49255E+05         0.00000E+00
   -0.49255E+05        -0.31651E+08         0.00000E+00
    0.00000E+00         0.00000E+00        -0.86657E+07
 
   -0.75714E+07         0.79752E+05         0.00000E+00
    0.79752E+05        -0.31777E+08         0.00000E+00
    0.00000E+00         0.00000E+00        -0.87255E+07
 
   -0.76790E+07         0.25012E+06         0.00000E+00
    0.25012E+06        -0.31881E+08         0.00000E+00
    0.00000E+00         0.00000E+00        -0.87570E+07
 
   -0.77967E+07         0.46245E+06         0.00000E+00
    0.46245E+06        -0.31961E+08         0.00000E+00
    0.00000E+00         0.00000E+00        -0.87533E+07
 
   -0.79306E+07         0.71846E+06         0.00000E+00
    0.71846E+06        -0.32017E+08         0.00000E+00
    0.00000E+00         0.00000E+00        -0.87149E+07
 
   -0.80830E+07         0.10231E+07         0.00000E+00
    0.10231E+07        -0.32054E+08         0.00000E+00
    0.00000E+00         0.00000E+00        -0.86563E+07
 
   -0.82454E+07         0.13739E+07         0.00000E+00
    0.13739E+07        -0.32080E+08         0.00000E+00
    0.00000E+00         0.00000E+00        -0.86065E+07
 
   -0.84031E+07         0.17460E+07         0.00000E+00
    0.17460E+07        -0.32105E+08         0.00000E+00
    0.00000E+00         0.00000E+00        -0.85909E+07
 
   -0.85610E+07         0.21046E+07         0.00000E+00
    0.21046E+07        -0.32136E+08         0.00000E+00
    0.00000E+00         0.00000E+00        -0.86185E+07
 
   -0.77646E+07        -0.71857E+05         0.00000E+00
   -0.71857E+05        -0.31909E+08         0.00000E+00
    0.00000E+00         0.00000E+00        -0.86971E+07
 
   -0.79076E+07        -0.19256E+06         0.00000E+00
   -0.19256E+06        -0.31974E+08         0.00000E+00
    0.00000E+00         0.00000E+00        -0.86344E+07
 
   -0.80319E+07        -0.28233E+06         0.00000E+00
   -0.28233E+06        -0.32089E+08         0.00000E+00
    0.00000E+00         0.00000E+00        -0.86609E+07
 
   -0.81303E+07        -0.32652E+06         0.00000E+00
   -0.32652E+06        -0.32229E+08         0.00000E+00
    0.00000E+00         0.00000E+00        -0.87474E+07
 
   -0.82076E+07        -0.32065E+06         0.00000E+00
   -0.32065E+06        -0.32377E+08         0.00000E+00
    0.00000E+00         0.00000E+00        -0.88651E+07
 
   -0.82715E+07        -0.26569E+06         0.00000E+00
   -0.26569E+06        -0.32523E+08         0.00000E+00
    0.00000E+00         0.00000E+00        -0.89927E+07
 
   -0.83286E+07        -0.16314E+06         0.00000E+00
   -0.16314E+06        -0.32661E+08         0.00000E+00
    0.00000E+00         0.00000E+00        -0.91147E+07
 
   -0.83848E+07        -0.14307E+05         0.00000E+00
   -0.14307E+05        -0.32783E+08         0.00000E+00
    0.00000E+00         0.00000E+00        -0.92187E+07
 
   -0.84461E+07         0.17944E+06         0.00000E+00
    0.17944E+06        -0.32885E+08         0.00000E+00
    0.00000E+00         0.00000E+00        -0.92954E+07
 
   -0.85181E+07         0.41654E+06         0.00000E+00
    0.41654E+06        -0.32963E+08         0.00000E+00
    0.00000E+00         0.00000E+00        -0.93390E+07
 
   -0.86064E+07         0.69561E+06         0.00000E+00
    0.69561E+06        -0.33016E+08         0.00000E+00
    0.00000E+00         0.00000E+00        -0.93482E+07
 
   -0.87156E+07         0.10143E+07         0.00000E+00
    0.10143E+07        -0.33049E+08         0.00000E+00
    0.00000E+00         0.00000E+00        -0.93306E+07
 
   -0.88479E+07         0.13648E+07         0.00000E+00
    0.13648E+07        -0.33070E+08         0.00000E+00
    0.00000E+00         0.00000E+00        -0.93021E+07
 
   -0.90019E+07         0.17297E+07         0.00000E+00
    0.17297E+07        -0.33088E+08         0.00000E+00
    0.00000E+00         0.00000E+00        -0.92774E+07
 
   -0.91696E+07         0.20916E+07         0.00000E+00
    0.20916E+07        -0.33100E+08         0.00000E+00
    0.00000E+00         0.00000E+00        -0.92616E+07
 
   -0.89692E+07        -0.10379E+06         0.00000E+00
   -0.10379E+06        -0.32956E+08         0.00000E+00
    0.00000E+00         0.00000E+00        -0.88489E+07
 
   -0.90824E+07        -0.28727E+06         0.00000E+00
   -0.28727E+06        -0.33028E+08         0.00000E+00
    0.00000E+00         0.00000E+00        -0.88403E+07
 
   -0.91523E+07        -0.40904E+06         0.00000E+00
   -0.40904E+06        -0.33147E+08         0.00000E+00
    0.00000E+00         0.00000E+00        -0.89325E+07
 
   -0.91900E+07        -0.46276E+06         0.00000E+00
   -0.46276E+06        -0.33283E+08         0.00000E+00
    0.00000E+00         0.00000E+00        -0.90756E+07
 
   -0.92089E+07        -0.45594E+06         0.00000E+00
   -0.45594E+06        -0.33424E+08         0.00000E+00
    0.00000E+00         0.00000E+00        -0.92413E+07
 
   -0.92171E+07        -0.39287E+06         0.00000E+00
   -0.39287E+06        -0.33564E+08         0.00000E+00
    0.00000E+00         0.00000E+00        -0.94127E+07
 
   -0.92205E+07        -0.27632E+06         0.00000E+00
   -0.27632E+06        -0.33695E+08         0.00000E+00
    0.00000E+00         0.00000E+00        -0.95772E+07
 
   -0.92250E+07        -0.10887E+06         0.00000E+00
   -0.10887E+06        -0.33813E+08         0.00000E+00
    0.00000E+00         0.00000E+00        -0.97246E+07
 
   -0.92369E+07         0.10696E+06         0.00000E+00
    0.10696E+06        -0.33913E+08         0.00000E+00
    0.00000E+00         0.00000E+00        -0.98465E+07
 
   -0.92628E+07         0.36759E+06         0.00000E+00
    0.36759E+06        -0.33990E+08         0.00000E+00
    0.00000E+00         0.00000E+00        -0.99372E+07
 
   -0.93098E+07         0.66804E+06         0.00000E+00
    0.66804E+06        -0.34047E+08         0.00000E+00
    0.00000E+00         0.00000E+00        -0.99942E+07
 
   -0.93855E+07         0.10014E+07         0.00000E+00
    0.10014E+07        -0.34084E+08         0.00000E+00
    0.00000E+00         0.00000E+00        -0.10019E+08
 
   -0.94963E+07         0.13584E+07         0.00000E+00
    0.13584E+07        -0.34106E+08         0.00000E+00
    0.00000E+00         0.00000E+00        -0.10015E+08
 
   -0.96429E+07         0.17281E+07         0.00000E+00
    0.17281E+07        -0.34117E+08         0.00000E+00
    0.00000E+00         0.00000E+00        -0.99860E+07
 
   -0.98170E+07         0.20982E+07         0.00000E+00
    0.20982E+07        -0.34113E+08         0.00000E+00
    0.00000E+00         0.00000E+00        -0.99383E+07
 
   -0.10295E+08        -0.14770E+06         0.00000E+00
   -0.14770E+06        -0.34081E+08         0.00000E+00
    0.00000E+00         0.00000E+00        -0.90466E+07
 
   -0.10349E+08        -0.38662E+06         0.00000E+00
   -0.38662E+06        -0.34146E+08         0.00000E+00
    0.00000E+00         0.00000E+00        -0.90836E+07
 
   -0.10335E+08        -0.53252E+06         0.00000E+00
   -0.53252E+06        -0.34244E+08         0.00000E+00
    0.00000E+00         0.00000E+00        -0.92312E+07
 
   -0.10299E+08        -0.59317E+06         0.00000E+00
   -0.59317E+06        -0.34369E+08         0.00000E+00
    0.00000E+00         0.00000E+00        -0.94254E+07
 
   -0.10252E+08        -0.58583E+06         0.00000E+00
   -0.58583E+06        -0.34499E+08         0.00000E+00
    0.00000E+00         0.00000E+00        -0.96339E+07
 
   -0.10198E+08        -0.51606E+06         0.00000E+00
   -0.51606E+06        -0.34629E+08         0.00000E+00
    0.00000E+00         0.00000E+00        -0.98455E+07
 
   -0.10143E+08        -0.38766E+06         0.00000E+00
   -0.38766E+06        -0.34753E+08         0.00000E+00
    0.00000E+00         0.00000E+00        -0.10050E+08
 
   -0.10091E+08        -0.20379E+06         0.00000E+00
   -0.20379E+06        -0.34865E+08         0.00000E+00
    0.00000E+00         0.00000E+00        -0.10240E+08
 
   -0.10051E+08         0.31357E+05         0.00000E+00
    0.31357E+05        -0.34961E+08         0.00000E+00
    0.00000E+00         0.00000E+00        -0.10405E+08
 
   -0.10031E+08         0.31213E+06         0.00000E+00
    0.31213E+06        -0.35041E+08         0.00000E+00
    0.00000E+00         0.00000E+00        -0.10542E+08
 
   -0.10040E+08         0.63145E+06         0.00000E+00
    0.63145E+06        -0.35102E+08         0.00000E+00
    0.00000E+00         0.00000E+00        -0.10645E+08
 
   -0.10087E+08         0.98096E+06         0.00000E+00
    0.98096E+06        -0.35145E+08         0.00000E+00
    0.00000E+00         0.00000E+00        -0.10708E+08
 
   -0.10178E+08         0.13522E+07         0.00000E+00
    0.13522E+07        -0.35171E+08         0.00000E+00
    0.00000E+00         0.00000E+00        -0.10729E+08
 
   -0.10317E+08         0.17360E+07         0.00000E+00
    0.17360E+07        -0.35177E+08         0.00000E+00
    0.00000E+00         0.00000E+00        -0.10707E+08
 
   -0.10499E+08         0.21193E+07         0.00000E+00
    0.21193E+07        -0.35165E+08         0.00000E+00
    0.00000E+00         0.00000E+00        -0.10643E+08
 
   -0.11749E+08        -0.19674E+06         0.00000E+00
   -0.19674E+06        -0.35211E+08         0.00000E+00
    0.00000E+00         0.00000E+00        -0.94198E+07
 
   -0.11699E+08        -0.48285E+06         0.00000E+00
   -0.48285E+06        -0.35273E+08         0.00000E+00
    0.00000E+00         0.00000E+00        -0.94472E+07
 
   -0.11565E+08        -0.64936E+06         0.00000E+00
   -0.64936E+06        -0.35366E+08         0.00000E+00
    0.00000E+00         0.00000E+00        -0.95585E+07
 
   -0.11456E+08        -0.71631E+06         0.00000E+00
   -0.71631E+06        -0.35478E+08         0.00000E+00
    0.00000E+00         0.00000E+00        -0.97907E+07
 
   -0.11336E+08        -0.70814E+06         0.00000E+00
   -0.70814E+06        -0.35596E+08         0.00000E+00
    0.00000E+00         0.00000E+00        -0.10039E+08
 
   -0.11215E+08        -0.63379E+06         0.00000E+00
   -0.63379E+06        -0.35715E+08         0.00000E+00
    0.00000E+00         0.00000E+00        -0.10288E+08
 
   -0.11095E+08        -0.49588E+06         0.00000E+00
   -0.49588E+06        -0.35829E+08         0.00000E+00
    0.00000E+00         0.00000E+00        -0.10531E+08
 
   -0.10984E+08        -0.29847E+06         0.00000E+00
   -0.29847E+06        -0.35934E+08         0.00000E+00
    0.00000E+00         0.00000E+00        -0.10759E+08
 
   -0.10890E+08        -0.47717E+05         0.00000E+00
   -0.47717E+05        -0.36027E+08         0.00000E+00
    0.00000E+00         0.00000E+00        -0.10966E+08
 
   -0.10824E+08         0.24969E+06         0.00000E+00
    0.24969E+06        -0.36107E+08         0.00000E+00
    0.00000E+00         0.00000E+00        -0.11145E+08
 
   -0.10795E+08         0.58584E+06         0.00000E+00
    0.58584E+06        -0.36172E+08         0.00000E+00
    0.00000E+00         0.00000E+00        -0.11288E+08
 
   -0.10813E+08         0.95273E+06         0.00000E+00
    0.95273E+06        -0.36221E+08         0.00000E+00
    0.00000E+00         0.00000E+00        -0.11388E+08
 
   -0.10885E+08         0.13423E+07         0.00000E+00
    0.13423E+07        -0.36251E+08         0.00000E+00
    0.00000E+00         0.00000E+00        -0.11438E+08
 
   -0.11016E+08         0.17455E+07         0.00000E+00
    0.17455E+07        -0.36260E+08         0.00000E+00
    0.00000E+00         0.00000E+00        -0.11431E+08
 
   -0.11205E+08         0.21493E+07         0.00000E+00
    0.21493E+07        -0.36245E+08         0.00000E+00
    0.00000E+00         0.00000E+00        -0.11363E+08
 
   -0.13319E+08        -0.22949E+06         0.00000E+00
   -0.22949E+06        -0.36366E+08         0.00000E+00
    0.00000E+00         0.00000E+00        -0.99370E+07
 
   -0.13124E+08        -0.56792E+06         0.00000E+00
   -0.56792E+06        -0.36424E+08         0.00000E+00
    0.00000E+00         0.00000E+00        -0.99138E+07
 
   -0.12857E+08        -0.76359E+06         0.00000E+00
   -0.76359E+06        -0.36506E+08         0.00000E+00
    0.00000E+00         0.00000E+00        -0.99588E+07
 
   -0.12647E+08        -0.83465E+06         0.00000E+00
   -0.83465E+06        -0.36606E+08         0.00000E+00
    0.00000E+00         0.00000E+00        -0.10173E+08
 
   -0.12458E+08        -0.82385E+06         0.00000E+00
   -0.82385E+06        -0.36713E+08         0.00000E+00
    0.00000E+00         0.00000E+00        -0.10455E+08
 
   -0.12265E+08        -0.74499E+06         0.00000E+00
   -0.74499E+06        -0.36820E+08         0.00000E+00
    0.00000E+00         0.00000E+00        -0.10738E+08
 
   -0.12077E+08        -0.59901E+06         0.00000E+00
   -0.59901E+06        -0.36921E+08         0.00000E+00
    0.00000E+00         0.00000E+00        -0.11015E+08
 
   -0.11904E+08        -0.39117E+06         0.00000E+00
   -0.39117E+06        -0.37016E+08         0.00000E+00
    0.00000E+00         0.00000E+00        -0.11277E+08
 
   -0.11755E+08        -0.12814E+06         0.00000E+00
   -0.12814E+06        -0.37103E+08         0.00000E+00
    0.00000E+00         0.00000E+00        -0.11519E+08
 
   -0.11642E+08         0.18224E+06         0.00000E+00
    0.18224E+06        -0.37180E+08         0.00000E+00
    0.00000E+00         0.00000E+00        -0.11734E+08
 
   -0.11574E+08         0.53272E+06         0.00000E+00
    0.53272E+06        -0.37247E+08         0.00000E+00
    0.00000E+00         0.00000E+00        -0.11915E+08
 
   -0.11562E+08         0.91620E+06         0.00000E+00
    0.91620E+06        -0.37300E+08         0.00000E+00
    0.00000E+00         0.00000E+00        -0.12051E+08
 
   -0.11613E+08         0.13250E+07         0.00000E+00
    0.13250E+07        -0.37337E+08         0.00000E+00
    0.00000E+00         0.00000E+00        -0.12132E+08
 
   -0.11733E+08         0.17502E+07         0.00000E+00
    0.17502E+07        -0.37354E+08         0.00000E+00
    0.00000E+00         0.00000E+00        -0.12149E+08
 
   -0.11927E+08         0.21798E+07         0.00000E+00
    0.21798E+07        -0.37343E+08         0.00000E+00
    0.00000E+00         0.00000E+00        -0.12092E+08
 
   -0.14977E+08        -0.25440E+06         0.00000E+00
   -0.25440E+06        -0.37573E+08         0.00000E+00
    0.00000E+00         0.00000E+00        -0.10510E+08
 
   -0.14625E+08        -0.63367E+06         0.00000E+00
   -0.63367E+06        -0.37609E+08         0.00000E+00
    0.00000E+00         0.00000E+00        -0.10447E+08
 
   -0.14212E+08        -0.85916E+06         0.00000E+00
   -0.85916E+06        -0.37683E+08         0.00000E+00
    0.00000E+00         0.00000E+00        -0.10423E+08
 
   -0.13875E+08        -0.94487E+06         0.00000E+00
   -0.94487E+06        -0.37761E+08         0.00000E+00
    0.00000E+00         0.00000E+00        -0.10585E+08
 
   -0.13613E+08        -0.93188E+06         0.00000E+00
   -0.93188E+06        -0.37852E+08         0.00000E+00
    0.00000E+00         0.00000E+00        -0.10888E+08
 
   -0.13346E+08        -0.84695E+06         0.00000E+00
   -0.84695E+06        -0.37941E+08         0.00000E+00
    0.00000E+00         0.00000E+00        -0.11197E+08
 
   -0.13088E+08        -0.69363E+06         0.00000E+00
   -0.69363E+06        -0.38026E+08         0.00000E+00
    0.00000E+00         0.00000E+00        -0.11499E+08
 
   -0.12851E+08        -0.47775E+06         0.00000E+00
   -0.47775E+06        -0.38107E+08         0.00000E+00
    0.00000E+00         0.00000E+00        -0.11787E+08
 
   -0.12647E+08        -0.20643E+06         0.00000E+00
   -0.20643E+06        -0.38182E+08         0.00000E+00
    0.00000E+00         0.00000E+00        -0.12057E+08
 
   -0.12485E+08         0.11302E+06         0.00000E+00
    0.11302E+06        -0.38253E+08         0.00000E+00
    0.00000E+00         0.00000E+00        -0.12301E+08
 
   -0.12377E+08         0.47398E+06         0.00000E+00
    0.47398E+06        -0.38319E+08         0.00000E+00
    0.00000E+00         0.00000E+00        -0.12514E+08
 
   -0.12331E+08         0.87067E+06         0.00000E+00
    0.87067E+06        -0.38376E+08         0.00000E+00
    0.00000E+00         0.00000E+00        -0.12686E+08
 
   -0.12356E+08         0.12972E+07         0.00000E+00
    0.12972E+07        -0.38422E+08         0.00000E+00
    0.00000E+00         0.00000E+00        -0.12804E+08
 
   -0.12463E+08         0.17452E+07         0.00000E+00
    0.17452E+07        -0.38449E+08         0.00000E+00
    0.00000E+00         0.00000E+00        -0.12854E+08
 
   -0.12658E+08         0.22028E+07         0.00000E+00
    0.22028E+07        -0.38450E+08         0.00000E+00
    0.00000E+00         0.00000E+00        -0.12820E+08
 
   -0.16709E+08        -0.27171E+06         0.00000E+00
   -0.27171E+06        -0.38822E+08         0.00000E+00
    0.00000E+00         0.00000E+00        -0.11106E+08
 
   -0.16193E+08        -0.68423E+06         0.00000E+00
   -0.68423E+06        -0.38847E+08         0.00000E+00
    0.00000E+00         0.00000E+00        -0.11008E+08
 
   -0.15620E+08        -0.93580E+06         0.00000E+00
   -0.93580E+06        -0.38897E+08         0.00000E+00
    0.00000E+00         0.00000E+00        -0.10921E+08
 
   -0.15146E+08        -0.10348E+07         0.00000E+00
   -0.10348E+07        -0.38950E+08         0.00000E+00
    0.00000E+00         0.00000E+00        -0.11034E+08
 
   -0.14799E+08        -0.10239E+07         0.00000E+00
   -0.10239E+07        -0.39014E+08         0.00000E+00
    0.00000E+00         0.00000E+00        -0.11344E+08
 
   -0.14454E+08        -0.93362E+06         0.00000E+00
   -0.93362E+06        -0.39078E+08         0.00000E+00
    0.00000E+00         0.00000E+00        -0.11665E+08
 
   -0.14126E+08        -0.77398E+06         0.00000E+00
   -0.77398E+06        -0.39140E+08         0.00000E+00
    0.00000E+00         0.00000E+00        -0.11980E+08
 
   -0.13826E+08        -0.55280E+06         0.00000E+00
   -0.55280E+06        -0.39199E+08         0.00000E+00
    0.00000E+00         0.00000E+00        -0.12283E+08
 
   -0.13566E+08        -0.27747E+06         0.00000E+00
   -0.27747E+06        -0.39258E+08         0.00000E+00
    0.00000E+00         0.00000E+00        -0.12569E+08
 
   -0.13356E+08         0.45637E+05         0.00000E+00
    0.45637E+05        -0.39318E+08         0.00000E+00
    0.00000E+00         0.00000E+00        -0.12836E+08
 
   -0.13204E+08         0.41138E+06         0.00000E+00
    0.41138E+06        -0.39380E+08         0.00000E+00
    0.00000E+00         0.00000E+00        -0.13077E+08
 
   -0.13121E+08         0.81588E+06         0.00000E+00
    0.81588E+06        -0.39441E+08         0.00000E+00
    0.00000E+00         0.00000E+00        -0.13285E+08
 
   -0.13116E+08         0.12556E+07         0.00000E+00
    0.12556E+07        -0.39496E+08         0.00000E+00
    0.00000E+00         0.00000E+00        -0.13445E+08
 
   -0.13202E+08         0.17246E+07         0.00000E+00
    0.17246E+07        -0.39539E+08         0.00000E+00
    0.00000E+00         0.00000E+00        -0.13538E+08
 
   -0.13392E+08         0.22116E+07         0.00000E+00
    0.22116E+07        -0.39559E+08         0.00000E+00
    0.00000E+00         0.00000E+00        -0.13540E+08
 
   -0.18500E+08        -0.28681E+06         0.00000E+00
   -0.28681E+06        -0.40099E+08         0.00000E+00
    0.00000E+00         0.00000E+00        -0.11720E+08
 
   -0.17809E+08        -0.72255E+06         0.00000E+00
   -0.72255E+06        -0.40115E+08         0.00000E+00
    0.00000E+00         0.00000E+00        -0.11585E+08
 
   -0.17075E+08        -0.98955E+06         0.00000E+00
   -0.98955E+06        -0.40142E+08         0.00000E+00
    0.00000E+00         0.00000E+00        -0.11449E+08
 
   -0.16456E+08        -0.10982E+07         0.00000E+00
   -0.10982E+07        -0.40169E+08         0.00000E+00
    0.00000E+00         0.00000E+00        -0.11512E+08
 
   -0.16011E+08        -0.10898E+07         0.00000E+00
   -0.10898E+07        -0.40199E+08         0.00000E+00
    0.00000E+00         0.00000E+00        -0.11822E+08
 
   -0.15588E+08        -0.99558E+06         0.00000E+00
   -0.99558E+06        -0.40229E+08         0.00000E+00
    0.00000E+00         0.00000E+00        -0.12142E+08
 
   -0.15190E+08        -0.83177E+06         0.00000E+00
   -0.83177E+06        -0.40257E+08         0.00000E+00
    0.00000E+00         0.00000E+00        -0.12455E+08
 
   -0.14829E+08        -0.60918E+06         0.00000E+00
   -0.60918E+06        -0.40287E+08         0.00000E+00
    0.00000E+00         0.00000E+00        -0.12757E+08
 
   -0.14516E+08        -0.33567E+06         0.00000E+00
   -0.33567E+06        -0.40323E+08         0.00000E+00
    0.00000E+00         0.00000E+00        -0.13048E+08
 
   -0.14257E+08        -0.16045E+05         0.00000E+00
   -0.16045E+05        -0.40368E+08         0.00000E+00
    0.00000E+00         0.00000E+00        -0.13328E+08
 
   -0.14061E+08         0.34689E+06         0.00000E+00
    0.34689E+06        -0.40424E+08         0.00000E+00
    0.00000E+00         0.00000E+00        -0.13593E+08
 
   -0.13935E+08         0.75173E+06         0.00000E+00
    0.75173E+06        -0.40488E+08         0.00000E+00
    0.00000E+00         0.00000E+00        -0.13836E+08
 
   -0.13892E+08         0.11976E+07         0.00000E+00
    0.11976E+07        -0.40555E+08         0.00000E+00
    0.00000E+00         0.00000E+00        -0.14044E+08
 
   -0.13949E+08         0.16824E+07         0.00000E+00
    0.16824E+07        -0.40617E+08         0.00000E+00
    0.00000E+00         0.00000E+00        -0.14192E+08
 
   -0.14125E+08         0.21976E+07         0.00000E+00
    0.21976E+07        -0.40662E+08         0.00000E+00
    0.00000E+00         0.00000E+00        -0.14246E+08
 
   -0.20339E+08        -0.29936E+06         0.00000E+00
   -0.29936E+06        -0.41398E+08         0.00000E+00
    0.00000E+00         0.00000E+00        -0.12347E+08
 
   -0.19462E+08        -0.74987E+06         0.00000E+00
   -0.74987E+06        -0.41407E+08         0.00000E+00
    0.00000E+00         0.00000E+00        -0.12174E+08
 
   -0.18562E+08        -0.10206E+07         0.00000E+00
   -0.10206E+07        -0.41413E+08         0.00000E+00
    0.00000E+00         0.00000E+00        -0.11995E+08
 
   -0.17792E+08        -0.11318E+07         0.00000E+00
   -0.11318E+07        -0.41411E+08         0.00000E+00
    0.00000E+00         0.00000E+00        -0.12008E+08
 
   -0.17247E+08        -0.11205E+07         0.00000E+00
   -0.11205E+07        -0.41401E+08         0.00000E+00
    0.00000E+00         0.00000E+00        -0.12313E+08
 
   -0.16743E+08        -0.10223E+07         0.00000E+00
   -0.10223E+07        -0.41387E+08         0.00000E+00
    0.00000E+00         0.00000E+00        -0.12621E+08
 
   -0.16279E+08        -0.85702E+06         0.00000E+00
   -0.85702E+06        -0.41373E+08         0.00000E+00
    0.00000E+00         0.00000E+00        -0.12916E+08
 
   -0.15863E+08        -0.63860E+06         0.00000E+00
   -0.63860E+06        -0.41365E+08         0.00000E+00
    0.00000E+00         0.00000E+00        -0.13202E+08
 
   -0.15500E+08        -0.37489E+06         0.00000E+00
   -0.37489E+06        -0.41371E+08         0.00000E+00
    0.00000E+00         0.00000E+00        -0.13485E+08
 
   -0.15194E+08        -0.68332E+05         0.00000E+00
   -0.68332E+05        -0.41397E+08         0.00000E+00
    0.00000E+00         0.00000E+00        -0.13769E+08
 
   -0.14952E+08         0.28187E+06         0.00000E+00
    0.28187E+06        -0.41445E+08         0.00000E+00
    0.00000E+00         0.00000E+00        -0.14054E+08
 
   -0.14781E+08         0.67742E+06         0.00000E+00
    0.67742E+06        -0.41512E+08         0.00000E+00
    0.00000E+00         0.00000E+00        -0.14333E+08
 
   -0.14691E+08         0.11204E+07         0.00000E+00
    0.11204E+07        -0.41593E+08         0.00000E+00
    0.00000E+00         0.00000E+00        -0.14593E+08
 
   -0.14704E+08         0.16129E+07         0.00000E+00
    0.16129E+07        -0.41678E+08         0.00000E+00
    0.00000E+00         0.00000E+00        -0.14808E+08
 
   -0.14856E+08         0.21543E+07         0.00000E+00
    0.21543E+07        -0.41756E+08         0.00000E+00
    0.00000E+00         0.00000E+00        -0.14933E+08
 
   -0.22214E+08        -0.30936E+06         0.00000E+00
   -0.30936E+06        -0.42715E+08         0.00000E+00
    0.00000E+00         0.00000E+00        -0.12986E+08
 
   -0.21136E+08        -0.76550E+06         0.00000E+00
   -0.76550E+06        -0.42715E+08         0.00000E+00
    0.00000E+00         0.00000E+00        -0.12770E+08
 
   -0.20063E+08        -0.10275E+07         0.00000E+00
   -0.10275E+07        -0.42699E+08         0.00000E+00
    0.00000E+00         0.00000E+00        -0.12552E+08
 
   -0.19144E+08        -0.11292E+07         0.00000E+00
   -0.11292E+07        -0.42663E+08         0.00000E+00
    0.00000E+00         0.00000E+00        -0.12521E+08
 
   -0.18498E+08        -0.11088E+07         0.00000E+00
   -0.11088E+07        -0.42607E+08         0.00000E+00
    0.00000E+00         0.00000E+00        -0.12808E+08
 
   -0.17917E+08        -0.10044E+07         0.00000E+00
   -0.10044E+07        -0.42542E+08         0.00000E+00
    0.00000E+00         0.00000E+00        -0.13091E+08
 
   -0.17395E+08        -0.84051E+06         0.00000E+00
   -0.84051E+06        -0.42478E+08         0.00000E+00
    0.00000E+00         0.00000E+00        -0.13354E+08
 
   -0.16932E+08        -0.63306E+06         0.00000E+00
   -0.63306E+06        -0.42426E+08         0.00000E+00
    0.00000E+00         0.00000E+00        -0.13610E+08
 
   -0.16526E+08        -0.38890E+06         0.00000E+00
   -0.38890E+06        -0.42397E+08         0.00000E+00
    0.00000E+00         0.00000E+00        -0.13872E+08
 
   -0.16176E+08        -0.10733E+06         0.00000E+00
   -0.10733E+06        -0.42399E+08         0.00000E+00
    0.00000E+00         0.00000E+00        -0.14149E+08
 
   -0.15886E+08         0.21717E+06         0.00000E+00
    0.21717E+06        -0.42437E+08         0.00000E+00
    0.00000E+00         0.00000E+00        -0.14448E+08
 
   -0.15663E+08         0.59160E+06         0.00000E+00
    0.59160E+06        -0.42508E+08         0.00000E+00
    0.00000E+00         0.00000E+00        -0.14764E+08
 
   -0.15518E+08         0.10215E+07         0.00000E+00
    0.10215E+07        -0.42606E+08         0.00000E+00
    0.00000E+00         0.00000E+00        -0.15083E+08
 
   -0.15474E+08         0.15114E+07         0.00000E+00
    0.15114E+07        -0.42720E+08         0.00000E+00
    0.00000E+00         0.00000E+00        -0.15378E+08
 
   -0.15582E+08         0.20631E+07         0.00000E+00
    0.20631E+07        -0.42838E+08         0.00000E+00
    0.00000E+00         0.00000E+00        -0.15593E+08
 
   -0.24113E+08        -0.31711E+06         0.00000E+00
   -0.31711E+06        -0.44044E+08         0.00000E+00
    0.00000E+00         0.00000E+00        -0.13631E+08
 
   -0.22812E+08        -0.76668E+06         0.00000E+00
   -0.76668E+06        -0.44035E+08         0.00000E+00
    0.00000E+00         0.00000E+00        -0.13369E+08
 
   -0.21557E+08        -0.10041E+07         0.00000E+00
   -0.10041E+07        -0.43992E+08         0.00000E+00
    0.00000E+00         0.00000E+00        -0.13110E+08
 
   -0.20498E+08        -0.10819E+07         0.00000E+00
   -0.10819E+07        -0.43911E+08         0.00000E+00
    0.00000E+00         0.00000E+00        -0.13039E+08
 
   -0.19753E+08        -0.10451E+07         0.00000E+00
   -0.10451E+07        -0.43799E+08         0.00000E+00
    0.00000E+00         0.00000E+00        -0.13295E+08
 
   -0.19105E+08        -0.93352E+06         0.00000E+00
   -0.93352E+06        -0.43676E+08         0.00000E+00
    0.00000E+00         0.00000E+00        -0.13536E+08
 
   -0.18538E+08        -0.77584E+06         0.00000E+00
   -0.77584E+06        -0.43558E+08         0.00000E+00
    0.00000E+00         0.00000E+00        -0.13755E+08
 
   -0.18040E+08        -0.58734E+06         0.00000E+00
   -0.58734E+06        -0.43460E+08         0.00000E+00
    0.00000E+00         0.00000E+00        -0.13970E+08
 
   -0.17601E+08        -0.37268E+06         0.00000E+00
   -0.37268E+06        -0.43394E+08         0.00000E+00
    0.00000E+00         0.00000E+00        -0.14200E+08
 
   -0.17213E+08        -0.12859E+06         0.00000E+00
   -0.12859E+06        -0.43369E+08         0.00000E+00
    0.00000E+00         0.00000E+00        -0.14461E+08
 
   -0.16875E+08         0.15481E+06         0.00000E+00
    0.15481E+06        -0.43393E+08         0.00000E+00
    0.00000E+00         0.00000E+00        -0.14765E+08
 
   -0.16594E+08         0.49152E+06         0.00000E+00
    0.49152E+06        -0.43468E+08         0.00000E+00
    0.00000E+00         0.00000E+00        -0.15116E+08
 
   -0.16384E+08         0.89392E+06         0.00000E+00
    0.89392E+06        -0.43589E+08         0.00000E+00
    0.00000E+00         0.00000E+00        -0.15502E+08
 
   -0.16269E+08         0.13702E+07         0.00000E+00
    0.13702E+07        -0.43742E+08         0.00000E+00
    0.00000E+00         0.00000E+00        -0.15894E+08
 
   -0.16305E+08         0.19295E+07         0.00000E+00
    0.19295E+07        -0.43904E+08         0.00000E+00
    0.00000E+00         0.00000E+00        -0.16222E+08
 
   -0.26020E+08        -0.32344E+06         0.00000E+00
   -0.32344E+06        -0.45380E+08         0.00000E+00
    0.00000E+00         0.00000E+00        -0.14280E+08
 
   -0.24465E+08        -0.74758E+06         0.00000E+00
   -0.74758E+06        -0.45358E+08         0.00000E+00
    0.00000E+00         0.00000E+00        -0.13965E+08
 
   -0.23023E+08        -0.93682E+06         0.00000E+00
   -0.93682E+06        -0.45274E+08         0.00000E+00
    0.00000E+00         0.00000E+00        -0.13659E+08
 
   -0.21838E+08        -0.97599E+06         0.00000E+00
   -0.97599E+06        -0.45130E+08         0.00000E+00
    0.00000E+00         0.00000E+00        -0.13547E+08
 
   -0.21006E+08        -0.91855E+06         0.00000E+00
   -0.91855E+06        -0.44950E+08         0.00000E+00
    0.00000E+00         0.00000E+00        -0.13751E+08
 
   -0.20309E+08        -0.80432E+06         0.00000E+00
   -0.80432E+06        -0.44764E+08         0.00000E+00
    0.00000E+00         0.00000E+00        -0.13937E+08
 
   -0.19712E+08        -0.66135E+06         0.00000E+00
   -0.66135E+06        -0.44594E+08         0.00000E+00
    0.00000E+00         0.00000E+00        -0.14102E+08
 
   -0.19193E+08        -0.50089E+06         0.00000E+00
   -0.50089E+06        -0.44454E+08         0.00000E+00
    0.00000E+00         0.00000E+00        -0.14271E+08
 
   -0.18732E+08        -0.32465E+06         0.00000E+00
   -0.32465E+06        -0.44354E+08         0.00000E+00
    0.00000E+00         0.00000E+00        -0.14464E+08
 
   -0.18314E+08        -0.12801E+06         0.00000E+00
   -0.12801E+06        -0.44303E+08         0.00000E+00
    0.00000E+00         0.00000E+00        -0.14700E+08
 
   -0.17932E+08         0.99886E+05         0.00000E+00
    0.99886E+05        -0.44310E+08         0.00000E+00
    0.00000E+00         0.00000E+00        -0.14998E+08
 
   -0.17588E+08         0.37773E+06         0.00000E+00
    0.37773E+06        -0.44383E+08         0.00000E+00
    0.00000E+00         0.00000E+00        -0.15373E+08
 
   -0.17299E+08         0.73094E+06         0.00000E+00
    0.73094E+06        -0.44528E+08         0.00000E+00
    0.00000E+00         0.00000E+00        -0.15827E+08
 
   -0.17091E+08         0.11797E+07         0.00000E+00
    0.11797E+07        -0.44727E+08         0.00000E+00
    0.00000E+00         0.00000E+00        -0.16335E+08
 
   -0.17024E+08         0.17371E+07         0.00000E+00
    0.17371E+07        -0.44952E+08         0.00000E+00
    0.00000E+00         0.00000E+00        -0.16820E+08
 
   -0.27918E+08        -0.32846E+06         0.00000E+00
   -0.32846E+06        -0.46714E+08         0.00000E+00
    0.00000E+00         0.00000E+00        -0.14926E+08
 
   -0.26058E+08        -0.69161E+06         0.00000E+00
   -0.69161E+06        -0.46665E+08         0.00000E+00
    0.00000E+00         0.00000E+00        -0.14545E+08
 
   -0.24433E+08        -0.79953E+06         0.00000E+00
   -0.79953E+06        -0.46511E+08         0.00000E+00
    0.00000E+00         0.00000E+00        -0.14189E+08
 
   -0.23153E+08        -0.79253E+06         0.00000E+00
   -0.79253E+06        -0.46281E+08         0.00000E+00
    0.00000E+00         0.00000E+00        -0.14021E+08
 
   -0.22256E+08        -0.72118E+06         0.00000E+00
   -0.72118E+06        -0.46024E+08         0.00000E+00
    0.00000E+00         0.00000E+00        -0.14143E+08
 
   -0.21533E+08        -0.61722E+06         0.00000E+00
   -0.61722E+06        -0.45779E+08         0.00000E+00
    0.00000E+00         0.00000E+00        -0.14265E+08
 
   -0.20924E+08        -0.50161E+06         0.00000E+00
   -0.50161E+06        -0.45564E+08         0.00000E+00
    0.00000E+00         0.00000E+00        -0.14378E+08
 
   -0.20396E+08        -0.37915E+06         0.00000E+00
   -0.37915E+06        -0.45392E+08         0.00000E+00
    0.00000E+00         0.00000E+00        -0.14504E+08
 
   -0.19924E+08        -0.24833E+06         0.00000E+00
   -0.24833E+06        -0.45267E+08         0.00000E+00
    0.00000E+00         0.00000E+00        -0.14661E+08
 
   -0.19487E+08        -0.10491E+06         0.00000E+00
   -0.10491E+06        -0.45197E+08         0.00000E+00
    0.00000E+00         0.00000E+00        -0.14869E+08
 
   -0.19072E+08         0.59135E+05         0.00000E+00
    0.59135E+05        -0.45187E+08         0.00000E+00
    0.00000E+00         0.00000E+00        -0.15149E+08
 
   -0.18670E+08         0.26018E+06         0.00000E+00
    0.26018E+06        -0.45251E+08         0.00000E+00
    0.00000E+00         0.00000E+00        -0.15528E+08
 
   -0.18286E+08         0.53100E+06         0.00000E+00
    0.53100E+06        -0.45405E+08         0.00000E+00
    0.00000E+00         0.00000E+00        -0.16034E+08
 
   -0.17959E+08         0.92118E+06         0.00000E+00
    0.92118E+06        -0.45663E+08         0.00000E+00
    0.00000E+00         0.00000E+00        -0.16676E+08
 
   -0.17747E+08         0.14561E+07         0.00000E+00
    0.14561E+07        -0.45982E+08         0.00000E+00
    0.00000E+00         0.00000E+00        -0.17379E+08
 
   -0.29769E+08        -0.32195E+06         0.00000E+00
   -0.32195E+06        -0.48029E+08         0.00000E+00
    0.00000E+00         0.00000E+00        -0.15560E+08
 
   -0.27534E+08        -0.55119E+06         0.00000E+00
   -0.55119E+06        -0.47896E+08         0.00000E+00
    0.00000E+00         0.00000E+00        -0.15086E+08
 
   -0.25775E+08        -0.55553E+06         0.00000E+00
   -0.55553E+06        -0.47616E+08         0.00000E+00
    0.00000E+00         0.00000E+00        -0.14678E+08
 
   -0.24448E+08        -0.52043E+06         0.00000E+00
   -0.52043E+06        -0.47298E+08         0.00000E+00
    0.00000E+00         0.00000E+00        -0.14425E+08
 
   -0.23515E+08        -0.45539E+06         0.00000E+00
   -0.45539E+06        -0.46970E+08         0.00000E+00
    0.00000E+00         0.00000E+00        -0.14437E+08
 
   -0.22789E+08        -0.38296E+06         0.00000E+00
   -0.38296E+06        -0.46684E+08         0.00000E+00
    0.00000E+00         0.00000E+00        -0.14496E+08
 
   -0.22182E+08        -0.30918E+06         0.00000E+00
   -0.30918E+06        -0.46446E+08         0.00000E+00
    0.00000E+00         0.00000E+00        -0.14567E+08
 
   -0.21654E+08        -0.23323E+06         0.00000E+00
   -0.23323E+06        -0.46259E+08         0.00000E+00
    0.00000E+00         0.00000E+00        -0.14661E+08
 
   -0.21178E+08        -0.15270E+06         0.00000E+00
   -0.15270E+06        -0.46124E+08         0.00000E+00
    0.00000E+00         0.00000E+00        -0.14792E+08
 
   -0.20733E+08        -0.65155E+05         0.00000E+00
   -0.65155E+05        -0.46044E+08         0.00000E+00
    0.00000E+00         0.00000E+00        -0.14976E+08
 
   -0.20299E+08         0.33419E+05         0.00000E+00
    0.33419E+05        -0.46027E+08         0.00000E+00
    0.00000E+00         0.00000E+00        -0.15234E+08
 
   -0.19857E+08         0.15217E+06         0.00000E+00
    0.15217E+06        -0.46084E+08         0.00000E+00
    0.00000E+00         0.00000E+00        -0.15598E+08
 
   -0.19390E+08         0.31328E+06         0.00000E+00
    0.31328E+06        -0.46235E+08         0.00000E+00
    0.00000E+00         0.00000E+00        -0.16119E+08
 
   -0.18899E+08         0.57483E+06         0.00000E+00
    0.57483E+06        -0.46515E+08         0.00000E+00
    0.00000E+00         0.00000E+00        -0.16867E+08
 
   -0.18482E+08         0.10545E+07         0.00000E+00
    0.10545E+07        -0.46981E+08         0.00000E+00
    0.00000E+00         0.00000E+00        -0.17884E+08
 
   -0.31462E+08        -0.20782E+06         0.00000E+00
   -0.20782E+06        -0.49200E+08         0.00000E+00
    0.00000E+00         0.00000E+00        -0.16133E+08
 
   -0.28859E+08        -0.22844E+06         0.00000E+00
   -0.22844E+06        -0.48827E+08         0.00000E+00
    0.00000E+00         0.00000E+00        -0.15537E+08
 
   -0.27074E+08        -0.20113E+06         0.00000E+00
   -0.20113E+06        -0.48420E+08         0.00000E+00
    0.00000E+00         0.00000E+00        -0.15099E+08
 
   -0.25749E+08        -0.18131E+06         0.00000E+00
   -0.18131E+06        -0.48052E+08         0.00000E+00
    0.00000E+00         0.00000E+00        -0.14760E+08
 
   -0.24804E+08        -0.15459E+06         0.00000E+00
   -0.15459E+06        -0.47734E+08         0.00000E+00
    0.00000E+00         0.00000E+00        -0.14623E+08
 
   -0.24088E+08        -0.12885E+06         0.00000E+00
   -0.12885E+06        -0.47453E+08         0.00000E+00
    0.00000E+00         0.00000E+00        -0.14619E+08
 
   -0.23492E+08        -0.10383E+06         0.00000E+00
   -0.10383E+06        -0.47221E+08         0.00000E+00
    0.00000E+00         0.00000E+00        -0.14664E+08
 
   -0.22969E+08        -0.78347E+05         0.00000E+00
   -0.78347E+05        -0.47038E+08         0.00000E+00
    0.00000E+00         0.00000E+00        -0.14741E+08
 
   -0.22495E+08        -0.51054E+05         0.00000E+00
   -0.51054E+05        -0.46909E+08         0.00000E+00
    0.00000E+00         0.00000E+00        -0.14856E+08
 
   -0.22049E+08        -0.21411E+05         0.00000E+00
   -0.21411E+05        -0.46838E+08         0.00000E+00
    0.00000E+00         0.00000E+00        -0.15025E+08
 
   -0.21610E+08         0.11661E+05         0.00000E+00
    0.11661E+05        -0.46829E+08         0.00000E+00
    0.00000E+00         0.00000E+00        -0.15268E+08
 
   -0.21153E+08         0.50684E+05         0.00000E+00
    0.50684E+05        -0.46895E+08         0.00000E+00
    0.00000E+00         0.00000E+00        -0.15618E+08
 
   -0.20644E+08         0.10208E+06         0.00000E+00
    0.10208E+06        -0.47054E+08         0.00000E+00
    0.00000E+00         0.00000E+00        -0.16129E+08
 
   -0.20031E+08         0.18736E+06         0.00000E+00
    0.18736E+06        -0.47350E+08         0.00000E+00
    0.00000E+00         0.00000E+00        -0.16920E+08
 
   -0.19243E+08         0.40959E+06         0.00000E+00
    0.40959E+06        -0.47884E+08         0.00000E+00
    0.00000E+00         0.00000E+00        -0.18255E+08
 
TENSORS stresstot double 
   -0.36679E+08         0.54377E+04         0.00000E+00
    0.54377E+04        -0.59993E+08         0.00000E+00
    0.00000E+00         0.00000E+00        -0.42627E+08
 
   -0.36688E+08         0.15290E+05         0.00000E+00
    0.15290E+05        -0.59972E+08         0.00000E+00
    0.00000E+00         0.00000E+00        -0.42561E+08
 
   -0.36698E+08         0.23989E+05         0.00000E+00
    0.23989E+05        -0.59933E+08         0.00000E+00
    0.00000E+00         0.00000E+00        -0.42451E+08
 
   -0.36716E+08         0.31188E+05         0.00000E+00
    0.31188E+05        -0.59877E+08         0.00000E+00
    0.00000E+00         0.00000E+00        -0.42288E+08
 
   -0.36753E+08         0.36522E+05         0.00000E+00
    0.36522E+05        -0.59810E+08         0.00000E+00
    0.00000E+00         0.00000E+00        -0.42064E+08
 
   -0.36813E+08         0.39835E+05         0.00000E+00
    0.39835E+05        -0.59734E+08         0.00000E+00
    0.00000E+00         0.00000E+00        -0.41782E+08
 
   -0.36899E+08         0.41462E+05         0.00000E+00
    0.41462E+05        -0.59654E+08         0.00000E+00
    0.00000E+00         0.00000E+00        -0.41451E+08
 
   -0.37047E+08         0.41664E+05         0.00000E+00
    0.41664E+05        -0.59572E+08         0.00000E+00
    0.00000E+00         0.00000E+00        -0.41119E+08
 
   -0.37681E+08         0.42803E+05         0.00000E+00
    0.42803E+05        -0.59489E+08         0.00000E+00
    0.00000E+00         0.00000E+00        -0.41148E+08
 
   -0.38364E+08         0.47592E+05         0.00000E+00
    0.47592E+05        -0.59399E+08         0.00000E+00
    0.00000E+00         0.00000E+00        -0.41241E+08
 
   -0.39004E+08         0.55861E+05         0.00000E+00
    0.55861E+05        -0.59296E+08         0.00000E+00
    0.00000E+00         0.00000E+00        -0.41327E+08
 
   -0.39614E+08         0.67313E+05         0.00000E+00
    0.67313E+05        -0.59174E+08         0.00000E+00
    0.00000E+00         0.00000E+00        -0.41406E+08
 
   -0.40203E+08         0.81736E+05         0.00000E+00
    0.81736E+05        -0.59025E+08         0.00000E+00
    0.00000E+00         0.00000E+00        -0.41480E+08
 
   -0.40782E+08         0.98998E+05         0.00000E+00
    0.98998E+05        -0.58845E+08         0.00000E+00
    0.00000E+00         0.00000E+00        -0.41549E+08
 
   -0.41359E+08         0.11901E+06         0.00000E+00
    0.11901E+06        -0.58627E+08         0.00000E+00
    0.00000E+00         0.00000E+00        -0.41616E+08
 
   -0.36659E+08         0.16110E+05         0.00000E+00
    0.16110E+05        -0.59993E+08         0.00000E+00
    0.00000E+00         0.00000E+00        -0.42592E+08
 
   -0.36669E+08         0.45532E+05         0.00000E+00
    0.45532E+05        -0.59973E+08         0.00000E+00
    0.00000E+00         0.00000E+00        -0.42524E+08
 
   -0.36682E+08         0.71604E+05         0.00000E+00
    0.71604E+05        -0.59934E+08         0.00000E+00
    0.00000E+00         0.00000E+00        -0.42411E+08
 
   -0.36704E+08         0.92897E+05         0.00000E+00
    0.92897E+05        -0.59880E+08         0.00000E+00
    0.00000E+00         0.00000E+00        -0.42244E+08
 
   -0.36744E+08         0.10855E+06         0.00000E+00
    0.10855E+06        -0.59814E+08         0.00000E+00
    0.00000E+00         0.00000E+00        -0.42017E+08
 
   -0.36808E+08         0.11813E+06         0.00000E+00
    0.11813E+06        -0.59741E+08         0.00000E+00
    0.00000E+00         0.00000E+00        -0.41735E+08
 
   -0.36897E+08         0.12274E+06         0.00000E+00
    0.12274E+06        -0.59663E+08         0.00000E+00
    0.00000E+00         0.00000E+00        -0.41406E+08
 
   -0.37047E+08         0.12324E+06         0.00000E+00
    0.12324E+06        -0.59585E+08         0.00000E+00
    0.00000E+00         0.00000E+00        -0.41079E+08
 
   -0.37675E+08         0.12690E+06         0.00000E+00
    0.12690E+06        -0.59505E+08         0.00000E+00
    0.00000E+00         0.00000E+00        -0.41107E+08
 
   -0.38351E+08         0.14148E+06         0.00000E+00
    0.14148E+06        -0.59418E+08         0.00000E+00
    0.00000E+00         0.00000E+00        -0.41200E+08
 
   -0.38985E+08         0.16643E+06         0.00000E+00
    0.16643E+06        -0.59318E+08         0.00000E+00
    0.00000E+00         0.00000E+00        -0.41284E+08
 
   -0.39588E+08         0.20084E+06         0.00000E+00
    0.20084E+06        -0.59197E+08         0.00000E+00
    0.00000E+00         0.00000E+00        -0.41363E+08
 
   -0.40171E+08         0.24411E+06         0.00000E+00
    0.24411E+06        -0.59051E+08         0.00000E+00
    0.00000E+00         0.00000E+00        -0.41436E+08
 
   -0.40744E+08         0.29587E+06         0.00000E+00
    0.29587E+06        -0.58873E+08         0.00000E+00
    0.00000E+00         0.00000E+00        -0.41505E+08
 
   -0.41316E+08         0.35587E+06         0.00000E+00
    0.35587E+06        -0.58658E+08         0.00000E+00
    0.00000E+00         0.00000E+00        -0.41571E+08
 
   -0.36618E+08         0.26255E+05         0.00000E+00
    0.26255E+05        -0.59993E+08         0.00000E+00
    0.00000E+00         0.00000E+00        -0.42519E+08
 
   -0.36632E+08         0.74845E+05         0.00000E+00
    0.74845E+05        -0.59974E+08         0.00000E+00
    0.00000E+00         0.00000E+00        -0.42448E+08
 
   -0.36650E+08         0.11773E+06         0.00000E+00
    0.11773E+06        -0.59937E+08         0.00000E+00
    0.00000E+00         0.00000E+00        -0.42331E+08
 
   -0.36679E+08         0.15250E+06         0.00000E+00
    0.15250E+06        -0.59886E+08         0.00000E+00
    0.00000E+00         0.00000E+00        -0.42158E+08
 
   -0.36728E+08         0.17742E+06         0.00000E+00
    0.17742E+06        -0.59824E+08         0.00000E+00
    0.00000E+00         0.00000E+00        -0.41926E+08
 
   -0.36799E+08         0.19232E+06         0.00000E+00
    0.19232E+06        -0.59755E+08         0.00000E+00
    0.00000E+00         0.00000E+00        -0.41642E+08
 
   -0.36894E+08         0.19915E+06         0.00000E+00
    0.19915E+06        -0.59684E+08         0.00000E+00
    0.00000E+00         0.00000E+00        -0.41317E+08
 
   -0.37048E+08         0.19974E+06         0.00000E+00
    0.19974E+06        -0.59612E+08         0.00000E+00
    0.00000E+00         0.00000E+00        -0.40997E+08
 
   -0.37662E+08         0.20651E+06         0.00000E+00
    0.20651E+06        -0.59538E+08         0.00000E+00
    0.00000E+00         0.00000E+00        -0.41025E+08
 
   -0.38324E+08         0.23159E+06         0.00000E+00
    0.23159E+06        -0.59457E+08         0.00000E+00
    0.00000E+00         0.00000E+00        -0.41116E+08
 
   -0.38945E+08         0.27361E+06         0.00000E+00
    0.27361E+06        -0.59361E+08         0.00000E+00
    0.00000E+00         0.00000E+00        -0.41200E+08
 
   -0.39536E+08         0.33110E+06         0.00000E+00
    0.33110E+06        -0.59245E+08         0.00000E+00
    0.00000E+00         0.00000E+00        -0.41277E+08
 
   -0.40108E+08         0.40322E+06         0.00000E+00
    0.40322E+06        -0.59103E+08         0.00000E+00
    0.00000E+00         0.00000E+00        -0.41348E+08
 
   -0.40670E+08         0.48940E+06         0.00000E+00
    0.48940E+06        -0.58929E+08         0.00000E+00
    0.00000E+00         0.00000E+00        -0.41416E+08
 
   -0.41231E+08         0.58926E+06         0.00000E+00
    0.58926E+06        -0.58718E+08         0.00000E+00
    0.00000E+00         0.00000E+00        -0.41481E+08
 
   -0.36558E+08         0.35484E+05         0.00000E+00
    0.35484E+05        -0.59993E+08         0.00000E+00
    0.00000E+00         0.00000E+00        -0.42410E+08
 
   -0.36577E+08         0.10220E+06         0.00000E+00
    0.10220E+06        -0.59976E+08         0.00000E+00
    0.00000E+00         0.00000E+00        -0.42335E+08
 
   -0.36603E+08         0.16108E+06         0.00000E+00
    0.16108E+06        -0.59943E+08         0.00000E+00
    0.00000E+00         0.00000E+00        -0.42210E+08
 
   -0.36643E+08         0.20820E+06         0.00000E+00
    0.20820E+06        -0.59896E+08         0.00000E+00
    0.00000E+00         0.00000E+00        -0.42029E+08
 
   -0.36704E+08         0.24086E+06         0.00000E+00
    0.24086E+06        -0.59840E+08         0.00000E+00
    0.00000E+00         0.00000E+00        -0.41790E+08
 
   -0.36787E+08         0.25974E+06         0.00000E+00
    0.25974E+06        -0.59779E+08         0.00000E+00
    0.00000E+00         0.00000E+00        -0.41505E+08
 
   -0.36890E+08         0.26758E+06         0.00000E+00
    0.26758E+06        -0.59716E+08         0.00000E+00
    0.00000E+00         0.00000E+00        -0.41186E+08
 
   -0.37049E+08         0.26827E+06         0.00000E+00
    0.26827E+06        -0.59653E+08         0.00000E+00
    0.00000E+00         0.00000E+00        -0.40876E+08
 
   -0.37642E+08         0.27898E+06         0.00000E+00
    0.27898E+06        -0.59588E+08         0.00000E+00
    0.00000E+00         0.00000E+00        -0.40902E+08
 
   -0.38283E+08         0.31573E+06         0.00000E+00
    0.31573E+06        -0.59514E+08         0.00000E+00
    0.00000E+00         0.00000E+00        -0.40991E+08
 
   -0.38885E+08         0.37526E+06         0.00000E+00
    0.37526E+06        -0.59425E+08         0.00000E+00
    0.00000E+00         0.00000E+00        -0.41072E+08
 
   -0.39458E+08         0.45599E+06         0.00000E+00
    0.45599E+06        -0.59315E+08         0.00000E+00
    0.00000E+00         0.00000E+00        -0.41147E+08
 
   -0.40013E+08         0.55690E+06         0.00000E+00
    0.55690E+06        -0.59180E+08         0.00000E+00
    0.00000E+00         0.00000E+00        -0.41217E+08
 
   -0.40558E+08         0.67735E+06         0.00000E+00
    0.67735E+06        -0.59013E+08         0.00000E+00
    0.00000E+00         0.00000E+00        -0.41283E+08
 
   -0.41103E+08         0.81688E+06         0.00000E+00
    0.81688E+06        -0.58809E+08         0.00000E+00
    0.00000E+00         0.00000E+00        -0.41346E+08
 
   -0.36481E+08         0.43353E+05         0.00000E+00
    0.43353E+05        -0.59993E+08         0.00000E+00
    0.00000E+00         0.00000E+00        -0.42262E+08
 
   -0.36506E+08         0.12620E+06         0.00000E+00
    0.12620E+06        -0.59979E+08         0.00000E+00
    0.00000E+00         0.00000E+00        -0.42183E+08
 
   -0.36543E+08         0.19964E+06         0.00000E+00
    0.19964E+06        -0.59951E+08         0.00000E+00
    0.00000E+00         0.00000E+00        -0.42051E+08
 
   -0.36599E+08         0.25750E+06         0.00000E+00
    0.25750E+06        -0.59912E+08         0.00000E+00
    0.00000E+00         0.00000E+00        -0.41858E+08
 
   -0.36676E+08         0.29651E+06         0.00000E+00
    0.29651E+06        -0.59865E+08         0.00000E+00
    0.00000E+00         0.00000E+00        -0.41613E+08
 
   -0.36773E+08         0.31797E+06         0.00000E+00
    0.31797E+06        -0.59813E+08         0.00000E+00
    0.00000E+00         0.00000E+00        -0.41326E+08
 
   -0.36887E+08         0.32550E+06         0.00000E+00
    0.32550E+06        -0.59761E+08         0.00000E+00
    0.00000E+00         0.00000E+00        -0.41015E+08
 
   -0.37050E+08         0.32631E+06         0.00000E+00
    0.32631E+06        -0.59709E+08         0.00000E+00
    0.00000E+00         0.00000E+00        -0.40719E+08
 
   -0.37613E+08         0.34240E+06         0.00000E+00
    0.34240E+06        -0.59655E+08         0.00000E+00
    0.00000E+00         0.00000E+00        -0.40739E+08
 
   -0.38227E+08         0.39182E+06         0.00000E+00
    0.39182E+06        -0.59591E+08         0.00000E+00
    0.00000E+00         0.00000E+00        -0.40825E+08
 
   -0.38804E+08         0.46938E+06         0.00000E+00
    0.46938E+06        -0.59510E+08         0.00000E+00
    0.00000E+00         0.00000E+00        -0.40903E+08
 
   -0.39354E+08         0.57351E+06         0.00000E+00
    0.57351E+06        -0.59409E+08         0.00000E+00
    0.00000E+00         0.00000E+00        -0.40975E+08
 
   -0.39887E+08         0.70310E+06         0.00000E+00
    0.70310E+06        -0.59282E+08         0.00000E+00
    0.00000E+00         0.00000E+00        -0.41043E+08
 
   -0.40410E+08         0.85753E+06         0.00000E+00
    0.85753E+06        -0.59123E+08         0.00000E+00
    0.00000E+00         0.00000E+00        -0.41106E+08
 
   -0.40933E+08         0.10364E+07         0.00000E+00
    0.10364E+07        -0.58928E+08         0.00000E+00
    0.00000E+00         0.00000E+00        -0.41167E+08
 
   -0.36389E+08         0.49550E+05         0.00000E+00
    0.49550E+05        -0.59993E+08         0.00000E+00
    0.00000E+00         0.00000E+00        -0.42071E+08
 
   -0.36420E+08         0.14539E+06         0.00000E+00
    0.14539E+06        -0.59983E+08         0.00000E+00
    0.00000E+00         0.00000E+00        -0.41988E+08
 
   -0.36471E+08         0.23034E+06         0.00000E+00
    0.23034E+06        -0.59963E+08         0.00000E+00
    0.00000E+00         0.00000E+00        -0.41848E+08
 
   -0.36546E+08         0.29680E+06         0.00000E+00
    0.29680E+06        -0.59935E+08         0.00000E+00
    0.00000E+00         0.00000E+00        -0.41647E+08
 
   -0.36643E+08         0.34136E+06         0.00000E+00
    0.34136E+06        -0.59901E+08         0.00000E+00
    0.00000E+00         0.00000E+00        -0.41396E+08
 
   -0.36758E+08         0.36487E+06         0.00000E+00
    0.36487E+06        -0.59863E+08         0.00000E+00
    0.00000E+00         0.00000E+00        -0.41110E+08
 
   -0.36884E+08         0.37171E+06         0.00000E+00
    0.37171E+06        -0.59822E+08         0.00000E+00
    0.00000E+00         0.00000E+00        -0.40808E+08
 
   -0.37049E+08         0.37222E+06         0.00000E+00
    0.37222E+06        -0.59781E+08         0.00000E+00
    0.00000E+00         0.00000E+00        -0.40524E+08
 
   -0.37573E+08         0.39492E+06         0.00000E+00
    0.39492E+06        -0.59740E+08         0.00000E+00
    0.00000E+00         0.00000E+00        -0.40535E+08
 
   -0.38155E+08         0.45795E+06         0.00000E+00
    0.45795E+06        -0.59687E+08         0.00000E+00
    0.00000E+00         0.00000E+00        -0.40617E+08
 
   -0.38702E+08         0.55423E+06         0.00000E+00
    0.55423E+06        -0.59616E+08         0.00000E+00
    0.00000E+00         0.00000E+00        -0.40692E+08
 
   -0.39224E+08         0.68185E+06         0.00000E+00
    0.68185E+06        -0.59525E+08         0.00000E+00
    0.00000E+00         0.00000E+00        -0.40761E+08
 
   -0.39729E+08         0.83981E+06         0.00000E+00
    0.83981E+06        -0.59408E+08         0.00000E+00
    0.00000E+00         0.00000E+00        -0.40825E+08
 
   -0.40225E+08         0.10278E+07         0.00000E+00
    0.10278E+07        -0.59260E+08         0.00000E+00
    0.00000E+00         0.00000E+00        -0.40885E+08
 
   -0.40722E+08         0.12455E+07         0.00000E+00
    0.12455E+07        -0.59077E+08         0.00000E+00
    0.00000E+00         0.00000E+00        -0.40943E+08
 
   -0.36285E+08         0.53802E+05         0.00000E+00
    0.53802E+05        -0.59993E+08         0.00000E+00
    0.00000E+00         0.00000E+00        -0.41832E+08
 
   -0.36324E+08         0.15835E+06         0.00000E+00
    0.15835E+06        -0.59988E+08         0.00000E+00
    0.00000E+00         0.00000E+00        -0.41747E+08
 
   -0.36390E+08         0.25000E+06         0.00000E+00
    0.25000E+06        -0.59977E+08         0.00000E+00
    0.00000E+00         0.00000E+00        -0.41600E+08
 
   -0.36487E+08         0.32164E+06         0.00000E+00
    0.32164E+06        -0.59965E+08         0.00000E+00
    0.00000E+00         0.00000E+00        -0.41394E+08
 
   -0.36608E+08         0.37065E+06         0.00000E+00
    0.37065E+06        -0.59949E+08         0.00000E+00
    0.00000E+00         0.00000E+00        -0.41142E+08
 
   -0.36743E+08         0.39786E+06         0.00000E+00
    0.39786E+06        -0.59928E+08         0.00000E+00
    0.00000E+00         0.00000E+00        -0.40863E+08
 
   -0.36884E+08         0.40596E+06         0.00000E+00
    0.40596E+06        -0.59902E+08         0.00000E+00
    0.00000E+00         0.00000E+00        -0.40571E+08
 
   -0.37045E+08         0.40549E+06         0.00000E+00
    0.40549E+06        -0.59872E+08         0.00000E+00
    0.00000E+00         0.00000E+00        -0.40295E+08
 
   -0.37521E+08         0.43505E+06         0.00000E+00
    0.43505E+06        -0.59843E+08         0.00000E+00
    0.00000E+00         0.00000E+00        -0.40291E+08
 
   -0.38066E+08         0.51302E+06         0.00000E+00
    0.51302E+06        -0.59802E+08         0.00000E+00
    0.00000E+00         0.00000E+00        -0.40369E+08
 
   -0.38580E+08         0.62855E+06         0.00000E+00
    0.62855E+06        -0.59743E+08         0.00000E+00
    0.00000E+00         0.00000E+00        -0.40440E+08
 
   -0.39069E+08         0.77941E+06         0.00000E+00
    0.77941E+06        -0.59663E+08         0.00000E+00
    0.00000E+00         0.00000E+00        -0.40505E+08
 
   -0.39541E+08         0.96517E+06         0.00000E+00
    0.96517E+06        -0.59558E+08         0.00000E+00
    0.00000E+00         0.00000E+00        -0.40565E+08
 
   -0.40004E+08         0.11859E+07         0.00000E+00
    0.11859E+07        -0.59423E+08         0.00000E+00
    0.00000E+00         0.00000E+00        -0.40621E+08
 
   -0.40468E+08         0.14418E+07         0.00000E+00
    0.14418E+07        -0.59253E+08         0.00000E+00
    0.00000E+00         0.00000E+00        -0.40675E+08
 
   -0.36174E+08         0.55942E+05         0.00000E+00
    0.55942E+05        -0.59994E+08         0.00000E+00
    0.00000E+00         0.00000E+00        -0.41541E+08
 
   -0.36222E+08         0.16360E+06         0.00000E+00
    0.16360E+06        -0.59993E+08         0.00000E+00
    0.00000E+00         0.00000E+00        -0.41452E+08
 
   -0.36306E+08         0.25567E+06         0.00000E+00
    0.25567E+06        -0.59995E+08         0.00000E+00
    0.00000E+00         0.00000E+00        -0.41299E+08
 
   -0.36426E+08         0.32746E+06         0.00000E+00
    0.32746E+06        -0.60001E+08         0.00000E+00
    0.00000E+00         0.00000E+00        -0.41093E+08
 
   -0.36568E+08         0.37955E+06         0.00000E+00
    0.37955E+06        -0.60006E+08         0.00000E+00
    0.00000E+00         0.00000E+00        -0.40852E+08
 
   -0.36724E+08         0.41262E+06         0.00000E+00
    0.41262E+06        -0.60008E+08         0.00000E+00
    0.00000E+00         0.00000E+00        -0.40588E+08
 
   -0.36883E+08         0.42634E+06         0.00000E+00
    0.42634E+06        -0.60001E+08         0.00000E+00
    0.00000E+00         0.00000E+00        -0.40311E+08
 
   -0.37040E+08         0.42743E+06         0.00000E+00
    0.42743E+06        -0.59987E+08         0.00000E+00
    0.00000E+00         0.00000E+00        -0.40037E+08
 
   -0.37457E+08         0.46240E+06         0.00000E+00
    0.46240E+06        -0.59966E+08         0.00000E+00
    0.00000E+00         0.00000E+00        -0.40007E+08
 
   -0.37960E+08         0.55686E+06         0.00000E+00
    0.55686E+06        -0.59936E+08         0.00000E+00
    0.00000E+00         0.00000E+00        -0.40080E+08
 
   -0.38436E+08         0.69117E+06         0.00000E+00
    0.69117E+06        -0.59889E+08         0.00000E+00
    0.00000E+00         0.00000E+00        -0.40146E+08
 
   -0.38888E+08         0.86479E+06         0.00000E+00
    0.86479E+06        -0.59822E+08         0.00000E+00
    0.00000E+00         0.00000E+00        -0.40207E+08
 
   -0.39323E+08         0.10774E+07         0.00000E+00
    0.10774E+07        -0.59730E+08         0.00000E+00
    0.00000E+00         0.00000E+00        -0.40263E+08
 
   -0.39749E+08         0.13297E+07         0.00000E+00
    0.13297E+07        -0.59610E+08         0.00000E+00
    0.00000E+00         0.00000E+00        -0.40315E+08
 
   -0.40175E+08         0.16228E+07         0.00000E+00
    0.16228E+07        -0.59456E+08         0.00000E+00
    0.00000E+00         0.00000E+00        -0.40364E+08
 
   -0.36061E+08         0.55633E+05         0.00000E+00
    0.55633E+05        -0.59995E+08         0.00000E+00
    0.00000E+00         0.00000E+00        -0.41195E+08
 
   -0.36121E+08         0.15959E+06         0.00000E+00
    0.15959E+06        -0.60002E+08         0.00000E+00
    0.00000E+00         0.00000E+00        -0.41099E+08
 
   -0.36227E+08         0.24503E+06         0.00000E+00
    0.24503E+06        -0.60017E+08         0.00000E+00
    0.00000E+00         0.00000E+00        -0.40939E+08
 
   -0.36365E+08         0.31199E+06         0.00000E+00
    0.31199E+06        -0.60040E+08         0.00000E+00
    0.00000E+00         0.00000E+00        -0.40741E+08
 
   -0.36524E+08         0.36425E+06         0.00000E+00
    0.36425E+06        -0.60069E+08         0.00000E+00
    0.00000E+00         0.00000E+00        -0.40521E+08
 
   -0.36697E+08         0.40381E+06         0.00000E+00
    0.40381E+06        -0.60096E+08         0.00000E+00
    0.00000E+00         0.00000E+00        -0.40286E+08
 
   -0.36874E+08         0.42998E+06         0.00000E+00
    0.42998E+06        -0.60114E+08         0.00000E+00
    0.00000E+00         0.00000E+00        -0.40035E+08
 
   -0.37041E+08         0.43931E+06         0.00000E+00
    0.43931E+06        -0.60115E+08         0.00000E+00
    0.00000E+00         0.00000E+00        -0.39775E+08
 
   -0.37374E+08         0.47748E+06         0.00000E+00
    0.47748E+06        -0.60102E+08         0.00000E+00
    0.00000E+00         0.00000E+00        -0.39687E+08
 
   -0.37837E+08         0.58741E+06         0.00000E+00
    0.58741E+06        -0.60088E+08         0.00000E+00
    0.00000E+00         0.00000E+00        -0.39751E+08
 
   -0.38272E+08         0.74089E+06         0.00000E+00
    0.74089E+06        -0.60055E+08         0.00000E+00
    0.00000E+00         0.00000E+00        -0.39812E+08
 
   -0.38683E+08         0.93698E+06         0.00000E+00
    0.93698E+06        -0.60001E+08         0.00000E+00
    0.00000E+00         0.00000E+00        -0.39868E+08
 
   -0.39077E+08         0.11751E+07         0.00000E+00
    0.11751E+07        -0.59923E+08         0.00000E+00
    0.00000E+00         0.00000E+00        -0.39919E+08
 
   -0.39460E+08         0.14571E+07         0.00000E+00
    0.14571E+07        -0.59819E+08         0.00000E+00
    0.00000E+00         0.00000E+00        -0.39966E+08
 
   -0.39841E+08         0.17857E+07         0.00000E+00
    0.17857E+07        -0.59684E+08         0.00000E+00
    0.00000E+00         0.00000E+00        -0.40011E+08
 
   -0.35952E+08         0.51890E+05         0.00000E+00
    0.51890E+05        -0.59998E+08         0.00000E+00
    0.00000E+00         0.00000E+00        -0.40787E+08
 
   -0.36030E+08         0.14472E+06         0.00000E+00
    0.14472E+06        -0.60012E+08         0.00000E+00
    0.00000E+00         0.00000E+00        -0.40677E+08
 
   -0.36155E+08         0.21744E+06         0.00000E+00
    0.21744E+06        -0.60041E+08         0.00000E+00
    0.00000E+00         0.00000E+00        -0.40516E+08
 
   -0.36308E+08         0.27512E+06         0.00000E+00
    0.27512E+06        -0.60083E+08         0.00000E+00
    0.00000E+00         0.00000E+00        -0.40334E+08
 
   -0.36478E+08         0.32345E+06         0.00000E+00
    0.32345E+06        -0.60135E+08         0.00000E+00
    0.00000E+00         0.00000E+00        -0.40145E+08
 
   -0.36660E+08         0.36687E+06         0.00000E+00
    0.36687E+06        -0.60188E+08         0.00000E+00
    0.00000E+00         0.00000E+00        -0.39950E+08
 
   -0.36848E+08         0.40720E+06         0.00000E+00
    0.40720E+06        -0.60236E+08         0.00000E+00
    0.00000E+00         0.00000E+00        -0.39741E+08
 
   -0.37037E+08         0.43872E+06         0.00000E+00
    0.43872E+06        -0.60266E+08         0.00000E+00
    0.00000E+00         0.00000E+00        -0.39510E+08
 
   -0.37283E+08         0.48376E+06         0.00000E+00
    0.48376E+06        -0.60267E+08         0.00000E+00
    0.00000E+00         0.00000E+00        -0.39343E+08
 
   -0.37697E+08         0.60317E+06         0.00000E+00
    0.60317E+06        -0.60260E+08         0.00000E+00
    0.00000E+00         0.00000E+00        -0.39383E+08
 
   -0.38086E+08         0.77795E+06         0.00000E+00
    0.77795E+06        -0.60239E+08         0.00000E+00
    0.00000E+00         0.00000E+00        -0.39439E+08
 
   -0.38455E+08         0.99541E+06         0.00000E+00
    0.99541E+06        -0.60198E+08         0.00000E+00
    0.00000E+00         0.00000E+00        -0.39490E+08
 
   -0.38805E+08         0.12570E+07         0.00000E+00
    0.12570E+07        -0.60135E+08         0.00000E+00
    0.00000E+00         0.00000E+00        -0.39535E+08
 
   -0.39140E+08         0.15657E+07         0.00000E+00
    0.15657E+07        -0.60049E+08         0.00000E+00
    0.00000E+00         0.00000E+00        -0.39577E+08
 
   -0.39470E+08         0.19272E+07         0.00000E+00
    0.19272E+07        -0.59936E+08         0.00000E+00
    0.00000E+00         0.00000E+00        -0.39615E+08
 
   -0.35855E+08         0.43558E+05         0.00000E+00
    0.43558E+05        -0.60001E+08         0.00000E+00
    0.00000E+00         0.00000E+00        -0.40311E+08
 
   -0.35955E+08         0.11799E+06         0.00000E+00
    0.11799E+06        -0.60023E+08         0.00000E+00
    0.00000E+00         0.00000E+00        -0.40185E+08
 
   -0.36098E+08         0.17302E+06         0.00000E+00
    0.17302E+06        -0.60067E+08         0.00000E+00
    0.00000E+00         0.00000E+00        -0.40028E+08
 
   -0.36261E+08         0.21744E+06         0.00000E+00
    0.21744E+06        -0.60128E+08         0.00000E+00
    0.00000E+00         0.00000E+00        -0.39871E+08
 
   -0.36435E+08         0.25838E+06         0.00000E+00
    0.25838E+06        -0.60200E+08         0.00000E+00
    0.00000E+00         0.00000E+00        -0.39720E+08
 
   -0.36616E+08         0.30158E+06         0.00000E+00
    0.30158E+06        -0.60278E+08         0.00000E+00
    0.00000E+00         0.00000E+00        -0.39572E+08
 
   -0.36804E+08         0.35124E+06         0.00000E+00
    0.35124E+06        -0.60353E+08         0.00000E+00
    0.00000E+00         0.00000E+00        -0.39415E+08
 
   -0.37001E+08         0.40886E+06         0.00000E+00
    0.40886E+06        -0.60414E+08         0.00000E+00
    0.00000E+00         0.00000E+00        -0.39235E+08
 
   -0.37203E+08         0.48165E+06         0.00000E+00
    0.48165E+06        -0.60453E+08         0.00000E+00
    0.00000E+00         0.00000E+00        -0.39032E+08
 
   -0.37529E+08         0.60974E+06         0.00000E+00
    0.60974E+06        -0.60452E+08         0.00000E+00
    0.00000E+00         0.00000E+00        -0.38982E+08
 
   -0.37881E+08         0.80148E+06         0.00000E+00
    0.80148E+06        -0.60442E+08         0.00000E+00
    0.00000E+00         0.00000E+00        -0.39027E+08
 
   -0.38205E+08         0.10407E+07         0.00000E+00
    0.10407E+07        -0.60413E+08         0.00000E+00
    0.00000E+00         0.00000E+00        -0.39072E+08
 
   -0.38510E+08         0.13225E+07         0.00000E+00
    0.13225E+07        -0.60366E+08         0.00000E+00
    0.00000E+00         0.00000E+00        -0.39112E+08
 
   -0.38794E+08         0.16533E+07         0.00000E+00
    0.16533E+07        -0.60299E+08         0.00000E+00
    0.00000E+00         0.00000E+00        -0.39148E+08
 
   -0.39063E+08         0.20431E+07         0.00000E+00
    0.20431E+07        -0.60210E+08         0.00000E+00
    0.00000E+00         0.00000E+00        -0.39179E+08
 
   -0.35779E+08         0.30266E+05         0.00000E+00
    0.30266E+05        -0.60004E+08         0.00000E+00
    0.00000E+00         0.00000E+00        -0.39759E+08
 
   -0.35902E+08         0.78529E+05         0.00000E+00
    0.78529E+05        -0.60036E+08         0.00000E+00
    0.00000E+00         0.00000E+00        -0.39621E+08
 
   -0.36058E+08         0.11180E+06         0.00000E+00
    0.11180E+06        -0.60094E+08         0.00000E+00
    0.00000E+00         0.00000E+00        -0.39479E+08
 
   -0.36224E+08         0.14027E+06         0.00000E+00
    0.14027E+06        -0.60172E+08         0.00000E+00
    0.00000E+00         0.00000E+00        -0.39354E+08
 
   -0.36396E+08         0.17168E+06         0.00000E+00
    0.17168E+06        -0.60264E+08         0.00000E+00
    0.00000E+00         0.00000E+00        -0.39246E+08
 
   -0.36569E+08         0.21285E+06         0.00000E+00
    0.21285E+06        -0.60362E+08         0.00000E+00
    0.00000E+00         0.00000E+00        -0.39148E+08
 
   -0.36744E+08         0.26947E+06         0.00000E+00
    0.26947E+06        -0.60456E+08         0.00000E+00
    0.00000E+00         0.00000E+00        -0.39047E+08
 
   -0.36923E+08         0.34684E+06         0.00000E+00
    0.34684E+06        -0.60539E+08         0.00000E+00
    0.00000E+00         0.00000E+00        -0.38927E+08
 
   -0.37120E+08         0.44845E+06         0.00000E+00
    0.44845E+06        -0.60603E+08         0.00000E+00
    0.00000E+00         0.00000E+00        -0.38771E+08
 
   -0.37345E+08         0.59895E+06         0.00000E+00
    0.59895E+06        -0.60655E+08         0.00000E+00
    0.00000E+00         0.00000E+00        -0.38613E+08
 
   -0.37647E+08         0.81355E+06         0.00000E+00
    0.81355E+06        -0.60663E+08         0.00000E+00
    0.00000E+00         0.00000E+00        -0.38584E+08
 
   -0.37936E+08         0.10724E+07         0.00000E+00
    0.10724E+07        -0.60646E+08         0.00000E+00
    0.00000E+00         0.00000E+00        -0.38616E+08
 
   -0.38196E+08         0.13715E+07         0.00000E+00
    0.13715E+07        -0.60613E+08         0.00000E+00
    0.00000E+00         0.00000E+00        -0.38651E+08
 
   -0.38426E+08         0.17192E+07         0.00000E+00
    0.17192E+07        -0.60564E+08         0.00000E+00
    0.00000E+00         0.00000E+00        -0.38680E+08
 
   -0.38625E+08         0.21267E+07         0.00000E+00
    0.21267E+07        -0.60505E+08         0.00000E+00
    0.00000E+00         0.00000E+00        -0.38704E+08
 
   -0.35734E+08         0.11313E+05         0.00000E+00
    0.11313E+05        -0.60008E+08         0.00000E+00
    0.00000E+00         0.00000E+00        -0.39131E+08
 
   -0.35877E+08         0.26894E+05         0.00000E+00
    0.26894E+05        -0.60048E+08         0.00000E+00
    0.00000E+00         0.00000E+00        -0.38988E+08
 
   -0.36038E+08         0.34547E+05         0.00000E+00
    0.34547E+05        -0.60120E+08         0.00000E+00
    0.00000E+00         0.00000E+00        -0.38871E+08
 
   -0.36202E+08         0.44890E+05         0.00000E+00
    0.44890E+05        -0.60215E+08         0.00000E+00
    0.00000E+00         0.00000E+00        -0.38785E+08
 
   -0.36363E+08         0.66556E+05         0.00000E+00
    0.66556E+05        -0.60324E+08         0.00000E+00
    0.00000E+00         0.00000E+00        -0.38725E+08
 
   -0.36519E+08         0.10681E+06         0.00000E+00
    0.10681E+06        -0.60437E+08         0.00000E+00
    0.00000E+00         0.00000E+00        -0.38680E+08
 
   -0.36671E+08         0.17131E+06         0.00000E+00
    0.17131E+06        -0.60545E+08         0.00000E+00
    0.00000E+00         0.00000E+00        -0.38633E+08
 
   -0.36825E+08         0.26376E+06         0.00000E+00
    0.26376E+06        -0.60640E+08         0.00000E+00
    0.00000E+00         0.00000E+00        -0.38570E+08
 
   -0.36988E+08         0.38895E+06         0.00000E+00
    0.38895E+06        -0.60716E+08         0.00000E+00
    0.00000E+00         0.00000E+00        -0.38476E+08
 
   -0.37175E+08         0.55587E+06         0.00000E+00
    0.55587E+06        -0.60775E+08         0.00000E+00
    0.00000E+00         0.00000E+00        -0.38344E+08
 
   -0.37386E+08         0.78935E+06         0.00000E+00
    0.78935E+06        -0.60836E+08         0.00000E+00
    0.00000E+00         0.00000E+00        -0.38207E+08
 
   -0.37639E+08         0.10804E+07         0.00000E+00
    0.10804E+07        -0.60868E+08         0.00000E+00
    0.00000E+00         0.00000E+00        -0.38164E+08
 
   -0.37865E+08         0.14041E+07         0.00000E+00
    0.14041E+07        -0.60862E+08         0.00000E+00
    0.00000E+00         0.00000E+00        -0.38167E+08
 
   -0.38050E+08         0.17611E+07         0.00000E+00
    0.17611E+07        -0.60841E+08         0.00000E+00
    0.00000E+00         0.00000E+00        -0.38177E+08
 
   -0.38170E+08         0.21623E+07         0.00000E+00
    0.21623E+07        -0.60829E+08         0.00000E+00
    0.00000E+00         0.00000E+00        -0.38195E+08
 
   -0.35729E+08        -0.12886E+05         0.00000E+00
   -0.12886E+05        -0.60011E+08         0.00000E+00
    0.00000E+00         0.00000E+00        -0.38423E+08
 
   -0.35883E+08        -0.36075E+05         0.00000E+00
   -0.36075E+05        -0.60059E+08         0.00000E+00
    0.00000E+00         0.00000E+00        -0.38292E+08
 
   -0.36042E+08        -0.57802E+05         0.00000E+00
   -0.57802E+05        -0.60144E+08         0.00000E+00
    0.00000E+00         0.00000E+00        -0.38209E+08
 
   -0.36194E+08        -0.66734E+05         0.00000E+00
   -0.66734E+05        -0.60254E+08         0.00000E+00
    0.00000E+00         0.00000E+00        -0.38170E+08
 
   -0.36335E+08        -0.53565E+05         0.00000E+00
   -0.53565E+05        -0.60376E+08         0.00000E+00
    0.00000E+00         0.00000E+00        -0.38164E+08
 
   -0.36465E+08        -0.11503E+05         0.00000E+00
   -0.11503E+05        -0.60501E+08         0.00000E+00
    0.00000E+00         0.00000E+00        -0.38172E+08
 
   -0.36587E+08         0.63331E+05         0.00000E+00
    0.63331E+05        -0.60617E+08         0.00000E+00
    0.00000E+00         0.00000E+00        -0.38178E+08
 
   -0.36707E+08         0.17316E+06         0.00000E+00
    0.17316E+06        -0.60718E+08         0.00000E+00
    0.00000E+00         0.00000E+00        -0.38167E+08
 
   -0.36833E+08         0.31977E+06         0.00000E+00
    0.31977E+06        -0.60799E+08         0.00000E+00
    0.00000E+00         0.00000E+00        -0.38126E+08
 
   -0.36971E+08         0.50841E+06         0.00000E+00
    0.50841E+06        -0.60856E+08         0.00000E+00
    0.00000E+00         0.00000E+00        -0.38048E+08
 
   -0.37132E+08         0.74772E+06         0.00000E+00
    0.74772E+06        -0.60896E+08         0.00000E+00
    0.00000E+00         0.00000E+00        -0.37942E+08
 
   -0.37320E+08         0.10445E+07         0.00000E+00
    0.10445E+07        -0.60941E+08         0.00000E+00
    0.00000E+00         0.00000E+00        -0.37841E+08
 
   -0.37508E+08         0.13923E+07         0.00000E+00
    0.13923E+07        -0.60980E+08         0.00000E+00
    0.00000E+00         0.00000E+00        -0.37773E+08
 
   -0.37664E+08         0.17652E+07         0.00000E+00
    0.17652E+07        -0.60999E+08         0.00000E+00
    0.00000E+00         0.00000E+00        -0.37753E+08
 
   -0.37789E+08         0.21393E+07         0.00000E+00
    0.21393E+07        -0.61009E+08         0.00000E+00
    0.00000E+00         0.00000E+00        -0.37800E+08
 
   -0.35772E+08        -0.41054E+05         0.00000E+00
   -0.41054E+05        -0.60014E+08         0.00000E+00
    0.00000E+00         0.00000E+00        -0.37645E+08
 
   -0.35926E+08        -0.10949E+06         0.00000E+00
   -0.10949E+06        -0.60068E+08         0.00000E+00
    0.00000E+00         0.00000E+00        -0.37539E+08
 
   -0.36071E+08        -0.16393E+06         0.00000E+00
   -0.16393E+06        -0.60165E+08         0.00000E+00
    0.00000E+00         0.00000E+00        -0.37501E+08
 
   -0.36199E+08        -0.19200E+06         0.00000E+00
   -0.19200E+06        -0.60287E+08         0.00000E+00
    0.00000E+00         0.00000E+00        -0.37517E+08
 
   -0.36309E+08        -0.18449E+06         0.00000E+00
   -0.18449E+06        -0.60419E+08         0.00000E+00
    0.00000E+00         0.00000E+00        -0.37566E+08
 
   -0.36402E+08        -0.13728E+06         0.00000E+00
   -0.13728E+06        -0.60550E+08         0.00000E+00
    0.00000E+00         0.00000E+00        -0.37628E+08
 
   -0.36487E+08        -0.49255E+05         0.00000E+00
   -0.49255E+05        -0.60670E+08         0.00000E+00
    0.00000E+00         0.00000E+00        -0.37685E+08
 
   -0.36568E+08         0.79752E+05         0.00000E+00
    0.79752E+05        -0.60774E+08         0.00000E+00
    0.00000E+00         0.00000E+00        -0.37723E+08
 
   -0.36653E+08         0.25012E+06         0.00000E+00
    0.25012E+06        -0.60855E+08         0.00000E+00
    0.00000E+00         0.00000E+00        -0.37731E+08
 
   -0.36748E+08         0.46245E+06         0.00000E+00
    0.46245E+06        -0.60913E+08         0.00000E+00
    0.00000E+00         0.00000E+00        -0.37705E+08
 
   -0.36861E+08         0.71846E+06         0.00000E+00
    0.71846E+06        -0.60948E+08         0.00000E+00
    0.00000E+00         0.00000E+00        -0.37646E+08
 
   -0.36996E+08         0.10231E+07         0.00000E+00
    0.10231E+07        -0.60966E+08         0.00000E+00
    0.00000E+00         0.00000E+00        -0.37569E+08
 
   -0.37144E+08         0.13739E+07         0.00000E+00
    0.13739E+07        -0.60978E+08         0.00000E+00
    0.00000E+00         0.00000E+00        -0.37505E+08
 
   -0.37292E+08         0.17460E+07         0.00000E+00
    0.17460E+07        -0.60994E+08         0.00000E+00
    0.00000E+00         0.00000E+00        -0.37480E+08
 
   -0.37445E+08         0.21046E+07         0.00000E+00
    0.21046E+07        -0.61020E+08         0.00000E+00
    0.00000E+00         0.00000E+00        -0.37503E+08
 
   -0.35871E+08        -0.71857E+05         0.00000E+00
   -0.71857E+05        -0.60015E+08         0.00000E+00
    0.00000E+00         0.00000E+00        -0.36804E+08
 
   -0.36010E+08        -0.19256E+06         0.00000E+00
   -0.19256E+06        -0.60076E+08         0.00000E+00
    0.00000E+00         0.00000E+00        -0.36737E+08
 
   -0.36127E+08        -0.28233E+06         0.00000E+00
   -0.28233E+06        -0.60184E+08         0.00000E+00
    0.00000E+00         0.00000E+00        -0.36756E+08
 
   -0.36216E+08        -0.32652E+06         0.00000E+00
   -0.32652E+06        -0.60314E+08         0.00000E+00
    0.00000E+00         0.00000E+00        -0.36833E+08
 
   -0.36280E+08        -0.32065E+06         0.00000E+00
   -0.32065E+06        -0.60449E+08         0.00000E+00
    0.00000E+00         0.00000E+00        -0.36938E+08
 
   -0.36330E+08        -0.26569E+06         0.00000E+00
   -0.26569E+06        -0.60581E+08         0.00000E+00
    0.00000E+00         0.00000E+00        -0.37051E+08
 
   -0.36370E+08        -0.16314E+06         0.00000E+00
   -0.16314E+06        -0.60702E+08         0.00000E+00
    0.00000E+00         0.00000E+00        -0.37156E+08
 
   -0.36408E+08        -0.14307E+05         0.00000E+00
   -0.14307E+05        -0.60805E+08         0.00000E+00
    0.00000E+00         0.00000E+00        -0.37241E+08
 
   -0.36450E+08         0.17944E+06         0.00000E+00
    0.17944E+06        -0.60888E+08         0.00000E+00
    0.00000E+00         0.00000E+00        -0.37299E+08
 
   -0.36502E+08         0.41654E+06         0.00000E+00
    0.41654E+06        -0.60947E+08         0.00000E+00
    0.00000E+00         0.00000E+00        -0.37323E+08
 
   -0.36572E+08         0.69561E+06         0.00000E+00
    0.69561E+06        -0.60982E+08         0.00000E+00
    0.00000E+00         0.00000E+00        -0.37314E+08
 
   -0.36665E+08         0.10143E+07         0.00000E+00
    0.10143E+07        -0.60998E+08         0.00000E+00
    0.00000E+00         0.00000E+00        -0.37280E+08
 
   -0.36785E+08         0.13648E+07         0.00000E+00
    0.13648E+07        -0.61006E+08         0.00000E+00
    0.00000E+00         0.00000E+00        -0.37239E+08
 
   -0.36930E+08         0.17297E+07         0.00000E+00
    0.17297E+07        -0.61016E+08         0.00000E+00
    0.00000E+00         0.00000E+00        -0.37205E+08
 
   -0.37093E+08         0.20916E+07         0.00000E+00
    0.20916E+07        -0.61023E+08         0.00000E+00
    0.00000E+00         0.00000E+00        -0.37185E+08
 
   -0.36031E+08        -0.10379E+06         0.00000E+00
   -0.10379E+06        -0.60018E+08         0.00000E+00
    0.00000E+00         0.00000E+00        -0.35911E+08
 
   -0.36141E+08        -0.28727E+06         0.00000E+00
   -0.28727E+06        -0.60087E+08         0.00000E+00
    0.00000E+00         0.00000E+00        -0.35899E+08
 
   -0.36206E+08        -0.40904E+06         0.00000E+00
   -0.40904E+06        -0.60201E+08         0.00000E+00
    0.00000E+00         0.00000E+00        -0.35987E+08
 
   -0.36238E+08        -0.46276E+06         0.00000E+00
   -0.46276E+06        -0.60331E+08         0.00000E+00
    0.00000E+00         0.00000E+00        -0.36123E+08
 
   -0.36248E+08        -0.45594E+06         0.00000E+00
   -0.45594E+06        -0.60463E+08         0.00000E+00
    0.00000E+00         0.00000E+00        -0.36280E+08
 
   -0.36245E+08        -0.39287E+06         0.00000E+00
   -0.39287E+06        -0.60592E+08         0.00000E+00
    0.00000E+00         0.00000E+00        -0.36441E+08
 
   -0.36235E+08        -0.27632E+06         0.00000E+00
   -0.27632E+06        -0.60710E+08         0.00000E+00
    0.00000E+00         0.00000E+00        -0.36592E+08
 
   -0.36225E+08        -0.10887E+06         0.00000E+00
   -0.10887E+06        -0.60814E+08         0.00000E+00
    0.00000E+00         0.00000E+00        -0.36725E+08
 
   -0.36222E+08         0.10696E+06         0.00000E+00
    0.10696E+06        -0.60898E+08         0.00000E+00
    0.00000E+00         0.00000E+00        -0.36832E+08
 
   -0.36232E+08         0.36759E+06         0.00000E+00
    0.36759E+06        -0.60960E+08         0.00000E+00
    0.00000E+00         0.00000E+00        -0.36907E+08
 
   -0.36264E+08         0.66804E+06         0.00000E+00
    0.66804E+06        -0.61001E+08         0.00000E+00
    0.00000E+00         0.00000E+00        -0.36949E+08
 
   -0.36326E+08         0.10014E+07         0.00000E+00
    0.10014E+07        -0.61025E+08         0.00000E+00
    0.00000E+00         0.00000E+00        -0.36960E+08
 
   -0.36426E+08         0.13584E+07         0.00000E+00
    0.13584E+07        -0.61036E+08         0.00000E+00
    0.00000E+00         0.00000E+00        -0.36944E+08
 
   -0.36564E+08         0.17281E+07         0.00000E+00
    0.17281E+07        -0.61038E+08         0.00000E+00
    0.00000E+00         0.00000E+00        -0.36907E+08
 
   -0.36734E+08         0.20982E+07         0.00000E+00
    0.20982E+07        -0.61030E+08         0.00000E+00
    0.00000E+00         0.00000E+00        -0.36855E+08
 
   -0.36264E+08        -0.14770E+06         0.00000E+00
   -0.14770E+06        -0.60050E+08         0.00000E+00
    0.00000E+00         0.00000E+00        -0.35016E+08
 
   -0.36316E+08        -0.38662E+06         0.00000E+00
   -0.38662E+06        -0.60114E+08         0.00000E+00
    0.00000E+00         0.00000E+00        -0.35051E+08
 
   -0.36301E+08        -0.53252E+06         0.00000E+00
   -0.53252E+06        -0.60210E+08         0.00000E+00
    0.00000E+00         0.00000E+00        -0.35197E+08
 
   -0.36263E+08        -0.59317E+06         0.00000E+00
   -0.59317E+06        -0.60332E+08         0.00000E+00
    0.00000E+00         0.00000E+00        -0.35389E+08
 
   -0.36211E+08        -0.58583E+06         0.00000E+00
   -0.58583E+06        -0.60458E+08         0.00000E+00
    0.00000E+00         0.00000E+00        -0.35592E+08
 
   -0.36150E+08        -0.51606E+06         0.00000E+00
   -0.51606E+06        -0.60581E+08         0.00000E+00
    0.00000E+00         0.00000E+00        -0.35797E+08
 
   -0.36085E+08        -0.38766E+06         0.00000E+00
   -0.38766E+06        -0.60696E+08         0.00000E+00
    0.00000E+00         0.00000E+00        -0.35993E+08
 
   -0.36024E+08        -0.20379E+06         0.00000E+00
   -0.20379E+06        -0.60797E+08         0.00000E+00
    0.00000E+00         0.00000E+00        -0.36172E+08
 
   -0.35973E+08         0.31357E+05         0.00000E+00
    0.31357E+05        -0.60883E+08         0.00000E+00
    0.00000E+00         0.00000E+00        -0.36327E+08
 
   -0.35941E+08         0.31213E+06         0.00000E+00
    0.31213E+06        -0.60950E+08         0.00000E+00
    0.00000E+00         0.00000E+00        -0.36452E+08
 
   -0.35938E+08         0.63145E+06         0.00000E+00
    0.63145E+06        -0.61000E+08         0.00000E+00
    0.00000E+00         0.00000E+00        -0.36543E+08
 
   -0.35974E+08         0.98096E+06         0.00000E+00
    0.98096E+06        -0.61032E+08         0.00000E+00
    0.00000E+00         0.00000E+00        -0.36595E+08
 
   -0.36056E+08         0.13522E+07         0.00000E+00
    0.13522E+07        -0.61049E+08         0.00000E+00
    0.00000E+00         0.00000E+00        -0.36607E+08
 
   -0.36188E+08         0.17360E+07         0.00000E+00
    0.17360E+07        -0.61048E+08         0.00000E+00
    0.00000E+00         0.00000E+00        -0.36578E+08
 
   -0.36366E+08         0.21193E+07         0.00000E+00
    0.21193E+07        -0.61032E+08         0.00000E+00
    0.00000E+00         0.00000E+00        -0.36510E+08
 
   -0.36581E+08        -0.19674E+06         0.00000E+00
   -0.19674E+06        -0.60042E+08         0.00000E+00
    0.00000E+00         0.00000E+00        -0.34251E+08
 
   -0.36531E+08        -0.48285E+06         0.00000E+00
   -0.48285E+06        -0.60105E+08         0.00000E+00
    0.00000E+00         0.00000E+00        -0.34279E+08
 
   -0.36399E+08        -0.64936E+06         0.00000E+00
   -0.64936E+06        -0.60200E+08         0.00000E+00
    0.00000E+00         0.00000E+00        -0.34392E+08
 
   -0.36290E+08        -0.71631E+06         0.00000E+00
   -0.71631E+06        -0.60313E+08         0.00000E+00
    0.00000E+00         0.00000E+00        -0.34625E+08
 
   -0.36170E+08        -0.70814E+06         0.00000E+00
   -0.70814E+06        -0.60431E+08         0.00000E+00
    0.00000E+00         0.00000E+00        -0.34873E+08
 
   -0.36047E+08        -0.63379E+06         0.00000E+00
   -0.63379E+06        -0.60547E+08         0.00000E+00
    0.00000E+00         0.00000E+00        -0.35120E+08
 
   -0.35923E+08        -0.49588E+06         0.00000E+00
   -0.49588E+06        -0.60657E+08         0.00000E+00
    0.00000E+00         0.00000E+00        -0.35358E+08
 
   -0.35806E+08        -0.29847E+06         0.00000E+00
   -0.29847E+06        -0.60756E+08         0.00000E+00
    0.00000E+00         0.00000E+00        -0.35581E+08
 
   -0.35705E+08        -0.47717E+05         0.00000E+00
   -0.47717E+05        -0.60842E+08         0.00000E+00
    0.00000E+00         0.00000E+00        -0.35781E+08
 
   -0.35632E+08         0.24969E+06         0.00000E+00
    0.24969E+06        -0.60914E+08         0.00000E+00
    0.00000E+00         0.00000E+00        -0.35952E+08
 
   -0.35595E+08         0.58584E+06         0.00000E+00
    0.58584E+06        -0.60971E+08         0.00000E+00
    0.00000E+00         0.00000E+00        -0.36087E+08
 
   -0.35605E+08         0.95273E+06         0.00000E+00
    0.95273E+06        -0.61012E+08         0.00000E+00
    0.00000E+00         0.00000E+00        -0.36180E+08
 
   -0.35670E+08         0.13423E+07         0.00000E+00
    0.13423E+07        -0.61035E+08         0.00000E+00
    0.00000E+00         0.00000E+00        -0.36222E+08
 
   -0.35795E+08         0.17455E+07         0.00000E+00
    0.17455E+07        -0.61038E+08         0.00000E+00
    0.00000E+00         0.00000E+00        -0.36209E+08
 
   -0.35980E+08         0.21493E+07         0.00000E+00
    0.21493E+07        -0.61020E+08         0.00000E+00
    0.00000E+00         0.00000E+00        -0.36139E+08
 
   -0.36971E+08        -0.22949E+06         0.00000E+00
   -0.22949E+06        -0.60018E+08         0.00000E+00
    0.00000E+00         0.00000E+00        -0.33589E+08
 
   -0.36778E+08        -0.56792E+06         0.00000E+00
   -0.56792E+06        -0.60078E+08         0.00000E+00
    0.00000E+00         0.00000E+00        -0.33568E+08
 
   -0.36516E+08        -0.76359E+06         0.00000E+00
   -0.76359E+06        -0.60165E+08         0.00000E+00
    0.00000E+00         0.00000E+00        -0.33618E+08
 
   -0.36312E+08        -0.83465E+06         0.00000E+00
   -0.83465E+06        -0.60270E+08         0.00000E+00
    0.00000E+00         0.00000E+00        -0.33838E+08
 
   -0.36127E+08        -0.82385E+06         0.00000E+00
   -0.82385E+06        -0.60383E+08         0.00000E+00
    0.00000E+00         0.00000E+00        -0.34124E+08
 
   -0.35937E+08        -0.74499E+06         0.00000E+00
   -0.74499E+06        -0.60492E+08         0.00000E+00
    0.00000E+00         0.00000E+00        -0.34410E+08
 
   -0.35749E+08        -0.59901E+06         0.00000E+00
   -0.59901E+06        -0.60594E+08         0.00000E+00
    0.00000E+00         0.00000E+00        -0.34687E+08
 
   -0.35575E+08        -0.39117E+06         0.00000E+00
   -0.39117E+06        -0.60688E+08         0.00000E+00
    0.00000E+00         0.00000E+00        -0.34948E+08
 
   -0.35424E+08        -0.12814E+06         0.00000E+00
   -0.12814E+06        -0.60772E+08         0.00000E+00
    0.00000E+00         0.00000E+00        -0.35188E+08
 
   -0.35307E+08         0.18224E+06         0.00000E+00
    0.18224E+06        -0.60845E+08         0.00000E+00
    0.00000E+00         0.00000E+00        -0.35399E+08
 
   -0.35234E+08         0.53272E+06         0.00000E+00
    0.53272E+06        -0.60907E+08         0.00000E+00
    0.00000E+00         0.00000E+00        -0.35575E+08
 
   -0.35217E+08         0.91620E+06         0.00000E+00
    0.91620E+06        -0.60955E+08         0.00000E+00
    0.00000E+00         0.00000E+00        -0.35706E+08
 
   -0.35262E+08         0.13250E+07         0.00000E+00
    0.13250E+07        -0.60987E+08         0.00000E+00
    0.00000E+00         0.00000E+00        -0.35782E+08
 
   -0.35379E+08         0.17502E+07         0.00000E+00
    0.17502E+07        -0.60999E+08         0.00000E+00
    0.00000E+00         0.00000E+00        -0.35795E+08
 
   -0.35570E+08         0.21798E+07         0.00000E+00
    0.21798E+07        -0.60986E+08         0.00000E+00
    0.00000E+00         0.00000E+00        -0.35735E+08
 
   -0.37412E+08        -0.25440E+06         0.00000E+00
   -0.25440E+06        -0.60009E+08         0.00000E+00
    0.00000E+00         0.00000E+00        -0.32945E+08
 
   -0.37064E+08        -0.63367E+06         0.00000E+00
   -0.63367E+06        -0.60048E+08         0.00000E+00
    0.00000E+00         0.00000E+00        -0.32886E+08
 
   -0.36658E+08        -0.85916E+06         0.00000E+00
   -0.85916E+06        -0.60130E+08         0.00000E+00
    0.00000E+00         0.00000E+00        -0.32870E+08
 
   -0.36332E+08        -0.94487E+06         0.00000E+00
   -0.94487E+06        -0.60218E+08         0.00000E+00
    0.00000E+00         0.00000E+00        -0.33042E+08
 
   -0.36080E+08        -0.93188E+06         0.00000E+00
   -0.93188E+06        -0.60319E+08         0.00000E+00
    0.00000E+00         0.00000E+00        -0.33355E+08
 
   -0.35820E+08        -0.84695E+06         0.00000E+00
   -0.84695E+06        -0.60416E+08         0.00000E+00
    0.00000E+00         0.00000E+00        -0.33671E+08
 
   -0.35567E+08        -0.69363E+06         0.00000E+00
   -0.69363E+06        -0.60506E+08         0.00000E+00
    0.00000E+00         0.00000E+00        -0.33978E+08
 
   -0.35334E+08        -0.47775E+06         0.00000E+00
   -0.47775E+06        -0.60590E+08         0.00000E+00
    0.00000E+00         0.00000E+00        -0.34270E+08
 
   -0.35131E+08        -0.20643E+06         0.00000E+00
   -0.20643E+06        -0.60667E+08         0.00000E+00
    0.00000E+00         0.00000E+00        -0.34541E+08
 
   -0.34970E+08         0.11302E+06         0.00000E+00
    0.11302E+06        -0.60738E+08         0.00000E+00
    0.00000E+00         0.00000E+00        -0.34786E+08
 
   -0.34860E+08         0.47398E+06         0.00000E+00
    0.47398E+06        -0.60802E+08         0.00000E+00
    0.00000E+00         0.00000E+00        -0.34997E+08
 
   -0.34811E+08         0.87067E+06         0.00000E+00
    0.87067E+06        -0.60857E+08         0.00000E+00
    0.00000E+00         0.00000E+00        -0.35167E+08
 
   -0.34834E+08         0.12972E+07         0.00000E+00
    0.12972E+07        -0.60900E+08         0.00000E+00
    0.00000E+00         0.00000E+00        -0.35282E+08
 
   -0.34938E+08         0.17452E+07         0.00000E+00
    0.17452E+07        -0.60925E+08         0.00000E+00
    0.00000E+00         0.00000E+00        -0.35330E+08
 
   -0.35132E+08         0.22028E+07         0.00000E+00
    0.22028E+07        -0.60924E+08         0.00000E+00
    0.00000E+00         0.00000E+00        -0.35293E+08
 
   -0.37894E+08        -0.27171E+06         0.00000E+00
   -0.27171E+06        -0.60007E+08         0.00000E+00
    0.00000E+00         0.00000E+00        -0.32292E+08
 
   -0.37384E+08        -0.68423E+06         0.00000E+00
   -0.68423E+06        -0.60038E+08         0.00000E+00
    0.00000E+00         0.00000E+00        -0.32199E+08
 
   -0.36821E+08        -0.93580E+06         0.00000E+00
   -0.93580E+06        -0.60099E+08         0.00000E+00
    0.00000E+00         0.00000E+00        -0.32123E+08
 
   -0.36362E+08        -0.10348E+07         0.00000E+00
   -0.10348E+07        -0.60165E+08         0.00000E+00
    0.00000E+00         0.00000E+00        -0.32250E+08
 
   -0.36029E+08        -0.10239E+07         0.00000E+00
   -0.10239E+07        -0.60244E+08         0.00000E+00
    0.00000E+00         0.00000E+00        -0.32575E+08
 
   -0.35697E+08        -0.93362E+06         0.00000E+00
   -0.93362E+06        -0.60321E+08         0.00000E+00
    0.00000E+00         0.00000E+00        -0.32908E+08
 
   -0.35379E+08        -0.77398E+06         0.00000E+00
   -0.77398E+06        -0.60393E+08         0.00000E+00
    0.00000E+00         0.00000E+00        -0.33233E+08
 
   -0.35086E+08        -0.55280E+06         0.00000E+00
   -0.55280E+06        -0.60460E+08         0.00000E+00
    0.00000E+00         0.00000E+00        -0.33543E+08
 
   -0.34832E+08        -0.27747E+06         0.00000E+00
   -0.27747E+06        -0.60524E+08         0.00000E+00
    0.00000E+00         0.00000E+00        -0.33835E+08
 
   -0.34626E+08         0.45637E+05         0.00000E+00
    0.45637E+05        -0.60588E+08         0.00000E+00
    0.00000E+00         0.00000E+00        -0.34105E+08
 
   -0.34476E+08         0.41138E+06         0.00000E+00
    0.41138E+06        -0.60651E+08         0.00000E+00
    0.00000E+00         0.00000E+00        -0.34349E+08
 
   -0.34393E+08         0.81588E+06         0.00000E+00
    0.81588E+06        -0.60713E+08         0.00000E+00
    0.00000E+00         0.00000E+00        -0.34556E+08
 
   -0.34387E+08         0.12556E+07         0.00000E+00
    0.12556E+07        -0.60768E+08         0.00000E+00
    0.00000E+00         0.00000E+00        -0.34716E+08
 
   -0.34472E+08         0.17246E+07         0.00000E+00
    0.17246E+07        -0.60809E+08         0.00000E+00
    0.00000E+00         0.00000E+00        -0.34808E+08
 
   -0.34661E+08         0.22116E+07         0.00000E+00
    0.22116E+07        -0.60828E+08         0.00000E+00
    0.00000E+00         0.00000E+00        -0.34809E+08
 
   -0.38408E+08        -0.28681E+06         0.00000E+00
   -0.28681E+06        -0.60006E+08         0.00000E+00
    0.00000E+00         0.00000E+00        -0.31628E+08
 
   -0.37724E+08        -0.72255E+06         0.00000E+00
   -0.72255E+06        -0.60030E+08         0.00000E+00
    0.00000E+00         0.00000E+00        -0.31500E+08
 
   -0.37003E+08        -0.98955E+06         0.00000E+00
   -0.98955E+06        -0.60070E+08         0.00000E+00
    0.00000E+00         0.00000E+00        -0.31377E+08
 
   -0.36401E+08        -0.10982E+07         0.00000E+00
   -0.10982E+07        -0.60114E+08         0.00000E+00
    0.00000E+00         0.00000E+00        -0.31457E+08
 
   -0.35976E+08        -0.10898E+07         0.00000E+00
   -0.10898E+07        -0.60164E+08         0.00000E+00
    0.00000E+00         0.00000E+00        -0.31786E+08
 
   -0.35569E+08        -0.99558E+06         0.00000E+00
   -0.99558E+06        -0.60210E+08         0.00000E+00
    0.00000E+00         0.00000E+00        -0.32124E+08
 
   -0.35186E+08        -0.83177E+06         0.00000E+00
   -0.83177E+06        -0.60253E+08         0.00000E+00
    0.00000E+00         0.00000E+00        -0.32451E+08
 
   -0.34837E+08        -0.60918E+06         0.00000E+00
   -0.60918E+06        -0.60295E+08         0.00000E+00
    0.00000E+00         0.00000E+00        -0.32765E+08
 
   -0.34533E+08        -0.33567E+06         0.00000E+00
   -0.33567E+06        -0.60340E+08         0.00000E+00
    0.00000E+00         0.00000E+00        -0.33065E+08
 
   -0.34281E+08        -0.16045E+05         0.00000E+00
   -0.16045E+05        -0.60392E+08         0.00000E+00
    0.00000E+00         0.00000E+00        -0.33352E+08
 
   -0.34089E+08         0.34689E+06         0.00000E+00
    0.34689E+06        -0.60452E+08         0.00000E+00
    0.00000E+00         0.00000E+00        -0.33622E+08
 
   -0.33966E+08         0.75173E+06         0.00000E+00
    0.75173E+06        -0.60519E+08         0.00000E+00
    0.00000E+00         0.00000E+00        -0.33867E+08
 
   -0.33924E+08         0.11976E+07         0.00000E+00
    0.11976E+07        -0.60587E+08         0.00000E+00
    0.00000E+00         0.00000E+00        -0.34076E+08
 
   -0.33981E+08         0.16824E+07         0.00000E+00
    0.16824E+07        -0.60650E+08         0.00000E+00
    0.00000E+00         0.00000E+00        -0.34224E+08
 
   -0.34157E+08         0.21976E+07         0.00000E+00
    0.21976E+07        -0.60693E+08         0.00000E+00
    0.00000E+00         0.00000E+00        -0.34278E+08
 
   -0.38947E+08        -0.29936E+06         0.00000E+00
   -0.29936E+06        -0.60005E+08         0.00000E+00
    0.00000E+00         0.00000E+00        -0.30955E+08
 
   -0.38078E+08        -0.74987E+06         0.00000E+00
   -0.74987E+06        -0.60022E+08         0.00000E+00
    0.00000E+00         0.00000E+00        -0.30789E+08
 
   -0.37193E+08        -0.10206E+07         0.00000E+00
   -0.10206E+07        -0.60044E+08         0.00000E+00
    0.00000E+00         0.00000E+00        -0.30626E+08
 
   -0.36443E+08        -0.11318E+07         0.00000E+00
   -0.11318E+07        -0.60063E+08         0.00000E+00
    0.00000E+00         0.00000E+00        -0.30659E+08
 
   -0.35921E+08        -0.11205E+07         0.00000E+00
   -0.11205E+07        -0.60075E+08         0.00000E+00
    0.00000E+00         0.00000E+00        -0.30986E+08
 
   -0.35437E+08        -0.10223E+07         0.00000E+00
   -0.10223E+07        -0.60082E+08         0.00000E+00
    0.00000E+00         0.00000E+00        -0.31315E+08
 
   -0.34992E+08        -0.85702E+06         0.00000E+00
   -0.85702E+06        -0.60086E+08         0.00000E+00
    0.00000E+00         0.00000E+00        -0.31629E+08
 
   -0.34591E+08        -0.63860E+06         0.00000E+00
   -0.63860E+06        -0.60093E+08         0.00000E+00
    0.00000E+00         0.00000E+00        -0.31930E+08
 
   -0.34240E+08        -0.37489E+06         0.00000E+00
   -0.37489E+06        -0.60112E+08         0.00000E+00
    0.00000E+00         0.00000E+00        -0.32225E+08
 
   -0.33944E+08        -0.68332E+05         0.00000E+00
   -0.68332E+05        -0.60147E+08         0.00000E+00
    0.00000E+00         0.00000E+00        -0.32519E+08
 
   -0.33709E+08         0.28187E+06         0.00000E+00
    0.28187E+06        -0.60201E+08         0.00000E+00
    0.00000E+00         0.00000E+00        -0.32810E+08
 
   -0.33542E+08         0.67742E+06         0.00000E+00
    0.67742E+06        -0.60273E+08         0.00000E+00
    0.00000E+00         0.00000E+00        -0.33094E+08
 
   -0.33455E+08         0.11204E+07         0.00000E+00
    0.11204E+07        -0.60356E+08         0.00000E+00
    0.00000E+00         0.00000E+00        -0.33357E+08
 
   -0.33469E+08         0.16129E+07         0.00000E+00
    0.16129E+07        -0.60443E+08         0.00000E+00
    0.00000E+00         0.00000E+00        -0.33572E+08
 
   -0.33621E+08         0.21543E+07         0.00000E+00
    0.21543E+07        -0.60521E+08         0.00000E+00
    0.00000E+00         0.00000E+00        -0.33698E+08
 
   -0.39503E+08        -0.30936E+06         0.00000E+00
   -0.30936E+06        -0.60004E+08         0.00000E+00
    0.00000E+00         0.00000E+00        -0.30275E+08
 
   -0.38434E+08        -0.76550E+06         0.00000E+00
   -0.76550E+06        -0.60014E+08         0.00000E+00
    0.00000E+00         0.00000E+00        -0.30069E+08
 
   -0.37378E+08        -0.10275E+07         0.00000E+00
   -0.10275E+07        -0.60015E+08         0.00000E+00
    0.00000E+00         0.00000E+00        -0.29868E+08
 
   -0.36482E+08        -0.11292E+07         0.00000E+00
   -0.11292E+07        -0.60001E+08         0.00000E+00
    0.00000E+00         0.00000E+00        -0.29859E+08
 
   -0.35860E+08        -0.11088E+07         0.00000E+00
   -0.11088E+07        -0.59969E+08         0.00000E+00
    0.00000E+00         0.00000E+00        -0.30171E+08
 
   -0.35303E+08        -0.10044E+07         0.00000E+00
   -0.10044E+07        -0.59928E+08         0.00000E+00
    0.00000E+00         0.00000E+00        -0.30477E+08
 
   -0.34801E+08        -0.84051E+06         0.00000E+00
   -0.84051E+06        -0.59885E+08         0.00000E+00
    0.00000E+00         0.00000E+00        -0.30761E+08
 
   -0.34356E+08        -0.63306E+06         0.00000E+00
   -0.63306E+06        -0.59850E+08         0.00000E+00
    0.00000E+00         0.00000E+00        -0.31035E+08
 
   -0.33965E+08        -0.38890E+06         0.00000E+00
   -0.38890E+06        -0.59836E+08         0.00000E+00
    0.00000E+00         0.00000E+00        -0.31311E+08
 
   -0.33627E+08        -0.10733E+06         0.00000E+00
   -0.10733E+06        -0.59850E+08         0.00000E+00
    0.00000E+00         0.00000E+00        -0.31600E+08
 
   -0.33346E+08         0.21717E+06         0.00000E+00
    0.21717E+06        -0.59896E+08         0.00000E+00
    0.00000E+00         0.00000E+00        -0.31907E+08
 
   -0.33129E+08         0.59160E+06         0.00000E+00
    0.59160E+06        -0.59973E+08         0.00000E+00
    0.00000E+00         0.00000E+00        -0.32229E+08
 
   -0.32988E+08         0.10215E+07         0.00000E+00
    0.10215E+07        -0.60075E+08         0.00000E+00
    0.00000E+00         0.00000E+00        -0.32552E+08
 
   -0.32945E+08         0.15114E+07         0.00000E+00
    0.15114E+07        -0.60191E+08         0.00000E+00
    0.00000E+00         0.00000E+00        -0.32849E+08
 
   -0.33054E+08         0.20631E+07         0.00000E+00
    0.20631E+07        -0.60310E+08         0.00000E+00
    0.00000E+00         0.00000E+00        -0.33064E+08
 
   -0.40072E+08        -0.31711E+06         0.00000E+00
   -0.31711E+06        -0.60003E+08         0.00000E+00
    0.00000E+00         0.00000E+00        -0.29590E+08
 
   -0.38781E+08        -0.76668E+06         0.00000E+00
   -0.76668E+06        -0.60004E+08         0.00000E+00
    0.00000E+00         0.00000E+00        -0.29338E+08
 
   -0.37544E+08        -0.10041E+07         0.00000E+00
   -0.10041E+07        -0.59979E+08         0.00000E+00
    0.00000E+00         0.00000E+00        -0.29097E+08
 
   -0.36509E+08        -0.10819E+07         0.00000E+00
   -0.10819E+07        -0.59921E+08         0.00000E+00
    0.00000E+00         0.00000E+00        -0.29049E+08
 
   -0.35789E+08        -0.10451E+07         0.00000E+00
   -0.10451E+07        -0.59835E+08         0.00000E+00
    0.00000E+00         0.00000E+00        -0.29331E+08
 
   -0.35166E+08        -0.93352E+06         0.00000E+00
   -0.93352E+06        -0.59736E+08         0.00000E+00
    0.00000E+00         0.00000E+00        -0.29597E+08
 
   -0.34620E+08        -0.77584E+06         0.00000E+00
   -0.77584E+06        -0.59640E+08         0.00000E+00
    0.00000E+00         0.00000E+00        -0.29838E+08
 
   -0.34141E+08        -0.58734E+06         0.00000E+00
   -0.58734E+06        -0.59561E+08         0.00000E+00
    0.00000E+00         0.00000E+00        -0.30071E+08
 
   -0.33718E+08        -0.37268E+06         0.00000E+00
   -0.37268E+06        -0.59511E+08         0.00000E+00
    0.00000E+00         0.00000E+00        -0.30317E+08
 
   -0.33343E+08        -0.12859E+06         0.00000E+00
   -0.12859E+06        -0.59499E+08         0.00000E+00
    0.00000E+00         0.00000E+00        -0.30591E+08
 
   -0.33014E+08         0.15481E+06         0.00000E+00
    0.15481E+06        -0.59532E+08         0.00000E+00
    0.00000E+00         0.00000E+00        -0.30905E+08
 
   -0.32740E+08         0.49152E+06         0.00000E+00
    0.49152E+06        -0.59615E+08         0.00000E+00
    0.00000E+00         0.00000E+00        -0.31263E+08
 
   -0.32535E+08         0.89392E+06         0.00000E+00
    0.89392E+06        -0.59740E+08         0.00000E+00
    0.00000E+00         0.00000E+00        -0.31653E+08
 
   -0.32423E+08         0.13702E+07         0.00000E+00
    0.13702E+07        -0.59895E+08         0.00000E+00
    0.00000E+00         0.00000E+00        -0.32047E+08
 
   -0.32459E+08         0.19295E+07         0.00000E+00
    0.19295E+07        -0.60058E+08         0.00000E+00
    0.00000E+00         0.00000E+00        -0.32376E+08
 
   -0.40643E+08        -0.32344E+06         0.00000E+00
   -0.32344E+06        -0.60003E+08         0.00000E+00
    0.00000E+00         0.00000E+00        -0.28903E+08
 
   -0.39098E+08        -0.74758E+06         0.00000E+00
   -0.74758E+06        -0.59991E+08         0.00000E+00
    0.00000E+00         0.00000E+00        -0.28598E+08
 
   -0.37673E+08        -0.93682E+06         0.00000E+00
   -0.93682E+06        -0.59925E+08         0.00000E+00
    0.00000E+00         0.00000E+00        -0.28310E+08
 
   -0.36512E+08        -0.97599E+06         0.00000E+00
   -0.97599E+06        -0.59804E+08         0.00000E+00
    0.00000E+00         0.00000E+00        -0.28221E+08
 
   -0.35705E+08        -0.91855E+06         0.00000E+00
   -0.91855E+06        -0.59649E+08         0.00000E+00
    0.00000E+00         0.00000E+00        -0.28450E+08
 
   -0.35032E+08        -0.80432E+06         0.00000E+00
   -0.80432E+06        -0.59488E+08         0.00000E+00
    0.00000E+00         0.00000E+00        -0.28660E+08
 
   -0.34456E+08        -0.66135E+06         0.00000E+00
   -0.66135E+06        -0.59338E+08         0.00000E+00
    0.00000E+00         0.00000E+00        -0.28847E+08
 
   -0.33956E+08        -0.50089E+06         0.00000E+00
   -0.50089E+06        -0.59216E+08         0.00000E+00
    0.00000E+00         0.00000E+00        -0.29034E+08
 
   -0.33510E+08        -0.32465E+06         0.00000E+00
   -0.32465E+06        -0.59132E+08         0.00000E+00
    0.00000E+00         0.00000E+00        -0.29242E+08
 
   -0.33105E+08        -0.12801E+06         0.00000E+00
   -0.12801E+06        -0.59093E+08         0.00000E+00
    0.00000E+00         0.00000E+00        -0.29491E+08
 
   -0.32733E+08         0.99886E+05         0.00000E+00
    0.99886E+05        -0.59110E+08         0.00000E+00
    0.00000E+00         0.00000E+00        -0.29798E+08
 
   -0.32395E+08         0.37773E+06         0.00000E+00
    0.37773E+06        -0.59190E+08         0.00000E+00
    0.00000E+00         0.00000E+00        -0.30180E+08
 
   -0.32111E+08         0.73094E+06         0.00000E+00
    0.73094E+06        -0.59340E+08         0.00000E+00
    0.00000E+00         0.00000E+00        -0.30639E+08
 
   -0.31906E+08         0.11797E+07         0.00000E+00
    0.11797E+07        -0.59541E+08         0.00000E+00
    0.00000E+00         0.00000E+00        -0.31150E+08
 
   -0.31840E+08         0.17371E+07         0.00000E+00
    0.17371E+07        -0.59767E+08         0.00000E+00
    0.00000E+00         0.00000E+00        -0.31636E+08
 
   -0.41206E+08        -0.32846E+06         0.00000E+00
   -0.32846E+06        -0.60002E+08         0.00000E+00
    0.00000E+00         0.00000E+00        -0.28214E+08
 
   -0.39355E+08        -0.69161E+06         0.00000E+00
   -0.69161E+06        -0.59962E+08         0.00000E+00
    0.00000E+00         0.00000E+00        -0.27842E+08
 
   -0.37747E+08        -0.79953E+06         0.00000E+00
   -0.79953E+06        -0.59824E+08         0.00000E+00
    0.00000E+00         0.00000E+00        -0.27502E+08
 
   -0.36487E+08        -0.79253E+06         0.00000E+00
   -0.79253E+06        -0.59615E+08         0.00000E+00
    0.00000E+00         0.00000E+00        -0.27355E+08
 
   -0.35612E+08        -0.72118E+06         0.00000E+00
   -0.72118E+06        -0.59380E+08         0.00000E+00
    0.00000E+00         0.00000E+00        -0.27499E+08
 
   -0.34910E+08        -0.61722E+06         0.00000E+00
   -0.61722E+06        -0.59156E+08         0.00000E+00
    0.00000E+00         0.00000E+00        -0.27642E+08
 
   -0.34320E+08        -0.50161E+06         0.00000E+00
   -0.50161E+06        -0.58960E+08         0.00000E+00
    0.00000E+00         0.00000E+00        -0.27774E+08
 
   -0.33808E+08        -0.37915E+06         0.00000E+00
   -0.37915E+06        -0.58804E+08         0.00000E+00
    0.00000E+00         0.00000E+00        -0.27915E+08
 
   -0.33349E+08        -0.24833E+06         0.00000E+00
   -0.24833E+06        -0.58693E+08         0.00000E+00
    0.00000E+00         0.00000E+00        -0.28086E+08
 
   -0.32923E+08        -0.10491E+06         0.00000E+00
   -0.10491E+06        -0.58632E+08         0.00000E+00
    0.00000E+00         0.00000E+00        -0.28305E+08
 
   -0.32516E+08         0.59135E+05         0.00000E+00
    0.59135E+05        -0.58631E+08         0.00000E+00
    0.00000E+00         0.00000E+00        -0.28594E+08
 
   -0.32120E+08         0.26018E+06         0.00000E+00
    0.26018E+06        -0.58702E+08         0.00000E+00
    0.00000E+00         0.00000E+00        -0.28979E+08
 
   -0.31740E+08         0.53100E+06         0.00000E+00
    0.53100E+06        -0.58860E+08         0.00000E+00
    0.00000E+00         0.00000E+00        -0.29489E+08
 
   -0.31416E+08         0.92118E+06         0.00000E+00
    0.92118E+06        -0.59120E+08         0.00000E+00
    0.00000E+00         0.00000E+00        -0.30133E+08
 
   -0.31205E+08         0.14561E+07         0.00000E+00
    0.14561E+07        -0.59440E+08         0.00000E+00
    0.00000E+00         0.00000E+00        -0.30838E+08
 
   -0.41730E+08        -0.32195E+06         0.00000E+00
   -0.32195E+06        -0.59990E+08         0.00000E+00
    0.00000E+00         0.00000E+00        -0.27521E+08
 
   -0.39502E+08        -0.55119E+06         0.00000E+00
   -0.55119E+06        -0.59865E+08         0.00000E+00
    0.00000E+00         0.00000E+00        -0.27054E+08
 
   -0.37756E+08        -0.55553E+06         0.00000E+00
   -0.55553E+06        -0.59597E+08         0.00000E+00
    0.00000E+00         0.00000E+00        -0.26659E+08
 
   -0.36443E+08        -0.52043E+06         0.00000E+00
   -0.52043E+06        -0.59293E+08         0.00000E+00
    0.00000E+00         0.00000E+00        -0.26420E+08
 
   -0.35527E+08        -0.45539E+06         0.00000E+00
   -0.45539E+06        -0.58982E+08         0.00000E+00
    0.00000E+00         0.00000E+00        -0.26449E+08
 
   -0.34816E+08        -0.38296E+06         0.00000E+00
   -0.38296E+06        -0.58711E+08         0.00000E+00
    0.00000E+00         0.00000E+00        -0.26523E+08
 
   -0.34223E+08        -0.30918E+06         0.00000E+00
   -0.30918E+06        -0.58487E+08         0.00000E+00
    0.00000E+00         0.00000E+00        -0.26608E+08
 
   -0.33706E+08        -0.23323E+06         0.00000E+00
   -0.23323E+06        -0.58311E+08         0.00000E+00
    0.00000E+00         0.00000E+00        -0.26713E+08
 
   -0.33239E+08        -0.15270E+06         0.00000E+00
   -0.15270E+06        -0.58185E+08         0.00000E+00
    0.00000E+00         0.00000E+00        -0.26853E+08
 
   -0.32801E+08        -0.65155E+05         0.00000E+00
   -0.65155E+05        -0.58113E+08         0.00000E+00
    0.00000E+00         0.00000E+00        -0.27044E+08
 
   -0.32373E+08         0.33419E+05         0.00000E+00
    0.33419E+05        -0.58102E+08         0.00000E+00
    0.00000E+00         0.00000E+00        -0.27308E+08
 
   -0.31936E+08         0.15217E+06         0.00000E+00
    0.15217E+06        -0.58163E+08         0.00000E+00
    0.00000E+00         0.00000E+00        -0.27677E+08
 
   -0.31472E+08         0.31328E+06         0.00000E+00
    0.31328E+06        -0.58317E+08         0.00000E+00
    0.00000E+00         0.00000E+00        -0.28201E+08
 
   -0.30983E+08         0.57483E+06         0.00000E+00
    0.57483E+06        -0.58599E+08         0.00000E+00
    0.00000E+00         0.00000E+00        -0.28950E+08
 
   -0.30566E+08         0.10545E+07         0.00000E+00
    0.10545E+07        -0.59066E+08         0.00000E+00
    0.00000E+00         0.00000E+00        -0.29968E+08
 
   -0.42112E+08        -0.20782E+06         0.00000E+00
   -0.20782E+06        -0.59850E+08         0.00000E+00
    0.00000E+00         0.00000E+00        -0.26783E+08
 
   -0.39512E+08        -0.22844E+06         0.00000E+00
   -0.22844E+06        -0.59480E+08         0.00000E+00
    0.00000E+00         0.00000E+00        -0.26190E+08
 
   -0.37732E+08        -0.20113E+06         0.00000E+00
   -0.20113E+06        -0.59078E+08         0.00000E+00
    0.00000E+00         0.00000E+00        -0.25757E+08
 
   -0.36412E+08        -0.18131E+06         0.00000E+00
   -0.18131E+06        -0.58716E+08         0.00000E+00
    0.00000E+00         0.00000E+00        -0.25424E+08
 
   -0.35474E+08        -0.15459E+06         0.00000E+00
   -0.15459E+06        -0.58404E+08         0.00000E+00
    0.00000E+00         0.00000E+00        -0.25293E+08
 
   -0.34764E+08        -0.12885E+06         0.00000E+00
   -0.12885E+06        -0.58129E+08         0.00000E+00
    0.00000E+00         0.00000E+00        -0.25295E+08
 
   -0.34172E+08        -0.10383E+06         0.00000E+00
   -0.10383E+06        -0.57901E+08         0.00000E+00
    0.00000E+00         0.00000E+00        -0.25345E+08
 
   -0.33654E+08        -0.78347E+05         0.00000E+00
   -0.78347E+05        -0.57723E+08         0.00000E+00
    0.00000E+00         0.00000E+00        -0.25426E+08
 
   -0.33183E+08        -0.51054E+05         0.00000E+00
   -0.51054E+05        -0.57597E+08         0.00000E+00
    0.00000E+00         0.00000E+00        -0.25544E+08
 
   -0.32740E+08        -0.21411E+05         0.00000E+00
   -0.21411E+05        -0.57529E+08         0.00000E+00
    0.00000E+00         0.00000E+00        -0.25716E+08
 
   -0.32303E+08         0.11661E+05         0.00000E+00
    0.11661E+05        -0.57523E+08         0.00000E+00
    0.00000E+00         0.00000E+00        -0.25962E+08
 
   -0.31847E+08         0.50684E+05         0.00000E+00
    0.50684E+05        -0.57590E+08         0.00000E+00
    0.00000E+00         0.00000E+00        -0.26313E+08
 
   -0.31340E+08         0.10208E+06         0.00000E+00
    0.10208E+06        -0.57750E+08         0.00000E+00
    0.00000E+00         0.00000E+00        -0.26825E+08
 
   -0.30728E+08         0.18736E+06         0.00000E+00
    0.18736E+06        -0.58047E+08         0.00000E+00
    0.00000E+00         0.00000E+00        -0.27617E+08
 
   -0.29940E+08         0.40959E+06         0.00000E+00
    0.40959E+06        -0.58581E+08         0.00000E+00
    0.00000E+00         0.00000E+00        -0.28952E+08
 
SCALARS stressS double 
LOOKUP_TABLE default
  -46433123.4491580     
  -46407051.7837432     
  -46360366.5332190     
  -46293864.3092614     
  -46208956.5498680     
  -46109655.3547681     
  -46001157.2086181     
  -45912830.8286993     
  -46105777.4699173     
  -46334787.7749281     
  -46542572.5069547     
  -46731190.1510430     
  -46902572.8819023     
  -47058540.5939461     
  -47200816.1708556     
  -46414474.6458936     
  -46388703.2747656     
  -46342275.3785378     
  -46276056.7290998     
  -46192063.0507751     
  -46094684.1529966     
  -45988805.8994055     
  -45903784.7018712     
  -46095589.1503231     
  -46322832.5576330     
  -46528973.0610378     
  -46716067.5368653     
  -46886031.1825288     
  -47040666.6422426     
  -47181689.5776364     
  -46376770.8958031     
  -46351463.0516114     
  -46305931.9373528     
  -46241002.1079912     
  -46159110.8355248     
  -46065452.4899378     
  -45964846.1350174     
  -45885854.0001481     
  -46075174.9406682     
  -46298850.2305201     
  -46501714.1674896     
  -46685792.2493726     
  -46852931.1404940     
  -47004909.2990437     
  -47143429.8304997     
  -46320587.9644032     
  -46296173.8648186     
  -46252090.1566870     
  -46189363.4845997     
  -46111409.2987650     
  -46023439.6508839     
  -45930553.8229825     
  -45859572.3883774     
  -46044353.3417139     
  -46262623.8544992     
  -46460707.3619030     
  -46640312.2368904     
  -46803245.8765981     
  -46951253.5429945     
  -47086025.9958137     
  -46245136.8706085     
  -46222591.9675701     
  -46181724.9069545     
  -46123142.9737935     
  -46050960.3726030     
  -45970697.7984247     
  -45887483.2254445     
  -45825788.5677391     
  -46002243.0803939     
  -46214007.9195614     
  -46405842.7774981     
  -46579572.5203550     
  -46736948.3347406     
  -46879687.1790830     
  -47009467.0194056     
  -46150634.2937265     
  -46130305.8941962     
  -46094011.7186761     
  -46042739.9159796     
  -45979990.0609772     
  -45910327.0693242     
  -45838007.7336893     
  -45784780.5179597     
  -45949088.9312489     
  -46152844.0043046     
  -46337032.8866584     
  -46503522.1853218     
  -46654030.7714821     
  -46790213.7759061     
  -46913748.4998117     
  -46036474.1208693     
  -46019279.5652409     
  -45989207.0508544     
  -45948488.1090251     
  -45899653.3761726     
  -45844533.3284372     
  -45785558.4109236     
  -45737140.0566429     
  -45885044.3563873     
  -46079041.0395408     
  -46254139.5254726     
  -46412158.6705659     
  -46554528.8771366     
  -46682872.6637901     
  -46798884.0559439     
  -45903056.9977738     
  -45888936.8795520     
  -45866906.2386474     
  -45839758.3062246     
  -45808669.8745985     
  -45773153.0338269     
  -45731570.0262135     
  -45687968.3023560     
  -45809815.8013860     
  -45991945.3695118     
  -46157170.5884899     
  -46305555.7236813     
  -46438553.8478261     
  -46557776.0192202     
  -46664923.5166858     
  -45750404.9219775     
  -45740551.5695482     
  -45727411.1018311     
  -45715289.9374421     
  -45704902.1493027     
  -45693008.9723084     
  -45674288.8310275     
  -45643401.7916329     
  -45721218.2615203     
  -45891903.5350578     
  -46046269.8134950     
  -46183848.1703708     
  -46306377.1166567     
  -46415160.4626338     
  -46511996.2308353     
  -45579146.3566413     
  -45572910.7062331     
  -45570509.1378114     
  -45575353.4035100     
  -45586157.9816528     
  -45599203.1131503     
  -45608230.2957056     
  -45604644.6619928     
  -45631030.7819861     
  -45779802.3494612     
  -45921150.9123858     
  -46047511.7793795     
  -46158439.4454386     
  -46255535.0037309     
  -46340393.3073381     
  -45388877.2080047     
  -45387860.7338037     
  -45397680.3328368     
  -45419905.1103592     
  -45451737.2981247     
  -45488400.2839069     
  -45523848.0937419     
  -45550055.0778192     
  -45562773.1326824     
  -45654164.9116422     
  -45783222.4547121     
  -45896558.8473186     
  -45995757.1076361     
  -46079960.2339581     
  -46150722.3322354     
  -45180584.3321564     
  -45186357.0958577     
  -45210135.9711265     
  -45250302.9572840     
  -45302035.1633633     
  -45359345.6792794     
  -45415550.3315631     
  -45462965.1538258     
  -45498355.7436202     
  -45537972.7029958     
  -45631256.7206831     
  -45732628.5567019     
  -45820152.5099024     
  -45890286.8341146     
  -45944791.8996002     
  -44957485.4568987     
  -44971094.0166626     
  -45009548.1961433     
  -45067393.8778825     
  -45137420.3767651     
  -45211876.8792564     
  -45283061.4063661     
  -45345271.5061315     
  -45393193.4953368     
  -45431336.8449351     
  -45476473.8093089     
  -45557008.8874682     
  -45631220.7551738     
  -45689372.5681030     
  -45731637.4371696     
  -44721051.7880199     
  -44744760.0881043     
  -44798152.0031586     
  -44872626.1883384     
  -44958337.4097075     
  -45045683.1456969     
  -45127268.9179203     
  -45197347.6054513     
  -45252528.0777654     
  -45291796.8573111     
  -45323415.1743515     
  -45367063.8606815     
  -45420820.2582892     
  -45471853.1232373     
  -45532798.0310762     
  -44476987.2669441     
  -44510953.4958500     
  -44578835.7829017     
  -44667774.8295492     
  -44764769.5874414     
  -44860106.3498813     
  -44947178.4855976     
  -45021477.9507103     
  -45079928.8132659     
  -45122061.7294257     
  -45151646.8888283     
  -45176963.3019065     
  -45209157.8482087     
  -45255299.2096649     
  -45322661.3947873     
  -44229920.6045885     
  -44274133.5969119     
  -44355470.6774960     
  -44453929.4120781     
  -44555931.1348480     
  -44653784.6180763     
  -44742379.0783332     
  -44818093.2962837     
  -44878827.6413329     
  -44924197.3114944     
  -44956199.5019915     
  -44981365.8560380     
  -45009943.6888556     
  -45050185.3371160     
  -45100053.0319150     
  -43986466.7714292     
  -44042479.7714749     
  -44131410.9000696     
  -44230498.6095984     
  -44330391.3527883     
  -44425797.5712100     
  -44512607.2618769     
  -44588038.3592660     
  -44650426.9821630     
  -44699693.4984480     
  -44738051.3690137     
  -44770186.2520099     
  -44801876.5402352     
  -44836394.9533253     
  -44872983.8632703     
  -43776673.0504937     
  -43827307.0234241     
  -43902825.2180058     
  -43994352.9305263     
  -44086999.7987079     
  -44175874.7398413     
  -44258076.7988752     
  -44331176.3494827     
  -44394219.8495260     
  -44447827.8330969     
  -44493642.1484587     
  -44533935.4058765     
  -44570676.8822000     
  -44604606.2885115     
  -44635913.9226830     
  -43624608.1962576     
  -43638240.6623497     
  -43663414.1198485     
  -43742721.5777331     
  -43824731.7477707     
  -43904509.5551266     
  -43979222.4905097     
  -44047626.0886176     
  -44109578.2360816     
  -44165810.5755795     
  -44217552.3026732     
  -44265276.0217870     
  -44308739.0327322     
  -44347326.9614327     
  -44379707.1947291     
  -43525846.2422299     
  -43474700.8148383     
  -43432864.1241528     
  -43473184.0597026     
  -43544870.8824655     
  -43612716.8450030     
  -43676639.7949616     
  -43736850.3665675     
  -43794298.6954286     
  -43850170.5067988     
  -43905172.0177360     
  -43959133.7763186     
  -44010696.9376252     
  -44057748.0342797     
  -44097291.9977110     
  -43455374.1329509     
  -43332687.3476358     
  -43219248.6913204     
  -43197403.6793151     
  -43251163.7816138     
  -43302225.7797289     
  -43350586.8110402     
  -43397866.0884791     
  -43446271.9703224     
  -43497685.2153232     
  -43552952.0576331     
  -43611772.9730650     
  -43672224.8358178     
  -43730831.8525464     
  -43783026.3854726     
  -43397782.8906505     
  -43206804.5967413     
  -43014150.9075272     
  -42925868.5148849     
  -42949238.0132719     
  -42975436.8631312     
  -43001422.7754609     
  -43029766.7835397     
  -43063807.9890288     
  -43106301.0603173     
  -43158631.2306000     
  -43220524.7553016     
  -43290019.0975923     
  -43362930.0281744     
  -43432690.3831408     
  -43347347.5517015     
  -43084579.0227316     
  -42816555.7200913     
  -42657649.4872640     
  -42641840.5345566     
  -42634355.7395027     
  -42629776.1572668     
  -42632058.4542961     
  -42645832.4788698     
  -42674875.7115730     
  -42721058.3203400     
  -42784161.3319283     
  -42862296.2249256     
  -42951369.4865402     
  -43042894.8078988     
  -43302164.8117826     
  -42962999.6313910     
  -42620903.0397335     
  -42388371.8256643     
  -42327319.4239074     
  -42278114.0728065     
  -42235325.4156173     
  -42204635.0595645     
  -42192251.7292015     
  -42203207.3276677     
  -42240148.4458389     
  -42302959.8511519     
  -42389175.0886098     
  -42495008.5767377     
  -42613598.7882053     
  -43260853.2065908     
  -42838786.0973689     
  -42420044.6778199     
  -42113978.3409314     
  -42000121.5409565     
  -41902526.0501241     
  -41815636.0716648     
  -41747034.0228502     
  -41703826.5505456     
  -41692126.0181139     
  -41716251.6308426     
  -41777072.2881955     
  -41871705.1691897     
  -41995057.2067579     
  -42142704.7343181     
  -43221852.5125243     
  -42707650.7819482     
  -42206417.0347108     
  -41826167.4054992     
  -41651707.1230367     
  -41499901.2219764     
  -41366151.0232100     
  -41257967.3219353     
  -41181921.9873645     
  -41144086.8814942     
  -41150450.9047684     
  -41205756.3176494     
  -41309347.8653743     
  -41454768.6990405     
  -41631097.3679272     
  -43183241.8976714     
  -42562204.7250711     
  -41969270.7907059     
  -41512250.8490214     
  -41268006.2739549     
  -41059648.8608179     
  -40880426.2932284     
  -40735250.7923267     
  -40627981.7338520     
  -40563015.3748875     
  -40546908.4737489     
  -40588685.6212180     
  -40696750.9683339     
  -40865586.7138066     
  -41081002.6498775     
  -43140829.7121025     
  -42386471.1339681     
  -41690782.5391273     
  -41152358.3545012     
  -40830147.3369692     
  -40569371.1354796     
  -40351299.7980802     
  -40175752.8298396     
  -40042656.0738591     
  -39953654.9462259     
  -39913841.1160406     
  -39933581.5770605     
  -40029813.7794541     
  -40222993.4356313     
  -40494235.8582397     
  -43080408.4363463     
  -42140302.4974965     
  -41337030.3487503     
  -40718932.8900265     
  -40319153.4281932     
  -40016621.1686635     
  -39772308.4871745     
  -39576406.8277588     
  -39425488.4519136     
  -39319417.7007104     
  -39261191.3279551     
  -39258719.4932090     
  -39330006.4082120     
  -39510781.4422580     
  -39866742.1072981     
  -42915202.2172118     
  -41727735.7667063     
  -40855599.1559362     
  -40183987.8943836     
  -39723921.5822494     
  -39396066.9514861     
  -39139519.8284810     
  -38934243.9489889     
  -38774922.5516105     
  -38661486.2450490     
  -38595733.7086393     
  -38583364.7951680     
  -38638340.1410392     
  -38797057.3017239     
  -39157990.5112066     
SCALARS 2waySource double 
LOOKUP_TABLE default
 -8.624103731342644E-005
 -8.653030588588377E-005
 -8.682941856707391E-005
 -8.705678481685358E-005
 -8.714215547735355E-005
 -8.705612778568721E-005
 -8.679405483739607E-005
 -1.043174558180594E-004
 -1.125659673551266E-004
 -1.147603294178395E-004
 -1.169145275683187E-004
 -1.190106713671898E-004
 -1.210334125920953E-004
 -1.229703365116674E-004
 -1.248105163979268E-004
 -8.622861378321820E-005
 -8.641878945771952E-005
 -8.660805381315284E-005
 -8.675518939182641E-005
 -8.680257707750639E-005
 -8.672266781879674E-005
 -8.650777530033414E-005
 -1.041457595366337E-004
 -1.123171100447321E-004
 -1.145192423858595E-004
 -1.166817660199677E-004
 -1.187829450783767E-004
 -1.208083129381531E-004
 -1.227480032648291E-004
 -1.245916967647055E-004
 -8.633668500458019E-005
 -8.634948044235793E-005
 -8.632452965647099E-005
 -8.629517087895344E-005
 -8.625157524579739E-005
 -8.616463844394913E-005
 -8.600880736479662E-005
 -1.038247352308038E-004
 -1.118476997035380E-004
 -1.140728651000161E-004
 -1.162503724262662E-004
 -1.183539379790549E-004
 -1.203825920177814E-004
 -1.223278915370623E-004
 -1.241801275769612E-004
 -8.641445280331095E-005
 -8.627864079412074E-005
 -8.599747361001574E-005
 -8.571743954957222E-005
 -8.553029120996549E-005
 -8.542455707076196E-005
 -8.533625222446793E-005
 -1.032887474941173E-004
 -1.111561462344484E-004
 -1.134472879661251E-004
 -1.156150163641159E-004
 -1.177165031938608E-004
 -1.197481162165981E-004
 -1.217022382432335E-004
 -1.235687533747917E-004
 -8.625263686235875E-005
 -8.613915617957052E-005
 -8.569343192046369E-005
 -8.513781209762262E-005
 -8.471263409018139E-005
 -8.453749066537832E-005
 -8.454889488302413E-005
 -1.025027877100099E-004
 -1.104205177211290E-004
 -1.126167762012768E-004
 -1.147620418376631E-004
 -1.168561732121321E-004
 -1.188919499930789E-004
 -1.208586849100138E-004
 -1.227464972041049E-004
 -8.563481735921723E-005
 -8.577305693585294E-005
 -8.538906420773774E-005
 -8.466918755505257E-005
 -8.395629968935397E-005
 -8.355186133948711E-005
 -8.363013210929588E-005
 -1.013378898680044E-004
 -1.094508601660303E-004
 -1.115458525662724E-004
 -1.136645277956873E-004
 -1.157552398868858E-004
 -1.177952494054847E-004
 -1.197798155590531E-004
 -1.216978346185290E-004
 -8.445380132377247E-005
 -8.502966523776348E-005
 -8.500853653925877E-005
 -8.440363512429189E-005
 -8.347526799982517E-005
 -8.270051784878082E-005
 -8.251281862581319E-005
 -9.961386631877999E-005
 -1.081018148065657E-004
 -1.101832214713579E-004
 -1.123138015045287E-004
 -1.143865675395988E-004
 -1.164327403087179E-004
 -1.184427283080894E-004
 -1.204022166741122E-004
 -8.274763210151547E-005
 -8.379704343732871E-005
 -8.436703370731404E-005
 -8.430452303907177E-005
 -8.352853028668977E-005
 -8.235328051679958E-005
 -8.157384531648520E-005
 -9.663154717780737E-005
 -1.062990194411349E-004
 -1.086353257275887E-004
 -1.106616594316780E-004
 -1.127122707481311E-004
 -1.147738951672497E-004
 -1.168169642143454E-004
 -1.188336515383426E-004
 -8.067533150878942E-005
 -8.209026533649313E-005
 -8.328585276880795E-005
 -8.407795818014981E-005
 -8.411777866896517E-005
 -8.305784089089698E-005
 -8.145098557960662E-005
 -9.285139111515014E-005
 -1.050690030280524E-004
 -1.066981161651344E-004
 -1.086251688136156E-004
 -1.107060072841716E-004
 -1.127728238516461E-004
 -1.148656822271056E-004
 -1.169576442672364E-004
 -7.842711460903423E-005
 -8.006682516146665E-005
 -8.176686405480561E-005
 -8.341288238328340E-005
 -8.468472887151850E-005
 -8.491060001777646E-005
 -8.316720015049268E-005
 -8.822518702660676E-005
 -1.024026278192349E-004
 -1.040530625095993E-004
 -1.063117782480868E-004
 -1.082736075715054E-004
 -1.103932409524373E-004
 -1.125315873809903E-004
 -1.147285091390932E-004
 -7.615835723617703E-005
 -7.794052807038156E-005
 -8.000152120254539E-005
 -8.229690077193833E-005
 -8.465137032978131E-005
 -8.662994373948066E-005
 -8.720179329890345E-005
 -8.783160606894000E-005
 -9.757247505673387E-005
 -1.021071508728794E-004
 -1.032654492475970E-004
 -1.055091906880515E-004
 -1.075103333971681E-004
 -1.097346968578249E-004
 -1.120851199146382E-004
 -7.396546486658533E-005
 -7.587365984042814E-005
 -7.822451957525438E-005
 -8.100321062989185E-005
 -8.404502856047006E-005
 -8.706040853475695E-005
 -8.973234978063038E-005
 -9.179384338547457E-005
 -9.640108966856650E-005
 -1.005930010157073E-004
 -1.008321498103527E-004
 -1.019390944320537E-004
 -1.039690818230808E-004
 -1.064807203798075E-004
 -1.087988177104282E-004
 -7.188970364482702E-005
 -7.393634006325203E-005
 -7.662713668400393E-005
 -7.985364780499554E-005
 -8.320459680861113E-005
 -8.636595138141270E-005
 -8.942319494177327E-005
 -9.293765797881417E-005
 -9.851711568976809E-005
 -1.044684961378045E-004
 -1.035160078549527E-004
 -1.013919180567650E-004
 -1.018442987576000E-004
 -1.029384459669895E-004
 -1.033664038673548E-004
 -6.987062750371420E-005
 -7.219222303529030E-005
 -7.546551999181322E-005
 -7.905480513172223E-005
 -8.213487238153876E-005
 -8.475535901014129E-005
 -8.739355260762262E-005
 -9.051590080414750E-005
 -9.506742542936862E-005
 -1.026235163578069E-004
 -1.100043905462011E-004
 -1.120027169233088E-004
 -1.094745731890501E-004
 -1.086297252192059E-004
 -1.090514433639483E-004
 -6.781110905796592E-005
 -7.110198107501568E-005
 -7.528481706423969E-005
 -7.831400303280129E-005
 -8.032131528672348E-005
 -8.215264494538445E-005
 -8.426173779662443E-005
 -8.683776276628932E-005
 -9.014377830007393E-005
 -9.474677081788984E-005
 -1.009997010055861E-004
 -1.078229195720713E-004
 -1.119208117367404E-004
 -1.135344636191693E-004
 -1.138697268215925E-004
 -6.639979011111350E-005
 -7.301863080322900E-005
 -7.568294534711286E-005
 -7.643204291354203E-005
 -7.723021632359911E-005
 -7.855533807829028E-005
 -8.035886311409535E-005
 -8.249363695363106E-005
 -8.498067207109934E-005
 -8.807224787704400E-005
 -9.208852615614683E-005
 -9.686397505238049E-005
 -1.011305765300086E-004
 -1.038190900882308E-004
 -1.059544331505714E-004
 -6.970799886178356E-005
 -7.640869094999753E-005
 -7.393199138207414E-005
 -7.251899185062953E-005
 -7.291190908234631E-005
 -7.423909904115331E-005
 -7.585183391844415E-005
 -7.762420424649155E-005
 -7.951549205062143E-005
 -8.163354297908949E-005
 -8.419579841816504E-005
 -8.734498356362315E-005
 -9.082458135211309E-005
 -9.404974777826132E-005
 -9.687028966392547E-005
 -6.822184157088241E-005
 -7.025131951345020E-005
 -6.880826877968388E-005
 -6.638717389680047E-005
 -6.782599997280932E-005
 -6.931779825069207E-005
 -7.086536001968985E-005
 -7.231954511383880E-005
 -7.371472313013442E-005
 -7.514720472850991E-005
 -7.680530861427007E-005
 -7.891839162301785E-005
 -8.157234019676357E-005
 -8.452382616612307E-005
 -8.739102089741407E-005
 -6.701904108857260E-005
 -6.695777901373915E-005
 -6.572482006658476E-005
 -6.007164885680625E-005
 -6.178493024460970E-005
 -6.390332525534810E-005
 -6.542985901645125E-005
 -6.662122097438687E-005
 -6.760995296620350E-005
 -6.855315368904720E-005
 -6.964587285378899E-005
 -7.110731848226390E-005
 -7.307727750042153E-005
 -7.548425507881186E-005
 -7.804134685989692E-005
 -6.841967570848305E-005
 -6.781732443815216E-005
 -6.487365425496916E-005
 -5.751085779671191E-005
 -5.556099125306435E-005
 -5.801467809164692E-005
 -5.958267241941610E-005
 -6.055655025027406E-005
 -6.122641920049967E-005
 -6.181298234799614E-005
 -6.252234178152926E-005
 -6.354265517023510E-005
 -6.500304144694920E-005
 -6.690909621150765E-005
 -6.909832671987752E-005
 -6.970635318350162E-005
 -6.909404023751987E-005
 -6.556810092074816E-005
 -5.613603276944053E-005
 -5.060970265462661E-005
 -5.225964084759864E-005
 -5.349278389578296E-005
 -5.420428387073726E-005
 -5.458401350102302E-005
 -5.487520209322606E-005
 -5.528487888307902E-005
 -5.598077868785174E-005
 -5.707799044271232E-005
 -5.861158516226455E-005
 -6.049503700452199E-005
 -7.049904912697852E-005
 -6.920605503256467E-005
 -6.633471535163167E-005
 -5.519016214729965E-005
 -4.677769120392811E-005
 -4.723575703048502E-005
 -4.757477700588496E-005
 -4.772949505503621E-005
 -4.773366364750441E-005
 -4.770780574251150E-005
 -4.783689471488098E-005
 -4.827077533891634E-005
 -4.910901450320032E-005
 -5.039200421832463E-005
 -5.206731345930971E-005
 -7.140046095214629E-005
 -6.916029490530200E-005
 -6.641858969531988E-005
 -5.417407169657726E-005
 -4.363938553661071E-005
 -4.276011019126885E-005
 -4.203088490053563E-005
 -4.134826210642610E-005
 -4.075797546426934E-005
 -4.032518008507237E-005
 -4.014580973791642E-005
 -4.033333311970368E-005
 -4.097474724224495E-005
 -4.209628536639819E-005
 -4.365108696534098E-005
 -7.229979762321935E-005
 -6.903290705214096E-005
 -6.563473831885403E-005
 -5.275680861724623E-005
 -4.055875049748998E-005
 -3.859429238406343E-005
 -3.677968951869656E-005
 -3.515568430928313E-005
 -3.378983718655092E-005
 -3.277129976314177E-005
 -3.219693891742531E-005
 -3.213402397689444E-005
 -3.261356791043693E-005
 -3.362552408493188E-005
 -3.512461244335135E-005
 -7.317563836658597E-005
 -6.886958491323652E-005
 -6.454242655928259E-005
 -5.122103448344378E-005
 -3.751828749767027E-005
 -3.446442922416270E-005
 -3.161366876635974E-005
 -2.903648127487360E-005
 -2.684112681998992E-005
 -2.516999187338527E-005
 -2.411806537903772E-005
 -2.373258531851567E-005
 -2.401865658298506E-005
 -2.494011142430933E-005
 -2.642304247313094E-005
 -7.407718661534857E-005
 -6.860186585642175E-005
 -6.317895040847178E-005
 -4.925653954856412E-005
 -3.438261247362314E-005
 -3.023964037776763E-005
 -2.632426452549598E-005
 -2.277920494056153E-005
 -1.980216777221466E-005
 -1.752378243578263E-005
 -1.598567953273824E-005
 -1.521670998423438E-005
 -1.524269723843131E-005
 -1.604458468224864E-005
 -1.753061415175327E-005
 -7.509707145469255E-005
 -6.805733978237468E-005
 -6.135806356786613E-005
 -4.703500328178667E-005
 -3.103800437391876E-005
 -2.578106161047400E-005
 -2.059012055224372E-005
 -1.614646786069630E-005
 -1.258126786131739E-005
 -9.855162470137034E-006
 -7.886204211653598E-006
 -6.667685476865691E-006
 -6.321832395962699E-006
 -6.942466251090318E-006
 -8.459978493827185E-006
 -7.626784603169238E-005
 -6.679278658399963E-005
 -5.834948579140936E-005
 -4.437080031078693E-005
 -2.795178669304142E-005
 -2.043694370202697E-005
 -1.397342726289815E-005
 -8.969583320132745E-006
 -5.134178499328029E-006
 -2.171609887070052E-006
  1.398452233806801E-007
  1.808278007548728E-006
  2.663493641452361E-006
  2.335524691661324E-006
  7.359227652141653E-007
 -7.736375593483433E-005
 -6.421811160199465E-005
 -5.292989577391873E-005
 -3.993662038736167E-005
 -2.458364769148674E-005
 -1.319530471252400E-005
 -6.178506304021398E-006
 -1.202709903113251E-006
  2.493787415967210E-006
  5.586318726351573E-006
  8.154377086458786E-006
  1.014578515250340E-005
  1.145613546865941E-005
  1.172277428261357E-005
  9.925955522651676E-006
 -7.691032523843221E-005
 -5.939993281844704E-005
 -4.580139480607485E-005
 -3.322424804478296E-005
 -1.505796905568763E-005
 -3.588652387071834E-006
  2.920020601633835E-006
  6.887543036911159E-006
  1.040602198480633E-005
  1.363393855656166E-005
  1.631038002313207E-005
  1.838707371934901E-005
  1.981451926714732E-005
  2.040513408410118E-005
  1.910125131247186E-005
SCALARS poroP double 
LOOKUP_TABLE default
  1.124161876559142E-005
  9.596644025124413E-006
  7.930278599569039E-006
  6.263457382871388E-006
  4.623056024217701E-006
  3.036230595858882E-006
  1.531183320464005E-006
  2.140724619815419E-007
  0.000000000000000E+000
  0.000000000000000E+000
  0.000000000000000E+000
  0.000000000000000E+000
  0.000000000000000E+000
  0.000000000000000E+000
  0.000000000000000E+000
  1.120374315950998E-005
  9.549748031364369E-006
  7.877854092580530E-006
  6.211626518702559E-006
  4.576474466040373E-006
  2.999891478892761E-006
  1.509836424147160E-006
  2.114037389991675E-007
  0.000000000000000E+000
  0.000000000000000E+000
  0.000000000000000E+000
  0.000000000000000E+000
  0.000000000000000E+000
  0.000000000000000E+000
  0.000000000000000E+000
  1.112458415289079E-005
  9.459117901257627E-006
  7.778478369095379E-006
  6.110874670499157E-006
  4.485690898749605E-006
  2.930473063252287E-006
  1.470413330549635E-006
  2.068446231773644E-007
  0.000000000000000E+000
  0.000000000000000E+000
  0.000000000000000E+000
  0.000000000000000E+000
  0.000000000000000E+000
  0.000000000000000E+000
  0.000000000000000E+000
  1.099162420643284E-005
  9.318077029503621E-006
  7.633921291859590E-006
  5.969070494733284E-006
  4.358827706359506E-006
  2.834687752519173E-006
  1.418653426632937E-006
  2.030960896519223E-007
  0.000000000000000E+000
  0.000000000000000E+000
  0.000000000000000E+000
  0.000000000000000E+000
  0.000000000000000E+000
  0.000000000000000E+000
  0.000000000000000E+000
  1.079200364004462E-005
  9.119460233714500E-006
  7.440971120670866E-006
  5.791947081646883E-006
  4.208874643420164E-006
  2.724646297125639E-006
  1.363818227208049E-006
  2.091765690832384E-007
  0.000000000000000E+000
  0.000000000000000E+000
  0.000000000000000E+000
  0.000000000000000E+000
  0.000000000000000E+000
  0.000000000000000E+000
  0.000000000000000E+000
  1.050343934139268E-005
  8.849349640983608E-006
  7.199861063543740E-006
  5.588483263578934E-006
  4.050575428740468E-006
  2.618104894256116E-006
  1.318740636998002E-006
  2.231826297790806E-007
  0.000000000000000E+000
  0.000000000000000E+000
  0.000000000000000E+000
  0.000000000000000E+000
  0.000000000000000E+000
  0.000000000000000E+000
  0.000000000000000E+000
  1.010639111893419E-005
  8.491092832165190E-006
  6.900445327095666E-006
  5.362514666707724E-006
  3.899594958493916E-006
  2.537765452499990E-006
  1.301127525363968E-006
  2.488810583032747E-007
  0.000000000000000E+000
  0.000000000000000E+000
  0.000000000000000E+000
  0.000000000000000E+000
  0.000000000000000E+000
  0.000000000000000E+000
  0.000000000000000E+000
  9.583387920465706E-006
  8.033052740678940E-006
  6.536579010212203E-006
  5.112327808036496E-006
  3.765584769389886E-006
  2.501094167907802E-006
  1.334749206551790E-006
  3.037755365547644E-007
  0.000000000000000E+000
  0.000000000000000E+000
  0.000000000000000E+000
  0.000000000000000E+000
  0.000000000000000E+000
  0.000000000000000E+000
  0.000000000000000E+000
  8.932600314460546E-006
  7.470875273255039E-006
  6.105114941640808E-006
  4.831493208917578E-006
  3.638071566011450E-006
  2.512453022768295E-006
  1.448093312971939E-006
  4.661363777912135E-007
  1.839880748056880E-008
  0.000000000000000E+000
  0.000000000000000E+000
  0.000000000000000E+000
  0.000000000000000E+000
  0.000000000000000E+000
  0.000000000000000E+000
  8.164105209947108E-006
  6.824250605339726E-006
  5.610341523581697E-006
  4.509072366604069E-006
  3.498075010801198E-006
  2.551375234207132E-006
  1.639635826850914E-006
  7.342828547770753E-007
  7.235053882914203E-008
  0.000000000000000E+000
  0.000000000000000E+000
  0.000000000000000E+000
  0.000000000000000E+000
  0.000000000000000E+000
  0.000000000000000E+000
  7.305299424355356E-006
  6.101583525343294E-006
  5.057016789961233E-006
  4.143165433954629E-006
  3.330604886842760E-006
  2.585556176890120E-006
  1.865093091830703E-006
  1.112727324164007E-006
  3.373171628015944E-007
  2.233487064474363E-008
  0.000000000000000E+000
  0.000000000000000E+000
  0.000000000000000E+000
  0.000000000000000E+000
  0.000000000000000E+000
  6.378211690033451E-006
  5.322576458267255E-006
  4.455516959932627E-006
  3.737750509178254E-006
  3.131379486255993E-006
  2.594615371498131E-006
  2.079532508708851E-006
  1.533289847619911E-006
  8.977183083070134E-007
  2.671379281892468E-007
  2.902519149235105E-008
  0.000000000000000E+000
  0.000000000000000E+000
  0.000000000000000E+000
  0.000000000000000E+000
  5.398035120981585E-006
  4.503941472452127E-006
  3.821462684767810E-006
  3.305341962278569E-006
  2.908722040590820E-006
  2.581089028157550E-006
  2.271655908245757E-006
  1.928881364819544E-006
  1.502697174135731E-006
  9.671413756908757E-007
  4.129774369302183E-007
  1.418645791543121E-007
  4.828846399618558E-008
  0.000000000000000E+000
  0.000000000000000E+000
  4.391020301378796E-006
  3.663585599281740E-006
  3.172594847955187E-006
  2.863355132923774E-006
  2.678737416122654E-006
  2.559317994368259E-006
  2.447927916318138E-006
  2.295624900818976E-006
  2.062220322797643E-006
  1.723543752245872E-006
  1.298766457405442E-006
  8.756370428001708E-007
  5.584664419905814E-007
  4.085780132297778E-007
  4.790990845866966E-007
  3.368567379896311E-006
  2.820742638619552E-006
  2.530367346837441E-006
  2.433324460849582E-006
  2.459621249253902E-006
  2.540500662016307E-006
  2.618370852088095E-006
  2.647893943759683E-006
  2.595812046825395E-006
  2.443052327312113E-006
  2.190765155722972E-006
  1.883171453759178E-006
  1.609050254674910E-006
  1.448127991767152E-006
  1.419511972784955E-006
  2.348208438946826E-006
  1.993744115166750E-006
  1.919868931581215E-006
  2.038347569958979E-006
  2.263877472257673E-006
  2.530106294638685E-006
  2.786422131181351E-006
  2.993225579359882E-006
  3.120937629174869E-006
  3.150260551328547E-006
  3.077456644789295E-006
  2.923945878335959E-006
  2.734143098449025E-006
  2.550793930752037E-006
  2.399114259719455E-006
  1.350795926126118E-006
  1.207316500074427E-006
  1.366795519448101E-006
  1.690399534320991E-006
  2.093852590585818E-006
  2.527334460710670E-006
  2.950722769854476E-006
  3.329790190122902E-006
  3.636301524820234E-006
  3.848857750906142E-006
  3.955980140460242E-006
  3.956070650372561E-006
  3.856290764921015E-006
  3.673241993492496E-006
  3.433780626084419E-006
  4.751926319337048E-007
  5.111067207802715E-007
  8.779072809956013E-007
  1.382338311152528E-006
  1.942246722329683E-006
  2.527085874325208E-006
  3.106543512082490E-006
  3.651017096574618E-006
  4.131923540619468E-006
  4.523190881518168E-006
  4.802052125323562E-006
  4.948357432440090E-006
  4.946943271963023E-006
  4.796911862936385E-006
  4.516356755241444E-006
  7.397376206459143E-008
  1.411999758177047E-007
  4.632942016114166E-007
  1.099730354820116E-006
  1.799964586411205E-006
  2.522909953790765E-006
  3.247078868123369E-006
  3.945388038792434E-006
  4.588616755112139E-006
  5.146885938698406E-006
  5.587676642494199E-006
  5.878226408134952E-006
  5.990249347942387E-006
  5.905548988895454E-006
  5.625230411093426E-006
  0.000000000000000E+000
  1.133928257438779E-008
  2.249358818817475E-007
  8.524839324697966E-007
  1.665950615762032E-006
  2.511989171864652E-006
  3.365093356877117E-006
  4.198951687226632E-006
  4.985090419160790E-006
  5.692221972829271E-006
  6.284762169855233E-006
  6.723013403475065E-006
  6.967439597895379E-006
  6.982725116947049E-006
  6.747587301469133E-006
  0.000000000000000E+000
  0.000000000000000E+000
  1.111993408222530E-007
  6.633666585939601E-007
  1.555491821995222E-006
  2.498442643336521E-006
  3.455278227589589E-006
  4.397530750215188E-006
  5.299534788007533E-006
  6.133176315999216E-006
  6.865189690839106E-006
  7.454950094690783E-006
  7.854085346182851E-006
  8.008980956119496E-006
  7.871013783613190E-006
  0.000000000000000E+000
  0.000000000000000E+000
  4.380037858834129E-008
  5.385638522427522E-007
  1.483269748674424E-006
  2.489751989355869E-006
  3.513437194316286E-006
  4.527970843762252E-006
  5.511973282410445E-006
  6.444575817405723E-006
  7.299724517945569E-006
  8.041307706461439E-006
  8.618009878124876E-006
  8.958944846331584E-006
  8.980152397650116E-006
  0.000000000000000E+000
  0.000000000000000E+000
  1.316657413487812E-008
  4.560420561878257E-007
  1.441952852106537E-006
  2.483332259563607E-006
  3.533918731130482E-006
  4.577552829023899E-006
  5.603877121425990E-006
  6.603074803953433E-006
  7.559924403559008E-006
  8.447876508797326E-006
  9.221158373710732E-006
  9.799952855096921E-006
  1.005789362551876E-005
  0.000000000000000E+000
  0.000000000000000E+000
  0.000000000000000E+000
  3.990536263458532E-007
  1.417575672433808E-006
  2.467042520112681E-006
  3.505881557251751E-006
  4.533846266396065E-006
  5.558724876545255E-006
  6.587890880093714E-006
  7.620407043241139E-006
  8.641776733690612E-006
  9.618334288758006E-006
  1.047952981758666E-005
  1.107184731738789E-005
  0.000000000000000E+000
  0.000000000000000E+000
  0.000000000000000E+000
  3.718427840141266E-007
  1.396756663873265E-006
  2.422680788441487E-006
  3.411017507722880E-006
  4.381506681127783E-006
  5.363057572015071E-006
  6.383701352767690E-006
  7.461321155064824E-006
  8.596951982145487E-006
  9.773924279216590E-006
  1.095156782678959E-005
  1.199290664789352E-005
  0.000000000000000E+000
  0.000000000000000E+000
  0.000000000000000E+000
  3.584161398250067E-007
  1.361530741907447E-006
  2.325569356413402E-006
  3.227201732107173E-006
  4.106014137935026E-006
  5.009013186899483E-006
  5.983140713395406E-006
  7.069250398633666E-006
  8.292558457960409E-006
  9.656898011517168E-006
  1.115129113411621E-005
  1.272541303209307E-005
  0.000000000000000E+000
  0.000000000000000E+000
  0.000000000000000E+000
  3.430076647055576E-007
  1.277114093516931E-006
  2.140978655403757E-006
  2.929116449080429E-006
  3.696649704741697E-006
  4.500283614643267E-006
  5.397206309311239E-006
  6.447927606866607E-006
  7.713374753804578E-006
  9.237403259660917E-006
  1.105079026946769E-005
  1.323530172425571E-005
  0.000000000000000E+000
  0.000000000000000E+000
  0.000000000000000E+000
  2.960977729821545E-007
  1.089454805681995E-006
  1.825449236168094E-006
  2.491556236891542E-006
  3.147911039626066E-006
  3.849957195875396E-006
  4.654382930238195E-006
  5.630618845468780E-006
  6.870862135156428E-006
  8.493351923441164E-006
  1.061992833749200E-005
  1.348840127040086E-005
  0.000000000000000E+000
  0.000000000000000E+000
  0.000000000000000E+000
  1.635853863324193E-007
  7.457232132207817E-007
  1.337694186059832E-006
  1.897165315292205E-006
  2.460938619288713E-006
  3.075332063221727E-006
  3.791267996740981E-006
  4.676245962770235E-006
  5.833040549511745E-006
  7.434915576424310E-006
  9.787187535793812E-006
  1.346147651171911E-005
  0.000000000000000E+000
  0.000000000000000E+000
  0.000000000000000E+000
  0.000000000000000E+000
  2.492122102825415E-007
  6.777236766079666E-007
  1.149246455989029E-006
  1.646530830057529E-006
  2.193902106400628E-006
  2.838417750769166E-006
  3.642053008252429E-006
  4.701373929441644E-006
  6.195884411406085E-006
  8.537064927671033E-006
  1.308892760433328E-005
SCALARS elementIsPlast double 
LOOKUP_TABLE default
   1.00000000000000     
   1.00000000000000     
   1.00000000000000     
   1.00000000000000     
   1.00000000000000     
   1.00000000000000     
   1.00000000000000     
   1.00000000000000     
  0.000000000000000E+000
  0.000000000000000E+000
  0.000000000000000E+000
  0.000000000000000E+000
  0.000000000000000E+000
  0.000000000000000E+000
  0.000000000000000E+000
   1.00000000000000     
   1.00000000000000     
   1.00000000000000     
   1.00000000000000     
   1.00000000000000     
   1.00000000000000     
   1.00000000000000     
   1.00000000000000     
  0.000000000000000E+000
  0.000000000000000E+000
  0.000000000000000E+000
  0.000000000000000E+000
  0.000000000000000E+000
  0.000000000000000E+000
  0.000000000000000E+000
   1.00000000000000     
   1.00000000000000     
   1.00000000000000     
   1.00000000000000     
   1.00000000000000     
   1.00000000000000     
   1.00000000000000     
   1.00000000000000     
  0.000000000000000E+000
  0.000000000000000E+000
  0.000000000000000E+000
  0.000000000000000E+000
  0.000000000000000E+000
  0.000000000000000E+000
  0.000000000000000E+000
   1.00000000000000     
   1.00000000000000     
   1.00000000000000     
   1.00000000000000     
   1.00000000000000     
   1.00000000000000     
   1.00000000000000     
   1.00000000000000     
  0.000000000000000E+000
  0.000000000000000E+000
  0.000000000000000E+000
  0.000000000000000E+000
  0.000000000000000E+000
  0.000000000000000E+000
  0.000000000000000E+000
   1.00000000000000     
   1.00000000000000     
   1.00000000000000     
   1.00000000000000     
   1.00000000000000     
   1.00000000000000     
   1.00000000000000     
   1.00000000000000     
  0.000000000000000E+000
  0.000000000000000E+000
  0.000000000000000E+000
  0.000000000000000E+000
  0.000000000000000E+000
  0.000000000000000E+000
  0.000000000000000E+000
   1.00000000000000     
   1.00000000000000     
   1.00000000000000     
   1.00000000000000     
   1.00000000000000     
   1.00000000000000     
   1.00000000000000     
   1.00000000000000     
  0.000000000000000E+000
  0.000000000000000E+000
  0.000000000000000E+000
  0.000000000000000E+000
  0.000000000000000E+000
  0.000000000000000E+000
  0.000000000000000E+000
   1.00000000000000     
   1.00000000000000     
   1.00000000000000     
   1.00000000000000     
   1.00000000000000     
   1.00000000000000     
   1.00000000000000     
   1.00000000000000     
  0.000000000000000E+000
  0.000000000000000E+000
  0.000000000000000E+000
  0.000000000000000E+000
  0.000000000000000E+000
  0.000000000000000E+000
  0.000000000000000E+000
   1.00000000000000     
   1.00000000000000     
   1.00000000000000     
   1.00000000000000     
   1.00000000000000     
   1.00000000000000     
   1.00000000000000     
   1.00000000000000     
  0.000000000000000E+000
  0.000000000000000E+000
  0.000000000000000E+000
  0.000000000000000E+000
  0.000000000000000E+000
  0.000000000000000E+000
  0.000000000000000E+000
   1.00000000000000     
   1.00000000000000     
   1.00000000000000     
   1.00000000000000     
   1.00000000000000     
   1.00000000000000     
   1.00000000000000     
   1.00000000000000     
   1.00000000000000     
  0.000000000000000E+000
  0.000000000000000E+000
  0.000000000000000E+000
  0.000000000000000E+000
  0.000000000000000E+000
  0.000000000000000E+000
   1.00000000000000     
   1.00000000000000     
   1.00000000000000     
   1.00000000000000     
   1.00000000000000     
   1.00000000000000     
   1.00000000000000     
   1.00000000000000     
   1.00000000000000     
  0.000000000000000E+000
  0.000000000000000E+000
  0.000000000000000E+000
  0.000000000000000E+000
  0.000000000000000E+000
  0.000000000000000E+000
   1.00000000000000     
   1.00000000000000     
   1.00000000000000     
   1.00000000000000     
   1.00000000000000     
   1.00000000000000     
   1.00000000000000     
   1.00000000000000     
   1.00000000000000     
   1.00000000000000     
  0.000000000000000E+000
  0.000000000000000E+000
  0.000000000000000E+000
  0.000000000000000E+000
  0.000000000000000E+000
   1.00000000000000     
   1.00000000000000     
   1.00000000000000     
   1.00000000000000     
   1.00000000000000     
   1.00000000000000     
   1.00000000000000     
   1.00000000000000     
   1.00000000000000     
   1.00000000000000     
   1.00000000000000     
  0.000000000000000E+000
  0.000000000000000E+000
  0.000000000000000E+000
  0.000000000000000E+000
   1.00000000000000     
   1.00000000000000     
   1.00000000000000     
   1.00000000000000     
   1.00000000000000     
   1.00000000000000     
   1.00000000000000     
   1.00000000000000     
   1.00000000000000     
   1.00000000000000     
   1.00000000000000     
   1.00000000000000     
   1.00000000000000     
  0.000000000000000E+000
  0.000000000000000E+000
   1.00000000000000     
   1.00000000000000     
   1.00000000000000     
   1.00000000000000     
   1.00000000000000     
   1.00000000000000     
   1.00000000000000     
   1.00000000000000     
   1.00000000000000     
   1.00000000000000     
   1.00000000000000     
   1.00000000000000     
   1.00000000000000     
   1.00000000000000     
   1.00000000000000     
   1.00000000000000     
   1.00000000000000     
   1.00000000000000     
   1.00000000000000     
   1.00000000000000     
   1.00000000000000     
   1.00000000000000     
   1.00000000000000     
   1.00000000000000     
   1.00000000000000     
   1.00000000000000     
   1.00000000000000     
   1.00000000000000     
   1.00000000000000     
   1.00000000000000     
   1.00000000000000     
   1.00000000000000     
   1.00000000000000     
   1.00000000000000     
   1.00000000000000     
   1.00000000000000     
   1.00000000000000     
   1.00000000000000     
   1.00000000000000     
   1.00000000000000     
   1.00000000000000     
   1.00000000000000     
   1.00000000000000     
   1.00000000000000     
   1.00000000000000     
   1.00000000000000     
   1.00000000000000     
   1.00000000000000     
   1.00000000000000     
   1.00000000000000     
   1.00000000000000     
   1.00000000000000     
   1.00000000000000     
   1.00000000000000     
   1.00000000000000     
   1.00000000000000     
   1.00000000000000     
   1.00000000000000     
   1.00000000000000     
   1.00000000000000     
   1.00000000000000     
   1.00000000000000     
   1.00000000000000     
   1.00000000000000     
   1.00000000000000     
   1.00000000000000     
   1.00000000000000     
   1.00000000000000     
   1.00000000000000     
   1.00000000000000     
   1.00000000000000     
   1.00000000000000     
   1.00000000000000     
   1.00000000000000     
   1.00000000000000     
   1.00000000000000     
   1.00000000000000     
   1.00000000000000     
   1.00000000000000     
   1.00000000000000     
   1.00000000000000     
   1.00000000000000     
   1.00000000000000     
   1.00000000000000     
   1.00000000000000     
   1.00000000000000     
   1.00000000000000     
   1.00000000000000     
   1.00000000000000     
   1.00000000000000     
  0.000000000000000E+000
   1.00000000000000     
   1.00000000000000     
   1.00000000000000     
   1.00000000000000     
   1.00000000000000     
   1.00000000000000     
   1.00000000000000     
   1.00000000000000     
   1.00000000000000     
   1.00000000000000     
   1.00000000000000     
   1.00000000000000     
   1.00000000000000     
   1.00000000000000     
  0.000000000000000E+000
  0.000000000000000E+000
   1.00000000000000     
   1.00000000000000     
   1.00000000000000     
   1.00000000000000     
   1.00000000000000     
   1.00000000000000     
   1.00000000000000     
   1.00000000000000     
   1.00000000000000     
   1.00000000000000     
   1.00000000000000     
   1.00000000000000     
   1.00000000000000     
  0.000000000000000E+000
  0.000000000000000E+000
   1.00000000000000     
   1.00000000000000     
   1.00000000000000     
   1.00000000000000     
   1.00000000000000     
   1.00000000000000     
   1.00000000000000     
   1.00000000000000     
   1.00000000000000     
   1.00000000000000     
   1.00000000000000     
   1.00000000000000     
   1.00000000000000     
  0.000000000000000E+000
  0.000000000000000E+000
   1.00000000000000     
   1.00000000000000     
   1.00000000000000     
   1.00000000000000     
   1.00000000000000     
   1.00000000000000     
   1.00000000000000     
   1.00000000000000     
   1.00000000000000     
   1.00000000000000     
   1.00000000000000     
   1.00000000000000     
   1.00000000000000     
  0.000000000000000E+000
  0.000000000000000E+000
  0.000000000000000E+000
   1.00000000000000     
   1.00000000000000     
   1.00000000000000     
   1.00000000000000     
   1.00000000000000     
   1.00000000000000     
   1.00000000000000     
   1.00000000000000     
   1.00000000000000     
   1.00000000000000     
   1.00000000000000     
   1.00000000000000     
  0.000000000000000E+000
  0.000000000000000E+000
  0.000000000000000E+000
   1.00000000000000     
   1.00000000000000     
   1.00000000000000     
   1.00000000000000     
   1.00000000000000     
   1.00000000000000     
   1.00000000000000     
   1.00000000000000     
   1.00000000000000     
   1.00000000000000     
   1.00000000000000     
   1.00000000000000     
  0.000000000000000E+000
  0.000000000000000E+000
  0.000000000000000E+000
   1.00000000000000     
   1.00000000000000     
   1.00000000000000     
   1.00000000000000     
   1.00000000000000     
   1.00000000000000     
   1.00000000000000     
   1.00000000000000     
   1.00000000000000     
   1.00000000000000     
   1.00000000000000     
   1.00000000000000     
  0.000000000000000E+000
  0.000000000000000E+000
  0.000000000000000E+000
   1.00000000000000     
   1.00000000000000     
   1.00000000000000     
   1.00000000000000     
   1.00000000000000     
   1.00000000000000     
   1.00000000000000     
   1.00000000000000     
   1.00000000000000     
   1.00000000000000     
   1.00000000000000     
   1.00000000000000     
  0.000000000000000E+000
  0.000000000000000E+000
  0.000000000000000E+000
   1.00000000000000     
   1.00000000000000     
   1.00000000000000     
   1.00000000000000     
   1.00000000000000     
   1.00000000000000     
   1.00000000000000     
   1.00000000000000     
   1.00000000000000     
   1.00000000000000     
   1.00000000000000     
   1.00000000000000     
  0.000000000000000E+000
  0.000000000000000E+000
  0.000000000000000E+000
   1.00000000000000     
   1.00000000000000     
   1.00000000000000     
   1.00000000000000     
   1.00000000000000     
   1.00000000000000     
   1.00000000000000     
   1.00000000000000     
   1.00000000000000     
   1.00000000000000     
   1.00000000000000     
   1.00000000000000     
  0.000000000000000E+000
  0.000000000000000E+000
  0.000000000000000E+000
  0.000000000000000E+000
   1.00000000000000     
   1.00000000000000     
   1.00000000000000     
   1.00000000000000     
   1.00000000000000     
   1.00000000000000     
   1.00000000000000     
   1.00000000000000     
   1.00000000000000     
   1.00000000000000     
   1.00000000000000     
SCALARS poroL double 
LOOKUP_TABLE default
  0.155934265458142     
  0.155932765831215     
  0.155931349198267     
  0.155930031491546     
  0.155928829883539     
  0.155927741700431     
  0.155926755909624     
  0.155925767690437     
  0.155923719481877     
  0.155921637526120     
  0.155919758898472     
  0.155918073008655     
  0.155916570274547     
  0.155915242075664     
  0.155914080673692     
  0.155933809602037     
  0.155932299290008     
  0.155930876269772     
  0.155929558372258     
  0.155928356481049     
  0.155927265240977     
  0.155926275718798     
  0.155925282161267     
  0.155923246818087     
  0.155921179769350     
  0.155919314920376     
  0.155917641667326     
  0.155916150537856     
  0.155914833036652     
  0.155913681487052     
  0.155932899233081     
  0.155931375009764     
  0.155929938393145     
  0.155928611857351     
  0.155927406694520     
  0.155926311177762     
  0.155925314009772     
  0.155924311822575     
  0.155922303000323     
  0.155920266047048     
  0.155918428685282     
  0.155916780491120     
  0.155915312476771     
  0.155914016319402     
  0.155912884453244     
  0.155931520620944     
  0.155929982747574     
  0.155928534081279     
  0.155927196971884     
  0.155925980701838     
  0.155924876985573     
  0.155923868958051     
  0.155922857640935     
  0.155920891865970     
  0.155918900516066     
  0.155917103402385     
  0.155915492436200     
  0.155914058868786     
  0.155912794616437     
  0.155911692234487     
  0.155929671693904     
  0.155928121583660     
  0.155926656494214     
  0.155925307481342     
  0.155924079303373     
  0.155922962218858     
  0.155921941291499     
  0.155920925729897     
  0.155919023915784     
  0.155917088066869     
  0.155915343730164     
  0.155913781766992     
  0.155912393780290     
  0.155911171886967     
  0.155910108782210     
  0.155927334563348     
  0.155925786558187     
  0.155924317496716     
  0.155922954017914     
  0.155921704462925     
  0.155920565092214     
  0.155919530171744     
  0.155918516964143     
  0.155916702321962     
  0.155914834991681     
  0.155913155437183     
  0.155911653996792     
  0.155910322412150     
  0.155909153254099     
  0.155908139282159     
  0.155924501545976     
  0.155922968408617     
  0.155921511746929     
  0.155920144052744     
  0.155918868583780     
  0.155917696712209     
  0.155916632521518     
  0.155915636619470     
  0.155913932180692     
  0.155912148283964     
  0.155910545921761     
  0.155909115525882     
  0.155907850902633     
  0.155906744844616     
  0.155905790062507     
  0.155921160259670     
  0.155919668237252     
  0.155918244506684     
  0.155916888643493     
  0.155915598411706     
  0.155914382394419     
  0.155913267574273     
  0.155912269861160     
  0.155910722975186     
  0.155909040370224     
  0.155907522655785     
  0.155906173397918     
  0.155904986063803     
  0.155903953495872     
  0.155903068450491     
  0.155917317831220     
  0.155915881308587     
  0.155914520075080     
  0.155913200921091     
  0.155911909332705     
  0.155910659425032     
  0.155909485071570     
  0.155908455562290     
  0.155907118217452     
  0.155905517207291     
  0.155904093238023     
  0.155902835377613     
  0.155901734704580     
  0.155900786352898     
  0.155899982441901     
  0.155912989714581     
  0.155911647178681     
  0.155910355510364     
  0.155909079659092     
  0.155907811283619     
  0.155906556434946     
  0.155905335646282     
  0.155904191811145     
  0.155903053811369     
  0.155901581714437     
  0.155900269639213     
  0.155899107716776     
  0.155898103523554     
  0.155897249726674     
  0.155896540086486     
  0.155908217952258     
  0.155906971861478     
  0.155905756655992     
  0.155904536803968     
  0.155903309322831     
  0.155902081915923     
  0.155900862322177     
  0.155899661298189     
  0.155898534785549     
  0.155897277959474     
  0.155896051686850     
  0.155895001252500     
  0.155894095894072     
  0.155893346939476     
  0.155892748350630     
  0.155903030099929     
  0.155901881050107     
  0.155900738513809     
  0.155899580949500     
  0.155898412859425     
  0.155897243752694     
  0.155896082487532     
  0.155894941678540     
  0.155893799549497     
  0.155892642168736     
  0.155891489736886     
  0.155890515051180     
  0.155889709859222     
  0.155889076437991     
  0.155888606404744     
  0.155897431480522     
  0.155896385809544     
  0.155895319488964     
  0.155894234785175     
  0.155893145624469     
  0.155892066141767     
  0.155891009995166     
  0.155889975736790     
  0.155888963731492     
  0.155887927346638     
  0.155886841491885     
  0.155885796351796     
  0.155885010463654     
  0.155884429593700     
  0.155884059068767     
  0.155891453728720     
  0.155890500242769     
  0.155889517661545     
  0.155888523111879     
  0.155887539898607     
  0.155886586617220     
  0.155885667372615     
  0.155884782842712     
  0.155883926475493     
  0.155883092941867     
  0.155882250387453     
  0.155881344609752     
  0.155880499932109     
  0.155879879466635     
  0.155879441631987     
  0.155885082796859     
  0.155884234557619     
  0.155883351815651     
  0.155882474238190     
  0.155881634838890     
  0.155880842347489     
  0.155880093497163     
  0.155879382327676     
  0.155878705385680     
  0.155878055330251     
  0.155877414380577     
  0.155876773326185     
  0.155876143028470     
  0.155875553389392     
  0.155874970152377     
  0.155878320809374     
  0.155877593744837     
  0.155876839046310     
  0.155876124923338     
  0.155875470601771     
  0.155874870155594     
  0.155874315166024     
  0.155873798053371     
  0.155873310635122     
  0.155872842912992     
  0.155872383327495     
  0.155871911676502     
  0.155871401822557     
  0.155870839090109     
  0.155870268419142     
  0.155871160288016     
  0.155870563638824     
  0.155870003136563     
  0.155869514527986     
  0.155869082225264     
  0.155868697033282     
  0.155868352922263     
  0.155868040717989     
  0.155867749400731     
  0.155867463243883     
  0.155867159557569     
  0.155866807332944     
  0.155866376282787     
  0.155865864363136     
  0.155865310268652     
  0.155863493199442     
  0.155863130595564     
  0.155862902838930     
  0.155862681588268     
  0.155862492397939     
  0.155862340589028     
  0.155862220412988     
  0.155862124066142     
  0.155862033861596     
  0.155861922887404     
  0.155861760136241     
  0.155861512997584     
  0.155861156943513     
  0.155860691873355     
  0.155860141530160     
  0.155855510121046     
  0.155855477552659     
  0.155855616560772     
  0.155855652884386     
  0.155855720469886     
  0.155855811471350     
  0.155855928094167     
  0.155856055653670     
  0.155856168805803     
  0.155856234965938     
  0.155856215421719     
  0.155856077691804     
  0.155855800285034     
  0.155855375852583     
  0.155854822904285     
  0.155847123503195     
  0.155847546965084     
  0.155848118088841     
  0.155848479221400     
  0.155848777357287     
  0.155849120957942     
  0.155849485802503     
  0.155849846769232     
  0.155850170309252     
  0.155850418158750     
  0.155850551759189     
  0.155850535906818     
  0.155850345819936     
  0.155849968032313     
  0.155849411004102     
  0.155838305051670     
  0.155839280119399     
  0.155840323856280     
  0.155841121494485     
  0.155841675127903     
  0.155842283950245     
  0.155842909486018     
  0.155843513343166     
  0.155844054683909     
  0.155844492554292     
  0.155844789114171     
  0.155844908743429     
  0.155844821676457     
  0.155844506103553     
  0.155843954699017     
  0.155829135421493     
  0.155830647360981     
  0.155832255059294     
  0.155833537712301     
  0.155834414881599     
  0.155835316617813     
  0.155836217613193     
  0.155837073446172     
  0.155837838343188     
  0.155838471482039     
  0.155838937749359     
  0.155839205504572     
  0.155839241969147     
  0.155839013082167     
  0.155838491099775     
  0.155819695652463     
  0.155821770338090     
  0.155823946696885     
  0.155825748261355     
  0.155827000954439     
  0.155828231138135     
  0.155829427575674     
  0.155830544255419     
  0.155831535805840     
  0.155832364178540     
  0.155833001089673     
  0.155833423796091     
  0.155833604217824     
  0.155833498343955     
  0.155833050445715     
  0.155810039167603     
  0.155812710713277     
  0.155815460180287     
  0.155817806773372     
  0.155819466914401     
  0.155821054503179     
  0.155822560987784     
  0.155823941929289     
  0.155825157243039     
  0.155826175992571     
  0.155826977942420     
  0.155827551393725     
  0.155827884591354     
  0.155827940163811     
  0.155827622482247     
  0.155800217682962     
  0.155803534187472     
  0.155806885520667     
  0.155809786575265     
  0.155811878144608     
  0.155813834495753     
  0.155815649608445     
  0.155817283618794     
  0.155818710129690     
  0.155819910241295     
  0.155820869468923     
  0.155821583873545     
  0.155822061644264     
  0.155822305061689     
  0.155822216045081     
  0.155790286822980     
  0.155794316555244     
  0.155798308984632     
  0.155801774736338     
  0.155804319238434     
  0.155806639984820     
  0.155808738203178     
  0.155810594030809     
  0.155812203104570     
  0.155813565715215     
  0.155814677455055     
  0.155815528589266     
  0.155816130336587     
  0.155816524751431     
  0.155816750057594     
  0.155780308039485     
  0.155785160288671     
  0.155789856687027     
  0.155793893500655     
  0.155796900877055     
  0.155799551949411     
  0.155801882415397     
  0.155803907983619     
  0.155805655158584     
  0.155807147690948     
  0.155808396583130     
  0.155809394701931     
  0.155810123159822     
  0.155810657948018     
  0.155811194009181     
  0.155770364117232     
  0.155776237069364     
  0.155781711209480     
  0.155786307358555     
  0.155789750975752     
  0.155792655309524     
  0.155795141850000     
  0.155797271058881     
  0.155799099269653     
  0.155800671445504     
  0.155802018916916     
  0.155803155273072     
  0.155804069836585     
  0.155804729128421     
  0.155805519508324     
  0.155760620117379     
  0.155767907771214     
  0.155774179787001     
  0.155779214671035     
  0.155782997489531     
  0.155786034283350     
  0.155788575021289     
  0.155790731833282     
  0.155792578718127     
  0.155794168867762     
  0.155795547639460     
  0.155796757728697     
  0.155797834711067     
  0.155798810240027     
  0.155799753174539     
  0.155751807691182     
  0.155760965070257     
  0.155767710294488     
  0.155772921358487     
  0.155776757372656     
  0.155779752296837     
  0.155782235207426     
  0.155784343174301     
  0.155786142302381     
  0.155787680793852     
  0.155789007144610     
  0.155790174343055     
  0.155791254766786     
  0.155792380271830     
  0.155794158550668     
