# vtk DataFile Version 3.0
vtk output
ASCII
DATASET UNSTRUCTURED_GRID
POINTS       496 double 
  0.00000000E+00  3.00000000E+02  0.00000000E+00
  0.00000000E+00  2.80000000E+02  0.00000000E+00
  0.00000000E+00  2.60000000E+02  0.00000000E+00
  0.00000000E+00  2.40000000E+02  0.00000000E+00
  0.00000000E+00  2.20000000E+02  0.00000000E+00
  0.00000000E+00  2.00000000E+02  0.00000000E+00
  0.00000000E+00  1.80000000E+02  0.00000000E+00
  0.00000000E+00  1.60000000E+02  0.00000000E+00
  0.00000000E+00  1.40000000E+02  0.00000000E+00
  0.00000000E+00  1.20000000E+02  0.00000000E+00
  0.00000000E+00  1.00000000E+02  0.00000000E+00
  0.00000000E+00  8.00000000E+01  0.00000000E+00
  0.00000000E+00  6.00000000E+01  0.00000000E+00
  0.00000000E+00  4.00000000E+01  0.00000000E+00
  0.00000000E+00  2.00000000E+01  0.00000000E+00
  0.00000000E+00  4.99600361E-14  0.00000000E+00
  2.00000000E+01  3.00000000E+02  0.00000000E+00
  2.00000000E+01  2.80000000E+02  0.00000000E+00
  2.00000000E+01  2.60000000E+02  0.00000000E+00
  2.00000000E+01  2.40000000E+02  0.00000000E+00
  2.00000000E+01  2.20000000E+02  0.00000000E+00
  2.00000000E+01  2.00000000E+02  0.00000000E+00
  2.00000000E+01  1.80000000E+02  0.00000000E+00
  2.00000000E+01  1.60000000E+02  0.00000000E+00
  2.00000000E+01  1.40000000E+02  0.00000000E+00
  2.00000000E+01  1.20000000E+02  0.00000000E+00
  2.00000000E+01  1.00000000E+02  0.00000000E+00
  2.00000000E+01  8.00000000E+01  0.00000000E+00
  2.00000000E+01  6.00000000E+01  0.00000000E+00
  2.00000000E+01  4.00000000E+01  0.00000000E+00
  2.00000000E+01  2.00000000E+01  0.00000000E+00
  2.00000000E+01  4.99600361E-14  0.00000000E+00
  4.00000000E+01  3.00000000E+02  0.00000000E+00
  4.00000000E+01  2.80000000E+02  0.00000000E+00
  4.00000000E+01  2.60000000E+02  0.00000000E+00
  4.00000000E+01  2.40000000E+02  0.00000000E+00
  4.00000000E+01  2.20000000E+02  0.00000000E+00
  4.00000000E+01  2.00000000E+02  0.00000000E+00
  4.00000000E+01  1.80000000E+02  0.00000000E+00
  4.00000000E+01  1.60000000E+02  0.00000000E+00
  4.00000000E+01  1.40000000E+02  0.00000000E+00
  4.00000000E+01  1.20000000E+02  0.00000000E+00
  4.00000000E+01  1.00000000E+02  0.00000000E+00
  4.00000000E+01  8.00000000E+01  0.00000000E+00
  4.00000000E+01  6.00000000E+01  0.00000000E+00
  4.00000000E+01  4.00000000E+01  0.00000000E+00
  4.00000000E+01  2.00000000E+01  0.00000000E+00
  4.00000000E+01  4.99600361E-14  0.00000000E+00
  6.00000000E+01  3.00000000E+02  0.00000000E+00
  6.00000000E+01  2.80000000E+02  0.00000000E+00
  6.00000000E+01  2.60000000E+02  0.00000000E+00
  6.00000000E+01  2.40000000E+02  0.00000000E+00
  6.00000000E+01  2.20000000E+02  0.00000000E+00
  6.00000000E+01  2.00000000E+02  0.00000000E+00
  6.00000000E+01  1.80000000E+02  0.00000000E+00
  6.00000000E+01  1.60000000E+02  0.00000000E+00
  6.00000000E+01  1.40000000E+02  0.00000000E+00
  6.00000000E+01  1.20000000E+02  0.00000000E+00
  6.00000000E+01  1.00000000E+02  0.00000000E+00
  6.00000000E+01  8.00000000E+01  0.00000000E+00
  6.00000000E+01  6.00000000E+01  0.00000000E+00
  6.00000000E+01  4.00000000E+01  0.00000000E+00
  6.00000000E+01  2.00000000E+01  0.00000000E+00
  6.00000000E+01  4.99600361E-14  0.00000000E+00
  8.00000000E+01  3.00000000E+02  0.00000000E+00
  8.00000000E+01  2.80000000E+02  0.00000000E+00
  8.00000000E+01  2.60000000E+02  0.00000000E+00
  8.00000000E+01  2.40000000E+02  0.00000000E+00
  8.00000000E+01  2.20000000E+02  0.00000000E+00
  8.00000000E+01  2.00000000E+02  0.00000000E+00
  8.00000000E+01  1.80000000E+02  0.00000000E+00
  8.00000000E+01  1.60000000E+02  0.00000000E+00
  8.00000000E+01  1.40000000E+02  0.00000000E+00
  8.00000000E+01  1.20000000E+02  0.00000000E+00
  8.00000000E+01  1.00000000E+02  0.00000000E+00
  8.00000000E+01  8.00000000E+01  0.00000000E+00
  8.00000000E+01  6.00000000E+01  0.00000000E+00
  8.00000000E+01  4.00000000E+01  0.00000000E+00
  8.00000000E+01  2.00000000E+01  0.00000000E+00
  8.00000000E+01  4.99600361E-14  0.00000000E+00
  1.00000000E+02  3.00000000E+02  0.00000000E+00
  1.00000000E+02  2.80000000E+02  0.00000000E+00
  1.00000000E+02  2.60000000E+02  0.00000000E+00
  1.00000000E+02  2.40000000E+02  0.00000000E+00
  1.00000000E+02  2.20000000E+02  0.00000000E+00
  1.00000000E+02  2.00000000E+02  0.00000000E+00
  1.00000000E+02  1.80000000E+02  0.00000000E+00
  1.00000000E+02  1.60000000E+02  0.00000000E+00
  1.00000000E+02  1.40000000E+02  0.00000000E+00
  1.00000000E+02  1.20000000E+02  0.00000000E+00
  1.00000000E+02  1.00000000E+02  0.00000000E+00
  1.00000000E+02  8.00000000E+01  0.00000000E+00
  1.00000000E+02  6.00000000E+01  0.00000000E+00
  1.00000000E+02  4.00000000E+01  0.00000000E+00
  1.00000000E+02  2.00000000E+01  0.00000000E+00
  1.00000000E+02  4.99600361E-14  0.00000000E+00
  1.20000000E+02  3.00000000E+02  0.00000000E+00
  1.20000000E+02  2.80000000E+02  0.00000000E+00
  1.20000000E+02  2.60000000E+02  0.00000000E+00
  1.20000000E+02  2.40000000E+02  0.00000000E+00
  1.20000000E+02  2.20000000E+02  0.00000000E+00
  1.20000000E+02  2.00000000E+02  0.00000000E+00
  1.20000000E+02  1.80000000E+02  0.00000000E+00
  1.20000000E+02  1.60000000E+02  0.00000000E+00
  1.20000000E+02  1.40000000E+02  0.00000000E+00
  1.20000000E+02  1.20000000E+02  0.00000000E+00
  1.20000000E+02  1.00000000E+02  0.00000000E+00
  1.20000000E+02  8.00000000E+01  0.00000000E+00
  1.20000000E+02  6.00000000E+01  0.00000000E+00
  1.20000000E+02  4.00000000E+01  0.00000000E+00
  1.20000000E+02  2.00000000E+01  0.00000000E+00
  1.20000000E+02  4.99600361E-14  0.00000000E+00
  1.40000000E+02  3.00000000E+02  0.00000000E+00
  1.40000000E+02  2.80000000E+02  0.00000000E+00
  1.40000000E+02  2.60000000E+02  0.00000000E+00
  1.40000000E+02  2.40000000E+02  0.00000000E+00
  1.40000000E+02  2.20000000E+02  0.00000000E+00
  1.40000000E+02  2.00000000E+02  0.00000000E+00
  1.40000000E+02  1.80000000E+02  0.00000000E+00
  1.40000000E+02  1.60000000E+02  0.00000000E+00
  1.40000000E+02  1.40000000E+02  0.00000000E+00
  1.40000000E+02  1.20000000E+02  0.00000000E+00
  1.40000000E+02  1.00000000E+02  0.00000000E+00
  1.40000000E+02  8.00000000E+01  0.00000000E+00
  1.40000000E+02  6.00000000E+01  0.00000000E+00
  1.40000000E+02  4.00000000E+01  0.00000000E+00
  1.40000000E+02  2.00000000E+01  0.00000000E+00
  1.40000000E+02  4.99600361E-14  0.00000000E+00
  1.60000000E+02  3.00000000E+02  0.00000000E+00
  1.60000000E+02  2.80000000E+02  0.00000000E+00
  1.60000000E+02  2.60000000E+02  0.00000000E+00
  1.60000000E+02  2.40000000E+02  0.00000000E+00
  1.60000000E+02  2.20000000E+02  0.00000000E+00
  1.60000000E+02  2.00000000E+02  0.00000000E+00
  1.60000000E+02  1.80000000E+02  0.00000000E+00
  1.60000000E+02  1.60000000E+02  0.00000000E+00
  1.60000000E+02  1.40000000E+02  0.00000000E+00
  1.60000000E+02  1.20000000E+02  0.00000000E+00
  1.60000000E+02  1.00000000E+02  0.00000000E+00
  1.60000000E+02  8.00000000E+01  0.00000000E+00
  1.60000000E+02  6.00000000E+01  0.00000000E+00
  1.60000000E+02  4.00000000E+01  0.00000000E+00
  1.60000000E+02  2.00000000E+01  0.00000000E+00
  1.60000000E+02  4.99600361E-14  0.00000000E+00
  1.80000000E+02  3.00000000E+02  0.00000000E+00
  1.80000000E+02  2.80000000E+02  0.00000000E+00
  1.80000000E+02  2.60000000E+02  0.00000000E+00
  1.80000000E+02  2.40000000E+02  0.00000000E+00
  1.80000000E+02  2.20000000E+02  0.00000000E+00
  1.80000000E+02  2.00000000E+02  0.00000000E+00
  1.80000000E+02  1.80000000E+02  0.00000000E+00
  1.80000000E+02  1.60000000E+02  0.00000000E+00
  1.80000000E+02  1.40000000E+02  0.00000000E+00
  1.80000000E+02  1.20000000E+02  0.00000000E+00
  1.80000000E+02  1.00000000E+02  0.00000000E+00
  1.80000000E+02  8.00000000E+01  0.00000000E+00
  1.80000000E+02  6.00000000E+01  0.00000000E+00
  1.80000000E+02  4.00000000E+01  0.00000000E+00
  1.80000000E+02  2.00000000E+01  0.00000000E+00
  1.80000000E+02  4.99600361E-14  0.00000000E+00
  2.00000000E+02  3.00000000E+02  0.00000000E+00
  2.00000000E+02  2.80000000E+02  0.00000000E+00
  2.00000000E+02  2.60000000E+02  0.00000000E+00
  2.00000000E+02  2.40000000E+02  0.00000000E+00
  2.00000000E+02  2.20000000E+02  0.00000000E+00
  2.00000000E+02  2.00000000E+02  0.00000000E+00
  2.00000000E+02  1.80000000E+02  0.00000000E+00
  2.00000000E+02  1.60000000E+02  0.00000000E+00
  2.00000000E+02  1.40000000E+02  0.00000000E+00
  2.00000000E+02  1.20000000E+02  0.00000000E+00
  2.00000000E+02  1.00000000E+02  0.00000000E+00
  2.00000000E+02  8.00000000E+01  0.00000000E+00
  2.00000000E+02  6.00000000E+01  0.00000000E+00
  2.00000000E+02  4.00000000E+01  0.00000000E+00
  2.00000000E+02  2.00000000E+01  0.00000000E+00
  2.00000000E+02  4.99600361E-14  0.00000000E+00
  2.20000000E+02  3.00000000E+02  0.00000000E+00
  2.20000000E+02  2.80000000E+02  0.00000000E+00
  2.20000000E+02  2.60000000E+02  0.00000000E+00
  2.20000000E+02  2.40000000E+02  0.00000000E+00
  2.20000000E+02  2.20000000E+02  0.00000000E+00
  2.20000000E+02  2.00000000E+02  0.00000000E+00
  2.20000000E+02  1.80000000E+02  0.00000000E+00
  2.20000000E+02  1.60000000E+02  0.00000000E+00
  2.20000000E+02  1.40000000E+02  0.00000000E+00
  2.20000000E+02  1.20000000E+02  0.00000000E+00
  2.20000000E+02  1.00000000E+02  0.00000000E+00
  2.20000000E+02  8.00000000E+01  0.00000000E+00
  2.20000000E+02  6.00000000E+01  0.00000000E+00
  2.20000000E+02  4.00000000E+01  0.00000000E+00
  2.20000000E+02  2.00000000E+01  0.00000000E+00
  2.20000000E+02  4.99600361E-14  0.00000000E+00
  2.40000000E+02  3.00000000E+02  0.00000000E+00
  2.40000000E+02  2.80000000E+02  0.00000000E+00
  2.40000000E+02  2.60000000E+02  0.00000000E+00
  2.40000000E+02  2.40000000E+02  0.00000000E+00
  2.40000000E+02  2.20000000E+02  0.00000000E+00
  2.40000000E+02  2.00000000E+02  0.00000000E+00
  2.40000000E+02  1.80000000E+02  0.00000000E+00
  2.40000000E+02  1.60000000E+02  0.00000000E+00
  2.40000000E+02  1.40000000E+02  0.00000000E+00
  2.40000000E+02  1.20000000E+02  0.00000000E+00
  2.40000000E+02  1.00000000E+02  0.00000000E+00
  2.40000000E+02  8.00000000E+01  0.00000000E+00
  2.40000000E+02  6.00000000E+01  0.00000000E+00
  2.40000000E+02  4.00000000E+01  0.00000000E+00
  2.40000000E+02  2.00000000E+01  0.00000000E+00
  2.40000000E+02  4.99600361E-14  0.00000000E+00
  2.60000000E+02  3.00000000E+02  0.00000000E+00
  2.60000000E+02  2.80000000E+02  0.00000000E+00
  2.60000000E+02  2.60000000E+02  0.00000000E+00
  2.60000000E+02  2.40000000E+02  0.00000000E+00
  2.60000000E+02  2.20000000E+02  0.00000000E+00
  2.60000000E+02  2.00000000E+02  0.00000000E+00
  2.60000000E+02  1.80000000E+02  0.00000000E+00
  2.60000000E+02  1.60000000E+02  0.00000000E+00
  2.60000000E+02  1.40000000E+02  0.00000000E+00
  2.60000000E+02  1.20000000E+02  0.00000000E+00
  2.60000000E+02  1.00000000E+02  0.00000000E+00
  2.60000000E+02  8.00000000E+01  0.00000000E+00
  2.60000000E+02  6.00000000E+01  0.00000000E+00
  2.60000000E+02  4.00000000E+01  0.00000000E+00
  2.60000000E+02  2.00000000E+01  0.00000000E+00
  2.60000000E+02  4.99600361E-14  0.00000000E+00
  2.80000000E+02  3.00000000E+02  0.00000000E+00
  2.80000000E+02  2.80000000E+02  0.00000000E+00
  2.80000000E+02  2.60000000E+02  0.00000000E+00
  2.80000000E+02  2.40000000E+02  0.00000000E+00
  2.80000000E+02  2.20000000E+02  0.00000000E+00
  2.80000000E+02  2.00000000E+02  0.00000000E+00
  2.80000000E+02  1.80000000E+02  0.00000000E+00
  2.80000000E+02  1.60000000E+02  0.00000000E+00
  2.80000000E+02  1.40000000E+02  0.00000000E+00
  2.80000000E+02  1.20000000E+02  0.00000000E+00
  2.80000000E+02  1.00000000E+02  0.00000000E+00
  2.80000000E+02  8.00000000E+01  0.00000000E+00
  2.80000000E+02  6.00000000E+01  0.00000000E+00
  2.80000000E+02  4.00000000E+01  0.00000000E+00
  2.80000000E+02  2.00000000E+01  0.00000000E+00
  2.80000000E+02  4.99600361E-14  0.00000000E+00
  3.00000000E+02  3.00000000E+02  0.00000000E+00
  3.00000000E+02  2.80000000E+02  0.00000000E+00
  3.00000000E+02  2.60000000E+02  0.00000000E+00
  3.00000000E+02  2.40000000E+02  0.00000000E+00
  3.00000000E+02  2.20000000E+02  0.00000000E+00
  3.00000000E+02  2.00000000E+02  0.00000000E+00
  3.00000000E+02  1.80000000E+02  0.00000000E+00
  3.00000000E+02  1.60000000E+02  0.00000000E+00
  3.00000000E+02  1.40000000E+02  0.00000000E+00
  3.00000000E+02  1.20000000E+02  0.00000000E+00
  3.00000000E+02  1.00000000E+02  0.00000000E+00
  3.00000000E+02  8.00000000E+01  0.00000000E+00
  3.00000000E+02  6.00000000E+01  0.00000000E+00
  3.00000000E+02  4.00000000E+01  0.00000000E+00
  3.00000000E+02  2.00000000E+01  0.00000000E+00
  3.00000000E+02  4.99600361E-14  0.00000000E+00
  3.20000000E+02  3.00000000E+02  0.00000000E+00
  3.20000000E+02  2.80000000E+02  0.00000000E+00
  3.20000000E+02  2.60000000E+02  0.00000000E+00
  3.20000000E+02  2.40000000E+02  0.00000000E+00
  3.20000000E+02  2.20000000E+02  0.00000000E+00
  3.20000000E+02  2.00000000E+02  0.00000000E+00
  3.20000000E+02  1.80000000E+02  0.00000000E+00
  3.20000000E+02  1.60000000E+02  0.00000000E+00
  3.20000000E+02  1.40000000E+02  0.00000000E+00
  3.20000000E+02  1.20000000E+02  0.00000000E+00
  3.20000000E+02  1.00000000E+02  0.00000000E+00
  3.20000000E+02  8.00000000E+01  0.00000000E+00
  3.20000000E+02  6.00000000E+01  0.00000000E+00
  3.20000000E+02  4.00000000E+01  0.00000000E+00
  3.20000000E+02  2.00000000E+01  0.00000000E+00
  3.20000000E+02  4.99600361E-14  0.00000000E+00
  3.40000000E+02  3.00000000E+02  0.00000000E+00
  3.40000000E+02  2.80000000E+02  0.00000000E+00
  3.40000000E+02  2.60000000E+02  0.00000000E+00
  3.40000000E+02  2.40000000E+02  0.00000000E+00
  3.40000000E+02  2.20000000E+02  0.00000000E+00
  3.40000000E+02  2.00000000E+02  0.00000000E+00
  3.40000000E+02  1.80000000E+02  0.00000000E+00
  3.40000000E+02  1.60000000E+02  0.00000000E+00
  3.40000000E+02  1.40000000E+02  0.00000000E+00
  3.40000000E+02  1.20000000E+02  0.00000000E+00
  3.40000000E+02  1.00000000E+02  0.00000000E+00
  3.40000000E+02  8.00000000E+01  0.00000000E+00
  3.40000000E+02  6.00000000E+01  0.00000000E+00
  3.40000000E+02  4.00000000E+01  0.00000000E+00
  3.40000000E+02  2.00000000E+01  0.00000000E+00
  3.40000000E+02  4.99600361E-14  0.00000000E+00
  3.60000000E+02  3.00000000E+02  0.00000000E+00
  3.60000000E+02  2.80000000E+02  0.00000000E+00
  3.60000000E+02  2.60000000E+02  0.00000000E+00
  3.60000000E+02  2.40000000E+02  0.00000000E+00
  3.60000000E+02  2.20000000E+02  0.00000000E+00
  3.60000000E+02  2.00000000E+02  0.00000000E+00
  3.60000000E+02  1.80000000E+02  0.00000000E+00
  3.60000000E+02  1.60000000E+02  0.00000000E+00
  3.60000000E+02  1.40000000E+02  0.00000000E+00
  3.60000000E+02  1.20000000E+02  0.00000000E+00
  3.60000000E+02  1.00000000E+02  0.00000000E+00
  3.60000000E+02  8.00000000E+01  0.00000000E+00
  3.60000000E+02  6.00000000E+01  0.00000000E+00
  3.60000000E+02  4.00000000E+01  0.00000000E+00
  3.60000000E+02  2.00000000E+01  0.00000000E+00
  3.60000000E+02  4.99600361E-14  0.00000000E+00
  3.80000000E+02  3.00000000E+02  0.00000000E+00
  3.80000000E+02  2.80000000E+02  0.00000000E+00
  3.80000000E+02  2.60000000E+02  0.00000000E+00
  3.80000000E+02  2.40000000E+02  0.00000000E+00
  3.80000000E+02  2.20000000E+02  0.00000000E+00
  3.80000000E+02  2.00000000E+02  0.00000000E+00
  3.80000000E+02  1.80000000E+02  0.00000000E+00
  3.80000000E+02  1.60000000E+02  0.00000000E+00
  3.80000000E+02  1.40000000E+02  0.00000000E+00
  3.80000000E+02  1.20000000E+02  0.00000000E+00
  3.80000000E+02  1.00000000E+02  0.00000000E+00
  3.80000000E+02  8.00000000E+01  0.00000000E+00
  3.80000000E+02  6.00000000E+01  0.00000000E+00
  3.80000000E+02  4.00000000E+01  0.00000000E+00
  3.80000000E+02  2.00000000E+01  0.00000000E+00
  3.80000000E+02  4.99600361E-14  0.00000000E+00
  4.00000000E+02  3.00000000E+02  0.00000000E+00
  4.00000000E+02  2.80000000E+02  0.00000000E+00
  4.00000000E+02  2.60000000E+02  0.00000000E+00
  4.00000000E+02  2.40000000E+02  0.00000000E+00
  4.00000000E+02  2.20000000E+02  0.00000000E+00
  4.00000000E+02  2.00000000E+02  0.00000000E+00
  4.00000000E+02  1.80000000E+02  0.00000000E+00
  4.00000000E+02  1.60000000E+02  0.00000000E+00
  4.00000000E+02  1.40000000E+02  0.00000000E+00
  4.00000000E+02  1.20000000E+02  0.00000000E+00
  4.00000000E+02  1.00000000E+02  0.00000000E+00
  4.00000000E+02  8.00000000E+01  0.00000000E+00
  4.00000000E+02  6.00000000E+01  0.00000000E+00
  4.00000000E+02  4.00000000E+01  0.00000000E+00
  4.00000000E+02  2.00000000E+01  0.00000000E+00
  4.00000000E+02  4.99600361E-14  0.00000000E+00
  4.20000000E+02  3.00000000E+02  0.00000000E+00
  4.20000000E+02  2.80000000E+02  0.00000000E+00
  4.20000000E+02  2.60000000E+02  0.00000000E+00
  4.20000000E+02  2.40000000E+02  0.00000000E+00
  4.20000000E+02  2.20000000E+02  0.00000000E+00
  4.20000000E+02  2.00000000E+02  0.00000000E+00
  4.20000000E+02  1.80000000E+02  0.00000000E+00
  4.20000000E+02  1.60000000E+02  0.00000000E+00
  4.20000000E+02  1.40000000E+02  0.00000000E+00
  4.20000000E+02  1.20000000E+02  0.00000000E+00
  4.20000000E+02  1.00000000E+02  0.00000000E+00
  4.20000000E+02  8.00000000E+01  0.00000000E+00
  4.20000000E+02  6.00000000E+01  0.00000000E+00
  4.20000000E+02  4.00000000E+01  0.00000000E+00
  4.20000000E+02  2.00000000E+01  0.00000000E+00
  4.20000000E+02  4.99600361E-14  0.00000000E+00
  4.40000000E+02  3.00000000E+02  0.00000000E+00
  4.40000000E+02  2.80000000E+02  0.00000000E+00
  4.40000000E+02  2.60000000E+02  0.00000000E+00
  4.40000000E+02  2.40000000E+02  0.00000000E+00
  4.40000000E+02  2.20000000E+02  0.00000000E+00
  4.40000000E+02  2.00000000E+02  0.00000000E+00
  4.40000000E+02  1.80000000E+02  0.00000000E+00
  4.40000000E+02  1.60000000E+02  0.00000000E+00
  4.40000000E+02  1.40000000E+02  0.00000000E+00
  4.40000000E+02  1.20000000E+02  0.00000000E+00
  4.40000000E+02  1.00000000E+02  0.00000000E+00
  4.40000000E+02  8.00000000E+01  0.00000000E+00
  4.40000000E+02  6.00000000E+01  0.00000000E+00
  4.40000000E+02  4.00000000E+01  0.00000000E+00
  4.40000000E+02  2.00000000E+01  0.00000000E+00
  4.40000000E+02  4.99600361E-14  0.00000000E+00
  4.60000000E+02  3.00000000E+02  0.00000000E+00
  4.60000000E+02  2.80000000E+02  0.00000000E+00
  4.60000000E+02  2.60000000E+02  0.00000000E+00
  4.60000000E+02  2.40000000E+02  0.00000000E+00
  4.60000000E+02  2.20000000E+02  0.00000000E+00
  4.60000000E+02  2.00000000E+02  0.00000000E+00
  4.60000000E+02  1.80000000E+02  0.00000000E+00
  4.60000000E+02  1.60000000E+02  0.00000000E+00
  4.60000000E+02  1.40000000E+02  0.00000000E+00
  4.60000000E+02  1.20000000E+02  0.00000000E+00
  4.60000000E+02  1.00000000E+02  0.00000000E+00
  4.60000000E+02  8.00000000E+01  0.00000000E+00
  4.60000000E+02  6.00000000E+01  0.00000000E+00
  4.60000000E+02  4.00000000E+01  0.00000000E+00
  4.60000000E+02  2.00000000E+01  0.00000000E+00
  4.60000000E+02  4.99600361E-14  0.00000000E+00
  4.80000000E+02  3.00000000E+02  0.00000000E+00
  4.80000000E+02  2.80000000E+02  0.00000000E+00
  4.80000000E+02  2.60000000E+02  0.00000000E+00
  4.80000000E+02  2.40000000E+02  0.00000000E+00
  4.80000000E+02  2.20000000E+02  0.00000000E+00
  4.80000000E+02  2.00000000E+02  0.00000000E+00
  4.80000000E+02  1.80000000E+02  0.00000000E+00
  4.80000000E+02  1.60000000E+02  0.00000000E+00
  4.80000000E+02  1.40000000E+02  0.00000000E+00
  4.80000000E+02  1.20000000E+02  0.00000000E+00
  4.80000000E+02  1.00000000E+02  0.00000000E+00
  4.80000000E+02  8.00000000E+01  0.00000000E+00
  4.80000000E+02  6.00000000E+01  0.00000000E+00
  4.80000000E+02  4.00000000E+01  0.00000000E+00
  4.80000000E+02  2.00000000E+01  0.00000000E+00
  4.80000000E+02  4.99600361E-14  0.00000000E+00
  5.00000000E+02  3.00000000E+02  0.00000000E+00
  5.00000000E+02  2.80000000E+02  0.00000000E+00
  5.00000000E+02  2.60000000E+02  0.00000000E+00
  5.00000000E+02  2.40000000E+02  0.00000000E+00
  5.00000000E+02  2.20000000E+02  0.00000000E+00
  5.00000000E+02  2.00000000E+02  0.00000000E+00
  5.00000000E+02  1.80000000E+02  0.00000000E+00
  5.00000000E+02  1.60000000E+02  0.00000000E+00
  5.00000000E+02  1.40000000E+02  0.00000000E+00
  5.00000000E+02  1.20000000E+02  0.00000000E+00
  5.00000000E+02  1.00000000E+02  0.00000000E+00
  5.00000000E+02  8.00000000E+01  0.00000000E+00
  5.00000000E+02  6.00000000E+01  0.00000000E+00
  5.00000000E+02  4.00000000E+01  0.00000000E+00
  5.00000000E+02  2.00000000E+01  0.00000000E+00
  5.00000000E+02  4.99600361E-14  0.00000000E+00
  5.20000000E+02  3.00000000E+02  0.00000000E+00
  5.20000000E+02  2.80000000E+02  0.00000000E+00
  5.20000000E+02  2.60000000E+02  0.00000000E+00
  5.20000000E+02  2.40000000E+02  0.00000000E+00
  5.20000000E+02  2.20000000E+02  0.00000000E+00
  5.20000000E+02  2.00000000E+02  0.00000000E+00
  5.20000000E+02  1.80000000E+02  0.00000000E+00
  5.20000000E+02  1.60000000E+02  0.00000000E+00
  5.20000000E+02  1.40000000E+02  0.00000000E+00
  5.20000000E+02  1.20000000E+02  0.00000000E+00
  5.20000000E+02  1.00000000E+02  0.00000000E+00
  5.20000000E+02  8.00000000E+01  0.00000000E+00
  5.20000000E+02  6.00000000E+01  0.00000000E+00
  5.20000000E+02  4.00000000E+01  0.00000000E+00
  5.20000000E+02  2.00000000E+01  0.00000000E+00
  5.20000000E+02  4.99600361E-14  0.00000000E+00
  5.40000000E+02  3.00000000E+02  0.00000000E+00
  5.40000000E+02  2.80000000E+02  0.00000000E+00
  5.40000000E+02  2.60000000E+02  0.00000000E+00
  5.40000000E+02  2.40000000E+02  0.00000000E+00
  5.40000000E+02  2.20000000E+02  0.00000000E+00
  5.40000000E+02  2.00000000E+02  0.00000000E+00
  5.40000000E+02  1.80000000E+02  0.00000000E+00
  5.40000000E+02  1.60000000E+02  0.00000000E+00
  5.40000000E+02  1.40000000E+02  0.00000000E+00
  5.40000000E+02  1.20000000E+02  0.00000000E+00
  5.40000000E+02  1.00000000E+02  0.00000000E+00
  5.40000000E+02  8.00000000E+01  0.00000000E+00
  5.40000000E+02  6.00000000E+01  0.00000000E+00
  5.40000000E+02  4.00000000E+01  0.00000000E+00
  5.40000000E+02  2.00000000E+01  0.00000000E+00
  5.40000000E+02  4.99600361E-14  0.00000000E+00
  5.60000000E+02  3.00000000E+02  0.00000000E+00
  5.60000000E+02  2.80000000E+02  0.00000000E+00
  5.60000000E+02  2.60000000E+02  0.00000000E+00
  5.60000000E+02  2.40000000E+02  0.00000000E+00
  5.60000000E+02  2.20000000E+02  0.00000000E+00
  5.60000000E+02  2.00000000E+02  0.00000000E+00
  5.60000000E+02  1.80000000E+02  0.00000000E+00
  5.60000000E+02  1.60000000E+02  0.00000000E+00
  5.60000000E+02  1.40000000E+02  0.00000000E+00
  5.60000000E+02  1.20000000E+02  0.00000000E+00
  5.60000000E+02  1.00000000E+02  0.00000000E+00
  5.60000000E+02  8.00000000E+01  0.00000000E+00
  5.60000000E+02  6.00000000E+01  0.00000000E+00
  5.60000000E+02  4.00000000E+01  0.00000000E+00
  5.60000000E+02  2.00000000E+01  0.00000000E+00
  5.60000000E+02  4.99600361E-14  0.00000000E+00
  5.80000000E+02  3.00000000E+02  0.00000000E+00
  5.80000000E+02  2.80000000E+02  0.00000000E+00
  5.80000000E+02  2.60000000E+02  0.00000000E+00
  5.80000000E+02  2.40000000E+02  0.00000000E+00
  5.80000000E+02  2.20000000E+02  0.00000000E+00
  5.80000000E+02  2.00000000E+02  0.00000000E+00
  5.80000000E+02  1.80000000E+02  0.00000000E+00
  5.80000000E+02  1.60000000E+02  0.00000000E+00
  5.80000000E+02  1.40000000E+02  0.00000000E+00
  5.80000000E+02  1.20000000E+02  0.00000000E+00
  5.80000000E+02  1.00000000E+02  0.00000000E+00
  5.80000000E+02  8.00000000E+01  0.00000000E+00
  5.80000000E+02  6.00000000E+01  0.00000000E+00
  5.80000000E+02  4.00000000E+01  0.00000000E+00
  5.80000000E+02  2.00000000E+01  0.00000000E+00
  5.80000000E+02  4.99600361E-14  0.00000000E+00
  6.00000000E+02  3.00000000E+02  0.00000000E+00
  6.00000000E+02  2.80000000E+02  0.00000000E+00
  6.00000000E+02  2.60000000E+02  0.00000000E+00
  6.00000000E+02  2.40000000E+02  0.00000000E+00
  6.00000000E+02  2.20000000E+02  0.00000000E+00
  6.00000000E+02  2.00000000E+02  0.00000000E+00
  6.00000000E+02  1.80000000E+02  0.00000000E+00
  6.00000000E+02  1.60000000E+02  0.00000000E+00
  6.00000000E+02  1.40000000E+02  0.00000000E+00
  6.00000000E+02  1.20000000E+02  0.00000000E+00
  6.00000000E+02  1.00000000E+02  0.00000000E+00
  6.00000000E+02  8.00000000E+01  0.00000000E+00
  6.00000000E+02  6.00000000E+01  0.00000000E+00
  6.00000000E+02  4.00000000E+01  0.00000000E+00
  6.00000000E+02  2.00000000E+01  0.00000000E+00
  6.00000000E+02  4.99600361E-14  0.00000000E+00
CELLS       450      2250
         4           0           1          17          16
         4           1           2          18          17
         4           2           3          19          18
         4           3           4          20          19
         4           4           5          21          20
         4           5           6          22          21
         4           6           7          23          22
         4           7           8          24          23
         4           8           9          25          24
         4           9          10          26          25
         4          10          11          27          26
         4          11          12          28          27
         4          12          13          29          28
         4          13          14          30          29
         4          14          15          31          30
         4          16          17          33          32
         4          17          18          34          33
         4          18          19          35          34
         4          19          20          36          35
         4          20          21          37          36
         4          21          22          38          37
         4          22          23          39          38
         4          23          24          40          39
         4          24          25          41          40
         4          25          26          42          41
         4          26          27          43          42
         4          27          28          44          43
         4          28          29          45          44
         4          29          30          46          45
         4          30          31          47          46
         4          32          33          49          48
         4          33          34          50          49
         4          34          35          51          50
         4          35          36          52          51
         4          36          37          53          52
         4          37          38          54          53
         4          38          39          55          54
         4          39          40          56          55
         4          40          41          57          56
         4          41          42          58          57
         4          42          43          59          58
         4          43          44          60          59
         4          44          45          61          60
         4          45          46          62          61
         4          46          47          63          62
         4          48          49          65          64
         4          49          50          66          65
         4          50          51          67          66
         4          51          52          68          67
         4          52          53          69          68
         4          53          54          70          69
         4          54          55          71          70
         4          55          56          72          71
         4          56          57          73          72
         4          57          58          74          73
         4          58          59          75          74
         4          59          60          76          75
         4          60          61          77          76
         4          61          62          78          77
         4          62          63          79          78
         4          64          65          81          80
         4          65          66          82          81
         4          66          67          83          82
         4          67          68          84          83
         4          68          69          85          84
         4          69          70          86          85
         4          70          71          87          86
         4          71          72          88          87
         4          72          73          89          88
         4          73          74          90          89
         4          74          75          91          90
         4          75          76          92          91
         4          76          77          93          92
         4          77          78          94          93
         4          78          79          95          94
         4          80          81          97          96
         4          81          82          98          97
         4          82          83          99          98
         4          83          84         100          99
         4          84          85         101         100
         4          85          86         102         101
         4          86          87         103         102
         4          87          88         104         103
         4          88          89         105         104
         4          89          90         106         105
         4          90          91         107         106
         4          91          92         108         107
         4          92          93         109         108
         4          93          94         110         109
         4          94          95         111         110
         4          96          97         113         112
         4          97          98         114         113
         4          98          99         115         114
         4          99         100         116         115
         4         100         101         117         116
         4         101         102         118         117
         4         102         103         119         118
         4         103         104         120         119
         4         104         105         121         120
         4         105         106         122         121
         4         106         107         123         122
         4         107         108         124         123
         4         108         109         125         124
         4         109         110         126         125
         4         110         111         127         126
         4         112         113         129         128
         4         113         114         130         129
         4         114         115         131         130
         4         115         116         132         131
         4         116         117         133         132
         4         117         118         134         133
         4         118         119         135         134
         4         119         120         136         135
         4         120         121         137         136
         4         121         122         138         137
         4         122         123         139         138
         4         123         124         140         139
         4         124         125         141         140
         4         125         126         142         141
         4         126         127         143         142
         4         128         129         145         144
         4         129         130         146         145
         4         130         131         147         146
         4         131         132         148         147
         4         132         133         149         148
         4         133         134         150         149
         4         134         135         151         150
         4         135         136         152         151
         4         136         137         153         152
         4         137         138         154         153
         4         138         139         155         154
         4         139         140         156         155
         4         140         141         157         156
         4         141         142         158         157
         4         142         143         159         158
         4         144         145         161         160
         4         145         146         162         161
         4         146         147         163         162
         4         147         148         164         163
         4         148         149         165         164
         4         149         150         166         165
         4         150         151         167         166
         4         151         152         168         167
         4         152         153         169         168
         4         153         154         170         169
         4         154         155         171         170
         4         155         156         172         171
         4         156         157         173         172
         4         157         158         174         173
         4         158         159         175         174
         4         160         161         177         176
         4         161         162         178         177
         4         162         163         179         178
         4         163         164         180         179
         4         164         165         181         180
         4         165         166         182         181
         4         166         167         183         182
         4         167         168         184         183
         4         168         169         185         184
         4         169         170         186         185
         4         170         171         187         186
         4         171         172         188         187
         4         172         173         189         188
         4         173         174         190         189
         4         174         175         191         190
         4         176         177         193         192
         4         177         178         194         193
         4         178         179         195         194
         4         179         180         196         195
         4         180         181         197         196
         4         181         182         198         197
         4         182         183         199         198
         4         183         184         200         199
         4         184         185         201         200
         4         185         186         202         201
         4         186         187         203         202
         4         187         188         204         203
         4         188         189         205         204
         4         189         190         206         205
         4         190         191         207         206
         4         192         193         209         208
         4         193         194         210         209
         4         194         195         211         210
         4         195         196         212         211
         4         196         197         213         212
         4         197         198         214         213
         4         198         199         215         214
         4         199         200         216         215
         4         200         201         217         216
         4         201         202         218         217
         4         202         203         219         218
         4         203         204         220         219
         4         204         205         221         220
         4         205         206         222         221
         4         206         207         223         222
         4         208         209         225         224
         4         209         210         226         225
         4         210         211         227         226
         4         211         212         228         227
         4         212         213         229         228
         4         213         214         230         229
         4         214         215         231         230
         4         215         216         232         231
         4         216         217         233         232
         4         217         218         234         233
         4         218         219         235         234
         4         219         220         236         235
         4         220         221         237         236
         4         221         222         238         237
         4         222         223         239         238
         4         224         225         241         240
         4         225         226         242         241
         4         226         227         243         242
         4         227         228         244         243
         4         228         229         245         244
         4         229         230         246         245
         4         230         231         247         246
         4         231         232         248         247
         4         232         233         249         248
         4         233         234         250         249
         4         234         235         251         250
         4         235         236         252         251
         4         236         237         253         252
         4         237         238         254         253
         4         238         239         255         254
         4         240         241         257         256
         4         241         242         258         257
         4         242         243         259         258
         4         243         244         260         259
         4         244         245         261         260
         4         245         246         262         261
         4         246         247         263         262
         4         247         248         264         263
         4         248         249         265         264
         4         249         250         266         265
         4         250         251         267         266
         4         251         252         268         267
         4         252         253         269         268
         4         253         254         270         269
         4         254         255         271         270
         4         256         257         273         272
         4         257         258         274         273
         4         258         259         275         274
         4         259         260         276         275
         4         260         261         277         276
         4         261         262         278         277
         4         262         263         279         278
         4         263         264         280         279
         4         264         265         281         280
         4         265         266         282         281
         4         266         267         283         282
         4         267         268         284         283
         4         268         269         285         284
         4         269         270         286         285
         4         270         271         287         286
         4         272         273         289         288
         4         273         274         290         289
         4         274         275         291         290
         4         275         276         292         291
         4         276         277         293         292
         4         277         278         294         293
         4         278         279         295         294
         4         279         280         296         295
         4         280         281         297         296
         4         281         282         298         297
         4         282         283         299         298
         4         283         284         300         299
         4         284         285         301         300
         4         285         286         302         301
         4         286         287         303         302
         4         288         289         305         304
         4         289         290         306         305
         4         290         291         307         306
         4         291         292         308         307
         4         292         293         309         308
         4         293         294         310         309
         4         294         295         311         310
         4         295         296         312         311
         4         296         297         313         312
         4         297         298         314         313
         4         298         299         315         314
         4         299         300         316         315
         4         300         301         317         316
         4         301         302         318         317
         4         302         303         319         318
         4         304         305         321         320
         4         305         306         322         321
         4         306         307         323         322
         4         307         308         324         323
         4         308         309         325         324
         4         309         310         326         325
         4         310         311         327         326
         4         311         312         328         327
         4         312         313         329         328
         4         313         314         330         329
         4         314         315         331         330
         4         315         316         332         331
         4         316         317         333         332
         4         317         318         334         333
         4         318         319         335         334
         4         320         321         337         336
         4         321         322         338         337
         4         322         323         339         338
         4         323         324         340         339
         4         324         325         341         340
         4         325         326         342         341
         4         326         327         343         342
         4         327         328         344         343
         4         328         329         345         344
         4         329         330         346         345
         4         330         331         347         346
         4         331         332         348         347
         4         332         333         349         348
         4         333         334         350         349
         4         334         335         351         350
         4         336         337         353         352
         4         337         338         354         353
         4         338         339         355         354
         4         339         340         356         355
         4         340         341         357         356
         4         341         342         358         357
         4         342         343         359         358
         4         343         344         360         359
         4         344         345         361         360
         4         345         346         362         361
         4         346         347         363         362
         4         347         348         364         363
         4         348         349         365         364
         4         349         350         366         365
         4         350         351         367         366
         4         352         353         369         368
         4         353         354         370         369
         4         354         355         371         370
         4         355         356         372         371
         4         356         357         373         372
         4         357         358         374         373
         4         358         359         375         374
         4         359         360         376         375
         4         360         361         377         376
         4         361         362         378         377
         4         362         363         379         378
         4         363         364         380         379
         4         364         365         381         380
         4         365         366         382         381
         4         366         367         383         382
         4         368         369         385         384
         4         369         370         386         385
         4         370         371         387         386
         4         371         372         388         387
         4         372         373         389         388
         4         373         374         390         389
         4         374         375         391         390
         4         375         376         392         391
         4         376         377         393         392
         4         377         378         394         393
         4         378         379         395         394
         4         379         380         396         395
         4         380         381         397         396
         4         381         382         398         397
         4         382         383         399         398
         4         384         385         401         400
         4         385         386         402         401
         4         386         387         403         402
         4         387         388         404         403
         4         388         389         405         404
         4         389         390         406         405
         4         390         391         407         406
         4         391         392         408         407
         4         392         393         409         408
         4         393         394         410         409
         4         394         395         411         410
         4         395         396         412         411
         4         396         397         413         412
         4         397         398         414         413
         4         398         399         415         414
         4         400         401         417         416
         4         401         402         418         417
         4         402         403         419         418
         4         403         404         420         419
         4         404         405         421         420
         4         405         406         422         421
         4         406         407         423         422
         4         407         408         424         423
         4         408         409         425         424
         4         409         410         426         425
         4         410         411         427         426
         4         411         412         428         427
         4         412         413         429         428
         4         413         414         430         429
         4         414         415         431         430
         4         416         417         433         432
         4         417         418         434         433
         4         418         419         435         434
         4         419         420         436         435
         4         420         421         437         436
         4         421         422         438         437
         4         422         423         439         438
         4         423         424         440         439
         4         424         425         441         440
         4         425         426         442         441
         4         426         427         443         442
         4         427         428         444         443
         4         428         429         445         444
         4         429         430         446         445
         4         430         431         447         446
         4         432         433         449         448
         4         433         434         450         449
         4         434         435         451         450
         4         435         436         452         451
         4         436         437         453         452
         4         437         438         454         453
         4         438         439         455         454
         4         439         440         456         455
         4         440         441         457         456
         4         441         442         458         457
         4         442         443         459         458
         4         443         444         460         459
         4         444         445         461         460
         4         445         446         462         461
         4         446         447         463         462
         4         448         449         465         464
         4         449         450         466         465
         4         450         451         467         466
         4         451         452         468         467
         4         452         453         469         468
         4         453         454         470         469
         4         454         455         471         470
         4         455         456         472         471
         4         456         457         473         472
         4         457         458         474         473
         4         458         459         475         474
         4         459         460         476         475
         4         460         461         477         476
         4         461         462         478         477
         4         462         463         479         478
         4         464         465         481         480
         4         465         466         482         481
         4         466         467         483         482
         4         467         468         484         483
         4         468         469         485         484
         4         469         470         486         485
         4         470         471         487         486
         4         471         472         488         487
         4         472         473         489         488
         4         473         474         490         489
         4         474         475         491         490
         4         475         476         492         491
         4         476         477         493         492
         4         477         478         494         493
         4         478         479         495         494
CELL_TYPES        450
9
9
9
9
9
9
9
9
9
9
9
9
9
9
9
9
9
9
9
9
9
9
9
9
9
9
9
9
9
9
9
9
9
9
9
9
9
9
9
9
9
9
9
9
9
9
9
9
9
9
9
9
9
9
9
9
9
9
9
9
9
9
9
9
9
9
9
9
9
9
9
9
9
9
9
9
9
9
9
9
9
9
9
9
9
9
9
9
9
9
9
9
9
9
9
9
9
9
9
9
9
9
9
9
9
9
9
9
9
9
9
9
9
9
9
9
9
9
9
9
9
9
9
9
9
9
9
9
9
9
9
9
9
9
9
9
9
9
9
9
9
9
9
9
9
9
9
9
9
9
9
9
9
9
9
9
9
9
9
9
9
9
9
9
9
9
9
9
9
9
9
9
9
9
9
9
9
9
9
9
9
9
9
9
9
9
9
9
9
9
9
9
9
9
9
9
9
9
9
9
9
9
9
9
9
9
9
9
9
9
9
9
9
9
9
9
9
9
9
9
9
9
9
9
9
9
9
9
9
9
9
9
9
9
9
9
9
9
9
9
9
9
9
9
9
9
9
9
9
9
9
9
9
9
9
9
9
9
9
9
9
9
9
9
9
9
9
9
9
9
9
9
9
9
9
9
9
9
9
9
9
9
9
9
9
9
9
9
9
9
9
9
9
9
9
9
9
9
9
9
9
9
9
9
9
9
9
9
9
9
9
9
9
9
9
9
9
9
9
9
9
9
9
9
9
9
9
9
9
9
9
9
9
9
9
9
9
9
9
9
9
9
9
9
9
9
9
9
9
9
9
9
9
9
9
9
9
9
9
9
9
9
9
9
9
9
9
9
9
9
9
9
9
9
9
9
9
9
9
9
9
9
9
9
9
9
9
9
9
9
9
9
9
9
9
9
9
9
9
9
9
9
9
9
9
9
9
9
9
9
9
9
9
9
9
9
9
9
9
9
9
9
9
9
9
9
9
9
9
9
9
9
9
9
9
9
9
9
9
9
9
9
9
9
9
9
9
9
9
9
POINT_DATA       496
SCALARS p double 
LOOKUP_TABLE default
   39786810.2870733     
   39780496.7649824     
   39761673.6444284     
   39730175.7025371     
   39685806.7288326     
   39628342.3466140     
   39557439.4224069     
   39483402.7954819     
   39417162.4272828     
   39358975.0494123     
   39308977.8594406     
   39267329.1947470     
   39234247.7801703     
   39210037.5700323     
   39195100.1615796     
   39189935.9699818     
   39747436.7951899     
   39741119.5819887     
   39722288.0939853     
   39690778.8219262     
   39646400.2223838     
   39588932.7256020     
   39518102.1223967     
   39444278.9287720     
   39378263.5310775     
   39320288.7117288     
   39270479.6015282     
   39228986.9459246     
   39196025.2926535     
   39171897.3993729     
   39157006.1691634     
   39151855.5616564     
   39629357.6433778     
   39623033.3688207     
   39604182.7385360     
   39572648.0192670     
   39528248.4454701     
   39470773.3597939     
   39400171.5805042     
   39326990.4308401     
   39261653.9307761     
   39204319.3204885     
   39155076.1515293     
   39114052.2055775     
   39081449.9092080     
   39057568.8879178     
   39042816.1835817     
   39037706.3795534     
   39432703.2525782     
   39426377.2005231     
   39407510.6369101     
   39375953.0039426     
   39331535.6632933     
   39274054.2398536     
   39203853.5601093     
   39131780.0879371     
   39067592.5927528     
   39011335.6923597     
   38963041.4124796     
   38922800.2461718     
   38890796.6358914     
   38867326.5315854     
   38852804.5482926     
   38847762.8944667     
   39157703.8612851     
   39151388.1800614     
   39132523.4479630     
   39100959.8768821     
   39056542.2010225     
   38999080.2887127     
   38929507.1258138     
   38859052.9189038     
   38796512.0596013     
   38741788.3959554     
   38694831.4807377     
   38655687.0546355     
   38624519.5295631     
   38601622.7179024     
   38587423.0176345     
   38582476.9910471     
   38804686.4675435     
   38798399.4779248     
   38779572.5979901     
   38748042.0723423     
   38703662.5081758     
   38646288.2495372     
   38577658.3065709     
   38509394.1103944     
   38449037.5306669     
   38396313.4760232     
   38351082.4114821     
   38313344.0427974     
   38283244.7368714     
   38261079.8418748     
   38247292.4251239     
   38242469.5288524     
   38374077.8179531     
   38367834.2613955     
   38349096.8546583     
   38317681.9052448     
   38273441.7849531     
   38216231.1654621     
   38149015.0266616     
   38083608.6493356     
   38025989.2328286     
   37975729.4280732     
   37932603.3535012     
   37896568.9928225     
   37867760.0757720     
   37846479.0608869     
   37833190.9908952     
   37828518.5186767     
   37866374.2190305     
   37860192.5641005     
   37841613.8928342     
   37810433.8542723     
   37766503.1453789     
   37709712.3307707     
   37644532.6483467     
   37582689.5056508     
   37528367.5529258     
   37481025.1456161     
   37440364.4812539     
   37406313.0164953     
   37379001.2027789     
   37358745.9170381     
   37346039.5836802     
   37341544.2333484     
   37282139.9429715     
   37276044.1436180     
   37257716.6017440     
   37226910.1961738     
   37183520.2014350     
   37127653.8056798     
   37065389.1200514     
   37007811.8928354     
   36957342.3108659     
   36913346.2345804     
   36875481.3327204     
   36843664.0827677     
   36818034.8619305     
   36798933.4730990     
   36786884.6900232     
   36782592.0155492     
   36621981.0455635     
   36616002.1539494     
   36598054.7556560     
   36567843.6583104     
   36525279.6035682     
   36471135.8041181     
   36413028.7670117     
   36360361.3268034     
   36314249.5897846     
   36273979.1412804     
   36239195.6028818     
   36209827.5040296     
   36186039.9529289     
   36168204.0348677     
   36156880.4133318     
   36152814.1458909     
   35886581.8627165     
   35880744.2407887     
   35863318.7992420     
   35834014.6562368     
   35792828.4487709     
   35741825.2298844     
   35689084.8891014     
   35641906.4174595     
   35600562.8458652     
   35564324.1907735     
   35532850.6871471     
   35506103.7014915     
   35484287.2366676     
   35467810.9174381     
   35457271.5245462     
   35453452.9043537     
   35076784.3861695     
   35071087.3446197     
   35054285.1807730     
   35026259.2098882     
   34987532.3023452     
   34941484.5467897     
   34895321.8155715     
   34854086.7340182     
   34817833.0523236     
   34785857.1525848     
   34757864.3153767     
   34733864.3216277     
   34714118.4307019     
   34699081.7461045     
   34689380.3102074     
   34685827.9182531     
   34193725.8584898     
   34188120.0765904     
   34171991.5465739     
   34145740.7457182     
   34111285.4093749     
   34072185.8280954     
   34033433.4686237     
   33998549.6246347     
   33967628.3790257     
   33940098.7171640     
   33915704.3765842     
   33894529.3867532     
   33876924.4853811     
   33863403.3193741     
   33854600.1468918     
   33851331.6191762     
   33238933.5232113     
   33233439.9861602     
   33217974.5700989     
   33194659.2475401     
   33166471.5005832     
   33135712.0007607     
   33105104.8832066     
   33076877.4282715     
   33051531.8310849     
   33028595.9152528     
   33007876.5227243     
   32989550.2743419     
   32974121.8066981     
   32962202.3739036     
   32954394.8375355     
   32951437.0126580     
   32214638.9018558     
   32209173.9922559     
   32195245.2051087     
   32176500.0547389     
   32155419.8190474     
   32133560.5437673     
   32111833.4137432     
   32090848.0306886     
   32071125.1513624     
   32052906.4216617     
   32035907.0539473     
   32020419.5820514     
   32007151.8541724     
   31996885.0284313     
   31990284.9118536     
   31987715.4497046     
   31123302.1062267     
   31119048.1952960     
   31108330.4460359     
   31094659.4587910     
   31080594.1437120     
   31067442.7709944     
   31054928.6213621     
   31042137.1556752     
   31028856.3046032     
   31015285.2028029     
   31001736.8736393     
   30988837.2990900     
   30977556.8073654     
   30968794.6540492     
   30963478.2248162     
   30962018.3749299     
   29971118.4722922     
   29968028.2527681     
   29960583.2325679     
   29952113.3030002     
   29944866.7862283     
   29940159.7054363     
   29936940.4367988     
   29932709.8390633     
   29926363.2053639     
   29917999.9422050     
   29908313.0326532     
   29898325.8264616     
   29889056.6462586     
   29881426.1016117     
   29876216.5099826     
   29874502.8260482     
   28762128.3746476     
   28760305.1622204     
   28756251.7972888     
   28752506.8465781     
   28751715.9441195     
   28755273.0651420     
   28761143.0693134     
   28765324.2079680     
   28765753.6091329     
   28762720.3430611     
   28757216.6714272     
   28750259.7240033     
   28742845.0250565     
   28735916.7932253     
   28730615.8221487     
   28728558.8982036     
   27500812.5816190     
   27499925.4816399     
   27498810.8047120     
   27499727.0802063     
   27505097.4787027     
   27516454.0960905     
   27530983.8291551     
   27542964.6832939     
   27549986.1480471     
   27552544.6988471     
   27551463.4516882     
   27547653.5245966     
   27542097.2910871     
   27535968.6903338     
   27530837.7398460     
   27528764.0949845     
   26190206.8057486     
   26190271.4116943     
   26192006.9946104     
   26197449.3386494     
   26208757.8899429     
   26227454.0154801     
   26249806.4186423     
   26268816.8009842     
   26282056.6148510     
   26290018.4641141     
   26293316.9829168     
   26292727.8672336     
   26289281.8103609     
   26284377.2825784     
   26279857.2658952     
   26277979.7672991     
   24834039.6791865     
   24835128.9309604     
   24839712.0363086     
   24849550.0955241     
   24866502.2531039     
   24891977.8778261     
   24921204.4834576     
   24946386.6401537     
   24965290.3334864     
   24978266.8615871     
   24985754.0098568     
   24988443.3154971     
   24987394.3842244     
   24984106.0675132     
   24980513.6420293     
   24978940.7748800     
   23436693.9076216     
   23438825.8810110     
   23446205.8574671     
   23460218.2399625     
   23482386.1735605     
   23513913.8444466     
   23549051.1351452     
   23579520.5388334     
   23603407.9975429     
   23620887.6065061     
   23632275.4326498     
   23638196.8913596     
   23639687.6873597     
   23638230.7306668     
   23635742.4303589     
   23634538.7095044     
   22003090.8572225     
   22006235.1298194     
   22016249.7345337     
   22034063.8470319     
   22060838.7528868     
   22097480.0020304     
   22137499.3898733     
   22172355.4808113     
   22200441.5998013     
   22221809.2955239     
   22236684.5086211     
   22245621.2128519     
   22249583.8414349     
   22249975.7095041     
   22248636.6281382     
   22247821.6611830     
   20538673.6976750     
   20542752.1317890     
   20555114.3218144     
   20576169.1302711     
   20606696.2787717     
   20647296.0265981     
   20691016.6213711     
   20729248.8316940     
   20760633.9855475     
   20785138.1064487     
   20802920.2908299     
   20814455.6270725     
   20820610.9306986     
   20822682.4550983     
   20822408.7051841     
   20821957.8009192     
   19049400.0175369     
   19054292.0750550     
   19068584.6596082     
   19092103.4393113     
   19125226.4190251     
   19168315.2159578     
   19214318.1650498     
   19254733.7909321     
   19288331.2084438     
   19315026.4969286     
   19334931.4379981     
   19348442.0691373     
   19356314.3339144     
   19359725.8899370     
   19360311.7036474     
   19360158.1913375     
   17541753.2819440     
   17547295.9607866     
   17562958.2775565     
   17587916.1506160     
   17622123.6029686     
   17665792.3059632     
   17712300.9963584     
   17753435.3663289     
   17787882.9268617     
   17815563.1587624     
   17836566.2579039     
   17851214.9308256     
   17860144.3491426     
   17864406.6139249     
   17865542.0089185     
   17865584.3568151     
   16022772.3345324     
   16028744.6618645     
   16045029.6413129     
   16070104.6357454     
   16103474.2742498     
   16145247.8998421     
   16189973.7422309     
   16229964.3390843     
   16263533.0743588     
   16290664.3269165     
   16311462.1540092     
   16326178.6098061     
   16335330.4067741     
   16339835.3168067     
   16341139.1725097     
   16341252.9245657     
   14500107.0224804     
   14506184.7851306     
   14522046.5916731     
   14545509.3802348     
   14575678.5599576     
   14612462.1545034     
   14652376.4457720     
   14688775.2306372     
   14719273.2095582     
   14743962.6008018     
   14762917.7391574     
   14776369.4824849     
   14784745.1742060     
   14788827.4997939     
   14789916.0050423     
   14789985.6072153     
   12982132.8342903     
   12987790.0227166     
   13001642.8628641     
   13021104.9917251     
   13045157.3743649     
   13073564.5401690     
   13104570.7201984     
   13133930.3647118     
   13158728.6659826     
   13178617.1861402     
   13193731.1112753     
   13204292.6342481     
   13210790.5428121     
   13213834.4393105     
   13214427.9631723     
   13214387.9428276     
   11478210.6843273     
   11482521.0706941     
   11491716.5779037     
   11503750.8467490     
   11518040.5935750     
   11534353.0989951     
   11552219.2304696     
   11569461.4187482     
   11584670.7894028     
   11597115.4691333     
   11605862.4856896     
   11611765.6561591     
   11615368.3388925     
   11616964.6035701     
   11616980.1147435     
   11616946.8384238     
   10000000.0000000     
   10000000.0000000     
   10000000.0000000     
   10000000.0000000     
   10000000.0000000     
   10000000.0000000     
   10000000.0000000     
   10000000.0000000     
   10000000.0000000     
   10000000.0000000     
   10000000.0000000     
   10000000.0000000     
   10000000.0000000     
  10000000.00000000     
   10000000.0000000     
   10000000.0000000     
VECTORS u double 
    0.00000E+00        -0.25653E-01         0.00000E+00
    0.00000E+00        -0.23628E-01         0.00000E+00
    0.00000E+00        -0.21656E-01         0.00000E+00
    0.00000E+00        -0.19742E-01         0.00000E+00
    0.00000E+00        -0.17886E-01         0.00000E+00
    0.00000E+00        -0.16092E-01         0.00000E+00
    0.00000E+00        -0.14358E-01         0.00000E+00
    0.00000E+00        -0.12674E-01         0.00000E+00
    0.00000E+00        -0.11010E-01         0.00000E+00
    0.00000E+00        -0.93671E-02         0.00000E+00
    0.00000E+00        -0.77439E-02         0.00000E+00
    0.00000E+00        -0.61422E-02         0.00000E+00
    0.00000E+00        -0.45639E-02         0.00000E+00
    0.00000E+00        -0.30117E-02         0.00000E+00
    0.00000E+00        -0.14891E-02         0.00000E+00
    0.00000E+00         0.00000E+00         0.00000E+00
    0.11034E-02        -0.25694E-01         0.00000E+00
    0.10190E-02        -0.23668E-01         0.00000E+00
    0.93201E-03        -0.21695E-01         0.00000E+00
    0.84357E-03        -0.19779E-01         0.00000E+00
    0.75500E-03        -0.17922E-01         0.00000E+00
    0.66785E-03        -0.16125E-01         0.00000E+00
    0.58377E-03        -0.14389E-01         0.00000E+00
    0.50503E-03        -0.12703E-01         0.00000E+00
    0.43232E-03        -0.11036E-01         0.00000E+00
    0.36444E-03        -0.93897E-02         0.00000E+00
    0.30025E-03        -0.77631E-02         0.00000E+00
    0.23867E-03        -0.61578E-02         0.00000E+00
    0.17873E-03        -0.45758E-02         0.00000E+00
    0.11952E-03        -0.30198E-02         0.00000E+00
    0.60210E-04        -0.14932E-02         0.00000E+00
    0.00000E+00         0.00000E+00         0.00000E+00
    0.21991E-02        -0.25818E-01         0.00000E+00
    0.20303E-02        -0.23788E-01         0.00000E+00
    0.18566E-02        -0.21811E-01         0.00000E+00
    0.16800E-02        -0.19891E-01         0.00000E+00
    0.15032E-02        -0.18029E-01         0.00000E+00
    0.13295E-02        -0.16227E-01         0.00000E+00
    0.11620E-02        -0.14484E-01         0.00000E+00
    0.10054E-02        -0.12789E-01         0.00000E+00
    0.86076E-03        -0.11114E-01         0.00000E+00
    0.72572E-03        -0.94575E-02         0.00000E+00
    0.59796E-03        -0.78207E-02         0.00000E+00
    0.47537E-03        -0.62048E-02         0.00000E+00
    0.35603E-03        -0.46117E-02         0.00000E+00
    0.23811E-03        -0.30441E-02         0.00000E+00
    0.11996E-03        -0.15056E-02         0.00000E+00
    0.00000E+00         0.00000E+00         0.00000E+00
    0.32796E-02        -0.26026E-01         0.00000E+00
    0.30264E-02        -0.23988E-01         0.00000E+00
    0.27662E-02        -0.22005E-01         0.00000E+00
    0.25020E-02        -0.20077E-01         0.00000E+00
    0.22379E-02        -0.18207E-01         0.00000E+00
    0.19788E-02        -0.16396E-01         0.00000E+00
    0.17294E-02        -0.14642E-01         0.00000E+00
    0.14966E-02        -0.12933E-01         0.00000E+00
    0.12815E-02        -0.11243E-01         0.00000E+00
    0.10807E-02        -0.95703E-02         0.00000E+00
    0.89062E-03        -0.79166E-02         0.00000E+00
    0.70818E-03        -0.62828E-02         0.00000E+00
    0.53048E-03        -0.46712E-02         0.00000E+00
    0.35486E-03        -0.30845E-02         0.00000E+00
    0.17881E-03        -0.15261E-02         0.00000E+00
    0.00000E+00         0.00000E+00         0.00000E+00
    0.43372E-02        -0.26316E-01         0.00000E+00
    0.39997E-02        -0.24269E-01         0.00000E+00
    0.36532E-02        -0.22276E-01         0.00000E+00
    0.33022E-02        -0.20338E-01         0.00000E+00
    0.29522E-02        -0.18457E-01         0.00000E+00
    0.26097E-02        -0.16633E-01         0.00000E+00
    0.22807E-02        -0.14864E-01         0.00000E+00
    0.19741E-02        -0.13135E-01         0.00000E+00
    0.16909E-02        -0.11423E-01         0.00000E+00
    0.14263E-02        -0.97280E-02         0.00000E+00
    0.11758E-02        -0.80503E-02         0.00000E+00
    0.93519E-03        -0.63918E-02         0.00000E+00
    0.70070E-03        -0.47543E-02         0.00000E+00
    0.46884E-03        -0.31409E-02         0.00000E+00
    0.23631E-03        -0.15547E-02         0.00000E+00
    0.00000E+00         0.00000E+00         0.00000E+00
    0.53643E-02        -0.26689E-01         0.00000E+00
    0.49423E-02        -0.24630E-01         0.00000E+00
    0.45100E-02        -0.22625E-01         0.00000E+00
    0.40733E-02        -0.20674E-01         0.00000E+00
    0.36394E-02        -0.18779E-01         0.00000E+00
    0.32160E-02        -0.16938E-01         0.00000E+00
    0.28109E-02        -0.15149E-01         0.00000E+00
    0.24337E-02        -0.13394E-01         0.00000E+00
    0.20854E-02        -0.11654E-01         0.00000E+00
    0.17597E-02        -0.99299E-02         0.00000E+00
    0.14511E-02        -0.82217E-02         0.00000E+00
    0.11546E-02        -0.65312E-02         0.00000E+00
    0.86534E-03        -0.48607E-02         0.00000E+00
    0.57917E-03        -0.32130E-02         0.00000E+00
    0.29201E-03        -0.15914E-02         0.00000E+00
    0.00000E+00         0.00000E+00         0.00000E+00
    0.63530E-02        -0.27147E-01         0.00000E+00
    0.58463E-02        -0.25073E-01         0.00000E+00
    0.53288E-02        -0.23053E-01         0.00000E+00
    0.48079E-02        -0.21086E-01         0.00000E+00
    0.42926E-02        -0.19173E-01         0.00000E+00
    0.37920E-02        -0.17311E-01         0.00000E+00
    0.33150E-02        -0.15496E-01         0.00000E+00
    0.28714E-02        -0.13709E-01         0.00000E+00
    0.24616E-02        -0.11936E-01         0.00000E+00
    0.20781E-02        -0.10176E-01         0.00000E+00
    0.17144E-02        -0.84300E-02         0.00000E+00
    0.13645E-02        -0.67007E-02         0.00000E+00
    0.10231E-02        -0.49899E-02         0.00000E+00
    0.68498E-03        -0.33006E-02         0.00000E+00
    0.34549E-03        -0.16359E-02         0.00000E+00
    0.00000E+00         0.00000E+00         0.00000E+00
    0.72954E-02        -0.27688E-01         0.00000E+00
    0.67039E-02        -0.25597E-01         0.00000E+00
    0.61021E-02        -0.23560E-01         0.00000E+00
    0.54993E-02        -0.21575E-01         0.00000E+00
    0.49059E-02        -0.19640E-01         0.00000E+00
    0.43323E-02        -0.17752E-01         0.00000E+00
    0.37884E-02        -0.15905E-01         0.00000E+00
    0.32835E-02        -0.14081E-01         0.00000E+00
    0.28165E-02        -0.12267E-01         0.00000E+00
    0.23789E-02        -0.10464E-01         0.00000E+00
    0.19634E-02        -0.86746E-02         0.00000E+00
    0.15633E-02        -0.68996E-02         0.00000E+00
    0.11726E-02        -0.51416E-02         0.00000E+00
    0.78540E-03        -0.34033E-02         0.00000E+00
    0.39630E-03        -0.16882E-02         0.00000E+00
    0.00000E+00         0.00000E+00         0.00000E+00
    0.81832E-02        -0.28314E-01         0.00000E+00
    0.75070E-02        -0.26205E-01         0.00000E+00
    0.68225E-02        -0.24147E-01         0.00000E+00
    0.61409E-02        -0.22140E-01         0.00000E+00
    0.54738E-02        -0.20179E-01         0.00000E+00
    0.48322E-02        -0.18259E-01         0.00000E+00
    0.42270E-02        -0.16375E-01         0.00000E+00
    0.36666E-02        -0.14506E-01         0.00000E+00
    0.31471E-02        -0.12646E-01         0.00000E+00
    0.26597E-02        -0.10795E-01         0.00000E+00
    0.21961E-02        -0.89544E-02         0.00000E+00
    0.17494E-02        -0.71271E-02         0.00000E+00
    0.13126E-02        -0.53150E-02         0.00000E+00
    0.87953E-03        -0.35209E-02         0.00000E+00
    0.44400E-03        -0.17479E-02         0.00000E+00
    0.00000E+00         0.00000E+00         0.00000E+00
    0.90078E-02        -0.29025E-01         0.00000E+00
    0.82479E-02        -0.26895E-01         0.00000E+00
    0.74835E-02        -0.24815E-01         0.00000E+00
    0.67272E-02        -0.22782E-01         0.00000E+00
    0.59915E-02        -0.20790E-01         0.00000E+00
    0.52879E-02        -0.18833E-01         0.00000E+00
    0.46277E-02        -0.16904E-01         0.00000E+00
    0.40177E-02        -0.14985E-01         0.00000E+00
    0.34509E-02        -0.13072E-01         0.00000E+00
    0.29181E-02        -0.11166E-01         0.00000E+00
    0.24106E-02        -0.92685E-02         0.00000E+00
    0.19209E-02        -0.73824E-02         0.00000E+00
    0.14418E-02        -0.55096E-02         0.00000E+00
    0.96647E-03        -0.36527E-02         0.00000E+00
    0.48810E-03        -0.18150E-02         0.00000E+00
    0.00000E+00         0.00000E+00         0.00000E+00
    0.97596E-02        -0.29821E-01         0.00000E+00
    0.89187E-02        -0.27668E-01         0.00000E+00
    0.80787E-02        -0.25563E-01         0.00000E+00
    0.72531E-02        -0.23500E-01         0.00000E+00
    0.64548E-02        -0.21471E-01         0.00000E+00
    0.56960E-02        -0.19470E-01         0.00000E+00
    0.49880E-02        -0.17490E-01         0.00000E+00
    0.43342E-02        -0.15515E-01         0.00000E+00
    0.37255E-02        -0.13543E-01         0.00000E+00
    0.31520E-02        -0.11576E-01         0.00000E+00
    0.26050E-02        -0.96156E-02         0.00000E+00
    0.20764E-02        -0.76644E-02         0.00000E+00
    0.15589E-02        -0.57245E-02         0.00000E+00
    0.10452E-02        -0.37985E-02         0.00000E+00
    0.52807E-03        -0.18892E-02         0.00000E+00
    0.00000E+00         0.00000E+00         0.00000E+00
    0.10430E-01        -0.30698E-01         0.00000E+00
    0.95117E-02        -0.28522E-01         0.00000E+00
    0.86022E-02        -0.26390E-01         0.00000E+00
    0.77140E-02        -0.24293E-01         0.00000E+00
    0.68602E-02        -0.22222E-01         0.00000E+00
    0.60537E-02        -0.20170E-01         0.00000E+00
    0.53051E-02        -0.18131E-01         0.00000E+00
    0.46139E-02        -0.16094E-01         0.00000E+00
    0.39686E-02        -0.14058E-01         0.00000E+00
    0.33594E-02        -0.12024E-01         0.00000E+00
    0.27774E-02        -0.99945E-02         0.00000E+00
    0.22142E-02        -0.79723E-02         0.00000E+00
    0.16625E-02        -0.59591E-02         0.00000E+00
    0.11147E-02        -0.39576E-02         0.00000E+00
    0.56326E-03        -0.19702E-02         0.00000E+00
    0.00000E+00         0.00000E+00         0.00000E+00
    0.11009E-01        -0.31655E-01         0.00000E+00
    0.10019E-01        -0.29455E-01         0.00000E+00
    0.90469E-02        -0.27293E-01         0.00000E+00
    0.81047E-02        -0.25159E-01         0.00000E+00
    0.72049E-02        -0.23041E-01         0.00000E+00
    0.63597E-02        -0.20931E-01         0.00000E+00
    0.55772E-02        -0.18826E-01         0.00000E+00
    0.48545E-02        -0.16721E-01         0.00000E+00
    0.41784E-02        -0.14614E-01         0.00000E+00
    0.35385E-02        -0.12508E-01         0.00000E+00
    0.29260E-02        -0.10404E-01         0.00000E+00
    0.23328E-02        -0.83049E-02         0.00000E+00
    0.17511E-02        -0.62127E-02         0.00000E+00
    0.11736E-02        -0.41296E-02         0.00000E+00
    0.59283E-03        -0.20580E-02         0.00000E+00
    0.00000E+00         0.00000E+00         0.00000E+00
    0.11491E-01        -0.32687E-01         0.00000E+00
    0.10432E-01        -0.30461E-01         0.00000E+00
    0.94045E-02        -0.28269E-01         0.00000E+00
    0.84192E-02        -0.26095E-01         0.00000E+00
    0.74866E-02        -0.23924E-01         0.00000E+00
    0.66136E-02        -0.21750E-01         0.00000E+00
    0.58043E-02        -0.19572E-01         0.00000E+00
    0.50542E-02        -0.17393E-01         0.00000E+00
    0.43529E-02        -0.15211E-01         0.00000E+00
    0.36873E-02        -0.13027E-01         0.00000E+00
    0.30492E-02        -0.10843E-01         0.00000E+00
    0.24304E-02        -0.86618E-02         0.00000E+00
    0.18231E-02        -0.64846E-02         0.00000E+00
    0.12204E-02        -0.43143E-02         0.00000E+00
    0.61556E-03        -0.21523E-02         0.00000E+00
    0.00000E+00         0.00000E+00         0.00000E+00
    0.11867E-01        -0.33794E-01         0.00000E+00
    0.10743E-01        -0.31539E-01         0.00000E+00
    0.96674E-02        -0.29313E-01         0.00000E+00
    0.86528E-02        -0.27093E-01         0.00000E+00
    0.77028E-02        -0.24865E-01         0.00000E+00
    0.68147E-02        -0.22623E-01         0.00000E+00
    0.59860E-02        -0.20369E-01         0.00000E+00
    0.52143E-02        -0.18109E-01         0.00000E+00
    0.44903E-02        -0.15846E-01         0.00000E+00
    0.38040E-02        -0.13580E-01         0.00000E+00
    0.31453E-02        -0.11311E-01         0.00000E+00
    0.25056E-02        -0.90421E-02         0.00000E+00
    0.18770E-02        -0.67751E-02         0.00000E+00
    0.12532E-02        -0.45117E-02         0.00000E+00
    0.62947E-03        -0.22536E-02         0.00000E+00
    0.00000E+00         0.00000E+00         0.00000E+00
    0.12131E-01        -0.34974E-01         0.00000E+00
    0.10945E-01        -0.32689E-01         0.00000E+00
    0.98326E-02        -0.30417E-01         0.00000E+00
    0.88037E-02        -0.28141E-01         0.00000E+00
    0.78500E-02        -0.25850E-01         0.00000E+00
    0.69588E-02        -0.23542E-01         0.00000E+00
    0.61223E-02        -0.21214E-01         0.00000E+00
    0.53363E-02        -0.18874E-01         0.00000E+00
    0.45953E-02        -0.16524E-01         0.00000E+00
    0.38918E-02        -0.14169E-01         0.00000E+00
    0.32154E-02        -0.11809E-01         0.00000E+00
    0.25573E-02        -0.94470E-02         0.00000E+00
    0.19108E-02        -0.70852E-02         0.00000E+00
    0.12701E-02        -0.47243E-02         0.00000E+00
    0.63130E-03        -0.23643E-02         0.00000E+00
    0.00000E+00         0.00000E+00         0.00000E+00
    0.12273E-01        -0.36230E-01         0.00000E+00
    0.11037E-01        -0.33897E-01         0.00000E+00
    0.99078E-02        -0.31567E-01         0.00000E+00
    0.88758E-02        -0.29227E-01         0.00000E+00
    0.79253E-02        -0.26871E-01         0.00000E+00
    0.70398E-02        -0.24496E-01         0.00000E+00
    0.62072E-02        -0.22097E-01         0.00000E+00
    0.54205E-02        -0.19678E-01         0.00000E+00
    0.46739E-02        -0.17242E-01         0.00000E+00
    0.39605E-02        -0.14795E-01         0.00000E+00
    0.32718E-02        -0.12339E-01         0.00000E+00
    0.25999E-02        -0.98776E-02         0.00000E+00
    0.19389E-02        -0.74129E-02         0.00000E+00
    0.12851E-02        -0.49458E-02         0.00000E+00
    0.63783E-03        -0.24750E-02         0.00000E+00
    0.00000E+00         0.00000E+00         0.00000E+00
    0.12299E-01        -0.37545E-01         0.00000E+00
    0.11035E-01        -0.35150E-01         0.00000E+00
    0.98969E-02        -0.32752E-01         0.00000E+00
    0.88670E-02        -0.30344E-01         0.00000E+00
    0.79259E-02        -0.27920E-01         0.00000E+00
    0.70541E-02        -0.25476E-01         0.00000E+00
    0.62356E-02        -0.23006E-01         0.00000E+00
    0.54607E-02        -0.20509E-01         0.00000E+00
    0.47218E-02        -0.17989E-01         0.00000E+00
    0.40111E-02        -0.15448E-01         0.00000E+00
    0.33209E-02        -0.12893E-01         0.00000E+00
    0.26442E-02        -0.10327E-01         0.00000E+00
    0.19758E-02        -0.77513E-02         0.00000E+00
    0.13130E-02        -0.51697E-02         0.00000E+00
    0.65468E-03        -0.25843E-02         0.00000E+00
    0.00000E+00         0.00000E+00         0.00000E+00
    0.12215E-01        -0.38897E-01         0.00000E+00
    0.10933E-01        -0.36433E-01         0.00000E+00
    0.97943E-02        -0.33964E-01         0.00000E+00
    0.87741E-02        -0.31484E-01         0.00000E+00
    0.78499E-02        -0.28989E-01         0.00000E+00
    0.69993E-02        -0.26473E-01         0.00000E+00
    0.62041E-02        -0.23930E-01         0.00000E+00
    0.54526E-02        -0.21354E-01         0.00000E+00
    0.47344E-02        -0.18749E-01         0.00000E+00
    0.40399E-02        -0.16116E-01         0.00000E+00
    0.33606E-02        -0.13460E-01         0.00000E+00
    0.26893E-02        -0.10785E-01         0.00000E+00
    0.20206E-02        -0.80962E-02         0.00000E+00
    0.13510E-02        -0.53977E-02         0.00000E+00
    0.67775E-03        -0.26964E-02         0.00000E+00
    0.00000E+00         0.00000E+00         0.00000E+00
    0.12010E-01        -0.40268E-01         0.00000E+00
    0.10724E-01        -0.37732E-01         0.00000E+00
    0.95940E-02        -0.35191E-01         0.00000E+00
    0.85927E-02        -0.32637E-01         0.00000E+00
    0.76940E-02        -0.30067E-01         0.00000E+00
    0.68729E-02        -0.27477E-01         0.00000E+00
    0.61106E-02        -0.24857E-01         0.00000E+00
    0.53933E-02        -0.22201E-01         0.00000E+00
    0.47079E-02        -0.19510E-01         0.00000E+00
    0.40425E-02        -0.16784E-01         0.00000E+00
    0.33865E-02        -0.14029E-01         0.00000E+00
    0.27311E-02        -0.11247E-01         0.00000E+00
    0.20692E-02        -0.84444E-02         0.00000E+00
    0.13953E-02        -0.56295E-02         0.00000E+00
    0.70575E-03        -0.28111E-02         0.00000E+00
    0.00000E+00         0.00000E+00         0.00000E+00
    0.11677E-01        -0.41644E-01         0.00000E+00
    0.10399E-01        -0.39036E-01         0.00000E+00
    0.92903E-02        -0.36419E-01         0.00000E+00
    0.83182E-02        -0.33788E-01         0.00000E+00
    0.74546E-02        -0.31141E-01         0.00000E+00
    0.66726E-02        -0.28475E-01         0.00000E+00
    0.59529E-02        -0.25776E-01         0.00000E+00
    0.52801E-02        -0.23038E-01         0.00000E+00
    0.46385E-02        -0.20260E-01         0.00000E+00
    0.40137E-02        -0.17444E-01         0.00000E+00
    0.33925E-02        -0.14590E-01         0.00000E+00
    0.27632E-02        -0.11704E-01         0.00000E+00
    0.21158E-02        -0.87924E-02         0.00000E+00
    0.14423E-02        -0.58629E-02         0.00000E+00
    0.73745E-03        -0.29276E-02         0.00000E+00
    0.00000E+00         0.00000E+00         0.00000E+00
    0.11206E-01        -0.43009E-01         0.00000E+00
    0.99534E-02        -0.40326E-01         0.00000E+00
    0.88781E-02        -0.37633E-01         0.00000E+00
    0.79467E-02        -0.34924E-01         0.00000E+00
    0.71286E-02        -0.32197E-01         0.00000E+00
    0.63957E-02        -0.29452E-01         0.00000E+00
    0.57284E-02        -0.26672E-01         0.00000E+00
    0.51096E-02        -0.23851E-01         0.00000E+00
    0.45216E-02        -0.20988E-01         0.00000E+00
    0.39472E-02        -0.18083E-01         0.00000E+00
    0.33707E-02        -0.15136E-01         0.00000E+00
    0.27773E-02        -0.12152E-01         0.00000E+00
    0.21536E-02        -0.91355E-02         0.00000E+00
    0.14878E-02        -0.60954E-02         0.00000E+00
    0.77123E-03        -0.30446E-02         0.00000E+00
    0.00000E+00         0.00000E+00         0.00000E+00
    0.10592E-01        -0.44346E-01         0.00000E+00
    0.93801E-02        -0.41589E-01         0.00000E+00
    0.83529E-02        -0.38816E-01         0.00000E+00
    0.74748E-02        -0.36026E-01         0.00000E+00
    0.67132E-02        -0.33219E-01         0.00000E+00
    0.60394E-02        -0.30392E-01         0.00000E+00
    0.54338E-02        -0.27531E-01         0.00000E+00
    0.48775E-02        -0.24628E-01         0.00000E+00
    0.43511E-02        -0.21681E-01         0.00000E+00
    0.38353E-02        -0.18691E-01         0.00000E+00
    0.33121E-02        -0.15658E-01         0.00000E+00
    0.27639E-02        -0.12582E-01         0.00000E+00
    0.21741E-02        -0.94687E-02         0.00000E+00
    0.15261E-02        -0.63239E-02         0.00000E+00
    0.80475E-03        -0.31609E-02         0.00000E+00
    0.00000E+00         0.00000E+00         0.00000E+00
    0.98295E-02        -0.45639E-01         0.00000E+00
    0.86752E-02        -0.42804E-01         0.00000E+00
    0.77114E-02        -0.39952E-01         0.00000E+00
    0.68998E-02        -0.37080E-01         0.00000E+00
    0.62060E-02        -0.34189E-01         0.00000E+00
    0.56012E-02        -0.31280E-01         0.00000E+00
    0.50654E-02        -0.28336E-01         0.00000E+00
    0.45786E-02        -0.25352E-01         0.00000E+00
    0.41198E-02        -0.22326E-01         0.00000E+00
    0.36688E-02        -0.19258E-01         0.00000E+00
    0.32059E-02        -0.16145E-01         0.00000E+00
    0.27119E-02        -0.12988E-01         0.00000E+00
    0.21667E-02        -0.97862E-02         0.00000E+00
    0.15490E-02        -0.65450E-02         0.00000E+00
    0.83450E-03        -0.32752E-02         0.00000E+00
    0.00000E+00         0.00000E+00         0.00000E+00
    0.89130E-02        -0.46868E-01         0.00000E+00
    0.78353E-02        -0.43955E-01         0.00000E+00
    0.69515E-02        -0.41021E-01         0.00000E+00
    0.62201E-02        -0.38065E-01         0.00000E+00
    0.56054E-02        -0.35090E-01         0.00000E+00
    0.50784E-02        -0.32098E-01         0.00000E+00
    0.46192E-02        -0.29073E-01         0.00000E+00
    0.42066E-02        -0.26011E-01         0.00000E+00
    0.38193E-02        -0.22911E-01         0.00000E+00
    0.34371E-02        -0.19771E-01         0.00000E+00
    0.30401E-02        -0.16589E-01         0.00000E+00
    0.26079E-02        -0.13360E-01         0.00000E+00
    0.21184E-02        -0.10082E-01         0.00000E+00
    0.15456E-02        -0.67554E-02         0.00000E+00
    0.85480E-03        -0.33866E-02         0.00000E+00
    0.00000E+00         0.00000E+00         0.00000E+00
    0.78390E-02        -0.48013E-01         0.00000E+00
    0.68584E-02        -0.45021E-01         0.00000E+00
    0.60725E-02        -0.42003E-01         0.00000E+00
    0.54355E-02        -0.38962E-01         0.00000E+00
    0.49102E-02        -0.35902E-01         0.00000E+00
    0.44688E-02        -0.32827E-01         0.00000E+00
    0.40908E-02        -0.29724E-01         0.00000E+00
    0.37547E-02        -0.26589E-01         0.00000E+00
    0.34402E-02        -0.23422E-01         0.00000E+00
    0.31286E-02        -0.20220E-01         0.00000E+00
    0.28009E-02        -0.16979E-01         0.00000E+00
    0.24371E-02        -0.13692E-01         0.00000E+00
    0.20138E-02        -0.10351E-01         0.00000E+00
    0.15017E-02        -0.69509E-02         0.00000E+00
    0.85707E-03        -0.34930E-02         0.00000E+00
    0.00000E+00         0.00000E+00         0.00000E+00
    0.66040E-02        -0.49051E-01         0.00000E+00
    0.57439E-02        -0.45980E-01         0.00000E+00
    0.50755E-02        -0.42878E-01         0.00000E+00
    0.45472E-02        -0.39751E-01         0.00000E+00
    0.41204E-02        -0.36607E-01         0.00000E+00
    0.37698E-02        -0.33451E-01         0.00000E+00
    0.34752E-02        -0.30275E-01         0.00000E+00
    0.32154E-02        -0.27074E-01         0.00000E+00
    0.29725E-02        -0.23848E-01         0.00000E+00
    0.27305E-02        -0.20595E-01         0.00000E+00
    0.24733E-02        -0.17307E-01         0.00000E+00
    0.21827E-02        -0.13975E-01         0.00000E+00
    0.18356E-02        -0.10586E-01         0.00000E+00
    0.14006E-02        -0.71281E-02         0.00000E+00
    0.82712E-03        -0.35942E-02         0.00000E+00
    0.00000E+00         0.00000E+00         0.00000E+00
    0.52048E-02        -0.49957E-01         0.00000E+00
    0.44930E-02        -0.46807E-01         0.00000E+00
    0.39643E-02        -0.43620E-01         0.00000E+00
    0.35581E-02        -0.40408E-01         0.00000E+00
    0.32361E-02        -0.37182E-01         0.00000E+00
    0.29780E-02        -0.33952E-01         0.00000E+00
    0.27658E-02        -0.30711E-01         0.00000E+00
    0.25801E-02        -0.27454E-01         0.00000E+00
    0.24056E-02        -0.24181E-01         0.00000E+00
    0.22303E-02        -0.20887E-01         0.00000E+00
    0.20423E-02        -0.17564E-01         0.00000E+00
    0.18272E-02        -0.14202E-01         0.00000E+00
    0.15648E-02        -0.10782E-01         0.00000E+00
    0.12232E-02        -0.72839E-02         0.00000E+00
    0.74869E-03        -0.36902E-02         0.00000E+00
    0.00000E+00         0.00000E+00         0.00000E+00
    0.36378E-02        -0.50698E-01         0.00000E+00
    0.31105E-02        -0.47469E-01         0.00000E+00
    0.27447E-02        -0.44199E-01         0.00000E+00
    0.24715E-02        -0.40907E-01         0.00000E+00
    0.22574E-02        -0.37610E-01         0.00000E+00
    0.20883E-02        -0.34315E-01         0.00000E+00
    0.19548E-02        -0.31022E-01         0.00000E+00
    0.18391E-02        -0.27724E-01         0.00000E+00
    0.17288E-02        -0.24415E-01         0.00000E+00
    0.16158E-02        -0.21092E-01         0.00000E+00
    0.14937E-02        -0.17747E-01         0.00000E+00
    0.13535E-02        -0.14365E-01         0.00000E+00
    0.11805E-02        -0.10929E-01         0.00000E+00
    0.94820E-03        -0.74125E-02         0.00000E+00
    0.60329E-03        -0.37796E-02         0.00000E+00
    0.00000E+00         0.00000E+00         0.00000E+00
    0.18999E-02        -0.51227E-01         0.00000E+00
    0.16074E-02        -0.47920E-01         0.00000E+00
    0.14237E-02        -0.44575E-01         0.00000E+00
    0.12874E-02        -0.41223E-01         0.00000E+00
    0.11812E-02        -0.37875E-01         0.00000E+00
    0.10976E-02        -0.34535E-01         0.00000E+00
    0.10333E-02        -0.31204E-01         0.00000E+00
    0.98194E-03        -0.27877E-01         0.00000E+00
    0.93060E-03        -0.24550E-01         0.00000E+00
    0.87553E-03        -0.21212E-01         0.00000E+00
    0.81602E-03        -0.17853E-01         0.00000E+00
    0.74780E-03        -0.14461E-01         0.00000E+00
    0.66340E-03        -0.11019E-01         0.00000E+00
    0.54839E-03        -0.75006E-02         0.00000E+00
    0.36869E-03        -0.38581E-02         0.00000E+00
    0.00000E+00         0.00000E+00         0.00000E+00
    0.00000E+00        -0.51453E-01         0.00000E+00
    0.00000E+00        -0.48086E-01         0.00000E+00
    0.00000E+00        -0.44707E-01         0.00000E+00
    0.00000E+00        -0.41332E-01         0.00000E+00
    0.00000E+00        -0.37966E-01         0.00000E+00
    0.00000E+00        -0.34609E-01         0.00000E+00
    0.00000E+00        -0.31262E-01         0.00000E+00
    0.00000E+00        -0.27925E-01         0.00000E+00
    0.00000E+00        -0.24594E-01         0.00000E+00
    0.00000E+00        -0.21251E-01         0.00000E+00
    0.00000E+00        -0.17888E-01         0.00000E+00
    0.00000E+00        -0.14492E-01         0.00000E+00
    0.00000E+00        -0.11049E-01         0.00000E+00
    0.00000E+00        -0.75327E-02         0.00000E+00
    0.00000E+00        -0.38954E-02         0.00000E+00
    0.00000E+00         0.00000E+00         0.00000E+00
CELL_DATA        450
VECTORS vDarcy double 
    0.28103E-09        -0.45074E-10         0.00000E+00
    0.28106E-09        -0.13437E-09         0.00000E+00
    0.28113E-09        -0.22484E-09         0.00000E+00
    0.28120E-09        -0.31668E-09         0.00000E+00
    0.28123E-09        -0.41010E-09         0.00000E+00
    0.28098E-09        -0.50573E-09         0.00000E+00
    0.27995E-09        -0.52757E-09         0.00000E+00
    0.27838E-09        -0.47188E-09         0.00000E+00
    0.27681E-09        -0.41444E-09         0.00000E+00
    0.27537E-09        -0.35607E-09         0.00000E+00
    0.27413E-09        -0.29661E-09         0.00000E+00
    0.27314E-09        -0.23560E-09         0.00000E+00
    0.27241E-09        -0.17244E-09         0.00000E+00
    0.27194E-09        -0.10640E-09         0.00000E+00
    0.27172E-09        -0.36794E-10         0.00000E+00
    0.84277E-09        -0.45112E-10         0.00000E+00
    0.84284E-09        -0.13447E-09         0.00000E+00
    0.84298E-09        -0.22496E-09         0.00000E+00
    0.84312E-09        -0.31679E-09         0.00000E+00
    0.84321E-09        -0.41014E-09         0.00000E+00
    0.84240E-09        -0.50465E-09         0.00000E+00
    0.83927E-09        -0.52452E-09         0.00000E+00
    0.83452E-09        -0.46865E-09         0.00000E+00
    0.82978E-09        -0.41139E-09         0.00000E+00
    0.82544E-09        -0.35338E-09         0.00000E+00
    0.82172E-09        -0.29438E-09         0.00000E+00
    0.81875E-09        -0.23389E-09         0.00000E+00
    0.81656E-09        -0.17126E-09         0.00000E+00
    0.81517E-09        -0.10575E-09         0.00000E+00
    0.81451E-09        -0.36600E-10         0.00000E+00
    0.14035E-08        -0.45143E-10         0.00000E+00
    0.14036E-08        -0.13459E-09         0.00000E+00
    0.14037E-08        -0.22513E-09         0.00000E+00
    0.14038E-08        -0.31692E-09         0.00000E+00
    0.14038E-08        -0.41018E-09         0.00000E+00
    0.14024E-08        -0.50239E-09         0.00000E+00
    0.13970E-08        -0.51826E-09         0.00000E+00
    0.13888E-08        -0.46212E-09         0.00000E+00
    0.13808E-08        -0.40526E-09         0.00000E+00
    0.13736E-08        -0.34797E-09         0.00000E+00
    0.13673E-08        -0.28991E-09         0.00000E+00
    0.13624E-08        -0.23047E-09         0.00000E+00
    0.13587E-08        -0.16891E-09         0.00000E+00
    0.13564E-08        -0.10443E-09         0.00000E+00
    0.13553E-08        -0.36211E-10         0.00000E+00
    0.19626E-08        -0.45111E-10         0.00000E+00
    0.19625E-08        -0.13464E-09         0.00000E+00
    0.19625E-08        -0.22523E-09         0.00000E+00
    0.19624E-08        -0.31698E-09         0.00000E+00
    0.19623E-08        -0.41012E-09         0.00000E+00
    0.19600E-08        -0.49871E-09         0.00000E+00
    0.19519E-08        -0.50852E-09         0.00000E+00
    0.19402E-08        -0.45213E-09         0.00000E+00
    0.19287E-08        -0.39593E-09         0.00000E+00
    0.19184E-08        -0.33980E-09         0.00000E+00
    0.19097E-08        -0.28319E-09         0.00000E+00
    0.19027E-08        -0.22535E-09         0.00000E+00
    0.18976E-08        -0.16540E-09         0.00000E+00
    0.18944E-08        -0.10245E-09         0.00000E+00
    0.18929E-08        -0.35626E-10         0.00000E+00
    0.25192E-08        -0.44970E-10         0.00000E+00
    0.25189E-08        -0.13449E-09         0.00000E+00
    0.25186E-08        -0.22513E-09         0.00000E+00
    0.25183E-08        -0.31683E-09         0.00000E+00
    0.25178E-08        -0.40973E-09         0.00000E+00
    0.25141E-08        -0.49309E-09         0.00000E+00
    0.25028E-08        -0.49491E-09         0.00000E+00
    0.24871E-08        -0.43845E-09         0.00000E+00
    0.24721E-08        -0.38332E-09         0.00000E+00
    0.24587E-08        -0.32887E-09         0.00000E+00
    0.24474E-08        -0.27426E-09         0.00000E+00
    0.24385E-08        -0.21855E-09         0.00000E+00
    0.24321E-08        -0.16074E-09         0.00000E+00
    0.24279E-08        -0.99829E-10         0.00000E+00
    0.24260E-08        -0.34845E-10         0.00000E+00
    0.30728E-08        -0.44711E-10         0.00000E+00
    0.30722E-08        -0.13403E-09         0.00000E+00
    0.30714E-08        -0.22459E-09         0.00000E+00
    0.30704E-08        -0.31618E-09         0.00000E+00
    0.30693E-08        -0.40881E-09         0.00000E+00
    0.30636E-08        -0.48466E-09         0.00000E+00
    0.30483E-08        -0.47688E-09         0.00000E+00
    0.30282E-08        -0.42087E-09         0.00000E+00
    0.30095E-08        -0.36738E-09         0.00000E+00
    0.29931E-08        -0.31519E-09         0.00000E+00
    0.29794E-08        -0.26315E-09         0.00000E+00
    0.29687E-08        -0.21013E-09         0.00000E+00
    0.29608E-08        -0.15497E-09         0.00000E+00
    0.29558E-08        -0.96573E-10         0.00000E+00
    0.29535E-08        -0.33868E-10         0.00000E+00
    0.36227E-08        -0.44332E-10         0.00000E+00
    0.36218E-08        -0.13314E-09         0.00000E+00
    0.36203E-08        -0.22332E-09         0.00000E+00
    0.36183E-08        -0.31457E-09         0.00000E+00
    0.36156E-08        -0.40671E-09         0.00000E+00
    0.36068E-08        -0.47233E-09         0.00000E+00
    0.35867E-08        -0.45395E-09         0.00000E+00
    0.35621E-08        -0.39933E-09         0.00000E+00
    0.35398E-08        -0.34816E-09         0.00000E+00
    0.35205E-08        -0.29887E-09         0.00000E+00
    0.35045E-08        -0.24999E-09         0.00000E+00
    0.34920E-08        -0.20017E-09         0.00000E+00
    0.34829E-08        -0.14815E-09         0.00000E+00
    0.34771E-08        -0.92714E-10         0.00000E+00
    0.34743E-08        -0.32698E-10         0.00000E+00
    0.41685E-08        -0.43803E-10         0.00000E+00
    0.41672E-08        -0.13167E-09         0.00000E+00
    0.41648E-08        -0.22114E-09         0.00000E+00
    0.41615E-08        -0.31151E-09         0.00000E+00
    0.41562E-08        -0.40189E-09         0.00000E+00
    0.41424E-08        -0.45463E-09         0.00000E+00
    0.41166E-08        -0.42600E-09         0.00000E+00
    0.40875E-08        -0.37380E-09         0.00000E+00
    0.40617E-08        -0.32580E-09         0.00000E+00
    0.40397E-08        -0.28009E-09         0.00000E+00
    0.40216E-08        -0.23494E-09         0.00000E+00
    0.40075E-08        -0.18882E-09         0.00000E+00
    0.39973E-08        -0.14037E-09         0.00000E+00
    0.39908E-08        -0.88289E-10         0.00000E+00
    0.39877E-08        -0.31342E-10         0.00000E+00
    0.47098E-08        -0.43076E-10         0.00000E+00
    0.47079E-08        -0.12941E-09         0.00000E+00
    0.47043E-08        -0.21767E-09         0.00000E+00
    0.46991E-08        -0.30662E-09         0.00000E+00
    0.46899E-08        -0.39242E-09         0.00000E+00
    0.46689E-08        -0.42937E-09         0.00000E+00
    0.46364E-08        -0.39324E-09         0.00000E+00
    0.46032E-08        -0.34449E-09         0.00000E+00
    0.45742E-08        -0.30056E-09         0.00000E+00
    0.45498E-08        -0.25911E-09         0.00000E+00
    0.45299E-08        -0.21822E-09         0.00000E+00
    0.45145E-08        -0.17624E-09         0.00000E+00
    0.45033E-08        -0.13173E-09         0.00000E+00
    0.44962E-08        -0.83353E-10         0.00000E+00
    0.44927E-08        -0.29810E-10         0.00000E+00
    0.52462E-08        -0.42152E-10         0.00000E+00
    0.52437E-08        -0.12618E-09         0.00000E+00
    0.52384E-08        -0.21229E-09         0.00000E+00
    0.52302E-08        -0.29873E-09         0.00000E+00
    0.52139E-08        -0.37505E-09         0.00000E+00
    0.51835E-08        -0.39537E-09         0.00000E+00
    0.51446E-08        -0.35612E-09         0.00000E+00
    0.51078E-08        -0.31192E-09         0.00000E+00
    0.50763E-08        -0.27287E-09         0.00000E+00
    0.50500E-08        -0.23630E-09         0.00000E+00
    0.50287E-08        -0.20012E-09         0.00000E+00
    0.50122E-08        -0.16263E-09         0.00000E+00
    0.50003E-08        -0.12236E-09         0.00000E+00
    0.49925E-08        -0.77965E-10         0.00000E+00
    0.49888E-08        -0.28118E-10         0.00000E+00
    0.57765E-08        -0.41143E-10         0.00000E+00
    0.57736E-08        -0.12208E-09         0.00000E+00
    0.57667E-08        -0.20448E-09         0.00000E+00
    0.57532E-08        -0.28502E-09         0.00000E+00
    0.57266E-08        -0.34614E-09         0.00000E+00
    0.56854E-08        -0.35274E-09         0.00000E+00
    0.56406E-08        -0.31532E-09         0.00000E+00
    0.56010E-08        -0.27673E-09         0.00000E+00
    0.55675E-08        -0.24327E-09         0.00000E+00
    0.55398E-08        -0.21206E-09         0.00000E+00
    0.55175E-08        -0.18097E-09         0.00000E+00
    0.55002E-08        -0.14821E-09         0.00000E+00
    0.54876E-08        -0.11237E-09         0.00000E+00
    0.54793E-08        -0.72176E-10         0.00000E+00
    0.54753E-08        -0.26284E-10         0.00000E+00
    0.62987E-08        -0.40312E-10         0.00000E+00
    0.62958E-08        -0.11745E-09         0.00000E+00
    0.62869E-08        -0.19357E-09         0.00000E+00
    0.62652E-08        -0.26099E-09         0.00000E+00
    0.62251E-08        -0.30366E-09         0.00000E+00
    0.61737E-08        -0.30282E-09         0.00000E+00
    0.61245E-08        -0.27145E-09         0.00000E+00
    0.60827E-08        -0.23955E-09         0.00000E+00
    0.60476E-08        -0.21219E-09         0.00000E+00
    0.60188E-08        -0.18680E-09         0.00000E+00
    0.59958E-08        -0.16108E-09         0.00000E+00
    0.59780E-08        -0.13318E-09         0.00000E+00
    0.59648E-08        -0.10183E-09         0.00000E+00
    0.59562E-08        -0.65980E-10         0.00000E+00
    0.59519E-08        -0.24320E-10         0.00000E+00
    0.68096E-08        -0.39583E-10         0.00000E+00
    0.68067E-08        -0.11267E-09         0.00000E+00
    0.67937E-08        -0.17676E-09         0.00000E+00
    0.67607E-08        -0.22338E-09         0.00000E+00
    0.67085E-08        -0.24911E-09         0.00000E+00
    0.66496E-08        -0.24732E-09         0.00000E+00
    0.65966E-08        -0.22504E-09         0.00000E+00
    0.65529E-08        -0.20063E-09         0.00000E+00
    0.65165E-08        -0.17994E-09         0.00000E+00
    0.64869E-08        -0.16085E-09         0.00000E+00
    0.64635E-08        -0.14084E-09         0.00000E+00
    0.64454E-08        -0.11778E-09         0.00000E+00
    0.64319E-08        -0.90704E-10         0.00000E+00
    0.64225E-08        -0.59222E-10         0.00000E+00
    0.64178E-08        -0.22199E-10         0.00000E+00
    0.73048E-08        -0.39076E-10         0.00000E+00
    0.72991E-08        -0.10481E-09         0.00000E+00
    0.72772E-08        -0.14997E-09         0.00000E+00
    0.72354E-08        -0.17567E-09         0.00000E+00
    0.71782E-08        -0.18761E-09         0.00000E+00
    0.71146E-08        -0.18660E-09         0.00000E+00
    0.70570E-08        -0.17546E-09         0.00000E+00
    0.70110E-08        -0.16068E-09         0.00000E+00
    0.69740E-08        -0.14673E-09         0.00000E+00
    0.69438E-08        -0.13447E-09         0.00000E+00
    0.69203E-08        -0.12055E-09         0.00000E+00
    0.69023E-08        -0.10230E-09         0.00000E+00
    0.68887E-08        -0.79095E-10         0.00000E+00
    0.68784E-08        -0.51363E-10         0.00000E+00
    0.68726E-08        -0.19705E-10         0.00000E+00
    0.77778E-08        -0.34652E-10         0.00000E+00
    0.77619E-08        -0.87873E-10         0.00000E+00
    0.77322E-08        -0.11557E-09         0.00000E+00
    0.76890E-08        -0.12530E-09         0.00000E+00
    0.76328E-08        -0.12482E-09         0.00000E+00
    0.75688E-08        -0.12207E-09         0.00000E+00
    0.75066E-08        -0.12042E-09         0.00000E+00
    0.74543E-08        -0.11766E-09         0.00000E+00
    0.74146E-08        -0.11333E-09         0.00000E+00
    0.73856E-08        -0.10890E-09         0.00000E+00
    0.73640E-08        -0.10119E-09         0.00000E+00
    0.73476E-08        -0.87508E-10         0.00000E+00
    0.73350E-08        -0.67832E-10         0.00000E+00
    0.73250E-08        -0.42478E-10         0.00000E+00
    0.73164E-08        -0.14363E-10         0.00000E+00
    0.82109E-08        -0.26182E-10         0.00000E+00
    0.81949E-08        -0.64748E-10         0.00000E+00
    0.81645E-08        -0.78929E-10         0.00000E+00
    0.81216E-08        -0.75972E-10         0.00000E+00
    0.80671E-08        -0.63661E-10         0.00000E+00
    0.80038E-08        -0.56085E-10         0.00000E+00
    0.79400E-08        -0.60678E-10         0.00000E+00
    0.78847E-08        -0.69965E-10         0.00000E+00
    0.78413E-08        -0.78187E-10         0.00000E+00
    0.78088E-08        -0.82823E-10         0.00000E+00
    0.77846E-08        -0.81579E-10         0.00000E+00
    0.77669E-08        -0.73248E-10         0.00000E+00
    0.77556E-08        -0.58430E-10         0.00000E+00
    0.77511E-08        -0.37518E-10         0.00000E+00
    0.77516E-08        -0.11311E-10         0.00000E+00
    0.86144E-08        -0.17514E-10         0.00000E+00
    0.85976E-08        -0.40985E-10         0.00000E+00
    0.85686E-08        -0.43539E-10         0.00000E+00
    0.85287E-08        -0.28648E-10         0.00000E+00
    0.84762E-08        -0.40989E-11         0.00000E+00
    0.84142E-08         0.94481E-11         0.00000E+00
    0.83518E-08        -0.17629E-12         0.00000E+00
    0.82976E-08        -0.21091E-10         0.00000E+00
    0.82544E-08        -0.40620E-10         0.00000E+00
    0.82204E-08        -0.54142E-10         0.00000E+00
    0.81946E-08        -0.60392E-10         0.00000E+00
    0.81771E-08        -0.59463E-10         0.00000E+00
    0.81679E-08        -0.51889E-10         0.00000E+00
    0.81656E-08        -0.37460E-10         0.00000E+00
    0.81671E-08        -0.13438E-10         0.00000E+00
    0.89873E-08        -0.96596E-11         0.00000E+00
    0.89734E-08        -0.18419E-10         0.00000E+00
    0.89463E-08        -0.10081E-10         0.00000E+00
    0.89077E-08         0.16321E-10         0.00000E+00
    0.88579E-08         0.53152E-10         0.00000E+00
    0.87992E-08         0.72703E-10         0.00000E+00
    0.87405E-08         0.57600E-10         0.00000E+00
    0.86892E-08         0.26554E-10         0.00000E+00
    0.86458E-08        -0.16918E-11         0.00000E+00
    0.86100E-08        -0.23468E-10         0.00000E+00
    0.85830E-08        -0.38371E-10         0.00000E+00
    0.85651E-08        -0.46226E-10         0.00000E+00
    0.85555E-08        -0.46532E-10         0.00000E+00
    0.85520E-08        -0.37177E-10         0.00000E+00
    0.85513E-08        -0.14720E-10         0.00000E+00
    0.93372E-08        -0.29309E-11         0.00000E+00
    0.93236E-08         0.22126E-11         0.00000E+00
    0.92973E-08         0.22659E-10         0.00000E+00
    0.92601E-08         0.59435E-10         0.00000E+00
    0.92128E-08         0.10709E-09         0.00000E+00
    0.91588E-08         0.13143E-09         0.00000E+00
    0.91059E-08         0.11044E-09         0.00000E+00
    0.90587E-08         0.72201E-10         0.00000E+00
    0.90173E-08         0.37489E-10         0.00000E+00
    0.89824E-08         0.79013E-11         0.00000E+00
    0.89553E-08        -0.15676E-10         0.00000E+00
    0.89363E-08        -0.32079E-10         0.00000E+00
    0.89243E-08        -0.39316E-10         0.00000E+00
    0.89177E-08        -0.34390E-10         0.00000E+00
    0.89147E-08        -0.14079E-10         0.00000E+00
    0.96601E-08         0.41111E-11         0.00000E+00
    0.96464E-08         0.22513E-10         0.00000E+00
    0.96206E-08         0.54443E-10         0.00000E+00
    0.95850E-08         0.10069E-09         0.00000E+00
    0.95409E-08         0.15739E-09         0.00000E+00
    0.94923E-08         0.18378E-09         0.00000E+00
    0.94459E-08         0.15746E-09         0.00000E+00
    0.94037E-08         0.11453E-09         0.00000E+00
    0.93657E-08         0.74606E-10         0.00000E+00
    0.93330E-08         0.38431E-10         0.00000E+00
    0.93064E-08         0.74833E-11         0.00000E+00
    0.92861E-08        -0.16016E-10         0.00000E+00
    0.92718E-08        -0.29192E-10         0.00000E+00
    0.92626E-08        -0.28905E-10         0.00000E+00
    0.92581E-08        -0.12294E-10         0.00000E+00
    0.99518E-08         0.11475E-10         0.00000E+00
    0.99383E-08         0.42617E-10         0.00000E+00
    0.99136E-08         0.84965E-10         0.00000E+00
    0.98804E-08         0.13936E-09         0.00000E+00
    0.98405E-08         0.20308E-09         0.00000E+00
    0.97980E-08         0.22930E-09         0.00000E+00
    0.97582E-08         0.19827E-09         0.00000E+00
    0.97217E-08         0.15245E-09         0.00000E+00
    0.96880E-08         0.10851E-09         0.00000E+00
    0.96581E-08         0.67247E-10         0.00000E+00
    0.96328E-08         0.30678E-10         0.00000E+00
    0.96122E-08         0.15743E-11         0.00000E+00
    0.95966E-08        -0.16906E-10         0.00000E+00
    0.95861E-08        -0.21664E-10         0.00000E+00
    0.95807E-08        -0.98921E-11         0.00000E+00
    0.10208E-07         0.18792E-10         0.00000E+00
    0.10196E-07         0.61955E-10         0.00000E+00
    0.10173E-07         0.11336E-09         0.00000E+00
    0.10143E-07         0.17433E-09         0.00000E+00
    0.10109E-07         0.24282E-09         0.00000E+00
    0.10074E-07         0.26772E-09         0.00000E+00
    0.10041E-07         0.23270E-09         0.00000E+00
    0.10010E-07         0.18514E-09         0.00000E+00
    0.99818E-08         0.13839E-09         0.00000E+00
    0.99557E-08         0.93559E-10         0.00000E+00
    0.99326E-08         0.52931E-10         0.00000E+00
    0.99131E-08         0.19427E-10         0.00000E+00
    0.98977E-08        -0.37943E-11         0.00000E+00
    0.98869E-08        -0.13635E-10         0.00000E+00
    0.98813E-08        -0.71913E-11         0.00000E+00
    0.10426E-07         0.25720E-10         0.00000E+00
    0.10415E-07         0.79687E-10         0.00000E+00
    0.10396E-07         0.13842E-09         0.00000E+00
    0.10371E-07         0.20408E-09         0.00000E+00
    0.10344E-07         0.27510E-09         0.00000E+00
    0.10317E-07         0.29826E-09         0.00000E+00
    0.10292E-07         0.26032E-09         0.00000E+00
    0.10269E-07         0.21183E-09         0.00000E+00
    0.10246E-07         0.16339E-09         0.00000E+00
    0.10224E-07         0.11632E-09         0.00000E+00
    0.10205E-07         0.72922E-10         0.00000E+00
    0.10188E-07         0.36041E-10         0.00000E+00
    0.10174E-07         0.87747E-11         0.00000E+00
    0.10164E-07        -0.57450E-11         0.00000E+00
    0.10159E-07        -0.45090E-11         0.00000E+00
    0.10602E-07         0.31938E-10         0.00000E+00
    0.10593E-07         0.94906E-10         0.00000E+00
    0.10577E-07         0.15871E-09         0.00000E+00
    0.10560E-07         0.22665E-09         0.00000E+00
    0.10542E-07         0.29802E-09         0.00000E+00
    0.10526E-07         0.31952E-09         0.00000E+00
    0.10510E-07         0.28009E-09         0.00000E+00
    0.10495E-07         0.23143E-09         0.00000E+00
    0.10479E-07         0.18235E-09         0.00000E+00
    0.10464E-07         0.13423E-09         0.00000E+00
    0.10450E-07         0.89204E-10         0.00000E+00
    0.10437E-07         0.49962E-10         0.00000E+00
    0.10426E-07         0.19529E-10         0.00000E+00
    0.10418E-07         0.11115E-11         0.00000E+00
    0.10414E-07        -0.21527E-11         0.00000E+00
    0.10731E-07         0.37145E-10         0.00000E+00
    0.10725E-07         0.10664E-09         0.00000E+00
    0.10715E-07         0.17258E-09         0.00000E+00
    0.10707E-07         0.23972E-09         0.00000E+00
    0.10702E-07         0.30891E-09         0.00000E+00
    0.10698E-07         0.32941E-09         0.00000E+00
    0.10694E-07         0.29039E-09         0.00000E+00
    0.10689E-07         0.24231E-09         0.00000E+00
    0.10683E-07         0.19364E-09         0.00000E+00
    0.10676E-07         0.14568E-09         0.00000E+00
    0.10668E-07         0.10028E-09         0.00000E+00
    0.10660E-07         0.59835E-10         0.00000E+00
    0.10654E-07         0.27329E-10         0.00000E+00
    0.10649E-07         0.61298E-11         0.00000E+00
    0.10646E-07        -0.39589E-12         0.00000E+00
    0.10811E-07         0.40982E-10         0.00000E+00
    0.10808E-07         0.11371E-09         0.00000E+00
    0.10806E-07         0.17810E-09         0.00000E+00
    0.10809E-07         0.24056E-09         0.00000E+00
    0.10820E-07         0.30418E-09         0.00000E+00
    0.10833E-07         0.32482E-09         0.00000E+00
    0.10844E-07         0.28884E-09         0.00000E+00
    0.10852E-07         0.24217E-09         0.00000E+00
    0.10857E-07         0.19516E-09         0.00000E+00
    0.10860E-07         0.14884E-09         0.00000E+00
    0.10861E-07         0.10456E-09         0.00000E+00
    0.10860E-07         0.64385E-10         0.00000E+00
    0.10859E-07         0.31219E-10         0.00000E+00
    0.10857E-07         0.86860E-11         0.00000E+00
    0.10856E-07         0.55586E-12         0.00000E+00
    0.10836E-07         0.42879E-10         0.00000E+00
    0.10838E-07         0.11440E-09         0.00000E+00
    0.10846E-07         0.17275E-09         0.00000E+00
    0.10864E-07         0.22615E-09         0.00000E+00
    0.10894E-07         0.27963E-09         0.00000E+00
    0.10930E-07         0.30130E-09         0.00000E+00
    0.10960E-07         0.27194E-09         0.00000E+00
    0.10984E-07         0.22808E-09         0.00000E+00
    0.11005E-07         0.18449E-09         0.00000E+00
    0.11020E-07         0.14153E-09         0.00000E+00
    0.11031E-07         0.10029E-09         0.00000E+00
    0.11039E-07         0.62406E-10         0.00000E+00
    0.11043E-07         0.30575E-10         0.00000E+00
    0.11046E-07         0.85181E-11         0.00000E+00
    0.11047E-07         0.65285E-12         0.00000E+00
    0.10802E-07         0.41749E-10         0.00000E+00
    0.10812E-07         0.10573E-09         0.00000E+00
    0.10835E-07         0.15275E-09         0.00000E+00
    0.10872E-07         0.19296E-09         0.00000E+00
    0.10924E-07         0.23202E-09         0.00000E+00
    0.10987E-07         0.25243E-09         0.00000E+00
    0.11044E-07         0.23407E-09         0.00000E+00
    0.11090E-07         0.19684E-09         0.00000E+00
    0.11128E-07         0.15869E-09         0.00000E+00
    0.11159E-07         0.12128E-09         0.00000E+00
    0.11183E-07         0.85487E-10         0.00000E+00
    0.11200E-07         0.52951E-10         0.00000E+00
    0.11211E-07         0.25370E-10         0.00000E+00
    0.11216E-07         0.59883E-11         0.00000E+00
    0.11219E-07         0.10532E-12         0.00000E+00
    0.10704E-07         0.35455E-10         0.00000E+00
    0.10727E-07         0.81995E-10         0.00000E+00
    0.10771E-07         0.11206E-09         0.00000E+00
    0.10833E-07         0.13643E-09         0.00000E+00
    0.10912E-07         0.15914E-09         0.00000E+00
    0.11002E-07         0.17393E-09         0.00000E+00
    0.11093E-07         0.16586E-09         0.00000E+00
    0.11171E-07         0.14240E-09         0.00000E+00
    0.11232E-07         0.11509E-09         0.00000E+00
    0.11281E-07         0.84932E-10         0.00000E+00
    0.11321E-07         0.58607E-10         0.00000E+00
    0.11348E-07         0.35955E-10         0.00000E+00
    0.11364E-07         0.16518E-10         0.00000E+00
    0.11371E-07         0.21680E-11         0.00000E+00
    0.11373E-07        -0.26092E-12         0.00000E+00
    0.10530E-07         0.15330E-10         0.00000E+00
    0.10580E-07         0.32709E-10         0.00000E+00
    0.10656E-07         0.42812E-10         0.00000E+00
    0.10751E-07         0.50842E-10         0.00000E+00
    0.10861E-07         0.58043E-10         0.00000E+00
    0.10983E-07         0.63576E-10         0.00000E+00
    0.11109E-07         0.61359E-10         0.00000E+00
    0.11225E-07         0.54127E-10         0.00000E+00
    0.11324E-07         0.44290E-10         0.00000E+00
    0.11400E-07         0.31131E-10         0.00000E+00
    0.11452E-07         0.21010E-10         0.00000E+00
    0.11486E-07         0.12823E-10         0.00000E+00
    0.11505E-07         0.56816E-11         0.00000E+00
    0.11511E-07         0.55210E-13         0.00000E+00
    0.11511E-07        -0.11845E-12         0.00000E+00
POINT_DATA        496
VECTORS vDarcyNodal double 
    0.28102E-09        -0.45061E-10         0.00000E+00
    0.28104E-09        -0.89701E-10         0.00000E+00
    0.28109E-09        -0.17957E-09         0.00000E+00
    0.28116E-09        -0.27072E-09         0.00000E+00
    0.28123E-09        -0.36337E-09         0.00000E+00
    0.28124E-09        -0.45804E-09         0.00000E+00
    0.28072E-09        -0.51716E-09         0.00000E+00
    0.27919E-09        -0.50051E-09         0.00000E+00
    0.27757E-09        -0.44394E-09         0.00000E+00
    0.27604E-09        -0.38597E-09         0.00000E+00
    0.27469E-09        -0.32695E-09         0.00000E+00
    0.27357E-09        -0.26660E-09         0.00000E+00
    0.27271E-09        -0.20438E-09         0.00000E+00
    0.27211E-09        -0.13965E-09         0.00000E+00
    0.27178E-09        -0.71706E-10         0.00000E+00
    0.27168E-09        -0.36843E-10         0.00000E+00
    0.56188E-09        -0.45087E-10         0.00000E+00
    0.56191E-09        -0.89743E-10         0.00000E+00
    0.56199E-09        -0.17964E-09         0.00000E+00
    0.56211E-09        -0.27079E-09         0.00000E+00
    0.56221E-09        -0.36341E-09         0.00000E+00
    0.56223E-09        -0.45779E-09         0.00000E+00
    0.56115E-09        -0.51614E-09         0.00000E+00
    0.55807E-09        -0.49894E-09         0.00000E+00
    0.55482E-09        -0.44237E-09         0.00000E+00
    0.55176E-09        -0.38454E-09         0.00000E+00
    0.54905E-09        -0.32572E-09         0.00000E+00
    0.54680E-09        -0.26561E-09         0.00000E+00
    0.54508E-09        -0.20366E-09         0.00000E+00
    0.54389E-09        -0.13919E-09         0.00000E+00
    0.54322E-09        -0.71493E-10         0.00000E+00
    0.54302E-09        -0.36746E-10         0.00000E+00
    0.11231E-08        -0.45137E-10         0.00000E+00
    0.11231E-08        -0.89836E-10         0.00000E+00
    0.11232E-08        -0.17979E-09         0.00000E+00
    0.11234E-08        -0.27096E-09         0.00000E+00
    0.11235E-08        -0.36351E-09         0.00000E+00
    0.11235E-08        -0.45700E-09         0.00000E+00
    0.11213E-08        -0.51302E-09         0.00000E+00
    0.11150E-08        -0.49422E-09         0.00000E+00
    0.11084E-08        -0.43766E-09         0.00000E+00
    0.11022E-08        -0.38023E-09         0.00000E+00
    0.10968E-08        -0.32203E-09         0.00000E+00
    0.10923E-08        -0.26265E-09         0.00000E+00
    0.10888E-08        -0.20149E-09         0.00000E+00
    0.10865E-08        -0.13781E-09         0.00000E+00
    0.10851E-08        -0.70852E-10         0.00000E+00
    0.10847E-08        -0.36454E-10         0.00000E+00
    0.16831E-08        -0.45148E-10         0.00000E+00
    0.16830E-08        -0.89897E-10         0.00000E+00
    0.16830E-08        -0.17993E-09         0.00000E+00
    0.16831E-08        -0.27110E-09         0.00000E+00
    0.16831E-08        -0.36359E-09         0.00000E+00
    0.16830E-08        -0.45558E-09         0.00000E+00
    0.16793E-08        -0.50763E-09         0.00000E+00
    0.16695E-08        -0.48616E-09         0.00000E+00
    0.16595E-08        -0.42971E-09         0.00000E+00
    0.16501E-08        -0.37299E-09         0.00000E+00
    0.16419E-08        -0.31584E-09         0.00000E+00
    0.16351E-08        -0.25772E-09         0.00000E+00
    0.16300E-08        -0.19789E-09         0.00000E+00
    0.16264E-08        -0.13552E-09         0.00000E+00
    0.16244E-08        -0.69785E-10         0.00000E+00
    0.16238E-08        -0.35967E-10         0.00000E+00
    0.22410E-08        -0.45073E-10         0.00000E+00
    0.22408E-08        -0.89851E-10         0.00000E+00
    0.22406E-08        -0.17994E-09         0.00000E+00
    0.22405E-08        -0.27111E-09         0.00000E+00
    0.22403E-08        -0.36351E-09         0.00000E+00
    0.22398E-08        -0.45326E-09         0.00000E+00
    0.22342E-08        -0.49960E-09         0.00000E+00
    0.22205E-08        -0.47449E-09         0.00000E+00
    0.22067E-08        -0.41835E-09         0.00000E+00
    0.21941E-08        -0.36274E-09         0.00000E+00
    0.21831E-08        -0.30715E-09         0.00000E+00
    0.21741E-08        -0.25082E-09         0.00000E+00
    0.21672E-08        -0.19285E-09         0.00000E+00
    0.21625E-08        -0.13233E-09         0.00000E+00
    0.21598E-08        -0.68292E-10         0.00000E+00
    0.21590E-08        -0.35284E-10         0.00000E+00
    0.27961E-08        -0.44867E-10         0.00000E+00
    0.27958E-08        -0.89610E-10         0.00000E+00
    0.27953E-08        -0.17968E-09         0.00000E+00
    0.27947E-08        -0.27085E-09         0.00000E+00
    0.27940E-08        -0.36305E-09         0.00000E+00
    0.27931E-08        -0.44956E-09         0.00000E+00
    0.27846E-08        -0.48840E-09         0.00000E+00
    0.27665E-08        -0.45887E-09         0.00000E+00
    0.27488E-08        -0.40341E-09         0.00000E+00
    0.27328E-08        -0.34944E-09         0.00000E+00
    0.27190E-08        -0.29597E-09         0.00000E+00
    0.27079E-08        -0.24198E-09         0.00000E+00
    0.26994E-08        -0.18643E-09         0.00000E+00
    0.26935E-08        -0.12824E-09         0.00000E+00
    0.26902E-08        -0.66381E-10         0.00000E+00
    0.26892E-08        -0.34405E-10         0.00000E+00
    0.33479E-08        -0.44554E-10         0.00000E+00
    0.33475E-08        -0.89131E-10         0.00000E+00
    0.33465E-08        -0.17894E-09         0.00000E+00
    0.33452E-08        -0.26992E-09         0.00000E+00
    0.33435E-08        -0.36195E-09         0.00000E+00
    0.33414E-08        -0.44391E-09         0.00000E+00
    0.33290E-08        -0.47314E-09         0.00000E+00
    0.33060E-08        -0.43889E-09         0.00000E+00
    0.32843E-08        -0.38484E-09         0.00000E+00
    0.32650E-08        -0.33312E-09         0.00000E+00
    0.32486E-08        -0.28237E-09         0.00000E+00
    0.32353E-08        -0.23129E-09         0.00000E+00
    0.32253E-08        -0.17866E-09         0.00000E+00
    0.32184E-08        -0.12330E-09         0.00000E+00
    0.32145E-08        -0.64060E-10         0.00000E+00
    0.32133E-08        -0.33330E-10         0.00000E+00
    0.38959E-08        -0.44110E-10         0.00000E+00
    0.38953E-08        -0.88339E-10         0.00000E+00
    0.38937E-08        -0.17752E-09         0.00000E+00
    0.38914E-08        -0.26797E-09         0.00000E+00
    0.38883E-08        -0.35933E-09         0.00000E+00
    0.38834E-08        -0.43512E-09         0.00000E+00
    0.38657E-08        -0.45314E-09         0.00000E+00
    0.38376E-08        -0.41439E-09         0.00000E+00
    0.38120E-08        -0.36265E-09         0.00000E+00
    0.37895E-08        -0.31391E-09         0.00000E+00
    0.37706E-08        -0.26649E-09         0.00000E+00
    0.37555E-08        -0.21887E-09         0.00000E+00
    0.37440E-08        -0.16966E-09         0.00000E+00
    0.37362E-08        -0.11756E-09         0.00000E+00
    0.37317E-08        -0.61351E-10         0.00000E+00
    0.37303E-08        -0.32066E-10         0.00000E+00
    0.44395E-08        -0.43495E-10         0.00000E+00
    0.44387E-08        -0.87131E-10         0.00000E+00
    0.44364E-08        -0.17528E-09         0.00000E+00
    0.44328E-08        -0.26469E-09         0.00000E+00
    0.44278E-08        -0.35408E-09         0.00000E+00
    0.44183E-08        -0.42140E-09         0.00000E+00
    0.43929E-08        -0.42749E-09         0.00000E+00
    0.43601E-08        -0.38541E-09         0.00000E+00
    0.43306E-08        -0.33695E-09         0.00000E+00
    0.43053E-08        -0.29198E-09         0.00000E+00
    0.42842E-08        -0.24853E-09         0.00000E+00
    0.42674E-08        -0.20489E-09         0.00000E+00
    0.42547E-08        -0.15953E-09         0.00000E+00
    0.42460E-08        -0.11110E-09         0.00000E+00
    0.42410E-08        -0.58280E-10         0.00000E+00
    0.42394E-08        -0.30618E-10         0.00000E+00
    0.49784E-08        -0.42658E-10         0.00000E+00
    0.49775E-08        -0.85352E-10         0.00000E+00
    0.49741E-08        -0.17179E-09         0.00000E+00
    0.49686E-08        -0.25960E-09         0.00000E+00
    0.49607E-08        -0.34496E-09         0.00000E+00
    0.49432E-08        -0.40040E-09         0.00000E+00
    0.49091E-08        -0.39512E-09         0.00000E+00
    0.48719E-08        -0.35232E-09         0.00000E+00
    0.48392E-08        -0.30810E-09         0.00000E+00
    0.48113E-08        -0.26768E-09         0.00000E+00
    0.47884E-08        -0.22879E-09         0.00000E+00
    0.47702E-08        -0.18957E-09         0.00000E+00
    0.47565E-08        -0.14844E-09         0.00000E+00
    0.47471E-08        -0.10399E-09         0.00000E+00
    0.47416E-08        -0.54883E-10         0.00000E+00
    0.47399E-08        -0.29002E-10         0.00000E+00
    0.55118E-08        -0.41646E-10         0.00000E+00
    0.55107E-08        -0.82979E-10         0.00000E+00
    0.55065E-08        -0.16668E-09         0.00000E+00
    0.54986E-08        -0.25143E-09         0.00000E+00
    0.54848E-08        -0.32882E-09         0.00000E+00
    0.54558E-08        -0.37002E-09         0.00000E+00
    0.54130E-08        -0.35637E-09         0.00000E+00
    0.53721E-08        -0.31571E-09         0.00000E+00
    0.53368E-08        -0.27669E-09         0.00000E+00
    0.53071E-08        -0.24148E-09         0.00000E+00
    0.52827E-08        -0.20763E-09         0.00000E+00
    0.52635E-08        -0.17318E-09         0.00000E+00
    0.52489E-08        -0.13655E-09         0.00000E+00
    0.52389E-08        -0.96338E-10         0.00000E+00
    0.52330E-08        -0.51200E-10         0.00000E+00
    0.52311E-08        -0.27234E-10         0.00000E+00
    0.60380E-08        -0.40640E-10         0.00000E+00
    0.60371E-08        -0.80248E-10         0.00000E+00
    0.60323E-08        -0.15988E-09         0.00000E+00
    0.60213E-08        -0.23808E-09         0.00000E+00
    0.59972E-08        -0.30235E-09         0.00000E+00
    0.59546E-08        -0.32886E-09         0.00000E+00
    0.59045E-08        -0.31169E-09         0.00000E+00
    0.58605E-08        -0.27634E-09         0.00000E+00
    0.58232E-08        -0.24331E-09         0.00000E+00
    0.57920E-08        -0.21385E-09         0.00000E+00
    0.57666E-08        -0.18540E-09         0.00000E+00
    0.57466E-08        -0.15599E-09         0.00000E+00
    0.57315E-08        -0.12403E-09         0.00000E+00
    0.57209E-08        -0.88210E-10         0.00000E+00
    0.57146E-08        -0.47259E-10         0.00000E+00
    0.57126E-08        -0.25333E-10         0.00000E+00
    0.65545E-08        -0.39985E-10         0.00000E+00
    0.65537E-08        -0.77512E-10         0.00000E+00
    0.65488E-08        -0.15114E-09         0.00000E+00
    0.65319E-08        -0.21649E-09         0.00000E+00
    0.64941E-08        -0.26231E-09         0.00000E+00
    0.64395E-08        -0.27762E-09         0.00000E+00
    0.63838E-08        -0.26258E-09         0.00000E+00
    0.63373E-08        -0.23465E-09         0.00000E+00
    0.62982E-08        -0.20842E-09         0.00000E+00
    0.62659E-08        -0.18515E-09         0.00000E+00
    0.62398E-08        -0.16248E-09         0.00000E+00
    0.62195E-08        -0.13827E-09         0.00000E+00
    0.62040E-08        -0.11098E-09         0.00000E+00
    0.61928E-08        -0.79597E-10         0.00000E+00
    0.61859E-08        -0.43041E-10         0.00000E+00
    0.61838E-08        -0.23307E-10         0.00000E+00
    0.70575E-08        -0.39180E-10         0.00000E+00
    0.70569E-08        -0.74739E-10         0.00000E+00
    0.70489E-08        -0.13829E-09         0.00000E+00
    0.70220E-08        -0.18365E-09         0.00000E+00
    0.69741E-08        -0.21019E-09         0.00000E+00
    0.69125E-08        -0.21881E-09         0.00000E+00
    0.68517E-08        -0.20978E-09         0.00000E+00
    0.68020E-08        -0.19102E-09         0.00000E+00
    0.67619E-08        -0.17215E-09         0.00000E+00
    0.67286E-08        -0.15565E-09         0.00000E+00
    0.67021E-08        -0.13921E-09         0.00000E+00
    0.66817E-08        -0.12034E-09         0.00000E+00
    0.66661E-08        -0.97501E-10         0.00000E+00
    0.66544E-08        -0.70330E-10         0.00000E+00
    0.66465E-08        -0.38380E-10         0.00000E+00
    0.66440E-08        -0.21090E-10         0.00000E+00
    0.75436E-08        -0.38972E-10         0.00000E+00
    0.75391E-08        -0.69150E-10         0.00000E+00
    0.75220E-08        -0.11650E-09         0.00000E+00
    0.74874E-08        -0.14200E-09         0.00000E+00
    0.74369E-08        -0.15310E-09         0.00000E+00
    0.73740E-08        -0.15540E-09         0.00000E+00
    0.73094E-08        -0.15228E-09         0.00000E+00
    0.72542E-08        -0.14513E-09         0.00000E+00
    0.72111E-08        -0.13527E-09         0.00000E+00
    0.71775E-08        -0.12555E-09         0.00000E+00
    0.71519E-08        -0.11582E-09         0.00000E+00
    0.71324E-08        -0.10251E-09         0.00000E+00
    0.71175E-08        -0.83898E-10         0.00000E+00
    0.71062E-08        -0.60128E-10         0.00000E+00
    0.70972E-08        -0.32688E-10         0.00000E+00
    0.70919E-08        -0.18319E-10         0.00000E+00
    0.79986E-08        -0.30332E-10         0.00000E+00
    0.79900E-08        -0.53376E-10         0.00000E+00
    0.79668E-08        -0.86948E-10         0.00000E+00
    0.79300E-08        -0.98881E-10         0.00000E+00
    0.78806E-08        -0.97027E-10         0.00000E+00
    0.78193E-08        -0.91496E-10         0.00000E+00
    0.77532E-08        -0.90211E-10         0.00000E+00
    0.76934E-08        -0.92943E-10         0.00000E+00
    0.76456E-08        -0.95721E-10         0.00000E+00
    0.76103E-08        -0.96673E-10         0.00000E+00
    0.75841E-08        -0.94278E-10         0.00000E+00
    0.75644E-08        -0.86192E-10         0.00000E+00
    0.75501E-08        -0.71443E-10         0.00000E+00
    0.75406E-08        -0.50183E-10         0.00000E+00
    0.75356E-08        -0.24154E-10         0.00000E+00
    0.75325E-08        -0.10407E-10         0.00000E+00
    0.84170E-08        -0.22032E-10         0.00000E+00
    0.84082E-08        -0.37555E-10         0.00000E+00
    0.83843E-08        -0.56731E-10         0.00000E+00
    0.83488E-08        -0.56023E-10         0.00000E+00
    0.83014E-08        -0.42610E-10         0.00000E+00
    0.82418E-08        -0.28254E-10         0.00000E+00
    0.81762E-08        -0.26555E-10         0.00000E+00
    0.81156E-08        -0.37702E-10         0.00000E+00
    0.80666E-08        -0.52432E-10         0.00000E+00
    0.80290E-08        -0.64338E-10         0.00000E+00
    0.80002E-08        -0.70125E-10         0.00000E+00
    0.79789E-08        -0.68635E-10         0.00000E+00
    0.79651E-08        -0.60235E-10         0.00000E+00
    0.79585E-08        -0.45765E-10         0.00000E+00
    0.79583E-08        -0.24676E-10         0.00000E+00
    0.79604E-08        -0.12216E-10         0.00000E+00
    0.88048E-08        -0.12997E-10         0.00000E+00
    0.87969E-08        -0.20945E-10         0.00000E+00
    0.87742E-08        -0.27795E-10         0.00000E+00
    0.87407E-08        -0.16167E-10         0.00000E+00
    0.86957E-08         0.98592E-11         0.00000E+00
    0.86384E-08         0.33599E-10         0.00000E+00
    0.85751E-08         0.35823E-10         0.00000E+00
    0.85172E-08         0.16432E-10         0.00000E+00
    0.84695E-08        -0.92803E-11         0.00000E+00
    0.84306E-08        -0.30426E-10         0.00000E+00
    0.83998E-08        -0.44410E-10         0.00000E+00
    0.83777E-08        -0.51220E-10         0.00000E+00
    0.83644E-08        -0.51118E-10         0.00000E+00
    0.83590E-08        -0.43584E-10         0.00000E+00
    0.83586E-08        -0.26223E-10         0.00000E+00
    0.83598E-08        -0.14661E-10         0.00000E+00
    0.91656E-08        -0.63228E-11         0.00000E+00
    0.91589E-08        -0.71338E-11         0.00000E+00
    0.91382E-08        -0.70705E-12         0.00000E+00
    0.91055E-08         0.22404E-10         0.00000E+00
    0.90624E-08         0.59610E-10         0.00000E+00
    0.90084E-08         0.92252E-10         0.00000E+00
    0.89497E-08         0.94476E-10         0.00000E+00
    0.88968E-08         0.67719E-10         0.00000E+00
    0.88511E-08         0.34140E-10         0.00000E+00
    0.88119E-08         0.52647E-11         0.00000E+00
    0.87805E-08        -0.17431E-10         0.00000E+00
    0.87578E-08        -0.33378E-10         0.00000E+00
    0.87436E-08        -0.41640E-10         0.00000E+00
    0.87363E-08        -0.40124E-10         0.00000E+00
    0.87334E-08        -0.25674E-10         0.00000E+00
    0.87327E-08        -0.14779E-10         0.00000E+00
    0.95022E-08         0.46040E-12         0.00000E+00
    0.94951E-08         0.64144E-11         0.00000E+00
    0.94749E-08         0.25576E-10         0.00000E+00
    0.94431E-08         0.59687E-10         0.00000E+00
    0.94020E-08         0.10691E-09         0.00000E+00
    0.93517E-08         0.14627E-09         0.00000E+00
    0.92994E-08         0.14739E-09         0.00000E+00
    0.92524E-08         0.11492E-09         0.00000E+00
    0.92101E-08         0.75548E-10         0.00000E+00
    0.91730E-08         0.40124E-10         0.00000E+00
    0.91424E-08         0.96545E-11         0.00000E+00
    0.91193E-08        -0.14379E-10         0.00000E+00
    0.91031E-08        -0.29756E-10         0.00000E+00
    0.90929E-08        -0.33582E-10         0.00000E+00
    0.90874E-08        -0.22796E-10         0.00000E+00
    0.90855E-08        -0.13380E-10         0.00000E+00
    0.98096E-08         0.77611E-11         0.00000E+00
    0.98023E-08         0.20208E-10         0.00000E+00
    0.97823E-08         0.51378E-10         0.00000E+00
    0.97520E-08         0.95446E-10         0.00000E+00
    0.97134E-08         0.15116E-09         0.00000E+00
    0.96679E-08         0.19489E-09         0.00000E+00
    0.96224E-08         0.19385E-09         0.00000E+00
    0.95817E-08         0.15707E-09         0.00000E+00
    0.95438E-08         0.11359E-09         0.00000E+00
    0.95099E-08         0.72911E-10         0.00000E+00
    0.94812E-08         0.36258E-10         0.00000E+00
    0.94580E-08         0.58446E-11         0.00000E+00
    0.94403E-08        -0.15453E-10         0.00000E+00
    0.94280E-08        -0.24516E-10         0.00000E+00
    0.94207E-08        -0.18403E-10         0.00000E+00
    0.94182E-08        -0.11208E-10         0.00000E+00
    0.10084E-07         0.15188E-10         0.00000E+00
    0.10077E-07         0.33882E-10         0.00000E+00
    0.10057E-07         0.76202E-10         0.00000E+00
    0.10029E-07         0.12888E-09         0.00000E+00
    0.99946E-08         0.19128E-09         0.00000E+00
    0.99550E-08         0.23748E-09         0.00000E+00
    0.99167E-08         0.23372E-09         0.00000E+00
    0.98824E-08         0.19364E-09         0.00000E+00
    0.98498E-08         0.14737E-09         0.00000E+00
    0.98200E-08         0.10284E-09         0.00000E+00
    0.97938E-08         0.61666E-10         0.00000E+00
    0.97715E-08         0.26407E-10         0.00000E+00
    0.97537E-08         0.12057E-12         0.00000E+00
    0.97405E-08        -0.14055E-10         0.00000E+00
    0.97324E-08        -0.13153E-10         0.00000E+00
    0.97296E-08        -0.85765E-11         0.00000E+00
    0.10321E-07         0.22396E-10         0.00000E+00
    0.10314E-07         0.46865E-10         0.00000E+00
    0.10297E-07         0.99113E-10         0.00000E+00
    0.10272E-07         0.15881E-09         0.00000E+00
    0.10243E-07         0.22587E-09         0.00000E+00
    0.10211E-07         0.27306E-09         0.00000E+00
    0.10180E-07         0.26670E-09         0.00000E+00
    0.10153E-07         0.22420E-09         0.00000E+00
    0.10126E-07         0.17616E-09         0.00000E+00
    0.10101E-07         0.12910E-09         0.00000E+00
    0.10079E-07         0.84823E-10         0.00000E+00
    0.10059E-07         0.45950E-10         0.00000E+00
    0.10042E-07         0.15512E-10         0.00000E+00
    0.10030E-07        -0.33742E-11         0.00000E+00
    0.10022E-07        -0.76731E-11         0.00000E+00
    0.10019E-07        -0.58061E-11         0.00000E+00
    0.10517E-07         0.29044E-10         0.00000E+00
    0.10511E-07         0.58542E-10         0.00000E+00
    0.10496E-07         0.11900E-09         0.00000E+00
    0.10477E-07         0.18369E-09         0.00000E+00
    0.10454E-07         0.25330E-09         0.00000E+00
    0.10432E-07         0.30030E-09         0.00000E+00
    0.10411E-07         0.29187E-09         0.00000E+00
    0.10391E-07         0.24795E-09         0.00000E+00
    0.10372E-07         0.19906E-09         0.00000E+00
    0.10353E-07         0.15061E-09         0.00000E+00
    0.10335E-07         0.10442E-09         0.00000E+00
    0.10319E-07         0.63011E-10         0.00000E+00
    0.10305E-07         0.29303E-10         0.00000E+00
    0.10295E-07         0.64034E-11         0.00000E+00
    0.10288E-07        -0.25811E-11         0.00000E+00
    0.10285E-07        -0.32121E-11         0.00000E+00
    0.10669E-07         0.34832E-10         0.00000E+00
    0.10664E-07         0.68301E-10         0.00000E+00
    0.10653E-07         0.13462E-09         0.00000E+00
    0.10640E-07         0.20168E-09         0.00000E+00
    0.10627E-07         0.27137E-09         0.00000E+00
    0.10617E-07         0.31725E-09         0.00000E+00
    0.10607E-07         0.30774E-09         0.00000E+00
    0.10597E-07         0.26357E-09         0.00000E+00
    0.10587E-07         0.21472E-09         0.00000E+00
    0.10576E-07         0.16596E-09         0.00000E+00
    0.10564E-07         0.11901E-09         0.00000E+00
    0.10553E-07         0.76154E-10         0.00000E+00
    0.10544E-07         0.40187E-10         0.00000E+00
    0.10536E-07         0.14237E-10         0.00000E+00
    0.10531E-07         0.15396E-11         0.00000E+00
    0.10529E-07        -0.10935E-11         0.00000E+00
    0.10773E-07         0.39457E-10         0.00000E+00
    0.10769E-07         0.75480E-10         0.00000E+00
    0.10763E-07         0.14460E-09         0.00000E+00
    0.10758E-07         0.21063E-09         0.00000E+00
    0.10758E-07         0.27726E-09         0.00000E+00
    0.10763E-07         0.32107E-09         0.00000E+00
    0.10768E-07         0.31206E-09         0.00000E+00
    0.10770E-07         0.26912E-09         0.00000E+00
    0.10771E-07         0.22123E-09         0.00000E+00
    0.10769E-07         0.17336E-09         0.00000E+00
    0.10767E-07         0.12696E-09         0.00000E+00
    0.10762E-07         0.83963E-10         0.00000E+00
    0.10758E-07         0.46977E-10         0.00000E+00
    0.10754E-07         0.19222E-10         0.00000E+00
    0.10752E-07         0.41941E-11         0.00000E+00
    0.10751E-07         0.30161E-12         0.00000E+00
    0.10824E-07         0.42508E-10         0.00000E+00
    0.10823E-07         0.79212E-10         0.00000E+00
    0.10823E-07         0.14721E-09         0.00000E+00
    0.10829E-07         0.20803E-09         0.00000E+00
    0.10844E-07         0.26749E-09         0.00000E+00
    0.10870E-07         0.30793E-09         0.00000E+00
    0.10894E-07         0.30160E-09         0.00000E+00
    0.10911E-07         0.26189E-09         0.00000E+00
    0.10925E-07         0.21611E-09         0.00000E+00
    0.10936E-07         0.17065E-09         0.00000E+00
    0.10944E-07         0.12645E-09         0.00000E+00
    0.10948E-07         0.84986E-10         0.00000E+00
    0.10951E-07         0.48627E-10         0.00000E+00
    0.10951E-07         0.20683E-10         0.00000E+00
    0.10952E-07         0.50478E-11         0.00000E+00
    0.10951E-07         0.81009E-12         0.00000E+00
    0.10819E-07         0.43250E-10         0.00000E+00
    0.10820E-07         0.78067E-10         0.00000E+00
    0.10830E-07         0.13994E-09         0.00000E+00
    0.10851E-07         0.19087E-09         0.00000E+00
    0.10885E-07         0.23830E-09         0.00000E+00
    0.10933E-07         0.27300E-09         0.00000E+00
    0.10983E-07         0.27165E-09         0.00000E+00
    0.11021E-07         0.23814E-09         0.00000E+00
    0.11053E-07         0.19646E-09         0.00000E+00
    0.11079E-07         0.15538E-09         0.00000E+00
    0.11100E-07         0.11537E-09         0.00000E+00
    0.11115E-07         0.77711E-10         0.00000E+00
    0.11124E-07         0.44354E-10         0.00000E+00
    0.11130E-07         0.18410E-10         0.00000E+00
    0.11132E-07         0.41233E-11         0.00000E+00
    0.11133E-07         0.49562E-12         0.00000E+00
    0.10750E-07         0.40249E-10         0.00000E+00
    0.10757E-07         0.69411E-10         0.00000E+00
    0.10782E-07         0.11854E-09         0.00000E+00
    0.10824E-07         0.15484E-09         0.00000E+00
    0.10881E-07         0.18669E-09         0.00000E+00
    0.10955E-07         0.21145E-09         0.00000E+00
    0.11034E-07         0.21485E-09         0.00000E+00
    0.11103E-07         0.19277E-09         0.00000E+00
    0.11158E-07         0.15906E-09         0.00000E+00
    0.11202E-07         0.12460E-09         0.00000E+00
    0.11238E-07         0.91398E-10         0.00000E+00
    0.11265E-07         0.60728E-10         0.00000E+00
    0.11283E-07         0.33968E-10         0.00000E+00
    0.11292E-07         0.12949E-10         0.00000E+00
    0.11296E-07         0.19705E-11         0.00000E+00
    0.11296E-07        -0.28495E-12         0.00000E+00
    0.10607E-07         0.30662E-10         0.00000E+00
    0.10628E-07         0.48042E-10         0.00000E+00
    0.10678E-07         0.75526E-10         0.00000E+00
    0.10749E-07         0.93660E-10         0.00000E+00
    0.10835E-07         0.10889E-09         0.00000E+00
    0.10937E-07         0.12163E-09         0.00000E+00
    0.11048E-07         0.12494E-09         0.00000E+00
    0.11153E-07         0.11549E-09         0.00000E+00
    0.11242E-07         0.98423E-10         0.00000E+00
    0.11313E-07         0.75425E-10         0.00000E+00
    0.11367E-07         0.52144E-10         0.00000E+00
    0.11405E-07         0.33835E-10         0.00000E+00
    0.11429E-07         0.18505E-10         0.00000E+00
    0.11440E-07         0.57371E-11         0.00000E+00
    0.11442E-07        -0.63239E-13         0.00000E+00
    0.11442E-07        -0.23690E-12         0.00000E+00
    0.10514E-07         0.00000E+00         0.00000E+00
    0.10546E-07         0.00000E+00         0.00000E+00
    0.10613E-07        -0.28991E-22         0.00000E+00
    0.10700E-07         0.30467E-26         0.00000E+00
    0.10803E-07         0.33136E-22         0.00000E+00
    0.10920E-07         0.00000E+00         0.00000E+00
    0.11047E-07         0.00000E+00         0.00000E+00
    0.11171E-07        -0.29001E-22         0.00000E+00
    0.11279E-07        -0.33144E-22         0.00000E+00
    0.11368E-07         0.33146E-22         0.00000E+00
    0.11431E-07         0.37289E-22         0.00000E+00
    0.11473E-07        -0.37291E-22         0.00000E+00
    0.11499E-07        -0.41429E-23         0.00000E+00
    0.11511E-07         0.37292E-22         0.00000E+00
    0.11511E-07         0.82873E-23         0.00000E+00
    0.11511E-07         0.00000E+00         0.00000E+00
CELL_DATA        450
TENSORS stressef double 
    0.22080E+07         0.51339E+04         0.00000E+00
    0.51339E+04        -0.20227E+08         0.00000E+00
    0.00000E+00         0.00000E+00        -0.47280E+07
 
    0.21918E+07         0.15045E+05         0.00000E+00
    0.15045E+05        -0.20220E+08         0.00000E+00
    0.00000E+00         0.00000E+00        -0.46625E+07
 
    0.21641E+07         0.24339E+05         0.00000E+00
    0.24339E+05        -0.20206E+08         0.00000E+00
    0.00000E+00         0.00000E+00        -0.45574E+07
 
    0.21167E+07         0.32616E+05         0.00000E+00
    0.32616E+05        -0.20188E+08         0.00000E+00
    0.00000E+00         0.00000E+00        -0.44015E+07
 
    0.20409E+07         0.39235E+05         0.00000E+00
    0.39235E+05        -0.20167E+08         0.00000E+00
    0.00000E+00         0.00000E+00        -0.41845E+07
 
    0.19292E+07         0.43683E+05         0.00000E+00
    0.43683E+05        -0.20149E+08         0.00000E+00
    0.00000E+00         0.00000E+00        -0.39091E+07
 
    0.15950E+07         0.44427E+05         0.00000E+00
    0.44427E+05        -0.20136E+08         0.00000E+00
    0.00000E+00         0.00000E+00        -0.37108E+07
 
    0.68224E+06         0.43894E+05         0.00000E+00
    0.43894E+05        -0.20119E+08         0.00000E+00
    0.00000E+00         0.00000E+00        -0.38873E+07
 
   -0.16736E+06         0.47319E+05         0.00000E+00
    0.47319E+05        -0.20090E+08         0.00000E+00
    0.00000E+00         0.00000E+00        -0.40516E+07
 
   -0.96033E+06         0.54505E+05         0.00000E+00
    0.54505E+05        -0.20043E+08         0.00000E+00
    0.00000E+00         0.00000E+00        -0.42007E+07
 
   -0.17084E+07         0.65097E+05         0.00000E+00
    0.65097E+05        -0.19970E+08         0.00000E+00
    0.00000E+00         0.00000E+00        -0.43356E+07
 
   -0.24224E+07         0.78812E+05         0.00000E+00
    0.78812E+05        -0.19864E+08         0.00000E+00
    0.00000E+00         0.00000E+00        -0.44572E+07
 
   -0.31121E+07         0.95427E+05         0.00000E+00
    0.95427E+05        -0.19718E+08         0.00000E+00
    0.00000E+00         0.00000E+00        -0.45661E+07
 
   -0.37868E+07         0.11477E+06         0.00000E+00
    0.11477E+06        -0.19528E+08         0.00000E+00
    0.00000E+00         0.00000E+00        -0.46630E+07
 
   -0.44549E+07         0.13672E+06         0.00000E+00
    0.13672E+06        -0.19287E+08         0.00000E+00
    0.00000E+00         0.00000E+00        -0.47484E+07
 
    0.21495E+07         0.15356E+05         0.00000E+00
    0.15356E+05        -0.20306E+08         0.00000E+00
    0.00000E+00         0.00000E+00        -0.47586E+07
 
    0.21324E+07         0.44948E+05         0.00000E+00
    0.44948E+05        -0.20299E+08         0.00000E+00
    0.00000E+00         0.00000E+00        -0.46925E+07
 
    0.21031E+07         0.72616E+05         0.00000E+00
    0.72616E+05        -0.20286E+08         0.00000E+00
    0.00000E+00         0.00000E+00        -0.45862E+07
 
    0.20531E+07         0.97031E+05         0.00000E+00
    0.97031E+05        -0.20268E+08         0.00000E+00
    0.00000E+00         0.00000E+00        -0.44286E+07
 
    0.19732E+07         0.11636E+06         0.00000E+00
    0.11636E+06        -0.20250E+08         0.00000E+00
    0.00000E+00         0.00000E+00        -0.42100E+07
 
    0.18574E+07         0.12949E+06         0.00000E+00
    0.12949E+06        -0.20235E+08         0.00000E+00
    0.00000E+00         0.00000E+00        -0.39344E+07
 
    0.15127E+07         0.13124E+06         0.00000E+00
    0.13124E+06        -0.20226E+08         0.00000E+00
    0.00000E+00         0.00000E+00        -0.37442E+07
 
    0.60715E+06         0.12993E+06         0.00000E+00
    0.12993E+06        -0.20211E+08         0.00000E+00
    0.00000E+00         0.00000E+00        -0.39209E+07
 
   -0.23409E+06         0.14046E+06         0.00000E+00
    0.14046E+06        -0.20186E+08         0.00000E+00
    0.00000E+00         0.00000E+00        -0.40840E+07
 
   -0.10195E+07         0.16221E+06         0.00000E+00
    0.16221E+06        -0.20141E+08         0.00000E+00
    0.00000E+00         0.00000E+00        -0.42321E+07
 
   -0.17608E+07         0.19412E+06         0.00000E+00
    0.19412E+06        -0.20070E+08         0.00000E+00
    0.00000E+00         0.00000E+00        -0.43661E+07
 
   -0.24685E+07         0.23534E+06         0.00000E+00
    0.23534E+06        -0.19965E+08         0.00000E+00
    0.00000E+00         0.00000E+00        -0.44868E+07
 
   -0.31525E+07         0.28522E+06         0.00000E+00
    0.28522E+06        -0.19822E+08         0.00000E+00
    0.00000E+00         0.00000E+00        -0.45949E+07
 
   -0.38217E+07         0.34326E+06         0.00000E+00
    0.34326E+06        -0.19634E+08         0.00000E+00
    0.00000E+00         0.00000E+00        -0.46911E+07
 
   -0.44846E+07         0.40907E+06         0.00000E+00
    0.40907E+06        -0.19395E+08         0.00000E+00
    0.00000E+00         0.00000E+00        -0.47759E+07
 
    0.20323E+07         0.25470E+05         0.00000E+00
    0.25470E+05        -0.20464E+08         0.00000E+00
    0.00000E+00         0.00000E+00        -0.48198E+07
 
    0.20134E+07         0.74317E+05         0.00000E+00
    0.74317E+05        -0.20457E+08         0.00000E+00
    0.00000E+00         0.00000E+00        -0.47521E+07
 
    0.19805E+07         0.11962E+06         0.00000E+00
    0.11962E+06        -0.20445E+08         0.00000E+00
    0.00000E+00         0.00000E+00        -0.46434E+07
 
    0.19248E+07         0.15892E+06         0.00000E+00
    0.15892E+06        -0.20430E+08         0.00000E+00
    0.00000E+00         0.00000E+00        -0.44818E+07
 
    0.18372E+07         0.18950E+06         0.00000E+00
    0.18950E+06        -0.20416E+08         0.00000E+00
    0.00000E+00         0.00000E+00        -0.42606E+07
 
    0.17135E+07         0.21037E+06         0.00000E+00
    0.21037E+06        -0.20407E+08         0.00000E+00
    0.00000E+00         0.00000E+00        -0.39854E+07
 
    0.13479E+07         0.21209E+06         0.00000E+00
    0.21209E+06        -0.20405E+08         0.00000E+00
    0.00000E+00         0.00000E+00        -0.38119E+07
 
    0.45779E+06         0.21075E+06         0.00000E+00
    0.21075E+06        -0.20397E+08         0.00000E+00
    0.00000E+00         0.00000E+00        -0.39878E+07
 
   -0.36693E+06         0.22920E+06         0.00000E+00
    0.22920E+06        -0.20376E+08         0.00000E+00
    0.00000E+00         0.00000E+00        -0.41487E+07
 
   -0.11375E+07         0.26606E+06         0.00000E+00
    0.26606E+06        -0.20336E+08         0.00000E+00
    0.00000E+00         0.00000E+00        -0.42947E+07
 
   -0.18652E+07         0.31966E+06         0.00000E+00
    0.31966E+06        -0.20269E+08         0.00000E+00
    0.00000E+00         0.00000E+00        -0.44269E+07
 
   -0.25605E+07         0.38862E+06         0.00000E+00
    0.38862E+06        -0.20169E+08         0.00000E+00
    0.00000E+00         0.00000E+00        -0.45459E+07
 
   -0.32329E+07         0.47186E+06         0.00000E+00
    0.47186E+06        -0.20029E+08         0.00000E+00
    0.00000E+00         0.00000E+00        -0.46524E+07
 
   -0.38913E+07         0.56860E+06         0.00000E+00
    0.56860E+06        -0.19845E+08         0.00000E+00
    0.00000E+00         0.00000E+00        -0.47473E+07
 
   -0.45439E+07         0.67821E+06         0.00000E+00
    0.67821E+06        -0.19610E+08         0.00000E+00
    0.00000E+00         0.00000E+00        -0.48308E+07
 
    0.18563E+07         0.35396E+05         0.00000E+00
    0.35396E+05        -0.20700E+08         0.00000E+00
    0.00000E+00         0.00000E+00        -0.49112E+07
 
    0.18342E+07         0.10270E+06         0.00000E+00
    0.10270E+06        -0.20694E+08         0.00000E+00
    0.00000E+00         0.00000E+00        -0.48413E+07
 
    0.17953E+07         0.16422E+06         0.00000E+00
    0.16422E+06        -0.20684E+08         0.00000E+00
    0.00000E+00         0.00000E+00        -0.47282E+07
 
    0.17303E+07         0.21644E+06         0.00000E+00
    0.21644E+06        -0.20673E+08         0.00000E+00
    0.00000E+00         0.00000E+00        -0.45598E+07
 
    0.16317E+07         0.25592E+06         0.00000E+00
    0.25592E+06        -0.20666E+08         0.00000E+00
    0.00000E+00         0.00000E+00        -0.43356E+07
 
    0.14965E+07         0.28240E+06         0.00000E+00
    0.28240E+06        -0.20667E+08         0.00000E+00
    0.00000E+00         0.00000E+00        -0.40625E+07
 
    0.11008E+07         0.28340E+06         0.00000E+00
    0.28340E+06        -0.20674E+08         0.00000E+00
    0.00000E+00         0.00000E+00        -0.39146E+07
 
    0.23567E+06         0.28329E+06         0.00000E+00
    0.28329E+06        -0.20675E+08         0.00000E+00
    0.00000E+00         0.00000E+00        -0.40879E+07
 
   -0.56469E+06         0.31079E+06         0.00000E+00
    0.31079E+06        -0.20663E+08         0.00000E+00
    0.00000E+00         0.00000E+00        -0.42455E+07
 
   -0.13132E+07         0.36365E+06         0.00000E+00
    0.36365E+06        -0.20629E+08         0.00000E+00
    0.00000E+00         0.00000E+00        -0.43884E+07
 
   -0.20208E+07         0.43955E+06         0.00000E+00
    0.43955E+06        -0.20568E+08         0.00000E+00
    0.00000E+00         0.00000E+00        -0.45177E+07
 
   -0.26977E+07         0.53658E+06         0.00000E+00
    0.53658E+06        -0.20473E+08         0.00000E+00
    0.00000E+00         0.00000E+00        -0.46342E+07
 
   -0.33529E+07         0.65332E+06         0.00000E+00
    0.65332E+06        -0.20339E+08         0.00000E+00
    0.00000E+00         0.00000E+00        -0.47385E+07
 
   -0.39953E+07         0.78873E+06         0.00000E+00
    0.78873E+06        -0.20161E+08         0.00000E+00
    0.00000E+00         0.00000E+00        -0.48312E+07
 
   -0.46327E+07         0.94202E+06         0.00000E+00
    0.94202E+06        -0.19932E+08         0.00000E+00
    0.00000E+00         0.00000E+00        -0.49129E+07
 
    0.16208E+07         0.44800E+05         0.00000E+00
    0.44800E+05        -0.21014E+08         0.00000E+00
    0.00000E+00         0.00000E+00        -0.50329E+07
 
    0.15936E+07         0.12931E+06         0.00000E+00
    0.12931E+06        -0.21009E+08         0.00000E+00
    0.00000E+00         0.00000E+00        -0.49597E+07
 
    0.15457E+07         0.20517E+06         0.00000E+00
    0.20517E+06        -0.21003E+08         0.00000E+00
    0.00000E+00         0.00000E+00        -0.48390E+07
 
    0.14675E+07         0.26724E+06         0.00000E+00
    0.26724E+06        -0.20999E+08         0.00000E+00
    0.00000E+00         0.00000E+00        -0.46618E+07
 
    0.13538E+07         0.31265E+06         0.00000E+00
    0.31265E+06        -0.21002E+08         0.00000E+00
    0.00000E+00         0.00000E+00        -0.44337E+07
 
    0.12047E+07         0.34189E+06         0.00000E+00
    0.34189E+06        -0.21014E+08         0.00000E+00
    0.00000E+00         0.00000E+00        -0.41661E+07
 
    0.77296E+06         0.34203E+06         0.00000E+00
    0.34203E+06        -0.21034E+08         0.00000E+00
    0.00000E+00         0.00000E+00        -0.40523E+07
 
   -0.57198E+05         0.34466E+06         0.00000E+00
    0.34466E+06        -0.21047E+08         0.00000E+00
    0.00000E+00         0.00000E+00        -0.42208E+07
 
   -0.82563E+06         0.38281E+06         0.00000E+00
    0.38281E+06        -0.21044E+08         0.00000E+00
    0.00000E+00         0.00000E+00        -0.43739E+07
 
   -0.15452E+07         0.45288E+06         0.00000E+00
    0.45288E+06        -0.21019E+08         0.00000E+00
    0.00000E+00         0.00000E+00        -0.45128E+07
 
   -0.22266E+07         0.55183E+06         0.00000E+00
    0.55183E+06        -0.20965E+08         0.00000E+00
    0.00000E+00         0.00000E+00        -0.46383E+07
 
   -0.28793E+07         0.67732E+06         0.00000E+00
    0.67732E+06        -0.20878E+08         0.00000E+00
    0.00000E+00         0.00000E+00        -0.47514E+07
 
   -0.35122E+07         0.82766E+06         0.00000E+00
    0.82766E+06        -0.20751E+08         0.00000E+00
    0.00000E+00         0.00000E+00        -0.48526E+07
 
   -0.41332E+07         0.10017E+07         0.00000E+00
    0.10017E+07        -0.20580E+08         0.00000E+00
    0.00000E+00         0.00000E+00        -0.49427E+07
 
   -0.47504E+07         0.11984E+07         0.00000E+00
    0.11984E+07        -0.20359E+08         0.00000E+00
    0.00000E+00         0.00000E+00        -0.50220E+07
 
    0.13249E+07         0.53324E+05         0.00000E+00
    0.53324E+05        -0.21406E+08         0.00000E+00
    0.00000E+00         0.00000E+00        -0.51847E+07
 
    0.12904E+07         0.15300E+06         0.00000E+00
    0.15300E+06        -0.21404E+08         0.00000E+00
    0.00000E+00         0.00000E+00        -0.51058E+07
 
    0.12292E+07         0.24022E+06         0.00000E+00
    0.24022E+06        -0.21403E+08         0.00000E+00
    0.00000E+00         0.00000E+00        -0.49736E+07
 
    0.11334E+07         0.30870E+06         0.00000E+00
    0.30870E+06        -0.21408E+08         0.00000E+00
    0.00000E+00         0.00000E+00        -0.47867E+07
 
    0.10008E+07         0.35637E+06         0.00000E+00
    0.35637E+06        -0.21424E+08         0.00000E+00
    0.00000E+00         0.00000E+00        -0.45551E+07
 
    0.83609E+06         0.38542E+06         0.00000E+00
    0.38542E+06        -0.21452E+08         0.00000E+00
    0.00000E+00         0.00000E+00        -0.42975E+07
 
    0.36743E+06         0.38503E+06         0.00000E+00
    0.38503E+06        -0.21487E+08         0.00000E+00
    0.00000E+00         0.00000E+00        -0.42239E+07
 
   -0.41837E+06         0.39264E+06         0.00000E+00
    0.39264E+06        -0.21513E+08         0.00000E+00
    0.00000E+00         0.00000E+00        -0.43862E+07
 
   -0.11474E+07         0.44337E+06         0.00000E+00
    0.44337E+06        -0.21521E+08         0.00000E+00
    0.00000E+00         0.00000E+00        -0.45336E+07
 
   -0.18318E+07         0.53203E+06         0.00000E+00
    0.53203E+06        -0.21505E+08         0.00000E+00
    0.00000E+00         0.00000E+00        -0.46673E+07
 
   -0.24813E+07         0.65483E+06         0.00000E+00
    0.65483E+06        -0.21460E+08         0.00000E+00
    0.00000E+00         0.00000E+00        -0.47882E+07
 
   -0.31046E+07         0.80911E+06         0.00000E+00
    0.80911E+06        -0.21381E+08         0.00000E+00
    0.00000E+00         0.00000E+00        -0.48971E+07
 
   -0.37098E+07         0.99305E+06         0.00000E+00
    0.99305E+06        -0.21263E+08         0.00000E+00
    0.00000E+00         0.00000E+00        -0.49946E+07
 
   -0.43047E+07         0.12054E+07         0.00000E+00
    0.12054E+07        -0.21101E+08         0.00000E+00
    0.00000E+00         0.00000E+00        -0.50812E+07
 
   -0.48968E+07         0.14453E+07         0.00000E+00
    0.14453E+07        -0.20891E+08         0.00000E+00
    0.00000E+00         0.00000E+00        -0.51575E+07
 
    0.96678E+06         0.60523E+05         0.00000E+00
    0.60523E+05        -0.21876E+08         0.00000E+00
    0.00000E+00         0.00000E+00        -0.53651E+07
 
    0.92191E+06         0.17222E+06         0.00000E+00
    0.17222E+06        -0.21877E+08         0.00000E+00
    0.00000E+00         0.00000E+00        -0.52764E+07
 
    0.84290E+06         0.26647E+06         0.00000E+00
    0.26647E+06        -0.21884E+08         0.00000E+00
    0.00000E+00         0.00000E+00        -0.51304E+07
 
    0.72410E+06         0.33708E+06         0.00000E+00
    0.33708E+06        -0.21902E+08         0.00000E+00
    0.00000E+00         0.00000E+00        -0.49318E+07
 
    0.57017E+06         0.38391E+06         0.00000E+00
    0.38391E+06        -0.21934E+08         0.00000E+00
    0.00000E+00         0.00000E+00        -0.47011E+07
 
    0.38917E+06         0.41023E+06         0.00000E+00
    0.41023E+06        -0.21980E+08         0.00000E+00
    0.00000E+00         0.00000E+00        -0.44578E+07
 
   -0.11197E+06         0.40973E+06         0.00000E+00
    0.40973E+06        -0.22032E+08         0.00000E+00
    0.00000E+00         0.00000E+00        -0.44288E+07
 
   -0.84446E+06         0.42564E+06         0.00000E+00
    0.42564E+06        -0.22072E+08         0.00000E+00
    0.00000E+00         0.00000E+00        -0.45833E+07
 
   -0.15275E+07         0.49120E+06         0.00000E+00
    0.49120E+06        -0.22092E+08         0.00000E+00
    0.00000E+00         0.00000E+00        -0.47238E+07
 
   -0.21711E+07         0.59977E+06         0.00000E+00
    0.59977E+06        -0.22086E+08         0.00000E+00
    0.00000E+00         0.00000E+00        -0.48514E+07
 
   -0.27835E+07         0.74712E+06         0.00000E+00
    0.74712E+06        -0.22050E+08         0.00000E+00
    0.00000E+00         0.00000E+00        -0.49668E+07
 
   -0.33725E+07         0.93040E+06         0.00000E+00
    0.93040E+06        -0.21981E+08         0.00000E+00
    0.00000E+00         0.00000E+00        -0.50707E+07
 
   -0.39453E+07         0.11478E+07         0.00000E+00
    0.11478E+07        -0.21873E+08         0.00000E+00
    0.00000E+00         0.00000E+00        -0.51638E+07
 
   -0.45092E+07         0.13981E+07         0.00000E+00
    0.13981E+07        -0.21723E+08         0.00000E+00
    0.00000E+00         0.00000E+00        -0.52464E+07
 
   -0.50714E+07         0.16808E+07         0.00000E+00
    0.16808E+07        -0.21524E+08         0.00000E+00
    0.00000E+00         0.00000E+00        -0.53191E+07
 
    0.54368E+06         0.65539E+05         0.00000E+00
    0.65539E+05        -0.22423E+08         0.00000E+00
    0.00000E+00         0.00000E+00        -0.55710E+07
 
    0.48474E+06         0.18473E+06         0.00000E+00
    0.18473E+06        -0.22430E+08         0.00000E+00
    0.00000E+00         0.00000E+00        -0.54684E+07
 
    0.38136E+06         0.28048E+06         0.00000E+00
    0.28048E+06        -0.22448E+08         0.00000E+00
    0.00000E+00         0.00000E+00        -0.53037E+07
 
    0.23700E+06         0.34852E+06         0.00000E+00
    0.34852E+06        -0.22482E+08         0.00000E+00
    0.00000E+00         0.00000E+00        -0.50971E+07
 
    0.60656E+05         0.39201E+06         0.00000E+00
    0.39201E+06        -0.22534E+08         0.00000E+00
    0.00000E+00         0.00000E+00        -0.48736E+07
 
   -0.13799E+06         0.41411E+06         0.00000E+00
    0.41411E+06        -0.22601E+08         0.00000E+00
    0.00000E+00         0.00000E+00        -0.46508E+07
 
   -0.65999E+06         0.41427E+06         0.00000E+00
    0.41427E+06        -0.22669E+08         0.00000E+00
    0.00000E+00         0.00000E+00        -0.46658E+07
 
   -0.13313E+07         0.44277E+06         0.00000E+00
    0.44277E+06        -0.22724E+08         0.00000E+00
    0.00000E+00         0.00000E+00        -0.48110E+07
 
   -0.19630E+07         0.52530E+06         0.00000E+00
    0.52530E+06        -0.22755E+08         0.00000E+00
    0.00000E+00         0.00000E+00        -0.49436E+07
 
   -0.25610E+07         0.65503E+06         0.00000E+00
    0.65503E+06        -0.22760E+08         0.00000E+00
    0.00000E+00         0.00000E+00        -0.50642E+07
 
   -0.31319E+07         0.82750E+06         0.00000E+00
    0.82750E+06        -0.22735E+08         0.00000E+00
    0.00000E+00         0.00000E+00        -0.51733E+07
 
   -0.36822E+07         0.10398E+07         0.00000E+00
    0.10398E+07        -0.22676E+08         0.00000E+00
    0.00000E+00         0.00000E+00        -0.52716E+07
 
   -0.42181E+07         0.12902E+07         0.00000E+00
    0.12902E+07        -0.22580E+08         0.00000E+00
    0.00000E+00         0.00000E+00        -0.53596E+07
 
   -0.47462E+07         0.15779E+07         0.00000E+00
    0.15779E+07        -0.22442E+08         0.00000E+00
    0.00000E+00         0.00000E+00        -0.54376E+07
 
   -0.52736E+07         0.19025E+07         0.00000E+00
    0.19025E+07        -0.22257E+08         0.00000E+00
    0.00000E+00         0.00000E+00        -0.55062E+07
 
    0.51623E+05         0.67509E+05         0.00000E+00
    0.67509E+05        -0.23046E+08         0.00000E+00
    0.00000E+00         0.00000E+00        -0.57973E+07
 
   -0.27139E+05         0.18737E+06         0.00000E+00
    0.18737E+06        -0.23061E+08         0.00000E+00
    0.00000E+00         0.00000E+00        -0.56750E+07
 
   -0.15983E+06         0.27849E+06         0.00000E+00
    0.27849E+06        -0.23094E+08         0.00000E+00
    0.00000E+00         0.00000E+00        -0.54918E+07
 
   -0.33079E+06         0.34031E+06         0.00000E+00
    0.34031E+06        -0.23147E+08         0.00000E+00
    0.00000E+00         0.00000E+00        -0.52831E+07
 
   -0.52791E+06         0.37796E+06         0.00000E+00
    0.37796E+06        -0.23220E+08         0.00000E+00
    0.00000E+00         0.00000E+00        -0.50742E+07
 
   -0.74932E+06         0.39470E+06         0.00000E+00
    0.39470E+06        -0.23309E+08         0.00000E+00
    0.00000E+00         0.00000E+00        -0.48852E+07
 
   -0.12672E+07         0.39767E+06         0.00000E+00
    0.39767E+06        -0.23395E+08         0.00000E+00
    0.00000E+00         0.00000E+00        -0.49324E+07
 
   -0.18751E+07         0.44300E+06         0.00000E+00
    0.44300E+06        -0.23464E+08         0.00000E+00
    0.00000E+00         0.00000E+00        -0.50679E+07
 
   -0.24511E+07         0.54468E+06         0.00000E+00
    0.54468E+06        -0.23508E+08         0.00000E+00
    0.00000E+00         0.00000E+00        -0.51919E+07
 
   -0.29995E+07         0.69683E+06         0.00000E+00
    0.69683E+06        -0.23524E+08         0.00000E+00
    0.00000E+00         0.00000E+00        -0.53048E+07
 
   -0.35251E+07         0.89488E+06         0.00000E+00
    0.89488E+06        -0.23510E+08         0.00000E+00
    0.00000E+00         0.00000E+00        -0.54071E+07
 
   -0.40328E+07         0.11360E+07         0.00000E+00
    0.11360E+07        -0.23463E+08         0.00000E+00
    0.00000E+00         0.00000E+00        -0.54992E+07
 
   -0.45277E+07         0.14186E+07         0.00000E+00
    0.14186E+07        -0.23380E+08         0.00000E+00
    0.00000E+00         0.00000E+00        -0.55815E+07
 
   -0.50155E+07         0.17427E+07         0.00000E+00
    0.17427E+07        -0.23256E+08         0.00000E+00
    0.00000E+00         0.00000E+00        -0.56544E+07
 
   -0.55031E+07         0.21085E+07         0.00000E+00
    0.21085E+07        -0.23088E+08         0.00000E+00
    0.00000E+00         0.00000E+00        -0.57181E+07
 
   -0.51542E+06         0.65023E+05         0.00000E+00
    0.65023E+05        -0.23747E+08         0.00000E+00
    0.00000E+00         0.00000E+00        -0.60356E+07
 
   -0.62135E+06         0.17641E+06         0.00000E+00
    0.17641E+06        -0.23772E+08         0.00000E+00
    0.00000E+00         0.00000E+00        -0.58873E+07
 
   -0.78452E+06         0.25720E+06         0.00000E+00
    0.25720E+06        -0.23823E+08         0.00000E+00
    0.00000E+00         0.00000E+00        -0.56919E+07
 
   -0.98125E+06         0.30998E+06         0.00000E+00
    0.30998E+06        -0.23897E+08         0.00000E+00
    0.00000E+00         0.00000E+00        -0.54915E+07
 
   -0.11968E+07         0.33955E+06         0.00000E+00
    0.33955E+06        -0.23993E+08         0.00000E+00
    0.00000E+00         0.00000E+00        -0.53065E+07
 
   -0.14420E+07         0.34982E+06         0.00000E+00
    0.34982E+06        -0.24103E+08         0.00000E+00
    0.00000E+00         0.00000E+00        -0.51634E+07
 
   -0.19279E+07         0.36000E+06         0.00000E+00
    0.36000E+06        -0.24208E+08         0.00000E+00
    0.00000E+00         0.00000E+00        -0.52272E+07
 
   -0.24713E+07         0.42517E+06         0.00000E+00
    0.42517E+06        -0.24292E+08         0.00000E+00
    0.00000E+00         0.00000E+00        -0.53528E+07
 
   -0.29887E+07         0.54849E+06         0.00000E+00
    0.54849E+06        -0.24349E+08         0.00000E+00
    0.00000E+00         0.00000E+00        -0.54675E+07
 
   -0.34845E+07         0.72432E+06         0.00000E+00
    0.72432E+06        -0.24377E+08         0.00000E+00
    0.00000E+00         0.00000E+00        -0.55722E+07
 
   -0.39617E+07         0.94832E+06         0.00000E+00
    0.94832E+06        -0.24374E+08         0.00000E+00
    0.00000E+00         0.00000E+00        -0.56672E+07
 
   -0.44238E+07         0.12178E+07         0.00000E+00
    0.12178E+07        -0.24340E+08         0.00000E+00
    0.00000E+00         0.00000E+00        -0.57527E+07
 
   -0.48741E+07         0.15316E+07         0.00000E+00
    0.15316E+07        -0.24270E+08         0.00000E+00
    0.00000E+00         0.00000E+00        -0.58289E+07
 
   -0.53172E+07         0.18905E+07         0.00000E+00
    0.18905E+07        -0.24163E+08         0.00000E+00
    0.00000E+00         0.00000E+00        -0.58960E+07
 
   -0.57595E+07         0.22961E+07         0.00000E+00
    0.22961E+07        -0.24012E+08         0.00000E+00
    0.00000E+00         0.00000E+00        -0.59544E+07
 
   -0.11676E+07         0.56520E+05         0.00000E+00
    0.56520E+05        -0.24522E+08         0.00000E+00
    0.00000E+00         0.00000E+00        -0.62705E+07
 
   -0.13049E+07         0.14903E+06         0.00000E+00
    0.14903E+06        -0.24559E+08         0.00000E+00
    0.00000E+00         0.00000E+00        -0.60957E+07
 
   -0.14957E+07         0.21299E+06         0.00000E+00
    0.21299E+06        -0.24630E+08         0.00000E+00
    0.00000E+00         0.00000E+00        -0.59025E+07
 
   -0.17157E+07         0.25298E+06         0.00000E+00
    0.25298E+06        -0.24731E+08         0.00000E+00
    0.00000E+00         0.00000E+00        -0.57249E+07
 
   -0.19475E+07         0.27318E+06         0.00000E+00
    0.27318E+06        -0.24855E+08         0.00000E+00
    0.00000E+00         0.00000E+00        -0.55762E+07
 
   -0.22062E+07         0.27895E+06         0.00000E+00
    0.27895E+06        -0.24987E+08         0.00000E+00
    0.00000E+00         0.00000E+00        -0.54805E+07
 
   -0.26402E+07         0.30234E+06         0.00000E+00
    0.30234E+06        -0.25108E+08         0.00000E+00
    0.00000E+00         0.00000E+00        -0.55496E+07
 
   -0.31155E+07         0.38951E+06         0.00000E+00
    0.38951E+06        -0.25205E+08         0.00000E+00
    0.00000E+00         0.00000E+00        -0.56642E+07
 
   -0.35727E+07         0.53631E+06         0.00000E+00
    0.53631E+06        -0.25274E+08         0.00000E+00
    0.00000E+00         0.00000E+00        -0.57693E+07
 
   -0.40138E+07         0.73679E+06         0.00000E+00
    0.73679E+06        -0.25314E+08         0.00000E+00
    0.00000E+00         0.00000E+00        -0.58655E+07
 
   -0.44406E+07         0.98689E+06         0.00000E+00
    0.98689E+06        -0.25324E+08         0.00000E+00
    0.00000E+00         0.00000E+00        -0.59529E+07
 
   -0.48547E+07         0.12841E+07         0.00000E+00
    0.12841E+07        -0.25302E+08         0.00000E+00
    0.00000E+00         0.00000E+00        -0.60314E+07
 
   -0.52576E+07         0.16277E+07         0.00000E+00
    0.16277E+07        -0.25248E+08         0.00000E+00
    0.00000E+00         0.00000E+00        -0.61011E+07
 
   -0.56518E+07         0.20192E+07         0.00000E+00
    0.20192E+07        -0.25158E+08         0.00000E+00
    0.00000E+00         0.00000E+00        -0.61620E+07
 
   -0.60428E+07         0.24626E+07         0.00000E+00
    0.24626E+07        -0.25029E+08         0.00000E+00
    0.00000E+00         0.00000E+00        -0.62144E+07
 
   -0.19168E+07         0.41821E+05         0.00000E+00
    0.41821E+05        -0.25372E+08         0.00000E+00
    0.00000E+00         0.00000E+00        -0.64914E+07
 
   -0.20855E+07         0.10410E+06         0.00000E+00
    0.10410E+06        -0.25419E+08         0.00000E+00
    0.00000E+00         0.00000E+00        -0.62952E+07
 
   -0.22988E+07         0.14138E+06         0.00000E+00
    0.14138E+06        -0.25512E+08         0.00000E+00
    0.00000E+00         0.00000E+00        -0.61194E+07
 
   -0.25353E+07         0.16223E+06         0.00000E+00
    0.16223E+06        -0.25646E+08         0.00000E+00
    0.00000E+00         0.00000E+00        -0.59849E+07
 
   -0.27761E+07         0.17417E+06         0.00000E+00
    0.17417E+06        -0.25801E+08         0.00000E+00
    0.00000E+00         0.00000E+00        -0.58889E+07
 
   -0.30347E+07         0.18412E+06         0.00000E+00
    0.18412E+06        -0.25955E+08         0.00000E+00
    0.00000E+00         0.00000E+00        -0.58399E+07
 
   -0.33981E+07         0.22587E+06         0.00000E+00
    0.22587E+06        -0.26091E+08         0.00000E+00
    0.00000E+00         0.00000E+00        -0.58977E+07
 
   -0.38048E+07         0.33682E+06         0.00000E+00
    0.33682E+06        -0.26199E+08         0.00000E+00
    0.00000E+00         0.00000E+00        -0.60007E+07
 
   -0.42004E+07         0.50787E+06         0.00000E+00
    0.50787E+06        -0.26280E+08         0.00000E+00
    0.00000E+00         0.00000E+00        -0.60960E+07
 
   -0.45857E+07         0.73347E+06         0.00000E+00
    0.73347E+06        -0.26332E+08         0.00000E+00
    0.00000E+00         0.00000E+00        -0.61835E+07
 
   -0.49607E+07         0.10094E+07         0.00000E+00
    0.10094E+07        -0.26355E+08         0.00000E+00
    0.00000E+00         0.00000E+00        -0.62632E+07
 
   -0.53252E+07         0.13338E+07         0.00000E+00
    0.13338E+07        -0.26348E+08         0.00000E+00
    0.00000E+00         0.00000E+00        -0.63347E+07
 
   -0.56790E+07         0.17055E+07         0.00000E+00
    0.17055E+07        -0.26310E+08         0.00000E+00
    0.00000E+00         0.00000E+00        -0.63978E+07
 
   -0.60210E+07         0.21265E+07         0.00000E+00
    0.21265E+07        -0.26240E+08         0.00000E+00
    0.00000E+00         0.00000E+00        -0.64522E+07
 
   -0.63536E+07         0.26041E+07         0.00000E+00
    0.26041E+07        -0.26135E+08         0.00000E+00
    0.00000E+00         0.00000E+00        -0.64978E+07
 
   -0.27743E+07         0.21757E+05         0.00000E+00
    0.21757E+05        -0.26294E+08         0.00000E+00
    0.00000E+00         0.00000E+00        -0.66888E+07
 
   -0.29732E+07         0.41260E+05         0.00000E+00
    0.41260E+05        -0.26352E+08         0.00000E+00
    0.00000E+00         0.00000E+00        -0.64831E+07
 
   -0.32023E+07         0.37743E+05         0.00000E+00
    0.37743E+05        -0.26471E+08         0.00000E+00
    0.00000E+00         0.00000E+00        -0.63420E+07
 
   -0.34410E+07         0.31781E+05         0.00000E+00
    0.31781E+05        -0.26637E+08         0.00000E+00
    0.00000E+00         0.00000E+00        -0.62720E+07
 
   -0.36738E+07         0.39699E+05         0.00000E+00
    0.39699E+05        -0.26823E+08         0.00000E+00
    0.00000E+00         0.00000E+00        -0.62461E+07
 
   -0.39100E+07         0.65705E+05         0.00000E+00
    0.65705E+05        -0.26996E+08         0.00000E+00
    0.00000E+00         0.00000E+00        -0.62408E+07
 
   -0.42031E+07         0.13361E+06         0.00000E+00
    0.13361E+06        -0.27144E+08         0.00000E+00
    0.00000E+00         0.00000E+00        -0.62808E+07
 
   -0.45369E+07         0.26601E+06         0.00000E+00
    0.26601E+06        -0.27268E+08         0.00000E+00
    0.00000E+00         0.00000E+00        -0.63610E+07
 
   -0.48696E+07         0.46305E+06         0.00000E+00
    0.46305E+06        -0.27360E+08         0.00000E+00
    0.00000E+00         0.00000E+00        -0.64459E+07
 
   -0.51992E+07         0.71267E+06         0.00000E+00
    0.71267E+06        -0.27426E+08         0.00000E+00
    0.00000E+00         0.00000E+00        -0.65251E+07
 
   -0.55207E+07         0.10141E+07         0.00000E+00
    0.10141E+07        -0.27465E+08         0.00000E+00
    0.00000E+00         0.00000E+00        -0.65972E+07
 
   -0.58347E+07         0.13656E+07         0.00000E+00
    0.13656E+07        -0.27475E+08         0.00000E+00
    0.00000E+00         0.00000E+00        -0.66620E+07
 
   -0.61396E+07         0.17639E+07         0.00000E+00
    0.17639E+07        -0.27454E+08         0.00000E+00
    0.00000E+00         0.00000E+00        -0.67188E+07
 
   -0.64279E+07         0.22098E+07         0.00000E+00
    0.22098E+07        -0.27406E+08         0.00000E+00
    0.00000E+00         0.00000E+00        -0.67667E+07
 
   -0.66939E+07         0.27155E+07         0.00000E+00
    0.27155E+07        -0.27330E+08         0.00000E+00
    0.00000E+00         0.00000E+00        -0.68047E+07
 
   -0.37498E+07        -0.40526E+04         0.00000E+00
   -0.40526E+04        -0.27289E+08         0.00000E+00
    0.00000E+00         0.00000E+00        -0.68671E+07
 
   -0.39806E+07        -0.42244E+05         0.00000E+00
   -0.42244E+05        -0.27364E+08         0.00000E+00
    0.00000E+00         0.00000E+00        -0.66673E+07
 
   -0.42159E+07        -0.10008E+06         0.00000E+00
   -0.10008E+06        -0.27510E+08         0.00000E+00
    0.00000E+00         0.00000E+00        -0.65809E+07
 
   -0.44305E+07        -0.13463E+06         0.00000E+00
   -0.13463E+06        -0.27698E+08         0.00000E+00
    0.00000E+00         0.00000E+00        -0.65888E+07
 
   -0.46279E+07        -0.12570E+06         0.00000E+00
   -0.12570E+06        -0.27897E+08         0.00000E+00
    0.00000E+00         0.00000E+00        -0.66367E+07
 
   -0.48244E+07        -0.77326E+05         0.00000E+00
   -0.77326E+05        -0.28088E+08         0.00000E+00
    0.00000E+00         0.00000E+00        -0.66745E+07
 
   -0.50524E+07         0.19591E+05         0.00000E+00
    0.19591E+05        -0.28251E+08         0.00000E+00
    0.00000E+00         0.00000E+00        -0.67109E+07
 
   -0.53071E+07         0.17755E+06         0.00000E+00
    0.17755E+06        -0.28393E+08         0.00000E+00
    0.00000E+00         0.00000E+00        -0.67554E+07
 
   -0.55794E+07         0.39716E+06         0.00000E+00
    0.39716E+06        -0.28511E+08         0.00000E+00
    0.00000E+00         0.00000E+00        -0.68181E+07
 
   -0.58526E+07         0.67177E+06         0.00000E+00
    0.67177E+06        -0.28596E+08         0.00000E+00
    0.00000E+00         0.00000E+00        -0.68898E+07
 
   -0.61190E+07         0.99975E+06         0.00000E+00
    0.99975E+06        -0.28651E+08         0.00000E+00
    0.00000E+00         0.00000E+00        -0.69540E+07
 
   -0.63825E+07         0.13775E+07         0.00000E+00
    0.13775E+07        -0.28677E+08         0.00000E+00
    0.00000E+00         0.00000E+00        -0.70120E+07
 
   -0.66409E+07         0.18005E+07         0.00000E+00
    0.18005E+07        -0.28678E+08         0.00000E+00
    0.00000E+00         0.00000E+00        -0.70638E+07
 
   -0.68788E+07         0.22661E+07         0.00000E+00
    0.22661E+07        -0.28655E+08         0.00000E+00
    0.00000E+00         0.00000E+00        -0.71067E+07
 
   -0.70692E+07         0.27878E+07         0.00000E+00
    0.27878E+07        -0.28616E+08         0.00000E+00
    0.00000E+00         0.00000E+00        -0.71370E+07
 
   -0.48542E+07        -0.43724E+05         0.00000E+00
   -0.43724E+05        -0.28355E+08         0.00000E+00
    0.00000E+00         0.00000E+00        -0.70312E+07
 
   -0.51212E+07        -0.15791E+06         0.00000E+00
   -0.15791E+06        -0.28475E+08         0.00000E+00
    0.00000E+00         0.00000E+00        -0.68807E+07
 
   -0.53370E+07        -0.26264E+06         0.00000E+00
   -0.26264E+06        -0.28641E+08         0.00000E+00
    0.00000E+00         0.00000E+00        -0.68672E+07
 
   -0.54950E+07        -0.31272E+06         0.00000E+00
   -0.31272E+06        -0.28817E+08         0.00000E+00
    0.00000E+00         0.00000E+00        -0.69375E+07
 
   -0.56315E+07        -0.30107E+06         0.00000E+00
   -0.30107E+06        -0.29000E+08         0.00000E+00
    0.00000E+00         0.00000E+00        -0.70369E+07
 
   -0.57779E+07        -0.23749E+06         0.00000E+00
   -0.23749E+06        -0.29186E+08         0.00000E+00
    0.00000E+00         0.00000E+00        -0.71281E+07
 
   -0.59416E+07        -0.12502E+06         0.00000E+00
   -0.12502E+06        -0.29363E+08         0.00000E+00
    0.00000E+00         0.00000E+00        -0.71866E+07
 
   -0.61209E+07         0.53831E+05         0.00000E+00
    0.53831E+05        -0.29526E+08         0.00000E+00
    0.00000E+00         0.00000E+00        -0.72183E+07
 
   -0.63268E+07         0.29902E+06         0.00000E+00
    0.29902E+06        -0.29670E+08         0.00000E+00
    0.00000E+00         0.00000E+00        -0.72611E+07
 
   -0.65406E+07         0.60504E+06         0.00000E+00
    0.60504E+06        -0.29793E+08         0.00000E+00
    0.00000E+00         0.00000E+00        -0.73074E+07
 
   -0.67547E+07         0.96213E+06         0.00000E+00
    0.96213E+06        -0.29886E+08         0.00000E+00
    0.00000E+00         0.00000E+00        -0.73471E+07
 
   -0.69679E+07         0.13648E+07         0.00000E+00
    0.13648E+07        -0.29947E+08         0.00000E+00
    0.00000E+00         0.00000E+00        -0.73846E+07
 
   -0.71848E+07         0.18082E+07         0.00000E+00
    0.18082E+07        -0.29975E+08         0.00000E+00
    0.00000E+00         0.00000E+00        -0.74320E+07
 
   -0.73827E+07         0.22894E+07         0.00000E+00
    0.22894E+07        -0.29987E+08         0.00000E+00
    0.00000E+00         0.00000E+00        -0.74740E+07
 
   -0.75046E+07         0.28003E+07         0.00000E+00
    0.28003E+07        -0.30003E+08         0.00000E+00
    0.00000E+00         0.00000E+00        -0.75135E+07
 
   -0.61022E+07        -0.10381E+06         0.00000E+00
   -0.10381E+06        -0.29526E+08         0.00000E+00
    0.00000E+00         0.00000E+00        -0.72343E+07
 
   -0.63964E+07        -0.28597E+06         0.00000E+00
   -0.28597E+06        -0.29625E+08         0.00000E+00
    0.00000E+00         0.00000E+00        -0.72132E+07
 
   -0.65516E+07        -0.42722E+06         0.00000E+00
   -0.42722E+06        -0.29764E+08         0.00000E+00
    0.00000E+00         0.00000E+00        -0.72689E+07
 
   -0.66279E+07        -0.49315E+06         0.00000E+00
   -0.49315E+06        -0.29936E+08         0.00000E+00
    0.00000E+00         0.00000E+00        -0.73444E+07
 
   -0.66810E+07        -0.48013E+06         0.00000E+00
   -0.48013E+06        -0.30119E+08         0.00000E+00
    0.00000E+00         0.00000E+00        -0.74376E+07
 
   -0.67750E+07        -0.40372E+06         0.00000E+00
   -0.40372E+06        -0.30297E+08         0.00000E+00
    0.00000E+00         0.00000E+00        -0.75726E+07
 
   -0.68725E+07        -0.27331E+06         0.00000E+00
   -0.27331E+06        -0.30460E+08         0.00000E+00
    0.00000E+00         0.00000E+00        -0.76822E+07
 
   -0.69831E+07        -0.83108E+05         0.00000E+00
   -0.83108E+05        -0.30611E+08         0.00000E+00
    0.00000E+00         0.00000E+00        -0.77616E+07
 
   -0.71136E+07         0.17342E+06         0.00000E+00
    0.17342E+06        -0.30753E+08         0.00000E+00
    0.00000E+00         0.00000E+00        -0.78181E+07
 
   -0.72614E+07         0.49877E+06         0.00000E+00
    0.49877E+06        -0.30884E+08         0.00000E+00
    0.00000E+00         0.00000E+00        -0.78604E+07
 
   -0.74205E+07         0.88332E+06         0.00000E+00
    0.88332E+06        -0.30993E+08         0.00000E+00
    0.00000E+00         0.00000E+00        -0.78954E+07
 
   -0.75893E+07         0.13161E+07         0.00000E+00
    0.13161E+07        -0.31078E+08         0.00000E+00
    0.00000E+00         0.00000E+00        -0.79291E+07
 
   -0.77659E+07         0.17872E+07         0.00000E+00
    0.17872E+07        -0.31137E+08         0.00000E+00
    0.00000E+00         0.00000E+00        -0.79733E+07
 
   -0.79371E+07         0.22809E+07         0.00000E+00
    0.22809E+07        -0.31167E+08         0.00000E+00
    0.00000E+00         0.00000E+00        -0.80409E+07
 
   -0.81098E+07         0.27536E+07         0.00000E+00
    0.27536E+07        -0.31195E+08         0.00000E+00
    0.00000E+00         0.00000E+00        -0.81415E+07
 
   -0.75250E+07        -0.16553E+06         0.00000E+00
   -0.16553E+06        -0.30684E+08         0.00000E+00
    0.00000E+00         0.00000E+00        -0.76417E+07
 
   -0.77701E+07        -0.41619E+06         0.00000E+00
   -0.41619E+06        -0.30753E+08         0.00000E+00
    0.00000E+00         0.00000E+00        -0.77046E+07
 
   -0.78453E+07        -0.58355E+06         0.00000E+00
   -0.58355E+06        -0.30900E+08         0.00000E+00
    0.00000E+00         0.00000E+00        -0.77490E+07
 
   -0.78215E+07        -0.66815E+06         0.00000E+00
   -0.66815E+06        -0.31080E+08         0.00000E+00
    0.00000E+00         0.00000E+00        -0.77816E+07
 
   -0.77907E+07        -0.66015E+06         0.00000E+00
   -0.66015E+06        -0.31253E+08         0.00000E+00
    0.00000E+00         0.00000E+00        -0.78629E+07
 
   -0.78108E+07        -0.57114E+06         0.00000E+00
   -0.57114E+06        -0.31420E+08         0.00000E+00
    0.00000E+00         0.00000E+00        -0.80159E+07
 
   -0.78465E+07        -0.42253E+06         0.00000E+00
   -0.42253E+06        -0.31577E+08         0.00000E+00
    0.00000E+00         0.00000E+00        -0.81739E+07
 
   -0.78878E+07        -0.21541E+06         0.00000E+00
   -0.21541E+06        -0.31718E+08         0.00000E+00
    0.00000E+00         0.00000E+00        -0.83064E+07
 
   -0.79440E+07         0.57829E+05         0.00000E+00
    0.57829E+05        -0.31842E+08         0.00000E+00
    0.00000E+00         0.00000E+00        -0.84105E+07
 
   -0.80209E+07         0.39978E+06         0.00000E+00
    0.39978E+06        -0.31951E+08         0.00000E+00
    0.00000E+00         0.00000E+00        -0.84924E+07
 
   -0.81209E+07         0.80414E+06         0.00000E+00
    0.80414E+06        -0.32044E+08         0.00000E+00
    0.00000E+00         0.00000E+00        -0.85621E+07
 
   -0.82448E+07         0.12582E+07         0.00000E+00
    0.12582E+07        -0.32120E+08         0.00000E+00
    0.00000E+00         0.00000E+00        -0.86283E+07
 
   -0.83929E+07         0.17459E+07         0.00000E+00
    0.17459E+07        -0.32179E+08         0.00000E+00
    0.00000E+00         0.00000E+00        -0.87000E+07
 
   -0.85702E+07         0.22404E+07         0.00000E+00
    0.22404E+07        -0.32232E+08         0.00000E+00
    0.00000E+00         0.00000E+00        -0.87834E+07
 
   -0.87814E+07         0.27131E+07         0.00000E+00
    0.27131E+07        -0.32279E+08         0.00000E+00
    0.00000E+00         0.00000E+00        -0.88623E+07
 
   -0.91046E+07        -0.21349E+06         0.00000E+00
   -0.21349E+06        -0.31883E+08         0.00000E+00
    0.00000E+00         0.00000E+00        -0.81976E+07
 
   -0.92363E+07        -0.52974E+06         0.00000E+00
   -0.52974E+06        -0.31965E+08         0.00000E+00
    0.00000E+00         0.00000E+00        -0.82402E+07
 
   -0.92142E+07        -0.73602E+06         0.00000E+00
   -0.73602E+06        -0.32093E+08         0.00000E+00
    0.00000E+00         0.00000E+00        -0.82614E+07
 
   -0.90907E+07        -0.83796E+06         0.00000E+00
   -0.83796E+06        -0.32246E+08         0.00000E+00
    0.00000E+00         0.00000E+00        -0.82674E+07
 
   -0.89508E+07        -0.83396E+06         0.00000E+00
   -0.83396E+06        -0.32413E+08         0.00000E+00
    0.00000E+00         0.00000E+00        -0.83152E+07
 
   -0.88875E+07        -0.73757E+06         0.00000E+00
   -0.73757E+06        -0.32568E+08         0.00000E+00
    0.00000E+00         0.00000E+00        -0.84730E+07
 
   -0.88578E+07        -0.57253E+06         0.00000E+00
   -0.57253E+06        -0.32715E+08         0.00000E+00
    0.00000E+00         0.00000E+00        -0.86716E+07
 
   -0.88284E+07        -0.34431E+06         0.00000E+00
   -0.34431E+06        -0.32846E+08         0.00000E+00
    0.00000E+00         0.00000E+00        -0.88532E+07
 
   -0.88118E+07        -0.49916E+05         0.00000E+00
   -0.49916E+05        -0.32961E+08         0.00000E+00
    0.00000E+00         0.00000E+00        -0.90105E+07
 
   -0.88193E+07         0.31015E+06         0.00000E+00
    0.31015E+06        -0.33060E+08         0.00000E+00
    0.00000E+00         0.00000E+00        -0.91439E+07
 
   -0.88604E+07         0.72995E+06         0.00000E+00
    0.72995E+06        -0.33146E+08         0.00000E+00
    0.00000E+00         0.00000E+00        -0.92595E+07
 
   -0.89421E+07         0.11968E+07         0.00000E+00
    0.11968E+07        -0.33221E+08         0.00000E+00
    0.00000E+00         0.00000E+00        -0.93639E+07
 
   -0.90715E+07         0.16916E+07         0.00000E+00
    0.16916E+07        -0.33289E+08         0.00000E+00
    0.00000E+00         0.00000E+00        -0.94596E+07
 
   -0.92531E+07         0.21937E+07         0.00000E+00
    0.21937E+07        -0.33346E+08         0.00000E+00
    0.00000E+00         0.00000E+00        -0.95396E+07
 
   -0.94810E+07         0.26883E+07         0.00000E+00
    0.26883E+07        -0.33382E+08         0.00000E+00
    0.00000E+00         0.00000E+00        -0.95900E+07
 
   -0.10814E+08        -0.24897E+06         0.00000E+00
   -0.24897E+06        -0.33170E+08         0.00000E+00
    0.00000E+00         0.00000E+00        -0.87969E+07
 
   -0.10803E+08        -0.62952E+06         0.00000E+00
   -0.62952E+06        -0.33232E+08         0.00000E+00
    0.00000E+00         0.00000E+00        -0.88070E+07
 
   -0.10661E+08        -0.87199E+06         0.00000E+00
   -0.87199E+06        -0.33340E+08         0.00000E+00
    0.00000E+00         0.00000E+00        -0.88003E+07
 
   -0.10424E+08        -0.99388E+06         0.00000E+00
   -0.99388E+06        -0.33472E+08         0.00000E+00
    0.00000E+00         0.00000E+00        -0.87791E+07
 
   -0.10162E+08        -0.99716E+06         0.00000E+00
   -0.99716E+06        -0.33613E+08         0.00000E+00
    0.00000E+00         0.00000E+00        -0.87888E+07
 
   -0.10008E+08        -0.89658E+06         0.00000E+00
   -0.89658E+06        -0.33748E+08         0.00000E+00
    0.00000E+00         0.00000E+00        -0.89520E+07
 
   -0.99041E+07        -0.71884E+06         0.00000E+00
   -0.71884E+06        -0.33878E+08         0.00000E+00
    0.00000E+00         0.00000E+00        -0.91849E+07
 
   -0.98010E+07        -0.47153E+06         0.00000E+00
   -0.47153E+06        -0.33998E+08         0.00000E+00
    0.00000E+00         0.00000E+00        -0.94092E+07
 
   -0.97132E+07        -0.15698E+06         0.00000E+00
   -0.15698E+06        -0.34105E+08         0.00000E+00
    0.00000E+00         0.00000E+00        -0.96160E+07
 
   -0.96551E+07         0.22017E+06         0.00000E+00
    0.22017E+06        -0.34200E+08         0.00000E+00
    0.00000E+00         0.00000E+00        -0.98016E+07
 
   -0.96411E+07         0.65260E+06         0.00000E+00
    0.65260E+06        -0.34286E+08         0.00000E+00
    0.00000E+00         0.00000E+00        -0.99659E+07
 
   -0.96839E+07         0.11287E+07         0.00000E+00
    0.11287E+07        -0.34364E+08         0.00000E+00
    0.00000E+00         0.00000E+00        -0.10108E+08
 
   -0.97926E+07         0.16340E+07         0.00000E+00
    0.16340E+07        -0.34434E+08         0.00000E+00
    0.00000E+00         0.00000E+00        -0.10224E+08
 
   -0.99691E+07         0.21542E+07         0.00000E+00
    0.21542E+07        -0.34489E+08         0.00000E+00
    0.00000E+00         0.00000E+00        -0.10303E+08
 
   -0.10208E+08         0.26734E+07         0.00000E+00
    0.26734E+07        -0.34518E+08         0.00000E+00
    0.00000E+00         0.00000E+00        -0.10338E+08
 
   -0.12635E+08        -0.28027E+06         0.00000E+00
   -0.28027E+06        -0.34501E+08         0.00000E+00
    0.00000E+00         0.00000E+00        -0.94271E+07
 
   -0.12465E+08        -0.71224E+06         0.00000E+00
   -0.71224E+06        -0.34552E+08         0.00000E+00
    0.00000E+00         0.00000E+00        -0.94033E+07
 
   -0.12182E+08        -0.98955E+06         0.00000E+00
   -0.98955E+06        -0.34638E+08         0.00000E+00
    0.00000E+00         0.00000E+00        -0.93641E+07
 
   -0.11817E+08        -0.11300E+07         0.00000E+00
   -0.11300E+07        -0.34744E+08         0.00000E+00
    0.00000E+00         0.00000E+00        -0.93121E+07
 
   -0.11423E+08        -0.11410E+07         0.00000E+00
   -0.11410E+07        -0.34856E+08         0.00000E+00
    0.00000E+00         0.00000E+00        -0.92838E+07
 
   -0.11172E+08        -0.10405E+07         0.00000E+00
   -0.10405E+07        -0.34964E+08         0.00000E+00
    0.00000E+00         0.00000E+00        -0.94550E+07
 
   -0.10986E+08        -0.85500E+06         0.00000E+00
   -0.85500E+06        -0.35071E+08         0.00000E+00
    0.00000E+00         0.00000E+00        -0.97165E+07
 
   -0.10806E+08        -0.59391E+06         0.00000E+00
   -0.59391E+06        -0.35174E+08         0.00000E+00
    0.00000E+00         0.00000E+00        -0.99750E+07
 
   -0.10648E+08        -0.26420E+06         0.00000E+00
   -0.26420E+06        -0.35271E+08         0.00000E+00
    0.00000E+00         0.00000E+00        -0.10223E+08
 
   -0.10528E+08         0.12649E+06         0.00000E+00
    0.12649E+06        -0.35361E+08         0.00000E+00
    0.00000E+00         0.00000E+00        -0.10453E+08
 
   -0.10462E+08         0.56954E+06         0.00000E+00
    0.56954E+06        -0.35447E+08         0.00000E+00
    0.00000E+00         0.00000E+00        -0.10661E+08
 
   -0.10465E+08         0.10560E+07         0.00000E+00
    0.10560E+07        -0.35528E+08         0.00000E+00
    0.00000E+00         0.00000E+00        -0.10840E+08
 
   -0.10547E+08         0.15761E+07         0.00000E+00
    0.15761E+07        -0.35599E+08         0.00000E+00
    0.00000E+00         0.00000E+00        -0.10980E+08
 
   -0.10712E+08         0.21176E+07         0.00000E+00
    0.21176E+07        -0.35653E+08         0.00000E+00
    0.00000E+00         0.00000E+00        -0.11070E+08
 
   -0.10958E+08         0.26636E+07         0.00000E+00
    0.26636E+07        -0.35681E+08         0.00000E+00
    0.00000E+00         0.00000E+00        -0.11102E+08
 
   -0.14554E+08        -0.30681E+06         0.00000E+00
   -0.30681E+06        -0.35875E+08         0.00000E+00
    0.00000E+00         0.00000E+00        -0.10086E+08
 
   -0.14209E+08        -0.78117E+06         0.00000E+00
   -0.78117E+06        -0.35915E+08         0.00000E+00
    0.00000E+00         0.00000E+00        -0.10025E+08
 
   -0.13771E+08        -0.10866E+07         0.00000E+00
   -0.10866E+07        -0.35980E+08         0.00000E+00
    0.00000E+00         0.00000E+00        -0.99503E+07
 
   -0.13265E+08        -0.12424E+07         0.00000E+00
   -0.12424E+07        -0.36058E+08         0.00000E+00
    0.00000E+00         0.00000E+00        -0.98646E+07
 
   -0.12733E+08        -0.12609E+07         0.00000E+00
   -0.12609E+07        -0.36138E+08         0.00000E+00
    0.00000E+00         0.00000E+00        -0.97989E+07
 
   -0.12380E+08        -0.11627E+07         0.00000E+00
   -0.11627E+07        -0.36214E+08         0.00000E+00
    0.00000E+00         0.00000E+00        -0.99789E+07
 
   -0.12106E+08        -0.97393E+06         0.00000E+00
   -0.97393E+06        -0.36291E+08         0.00000E+00
    0.00000E+00         0.00000E+00        -0.10262E+08
 
   -0.11847E+08        -0.70542E+06         0.00000E+00
   -0.70542E+06        -0.36371E+08         0.00000E+00
    0.00000E+00         0.00000E+00        -0.10545E+08
 
   -0.11619E+08        -0.36702E+06         0.00000E+00
   -0.36702E+06        -0.36452E+08         0.00000E+00
    0.00000E+00         0.00000E+00        -0.10822E+08
 
   -0.11438E+08         0.31761E+05         0.00000E+00
    0.31761E+05        -0.36533E+08         0.00000E+00
    0.00000E+00         0.00000E+00        -0.11086E+08
 
   -0.11320E+08         0.48278E+06         0.00000E+00
    0.48278E+06        -0.36616E+08         0.00000E+00
    0.00000E+00         0.00000E+00        -0.11330E+08
 
   -0.11280E+08         0.97925E+06         0.00000E+00
    0.97925E+06        -0.36696E+08         0.00000E+00
    0.00000E+00         0.00000E+00        -0.11544E+08
 
   -0.11330E+08         0.15143E+07         0.00000E+00
    0.15143E+07        -0.36771E+08         0.00000E+00
    0.00000E+00         0.00000E+00        -0.11716E+08
 
   -0.11477E+08         0.20777E+07         0.00000E+00
    0.20777E+07        -0.36830E+08         0.00000E+00
    0.00000E+00         0.00000E+00        -0.11831E+08
 
   -0.11726E+08         0.26527E+07         0.00000E+00
    0.26527E+07        -0.36864E+08         0.00000E+00
    0.00000E+00         0.00000E+00        -0.11875E+08
 
   -0.16556E+08        -0.32869E+06         0.00000E+00
   -0.32869E+06        -0.37288E+08         0.00000E+00
    0.00000E+00         0.00000E+00        -0.10769E+08
 
   -0.16023E+08        -0.83659E+06         0.00000E+00
   -0.83659E+06        -0.37317E+08         0.00000E+00
    0.00000E+00         0.00000E+00        -0.10668E+08
 
   -0.15417E+08        -0.11626E+07         0.00000E+00
   -0.11626E+07        -0.37362E+08         0.00000E+00
    0.00000E+00         0.00000E+00        -0.10556E+08
 
   -0.14760E+08        -0.13283E+07         0.00000E+00
   -0.13283E+07        -0.37410E+08         0.00000E+00
    0.00000E+00         0.00000E+00        -0.10434E+08
 
   -0.14090E+08        -0.13521E+07         0.00000E+00
   -0.13521E+07        -0.37454E+08         0.00000E+00
    0.00000E+00         0.00000E+00        -0.10333E+08
 
   -0.13630E+08        -0.12569E+07         0.00000E+00
   -0.12569E+07        -0.37494E+08         0.00000E+00
    0.00000E+00         0.00000E+00        -0.10518E+08
 
   -0.13265E+08        -0.10680E+07         0.00000E+00
   -0.10680E+07        -0.37536E+08         0.00000E+00
    0.00000E+00         0.00000E+00        -0.10814E+08
 
   -0.12926E+08        -0.79800E+06         0.00000E+00
   -0.79800E+06        -0.37584E+08         0.00000E+00
    0.00000E+00         0.00000E+00        -0.11111E+08
 
   -0.12628E+08        -0.45812E+06         0.00000E+00
   -0.45812E+06        -0.37641E+08         0.00000E+00
    0.00000E+00         0.00000E+00        -0.11404E+08
 
   -0.12387E+08        -0.57895E+05         0.00000E+00
   -0.57895E+05        -0.37707E+08         0.00000E+00
    0.00000E+00         0.00000E+00        -0.11689E+08
 
   -0.12216E+08         0.39562E+06         0.00000E+00
    0.39562E+06        -0.37781E+08         0.00000E+00
    0.00000E+00         0.00000E+00        -0.11962E+08
 
   -0.12129E+08         0.89771E+06         0.00000E+00
    0.89771E+06        -0.37860E+08         0.00000E+00
    0.00000E+00         0.00000E+00        -0.12210E+08
 
   -0.12139E+08         0.14441E+07         0.00000E+00
    0.14441E+07        -0.37940E+08         0.00000E+00
    0.00000E+00         0.00000E+00        -0.12421E+08
 
   -0.12261E+08         0.20274E+07         0.00000E+00
    0.20274E+07        -0.38010E+08         0.00000E+00
    0.00000E+00         0.00000E+00        -0.12575E+08
 
   -0.12505E+08         0.26325E+07         0.00000E+00
    0.26325E+07        -0.38058E+08         0.00000E+00
    0.00000E+00         0.00000E+00        -0.12646E+08
 
   -0.18628E+08        -0.34625E+06         0.00000E+00
   -0.34625E+06        -0.38735E+08         0.00000E+00
    0.00000E+00         0.00000E+00        -0.11473E+08
 
   -0.17893E+08        -0.87869E+06         0.00000E+00
   -0.87869E+06        -0.38753E+08         0.00000E+00
    0.00000E+00         0.00000E+00        -0.11329E+08
 
   -0.17107E+08        -0.12162E+07         0.00000E+00
   -0.12162E+07        -0.38777E+08         0.00000E+00
    0.00000E+00         0.00000E+00        -0.11177E+08
 
   -0.16293E+08        -0.13848E+07         0.00000E+00
   -0.13848E+07        -0.38794E+08         0.00000E+00
    0.00000E+00         0.00000E+00        -0.11017E+08
 
   -0.15486E+08        -0.14096E+07         0.00000E+00
   -0.14096E+07        -0.38799E+08         0.00000E+00
    0.00000E+00         0.00000E+00        -0.10884E+08
 
   -0.14919E+08        -0.13162E+07         0.00000E+00
   -0.13162E+07        -0.38797E+08         0.00000E+00
    0.00000E+00         0.00000E+00        -0.11067E+08
 
   -0.14463E+08        -0.11290E+07         0.00000E+00
   -0.11290E+07        -0.38796E+08         0.00000E+00
    0.00000E+00         0.00000E+00        -0.11364E+08
 
   -0.14045E+08        -0.86267E+06         0.00000E+00
   -0.86267E+06        -0.38806E+08         0.00000E+00
    0.00000E+00         0.00000E+00        -0.11659E+08
 
   -0.13679E+08        -0.52896E+06         0.00000E+00
   -0.52896E+06        -0.38830E+08         0.00000E+00
    0.00000E+00         0.00000E+00        -0.11955E+08
 
   -0.13377E+08        -0.13597E+06         0.00000E+00
   -0.13597E+06        -0.38873E+08         0.00000E+00
    0.00000E+00         0.00000E+00        -0.12251E+08
 
   -0.13151E+08         0.31154E+06         0.00000E+00
    0.31154E+06        -0.38934E+08         0.00000E+00
    0.00000E+00         0.00000E+00        -0.12545E+08
 
   -0.13012E+08         0.81110E+06         0.00000E+00
    0.81110E+06        -0.39011E+08         0.00000E+00
    0.00000E+00         0.00000E+00        -0.12827E+08
 
   -0.12975E+08         0.13613E+07         0.00000E+00
    0.13613E+07        -0.39098E+08         0.00000E+00
    0.00000E+00         0.00000E+00        -0.13084E+08
 
   -0.13060E+08         0.19591E+07         0.00000E+00
    0.19591E+07        -0.39185E+08         0.00000E+00
    0.00000E+00         0.00000E+00        -0.13290E+08
 
   -0.13290E+08         0.25932E+07         0.00000E+00
    0.25932E+07        -0.39255E+08         0.00000E+00
    0.00000E+00         0.00000E+00        -0.13408E+08
 
   -0.20755E+08        -0.36021E+06         0.00000E+00
   -0.36021E+06        -0.40210E+08         0.00000E+00
    0.00000E+00         0.00000E+00        -0.12193E+08
 
   -0.19803E+08        -0.90772E+06         0.00000E+00
   -0.90772E+06        -0.40219E+08         0.00000E+00
    0.00000E+00         0.00000E+00        -0.12004E+08
 
   -0.18828E+08        -0.12456E+07         0.00000E+00
   -0.12456E+07        -0.40221E+08         0.00000E+00
    0.00000E+00         0.00000E+00        -0.11810E+08
 
   -0.17853E+08        -0.14074E+07         0.00000E+00
   -0.14074E+07        -0.40203E+08         0.00000E+00
    0.00000E+00         0.00000E+00        -0.11611E+08
 
   -0.16913E+08        -0.14269E+07         0.00000E+00
   -0.14269E+07        -0.40165E+08         0.00000E+00
    0.00000E+00         0.00000E+00        -0.11445E+08
 
   -0.16241E+08        -0.13325E+07         0.00000E+00
   -0.13325E+07        -0.40113E+08         0.00000E+00
    0.00000E+00         0.00000E+00        -0.11616E+08
 
   -0.15697E+08        -0.11478E+07         0.00000E+00
   -0.11478E+07        -0.40062E+08         0.00000E+00
    0.00000E+00         0.00000E+00        -0.11899E+08
 
   -0.15206E+08        -0.89016E+06         0.00000E+00
   -0.89016E+06        -0.40025E+08         0.00000E+00
    0.00000E+00         0.00000E+00        -0.12178E+08
 
   -0.14777E+08        -0.57134E+06         0.00000E+00
   -0.57134E+06        -0.40009E+08         0.00000E+00
    0.00000E+00         0.00000E+00        -0.12463E+08
 
   -0.14416E+08        -0.19658E+06         0.00000E+00
   -0.19658E+06        -0.40023E+08         0.00000E+00
    0.00000E+00         0.00000E+00        -0.12759E+08
 
   -0.14133E+08         0.23316E+06         0.00000E+00
    0.23316E+06        -0.40069E+08         0.00000E+00
    0.00000E+00         0.00000E+00        -0.13068E+08
 
   -0.13937E+08         0.71881E+06         0.00000E+00
    0.71881E+06        -0.40143E+08         0.00000E+00
    0.00000E+00         0.00000E+00        -0.13384E+08
 
   -0.13844E+08         0.12621E+07         0.00000E+00
    0.12621E+07        -0.40240E+08         0.00000E+00
    0.00000E+00         0.00000E+00        -0.13692E+08
 
   -0.13878E+08         0.18653E+07         0.00000E+00
    0.18653E+07        -0.40348E+08         0.00000E+00
    0.00000E+00         0.00000E+00        -0.13965E+08
 
   -0.14078E+08         0.25251E+07         0.00000E+00
    0.25251E+07        -0.40451E+08         0.00000E+00
    0.00000E+00         0.00000E+00        -0.14153E+08
 
   -0.22925E+08        -0.37168E+06         0.00000E+00
   -0.37168E+06        -0.41707E+08         0.00000E+00
    0.00000E+00         0.00000E+00        -0.12926E+08
 
   -0.21737E+08        -0.92370E+06         0.00000E+00
   -0.92370E+06        -0.41708E+08         0.00000E+00
    0.00000E+00         0.00000E+00        -0.12689E+08
 
   -0.20559E+08        -0.12472E+07         0.00000E+00
   -0.12472E+07        -0.41686E+08         0.00000E+00
    0.00000E+00         0.00000E+00        -0.12449E+08
 
   -0.19424E+08        -0.13889E+07         0.00000E+00
   -0.13889E+07        -0.41628E+08         0.00000E+00
    0.00000E+00         0.00000E+00        -0.12210E+08
 
   -0.18361E+08        -0.13956E+07         0.00000E+00
   -0.13956E+07        -0.41537E+08         0.00000E+00
    0.00000E+00         0.00000E+00        -0.12011E+08
 
   -0.17589E+08        -0.12968E+07         0.00000E+00
   -0.12968E+07        -0.41429E+08         0.00000E+00
    0.00000E+00         0.00000E+00        -0.12156E+08
 
   -0.16967E+08        -0.11155E+07         0.00000E+00
   -0.11155E+07        -0.41320E+08         0.00000E+00
    0.00000E+00         0.00000E+00        -0.12408E+08
 
   -0.16414E+08        -0.87217E+06         0.00000E+00
   -0.87217E+06        -0.41229E+08         0.00000E+00
    0.00000E+00         0.00000E+00        -0.12656E+08
 
   -0.15928E+08        -0.57783E+06         0.00000E+00
   -0.57783E+06        -0.41168E+08         0.00000E+00
    0.00000E+00         0.00000E+00        -0.12916E+08
 
   -0.15512E+08        -0.23454E+06         0.00000E+00
   -0.23454E+06        -0.41148E+08         0.00000E+00
    0.00000E+00         0.00000E+00        -0.13200E+08
 
   -0.15171E+08         0.16211E+06         0.00000E+00
    0.16211E+06        -0.41176E+08         0.00000E+00
    0.00000E+00         0.00000E+00        -0.13518E+08
 
   -0.14913E+08         0.61927E+06         0.00000E+00
    0.61927E+06        -0.41249E+08         0.00000E+00
    0.00000E+00         0.00000E+00        -0.13868E+08
 
   -0.14754E+08         0.11432E+07         0.00000E+00
    0.11432E+07        -0.41361E+08         0.00000E+00
    0.00000E+00         0.00000E+00        -0.14235E+08
 
   -0.14717E+08         0.17392E+07         0.00000E+00
    0.17392E+07        -0.41496E+08         0.00000E+00
    0.00000E+00         0.00000E+00        -0.14592E+08
 
   -0.14867E+08         0.24109E+07         0.00000E+00
    0.24109E+07        -0.41640E+08         0.00000E+00
    0.00000E+00         0.00000E+00        -0.14871E+08
 
   -0.25122E+08        -0.38208E+06         0.00000E+00
   -0.38208E+06        -0.43220E+08         0.00000E+00
    0.00000E+00         0.00000E+00        -0.13668E+08
 
   -0.23670E+08        -0.92521E+06         0.00000E+00
   -0.92521E+06        -0.43212E+08         0.00000E+00
    0.00000E+00         0.00000E+00        -0.13376E+08
 
   -0.22278E+08        -0.12139E+07         0.00000E+00
   -0.12139E+07        -0.43160E+08         0.00000E+00
    0.00000E+00         0.00000E+00        -0.13088E+08
 
   -0.20989E+08        -0.13181E+07         0.00000E+00
   -0.13181E+07        -0.43052E+08         0.00000E+00
    0.00000E+00         0.00000E+00        -0.12808E+08
 
   -0.19820E+08        -0.13041E+07         0.00000E+00
   -0.13041E+07        -0.42898E+08         0.00000E+00
    0.00000E+00         0.00000E+00        -0.12574E+08
 
   -0.18959E+08        -0.11997E+07         0.00000E+00
   -0.11997E+07        -0.42722E+08         0.00000E+00
    0.00000E+00         0.00000E+00        -0.12669E+08
 
   -0.18272E+08        -0.10251E+07         0.00000E+00
   -0.10251E+07        -0.42552E+08         0.00000E+00
    0.00000E+00         0.00000E+00        -0.12876E+08
 
   -0.17670E+08        -0.80301E+06         0.00000E+00
   -0.80301E+06        -0.42405E+08         0.00000E+00
    0.00000E+00         0.00000E+00        -0.13080E+08
 
   -0.17141E+08        -0.54279E+06         0.00000E+00
   -0.54279E+06        -0.42297E+08         0.00000E+00
    0.00000E+00         0.00000E+00        -0.13301E+08
 
   -0.16678E+08        -0.24474E+06         0.00000E+00
   -0.24474E+06        -0.42240E+08         0.00000E+00
    0.00000E+00         0.00000E+00        -0.13562E+08
 
   -0.16279E+08         0.10049E+06         0.00000E+00
    0.10049E+06        -0.42245E+08         0.00000E+00
    0.00000E+00         0.00000E+00        -0.13880E+08
 
   -0.15952E+08         0.50899E+06         0.00000E+00
    0.50899E+06        -0.42318E+08         0.00000E+00
    0.00000E+00         0.00000E+00        -0.14262E+08
 
   -0.15714E+08         0.99641E+06         0.00000E+00
    0.99641E+06        -0.42451E+08         0.00000E+00
    0.00000E+00         0.00000E+00        -0.14698E+08
 
   -0.15593E+08         0.15723E+07         0.00000E+00
    0.15723E+07        -0.42627E+08         0.00000E+00
    0.00000E+00         0.00000E+00        -0.15157E+08
 
   -0.15659E+08         0.22458E+07         0.00000E+00
    0.22458E+07        -0.42819E+08         0.00000E+00
    0.00000E+00         0.00000E+00        -0.15558E+08
 
   -0.27334E+08        -0.39230E+06         0.00000E+00
   -0.39230E+06        -0.44741E+08         0.00000E+00
    0.00000E+00         0.00000E+00        -0.14415E+08
 
   -0.25574E+08        -0.90585E+06         0.00000E+00
   -0.90585E+06        -0.44718E+08         0.00000E+00
    0.00000E+00         0.00000E+00        -0.14058E+08
 
   -0.23955E+08        -0.11318E+07         0.00000E+00
   -0.11318E+07        -0.44623E+08         0.00000E+00
    0.00000E+00         0.00000E+00        -0.13716E+08
 
   -0.22527E+08        -0.11789E+07         0.00000E+00
   -0.11789E+07        -0.44446E+08         0.00000E+00
    0.00000E+00         0.00000E+00        -0.13395E+08
 
   -0.21285E+08        -0.11381E+07         0.00000E+00
   -0.11381E+07        -0.44217E+08         0.00000E+00
    0.00000E+00         0.00000E+00        -0.13124E+08
 
   -0.20345E+08        -0.10335E+07         0.00000E+00
   -0.10335E+07        -0.43965E+08         0.00000E+00
    0.00000E+00         0.00000E+00        -0.13134E+08
 
   -0.19614E+08        -0.87425E+06         0.00000E+00
   -0.87425E+06        -0.43733E+08         0.00000E+00
    0.00000E+00         0.00000E+00        -0.13284E+08
 
   -0.18979E+08        -0.68111E+06         0.00000E+00
   -0.68111E+06        -0.43533E+08         0.00000E+00
    0.00000E+00         0.00000E+00        -0.13435E+08
 
   -0.18422E+08        -0.46441E+06         0.00000E+00
   -0.46441E+06        -0.43381E+08         0.00000E+00
    0.00000E+00         0.00000E+00        -0.13612E+08
 
   -0.17924E+08        -0.22336E+06         0.00000E+00
   -0.22336E+06        -0.43288E+08         0.00000E+00
    0.00000E+00         0.00000E+00        -0.13839E+08
 
   -0.17475E+08         0.52776E+05         0.00000E+00
    0.52776E+05        -0.43270E+08         0.00000E+00
    0.00000E+00         0.00000E+00        -0.14143E+08
 
   -0.17074E+08         0.38731E+06         0.00000E+00
    0.38731E+06        -0.43338E+08         0.00000E+00
    0.00000E+00         0.00000E+00        -0.14546E+08
 
   -0.16742E+08         0.81203E+06         0.00000E+00
    0.81203E+06        -0.43495E+08         0.00000E+00
    0.00000E+00         0.00000E+00        -0.15053E+08
 
   -0.16511E+08         0.13514E+07         0.00000E+00
    0.13514E+07        -0.43724E+08         0.00000E+00
    0.00000E+00         0.00000E+00        -0.15638E+08
 
   -0.16451E+08         0.20203E+07         0.00000E+00
    0.20203E+07        -0.43983E+08         0.00000E+00
    0.00000E+00         0.00000E+00        -0.16211E+08
 
   -0.29538E+08        -0.39985E+06         0.00000E+00
   -0.39985E+06        -0.46258E+08         0.00000E+00
    0.00000E+00         0.00000E+00        -0.15159E+08
 
   -0.27407E+08        -0.84395E+06         0.00000E+00
   -0.84395E+06        -0.46201E+08         0.00000E+00
    0.00000E+00         0.00000E+00        -0.14722E+08
 
   -0.25559E+08        -0.97292E+06         0.00000E+00
   -0.97292E+06        -0.46023E+08         0.00000E+00
    0.00000E+00         0.00000E+00        -0.14316E+08
 
   -0.24025E+08        -0.95485E+06         0.00000E+00
   -0.95485E+06        -0.45754E+08         0.00000E+00
    0.00000E+00         0.00000E+00        -0.13956E+08
 
   -0.22752E+08        -0.88804E+06         0.00000E+00
   -0.88804E+06        -0.45447E+08         0.00000E+00
    0.00000E+00         0.00000E+00        -0.13645E+08
 
   -0.21756E+08        -0.79522E+06         0.00000E+00
   -0.79522E+06        -0.45131E+08         0.00000E+00
    0.00000E+00         0.00000E+00        -0.13530E+08
 
   -0.20997E+08        -0.66339E+06         0.00000E+00
   -0.66339E+06        -0.44832E+08         0.00000E+00
    0.00000E+00         0.00000E+00        -0.13610E+08
 
   -0.20347E+08        -0.51158E+06         0.00000E+00
   -0.51158E+06        -0.44590E+08         0.00000E+00
    0.00000E+00         0.00000E+00        -0.13710E+08
 
   -0.19777E+08        -0.34670E+06         0.00000E+00
   -0.34670E+06        -0.44403E+08         0.00000E+00
    0.00000E+00         0.00000E+00        -0.13840E+08
 
   -0.19261E+08        -0.17224E+06         0.00000E+00
   -0.17224E+06        -0.44286E+08         0.00000E+00
    0.00000E+00         0.00000E+00        -0.14030E+08
 
   -0.18775E+08         0.24034E+05         0.00000E+00
    0.24034E+05        -0.44249E+08         0.00000E+00
    0.00000E+00         0.00000E+00        -0.14310E+08
 
   -0.18306E+08         0.26410E+06         0.00000E+00
    0.26410E+06        -0.44305E+08         0.00000E+00
    0.00000E+00         0.00000E+00        -0.14713E+08
 
   -0.17861E+08         0.58736E+06         0.00000E+00
    0.58736E+06        -0.44472E+08         0.00000E+00
    0.00000E+00         0.00000E+00        -0.15272E+08
 
   -0.17487E+08         0.10550E+07         0.00000E+00
    0.10550E+07        -0.44764E+08         0.00000E+00
    0.00000E+00         0.00000E+00        -0.16001E+08
 
   -0.17251E+08         0.16991E+07         0.00000E+00
    0.16991E+07        -0.45130E+08         0.00000E+00
    0.00000E+00         0.00000E+00        -0.16822E+08
 
   -0.31688E+08        -0.38809E+06         0.00000E+00
   -0.38809E+06        -0.47752E+08         0.00000E+00
    0.00000E+00         0.00000E+00        -0.15888E+08
 
   -0.29106E+08        -0.67538E+06         0.00000E+00
   -0.67538E+06        -0.47587E+08         0.00000E+00
    0.00000E+00         0.00000E+00        -0.15339E+08
 
   -0.27078E+08        -0.68864E+06         0.00000E+00
   -0.68864E+06        -0.47250E+08         0.00000E+00
    0.00000E+00         0.00000E+00        -0.14866E+08
 
   -0.25490E+08        -0.63557E+06         0.00000E+00
   -0.63557E+06        -0.46867E+08         0.00000E+00
    0.00000E+00         0.00000E+00        -0.14471E+08
 
   -0.24217E+08        -0.56540E+06         0.00000E+00
   -0.56540E+06        -0.46489E+08         0.00000E+00
    0.00000E+00         0.00000E+00        -0.14141E+08
 
   -0.23205E+08        -0.49468E+06         0.00000E+00
   -0.49468E+06        -0.46152E+08         0.00000E+00
    0.00000E+00         0.00000E+00        -0.13892E+08
 
   -0.22430E+08        -0.40561E+06         0.00000E+00
   -0.40561E+06        -0.45825E+08         0.00000E+00
    0.00000E+00         0.00000E+00        -0.13843E+08
 
   -0.21778E+08        -0.30367E+06         0.00000E+00
   -0.30367E+06        -0.45542E+08         0.00000E+00
    0.00000E+00         0.00000E+00        -0.13884E+08
 
   -0.21213E+08        -0.20433E+06         0.00000E+00
   -0.20433E+06        -0.45345E+08         0.00000E+00
    0.00000E+00         0.00000E+00        -0.13980E+08
 
   -0.20693E+08        -0.10301E+06         0.00000E+00
   -0.10301E+06        -0.45224E+08         0.00000E+00
    0.00000E+00         0.00000E+00        -0.14145E+08
 
   -0.20186E+08         0.12648E+05         0.00000E+00
    0.12648E+05        -0.45181E+08         0.00000E+00
    0.00000E+00         0.00000E+00        -0.14401E+08
 
   -0.19671E+08         0.15360E+06         0.00000E+00
    0.15360E+06        -0.45229E+08         0.00000E+00
    0.00000E+00         0.00000E+00        -0.14783E+08
 
   -0.19126E+08         0.34529E+06         0.00000E+00
    0.34529E+06        -0.45391E+08         0.00000E+00
    0.00000E+00         0.00000E+00        -0.15351E+08
 
   -0.18554E+08         0.65768E+06         0.00000E+00
    0.65768E+06        -0.45709E+08         0.00000E+00
    0.00000E+00         0.00000E+00        -0.16191E+08
 
   -0.18068E+08         0.12356E+07         0.00000E+00
    0.12356E+07        -0.46246E+08         0.00000E+00
    0.00000E+00         0.00000E+00        -0.17370E+08
 
   -0.33642E+08        -0.24506E+06         0.00000E+00
   -0.24506E+06        -0.49083E+08         0.00000E+00
    0.00000E+00         0.00000E+00        -0.16547E+08
 
   -0.30629E+08        -0.27972E+06         0.00000E+00
   -0.27972E+06        -0.48632E+08         0.00000E+00
    0.00000E+00         0.00000E+00        -0.15852E+08
 
   -0.28553E+08        -0.25461E+06         0.00000E+00
   -0.25461E+06        -0.48127E+08         0.00000E+00
    0.00000E+00         0.00000E+00        -0.15336E+08
 
   -0.26958E+08        -0.22609E+06         0.00000E+00
   -0.22609E+06        -0.47656E+08         0.00000E+00
    0.00000E+00         0.00000E+00        -0.14923E+08
 
   -0.25695E+08        -0.19623E+06         0.00000E+00
   -0.19623E+06        -0.47236E+08         0.00000E+00
    0.00000E+00         0.00000E+00        -0.14586E+08
 
   -0.24703E+08        -0.16545E+06         0.00000E+00
   -0.16545E+06        -0.46870E+08         0.00000E+00
    0.00000E+00         0.00000E+00        -0.14314E+08
 
   -0.23926E+08        -0.13378E+06         0.00000E+00
   -0.13378E+06        -0.46581E+08         0.00000E+00
    0.00000E+00         0.00000E+00        -0.14101E+08
 
   -0.23273E+08        -0.97676E+05         0.00000E+00
   -0.97676E+05        -0.46362E+08         0.00000E+00
    0.00000E+00         0.00000E+00        -0.13968E+08
 
   -0.22734E+08        -0.65791E+05         0.00000E+00
   -0.65791E+05        -0.46195E+08         0.00000E+00
    0.00000E+00         0.00000E+00        -0.14042E+08
 
   -0.22215E+08        -0.33452E+05         0.00000E+00
   -0.33452E+05        -0.46093E+08         0.00000E+00
    0.00000E+00         0.00000E+00        -0.14196E+08
 
   -0.21703E+08         0.48775E+04         0.00000E+00
    0.48775E+04        -0.46065E+08         0.00000E+00
    0.00000E+00         0.00000E+00        -0.14436E+08
 
   -0.21169E+08         0.51157E+05         0.00000E+00
    0.51157E+05        -0.46124E+08         0.00000E+00
    0.00000E+00         0.00000E+00        -0.14797E+08
 
   -0.20575E+08         0.11252E+06         0.00000E+00
    0.11252E+06        -0.46295E+08         0.00000E+00
    0.00000E+00         0.00000E+00        -0.15346E+08
 
   -0.19857E+08         0.21458E+06         0.00000E+00
    0.21458E+06        -0.46630E+08         0.00000E+00
    0.00000E+00         0.00000E+00        -0.16224E+08
 
   -0.18926E+08         0.48177E+06         0.00000E+00
    0.48177E+06        -0.47257E+08         0.00000E+00
    0.00000E+00         0.00000E+00        -0.17766E+08
 
TENSORS stresstot double 
   -0.37556E+08         0.51339E+04         0.00000E+00
    0.51339E+04        -0.59991E+08         0.00000E+00
    0.00000E+00         0.00000E+00        -0.44492E+08
 
   -0.37560E+08         0.15045E+05         0.00000E+00
    0.15045E+05        -0.59971E+08         0.00000E+00
    0.00000E+00         0.00000E+00        -0.44414E+08
 
   -0.37562E+08         0.24339E+05         0.00000E+00
    0.24339E+05        -0.59932E+08         0.00000E+00
    0.00000E+00         0.00000E+00        -0.44284E+08
 
   -0.37572E+08         0.32616E+05         0.00000E+00
    0.32616E+05        -0.59876E+08         0.00000E+00
    0.00000E+00         0.00000E+00        -0.44090E+08
 
   -0.37596E+08         0.39235E+05         0.00000E+00
    0.39235E+05        -0.59805E+08         0.00000E+00
    0.00000E+00         0.00000E+00        -0.43822E+08
 
   -0.37644E+08         0.43683E+05         0.00000E+00
    0.43683E+05        -0.59722E+08         0.00000E+00
    0.00000E+00         0.00000E+00        -0.43482E+08
 
   -0.37906E+08         0.44427E+05         0.00000E+00
    0.44427E+05        -0.59636E+08         0.00000E+00
    0.00000E+00         0.00000E+00        -0.43212E+08
 
   -0.38749E+08         0.43894E+05         0.00000E+00
    0.43894E+05        -0.59550E+08         0.00000E+00
    0.00000E+00         0.00000E+00        -0.43318E+08
 
   -0.39536E+08         0.47319E+05         0.00000E+00
    0.47319E+05        -0.59459E+08         0.00000E+00
    0.00000E+00         0.00000E+00        -0.43420E+08
 
   -0.40275E+08         0.54505E+05         0.00000E+00
    0.54505E+05        -0.59358E+08         0.00000E+00
    0.00000E+00         0.00000E+00        -0.43515E+08
 
   -0.40977E+08         0.65097E+05         0.00000E+00
    0.65097E+05        -0.59239E+08         0.00000E+00
    0.00000E+00         0.00000E+00        -0.43605E+08
 
   -0.41654E+08         0.78812E+05         0.00000E+00
    0.78812E+05        -0.59095E+08         0.00000E+00
    0.00000E+00         0.00000E+00        -0.43689E+08
 
   -0.42315E+08         0.95427E+05         0.00000E+00
    0.95427E+05        -0.58921E+08         0.00000E+00
    0.00000E+00         0.00000E+00        -0.43769E+08
 
   -0.42970E+08         0.11477E+06         0.00000E+00
    0.11477E+06        -0.58712E+08         0.00000E+00
    0.00000E+00         0.00000E+00        -0.43847E+08
 
   -0.43628E+08         0.13672E+06         0.00000E+00
    0.13672E+06        -0.58461E+08         0.00000E+00
    0.00000E+00         0.00000E+00        -0.43922E+08
 
   -0.37536E+08         0.15356E+05         0.00000E+00
    0.15356E+05        -0.59991E+08         0.00000E+00
    0.00000E+00         0.00000E+00        -0.44444E+08
 
   -0.37540E+08         0.44948E+05         0.00000E+00
    0.44948E+05        -0.59972E+08         0.00000E+00
    0.00000E+00         0.00000E+00        -0.44365E+08
 
   -0.37544E+08         0.72616E+05         0.00000E+00
    0.72616E+05        -0.59933E+08         0.00000E+00
    0.00000E+00         0.00000E+00        -0.44234E+08
 
   -0.37556E+08         0.97031E+05         0.00000E+00
    0.97031E+05        -0.59878E+08         0.00000E+00
    0.00000E+00         0.00000E+00        -0.44038E+08
 
   -0.37585E+08         0.11636E+06         0.00000E+00
    0.11636E+06        -0.59809E+08         0.00000E+00
    0.00000E+00         0.00000E+00        -0.43769E+08
 
   -0.37637E+08         0.12949E+06         0.00000E+00
    0.12949E+06        -0.59730E+08         0.00000E+00
    0.00000E+00         0.00000E+00        -0.43429E+08
 
   -0.37910E+08         0.13124E+06         0.00000E+00
    0.13124E+06        -0.59648E+08         0.00000E+00
    0.00000E+00         0.00000E+00        -0.43167E+08
 
   -0.38746E+08         0.12993E+06         0.00000E+00
    0.12993E+06        -0.59564E+08         0.00000E+00
    0.00000E+00         0.00000E+00        -0.43274E+08
 
   -0.39525E+08         0.14046E+06         0.00000E+00
    0.14046E+06        -0.59477E+08         0.00000E+00
    0.00000E+00         0.00000E+00        -0.43375E+08
 
   -0.40257E+08         0.16221E+06         0.00000E+00
    0.16221E+06        -0.59378E+08         0.00000E+00
    0.00000E+00         0.00000E+00        -0.43470E+08
 
   -0.40953E+08         0.19412E+06         0.00000E+00
    0.19412E+06        -0.59262E+08         0.00000E+00
    0.00000E+00         0.00000E+00        -0.43558E+08
 
   -0.41624E+08         0.23534E+06         0.00000E+00
    0.23534E+06        -0.59121E+08         0.00000E+00
    0.00000E+00         0.00000E+00        -0.43642E+08
 
   -0.42279E+08         0.28522E+06         0.00000E+00
    0.28522E+06        -0.58949E+08         0.00000E+00
    0.00000E+00         0.00000E+00        -0.43722E+08
 
   -0.42929E+08         0.34326E+06         0.00000E+00
    0.34326E+06        -0.58741E+08         0.00000E+00
    0.00000E+00         0.00000E+00        -0.43798E+08
 
   -0.43582E+08         0.40907E+06         0.00000E+00
    0.40907E+06        -0.58492E+08         0.00000E+00
    0.00000E+00         0.00000E+00        -0.43873E+08
 
   -0.37496E+08         0.25470E+05         0.00000E+00
    0.25470E+05        -0.59992E+08         0.00000E+00
    0.00000E+00         0.00000E+00        -0.44348E+08
 
   -0.37502E+08         0.74317E+05         0.00000E+00
    0.74317E+05        -0.59972E+08         0.00000E+00
    0.00000E+00         0.00000E+00        -0.44267E+08
 
   -0.37510E+08         0.11962E+06         0.00000E+00
    0.11962E+06        -0.59935E+08         0.00000E+00
    0.00000E+00         0.00000E+00        -0.44134E+08
 
   -0.37527E+08         0.15892E+06         0.00000E+00
    0.15892E+06        -0.59882E+08         0.00000E+00
    0.00000E+00         0.00000E+00        -0.43934E+08
 
   -0.37564E+08         0.18950E+06         0.00000E+00
    0.18950E+06        -0.59817E+08         0.00000E+00
    0.00000E+00         0.00000E+00        -0.43662E+08
 
   -0.37624E+08         0.21037E+06         0.00000E+00
    0.21037E+06        -0.59745E+08         0.00000E+00
    0.00000E+00         0.00000E+00        -0.43323E+08
 
   -0.37918E+08         0.21209E+06         0.00000E+00
    0.21209E+06        -0.59671E+08         0.00000E+00
    0.00000E+00         0.00000E+00        -0.43078E+08
 
   -0.38739E+08         0.21075E+06         0.00000E+00
    0.21075E+06        -0.59594E+08         0.00000E+00
    0.00000E+00         0.00000E+00        -0.43185E+08
 
   -0.39503E+08         0.22920E+06         0.00000E+00
    0.22920E+06        -0.59513E+08         0.00000E+00
    0.00000E+00         0.00000E+00        -0.43285E+08
 
   -0.40221E+08         0.26606E+06         0.00000E+00
    0.26606E+06        -0.59420E+08         0.00000E+00
    0.00000E+00         0.00000E+00        -0.43378E+08
 
   -0.40904E+08         0.31966E+06         0.00000E+00
    0.31966E+06        -0.59308E+08         0.00000E+00
    0.00000E+00         0.00000E+00        -0.43466E+08
 
   -0.41563E+08         0.38862E+06         0.00000E+00
    0.38862E+06        -0.59171E+08         0.00000E+00
    0.00000E+00         0.00000E+00        -0.43548E+08
 
   -0.42207E+08         0.47186E+06         0.00000E+00
    0.47186E+06        -0.59004E+08         0.00000E+00
    0.00000E+00         0.00000E+00        -0.43627E+08
 
   -0.42846E+08         0.56860E+06         0.00000E+00
    0.56860E+06        -0.58800E+08         0.00000E+00
    0.00000E+00         0.00000E+00        -0.43702E+08
 
   -0.43489E+08         0.67821E+06         0.00000E+00
    0.67821E+06        -0.58555E+08         0.00000E+00
    0.00000E+00         0.00000E+00        -0.43776E+08
 
   -0.37436E+08         0.35396E+05         0.00000E+00
    0.35396E+05        -0.59992E+08         0.00000E+00
    0.00000E+00         0.00000E+00        -0.44203E+08
 
   -0.37445E+08         0.10270E+06         0.00000E+00
    0.10270E+06        -0.59973E+08         0.00000E+00
    0.00000E+00         0.00000E+00        -0.44121E+08
 
   -0.37459E+08         0.16422E+06         0.00000E+00
    0.16422E+06        -0.59938E+08         0.00000E+00
    0.00000E+00         0.00000E+00        -0.43982E+08
 
   -0.37486E+08         0.21644E+06         0.00000E+00
    0.21644E+06        -0.59889E+08         0.00000E+00
    0.00000E+00         0.00000E+00        -0.43776E+08
 
   -0.37534E+08         0.25592E+06         0.00000E+00
    0.25592E+06        -0.59832E+08         0.00000E+00
    0.00000E+00         0.00000E+00        -0.43501E+08
 
   -0.37605E+08         0.28240E+06         0.00000E+00
    0.28240E+06        -0.59768E+08         0.00000E+00
    0.00000E+00         0.00000E+00        -0.43164E+08
 
   -0.37930E+08         0.28340E+06         0.00000E+00
    0.28340E+06        -0.59705E+08         0.00000E+00
    0.00000E+00         0.00000E+00        -0.42946E+08
 
   -0.38728E+08         0.28329E+06         0.00000E+00
    0.28329E+06        -0.59639E+08         0.00000E+00
    0.00000E+00         0.00000E+00        -0.43052E+08
 
   -0.39469E+08         0.31079E+06         0.00000E+00
    0.31079E+06        -0.59567E+08         0.00000E+00
    0.00000E+00         0.00000E+00        -0.43150E+08
 
   -0.40166E+08         0.36365E+06         0.00000E+00
    0.36365E+06        -0.59482E+08         0.00000E+00
    0.00000E+00         0.00000E+00        -0.43241E+08
 
   -0.40830E+08         0.43955E+06         0.00000E+00
    0.43955E+06        -0.59377E+08         0.00000E+00
    0.00000E+00         0.00000E+00        -0.43327E+08
 
   -0.41471E+08         0.53658E+06         0.00000E+00
    0.53658E+06        -0.59247E+08         0.00000E+00
    0.00000E+00         0.00000E+00        -0.43408E+08
 
   -0.42099E+08         0.65332E+06         0.00000E+00
    0.65332E+06        -0.59085E+08         0.00000E+00
    0.00000E+00         0.00000E+00        -0.43485E+08
 
   -0.42723E+08         0.78873E+06         0.00000E+00
    0.78873E+06        -0.58888E+08         0.00000E+00
    0.00000E+00         0.00000E+00        -0.43559E+08
 
   -0.43350E+08         0.94202E+06         0.00000E+00
    0.94202E+06        -0.58650E+08         0.00000E+00
    0.00000E+00         0.00000E+00        -0.43631E+08
 
   -0.37357E+08         0.44800E+05         0.00000E+00
    0.44800E+05        -0.59992E+08         0.00000E+00
    0.00000E+00         0.00000E+00        -0.44011E+08
 
   -0.37372E+08         0.12931E+06         0.00000E+00
    0.12931E+06        -0.59975E+08         0.00000E+00
    0.00000E+00         0.00000E+00        -0.43925E+08
 
   -0.37395E+08         0.20517E+06         0.00000E+00
    0.20517E+06        -0.59943E+08         0.00000E+00
    0.00000E+00         0.00000E+00        -0.43779E+08
 
   -0.37435E+08         0.26724E+06         0.00000E+00
    0.26724E+06        -0.59901E+08         0.00000E+00
    0.00000E+00         0.00000E+00        -0.43564E+08
 
   -0.37498E+08         0.31265E+06         0.00000E+00
    0.31265E+06        -0.59853E+08         0.00000E+00
    0.00000E+00         0.00000E+00        -0.43285E+08
 
   -0.37583E+08         0.34189E+06         0.00000E+00
    0.34189E+06        -0.59802E+08         0.00000E+00
    0.00000E+00         0.00000E+00        -0.42954E+08
 
   -0.37946E+08         0.34203E+06         0.00000E+00
    0.34203E+06        -0.59753E+08         0.00000E+00
    0.00000E+00         0.00000E+00        -0.42771E+08
 
   -0.38711E+08         0.34466E+06         0.00000E+00
    0.34466E+06        -0.59700E+08         0.00000E+00
    0.00000E+00         0.00000E+00        -0.42874E+08
 
   -0.39422E+08         0.38281E+06         0.00000E+00
    0.38281E+06        -0.59640E+08         0.00000E+00
    0.00000E+00         0.00000E+00        -0.42970E+08
 
   -0.40091E+08         0.45288E+06         0.00000E+00
    0.45288E+06        -0.59565E+08         0.00000E+00
    0.00000E+00         0.00000E+00        -0.43059E+08
 
   -0.40730E+08         0.55183E+06         0.00000E+00
    0.55183E+06        -0.59469E+08         0.00000E+00
    0.00000E+00         0.00000E+00        -0.43142E+08
 
   -0.41349E+08         0.67732E+06         0.00000E+00
    0.67732E+06        -0.59347E+08         0.00000E+00
    0.00000E+00         0.00000E+00        -0.43221E+08
 
   -0.41955E+08         0.82766E+06         0.00000E+00
    0.82766E+06        -0.59194E+08         0.00000E+00
    0.00000E+00         0.00000E+00        -0.43295E+08
 
   -0.42558E+08         0.10017E+07         0.00000E+00
    0.10017E+07        -0.59004E+08         0.00000E+00
    0.00000E+00         0.00000E+00        -0.43367E+08
 
   -0.43165E+08         0.11984E+07         0.00000E+00
    0.11984E+07        -0.58774E+08         0.00000E+00
    0.00000E+00         0.00000E+00        -0.43437E+08
 
   -0.37261E+08         0.53324E+05         0.00000E+00
    0.53324E+05        -0.59992E+08         0.00000E+00
    0.00000E+00         0.00000E+00        -0.43771E+08
 
   -0.37283E+08         0.15300E+06         0.00000E+00
    0.15300E+06        -0.59978E+08         0.00000E+00
    0.00000E+00         0.00000E+00        -0.43680E+08
 
   -0.37319E+08         0.24022E+06         0.00000E+00
    0.24022E+06        -0.59952E+08         0.00000E+00
    0.00000E+00         0.00000E+00        -0.43522E+08
 
   -0.37377E+08         0.30870E+06         0.00000E+00
    0.30870E+06        -0.59919E+08         0.00000E+00
    0.00000E+00         0.00000E+00        -0.43297E+08
 
   -0.37459E+08         0.35637E+06         0.00000E+00
    0.35637E+06        -0.59884E+08         0.00000E+00
    0.00000E+00         0.00000E+00        -0.43015E+08
 
   -0.37561E+08         0.38542E+06         0.00000E+00
    0.38542E+06        -0.59849E+08         0.00000E+00
    0.00000E+00         0.00000E+00        -0.42695E+08
 
   -0.37962E+08         0.38503E+06         0.00000E+00
    0.38503E+06        -0.59817E+08         0.00000E+00
    0.00000E+00         0.00000E+00        -0.42554E+08
 
   -0.38685E+08         0.39264E+06         0.00000E+00
    0.39264E+06        -0.59780E+08         0.00000E+00
    0.00000E+00         0.00000E+00        -0.42653E+08
 
   -0.39359E+08         0.44337E+06         0.00000E+00
    0.44337E+06        -0.59733E+08         0.00000E+00
    0.00000E+00         0.00000E+00        -0.42745E+08
 
   -0.39996E+08         0.53203E+06         0.00000E+00
    0.53203E+06        -0.59669E+08         0.00000E+00
    0.00000E+00         0.00000E+00        -0.42831E+08
 
   -0.40605E+08         0.65483E+06         0.00000E+00
    0.65483E+06        -0.59583E+08         0.00000E+00
    0.00000E+00         0.00000E+00        -0.42912E+08
 
   -0.41195E+08         0.80911E+06         0.00000E+00
    0.80911E+06        -0.59471E+08         0.00000E+00
    0.00000E+00         0.00000E+00        -0.42987E+08
 
   -0.41774E+08         0.99305E+06         0.00000E+00
    0.99305E+06        -0.59328E+08         0.00000E+00
    0.00000E+00         0.00000E+00        -0.43059E+08
 
   -0.42352E+08         0.12054E+07         0.00000E+00
    0.12054E+07        -0.59148E+08         0.00000E+00
    0.00000E+00         0.00000E+00        -0.43128E+08
 
   -0.42935E+08         0.14453E+07         0.00000E+00
    0.14453E+07        -0.58929E+08         0.00000E+00
    0.00000E+00         0.00000E+00        -0.43195E+08
 
   -0.37150E+08         0.60523E+05         0.00000E+00
    0.60523E+05        -0.59993E+08         0.00000E+00
    0.00000E+00         0.00000E+00        -0.43482E+08
 
   -0.37183E+08         0.17222E+06         0.00000E+00
    0.17222E+06        -0.59982E+08         0.00000E+00
    0.00000E+00         0.00000E+00        -0.43381E+08
 
   -0.37237E+08         0.26647E+06         0.00000E+00
    0.26647E+06        -0.59964E+08         0.00000E+00
    0.00000E+00         0.00000E+00        -0.43210E+08
 
   -0.37318E+08         0.33708E+06         0.00000E+00
    0.33708E+06        -0.59944E+08         0.00000E+00
    0.00000E+00         0.00000E+00        -0.42974E+08
 
   -0.37421E+08         0.38391E+06         0.00000E+00
    0.38391E+06        -0.59926E+08         0.00000E+00
    0.00000E+00         0.00000E+00        -0.42693E+08
 
   -0.37541E+08         0.41023E+06         0.00000E+00
    0.41023E+06        -0.59910E+08         0.00000E+00
    0.00000E+00         0.00000E+00        -0.42388E+08
 
   -0.37977E+08         0.40973E+06         0.00000E+00
    0.40973E+06        -0.59897E+08         0.00000E+00
    0.00000E+00         0.00000E+00        -0.42294E+08
 
   -0.38650E+08         0.42564E+06         0.00000E+00
    0.42564E+06        -0.59877E+08         0.00000E+00
    0.00000E+00         0.00000E+00        -0.42389E+08
 
   -0.39280E+08         0.49120E+06         0.00000E+00
    0.49120E+06        -0.59844E+08         0.00000E+00
    0.00000E+00         0.00000E+00        -0.42477E+08
 
   -0.39878E+08         0.59977E+06         0.00000E+00
    0.59977E+06        -0.59793E+08         0.00000E+00
    0.00000E+00         0.00000E+00        -0.42559E+08
 
   -0.40453E+08         0.74712E+06         0.00000E+00
    0.74712E+06        -0.59719E+08         0.00000E+00
    0.00000E+00         0.00000E+00        -0.42636E+08
 
   -0.41010E+08         0.93040E+06         0.00000E+00
    0.93040E+06        -0.59618E+08         0.00000E+00
    0.00000E+00         0.00000E+00        -0.42708E+08
 
   -0.41558E+08         0.11478E+07         0.00000E+00
    0.11478E+07        -0.59486E+08         0.00000E+00
    0.00000E+00         0.00000E+00        -0.42777E+08
 
   -0.42105E+08         0.13981E+07         0.00000E+00
    0.13981E+07        -0.59319E+08         0.00000E+00
    0.00000E+00         0.00000E+00        -0.42843E+08
 
   -0.42659E+08         0.16808E+07         0.00000E+00
    0.16808E+07        -0.59111E+08         0.00000E+00
    0.00000E+00         0.00000E+00        -0.42906E+08
 
   -0.37028E+08         0.65539E+05         0.00000E+00
    0.65539E+05        -0.59994E+08         0.00000E+00
    0.00000E+00         0.00000E+00        -0.43142E+08
 
   -0.37074E+08         0.18473E+06         0.00000E+00
    0.18473E+06        -0.59989E+08         0.00000E+00
    0.00000E+00         0.00000E+00        -0.43027E+08
 
   -0.37153E+08         0.28048E+06         0.00000E+00
    0.28048E+06        -0.59982E+08         0.00000E+00
    0.00000E+00         0.00000E+00        -0.42838E+08
 
   -0.37260E+08         0.34852E+06         0.00000E+00
    0.34852E+06        -0.59979E+08         0.00000E+00
    0.00000E+00         0.00000E+00        -0.42594E+08
 
   -0.37386E+08         0.39201E+06         0.00000E+00
    0.39201E+06        -0.59980E+08         0.00000E+00
    0.00000E+00         0.00000E+00        -0.42320E+08
 
   -0.37525E+08         0.41411E+06         0.00000E+00
    0.41411E+06        -0.59988E+08         0.00000E+00
    0.00000E+00         0.00000E+00        -0.42038E+08
 
   -0.37985E+08         0.41427E+06         0.00000E+00
    0.41427E+06        -0.59994E+08         0.00000E+00
    0.00000E+00         0.00000E+00        -0.41991E+08
 
   -0.38600E+08         0.44277E+06         0.00000E+00
    0.44277E+06        -0.59993E+08         0.00000E+00
    0.00000E+00         0.00000E+00        -0.42080E+08
 
   -0.39183E+08         0.52530E+06         0.00000E+00
    0.52530E+06        -0.59975E+08         0.00000E+00
    0.00000E+00         0.00000E+00        -0.42164E+08
 
   -0.39739E+08         0.65503E+06         0.00000E+00
    0.65503E+06        -0.59937E+08         0.00000E+00
    0.00000E+00         0.00000E+00        -0.42242E+08
 
   -0.40273E+08         0.82750E+06         0.00000E+00
    0.82750E+06        -0.59876E+08         0.00000E+00
    0.00000E+00         0.00000E+00        -0.42315E+08
 
   -0.40794E+08         0.10398E+07         0.00000E+00
    0.10398E+07        -0.59788E+08         0.00000E+00
    0.00000E+00         0.00000E+00        -0.42383E+08
 
   -0.41307E+08         0.12902E+07         0.00000E+00
    0.12902E+07        -0.59669E+08         0.00000E+00
    0.00000E+00         0.00000E+00        -0.42448E+08
 
   -0.41819E+08         0.15779E+07         0.00000E+00
    0.15779E+07        -0.59515E+08         0.00000E+00
    0.00000E+00         0.00000E+00        -0.42510E+08
 
   -0.42338E+08         0.19025E+07         0.00000E+00
    0.19025E+07        -0.59321E+08         0.00000E+00
    0.00000E+00         0.00000E+00        -0.42570E+08
 
   -0.36897E+08         0.67509E+05         0.00000E+00
    0.67509E+05        -0.59995E+08         0.00000E+00
    0.00000E+00         0.00000E+00        -0.42746E+08
 
   -0.36964E+08         0.18737E+06         0.00000E+00
    0.18737E+06        -0.59998E+08         0.00000E+00
    0.00000E+00         0.00000E+00        -0.42612E+08
 
   -0.37072E+08         0.27849E+06         0.00000E+00
    0.27849E+06        -0.60007E+08         0.00000E+00
    0.00000E+00         0.00000E+00        -0.42404E+08
 
   -0.37207E+08         0.34031E+06         0.00000E+00
    0.34031E+06        -0.60023E+08         0.00000E+00
    0.00000E+00         0.00000E+00        -0.42159E+08
 
   -0.37355E+08         0.37796E+06         0.00000E+00
    0.37796E+06        -0.60047E+08         0.00000E+00
    0.00000E+00         0.00000E+00        -0.41901E+08
 
   -0.37519E+08         0.39470E+06         0.00000E+00
    0.39470E+06        -0.60079E+08         0.00000E+00
    0.00000E+00         0.00000E+00        -0.41655E+08
 
   -0.37979E+08         0.39767E+06         0.00000E+00
    0.39767E+06        -0.60106E+08         0.00000E+00
    0.00000E+00         0.00000E+00        -0.41644E+08
 
   -0.38535E+08         0.44300E+06         0.00000E+00
    0.44300E+06        -0.60124E+08         0.00000E+00
    0.00000E+00         0.00000E+00        -0.41728E+08
 
   -0.39066E+08         0.54468E+06         0.00000E+00
    0.54468E+06        -0.60123E+08         0.00000E+00
    0.00000E+00         0.00000E+00        -0.41807E+08
 
   -0.39575E+08         0.69683E+06         0.00000E+00
    0.69683E+06        -0.60100E+08         0.00000E+00
    0.00000E+00         0.00000E+00        -0.41880E+08
 
   -0.40067E+08         0.89488E+06         0.00000E+00
    0.89488E+06        -0.60052E+08         0.00000E+00
    0.00000E+00         0.00000E+00        -0.41949E+08
 
   -0.40547E+08         0.11360E+07         0.00000E+00
    0.11360E+07        -0.59978E+08         0.00000E+00
    0.00000E+00         0.00000E+00        -0.42014E+08
 
   -0.41021E+08         0.14186E+07         0.00000E+00
    0.14186E+07        -0.59873E+08         0.00000E+00
    0.00000E+00         0.00000E+00        -0.42074E+08
 
   -0.41493E+08         0.17427E+07         0.00000E+00
    0.17427E+07        -0.59734E+08         0.00000E+00
    0.00000E+00         0.00000E+00        -0.42132E+08
 
   -0.41973E+08         0.21085E+07         0.00000E+00
    0.21085E+07        -0.59557E+08         0.00000E+00
    0.00000E+00         0.00000E+00        -0.42188E+08
 
   -0.36767E+08         0.65023E+05         0.00000E+00
    0.65023E+05        -0.59998E+08         0.00000E+00
    0.00000E+00         0.00000E+00        -0.42287E+08
 
   -0.36861E+08         0.17641E+06         0.00000E+00
    0.17641E+06        -0.60011E+08         0.00000E+00
    0.00000E+00         0.00000E+00        -0.42127E+08
 
   -0.37000E+08         0.25720E+06         0.00000E+00
    0.25720E+06        -0.60039E+08         0.00000E+00
    0.00000E+00         0.00000E+00        -0.41908E+08
 
   -0.37161E+08         0.30998E+06         0.00000E+00
    0.30998E+06        -0.60077E+08         0.00000E+00
    0.00000E+00         0.00000E+00        -0.41671E+08
 
   -0.37330E+08         0.33955E+06         0.00000E+00
    0.33955E+06        -0.60126E+08         0.00000E+00
    0.00000E+00         0.00000E+00        -0.41439E+08
 
   -0.37521E+08         0.34982E+06         0.00000E+00
    0.34982E+06        -0.60182E+08         0.00000E+00
    0.00000E+00         0.00000E+00        -0.41242E+08
 
   -0.37954E+08         0.36000E+06         0.00000E+00
    0.36000E+06        -0.60234E+08         0.00000E+00
    0.00000E+00         0.00000E+00        -0.41253E+08
 
   -0.38451E+08         0.42517E+06         0.00000E+00
    0.42517E+06        -0.60272E+08         0.00000E+00
    0.00000E+00         0.00000E+00        -0.41332E+08
 
   -0.38927E+08         0.54849E+06         0.00000E+00
    0.54849E+06        -0.60287E+08         0.00000E+00
    0.00000E+00         0.00000E+00        -0.41406E+08
 
   -0.39387E+08         0.72432E+06         0.00000E+00
    0.72432E+06        -0.60279E+08         0.00000E+00
    0.00000E+00         0.00000E+00        -0.41475E+08
 
   -0.39834E+08         0.94832E+06         0.00000E+00
    0.94832E+06        -0.60246E+08         0.00000E+00
    0.00000E+00         0.00000E+00        -0.41539E+08
 
   -0.40270E+08         0.12178E+07         0.00000E+00
    0.12178E+07        -0.60186E+08         0.00000E+00
    0.00000E+00         0.00000E+00        -0.41599E+08
 
   -0.40701E+08         0.15316E+07         0.00000E+00
    0.15316E+07        -0.60097E+08         0.00000E+00
    0.00000E+00         0.00000E+00        -0.41655E+08
 
   -0.41130E+08         0.18905E+07         0.00000E+00
    0.18905E+07        -0.59975E+08         0.00000E+00
    0.00000E+00         0.00000E+00        -0.41709E+08
 
   -0.41565E+08         0.22961E+07         0.00000E+00
    0.22961E+07        -0.59817E+08         0.00000E+00
    0.00000E+00         0.00000E+00        -0.41759E+08
 
   -0.36646E+08         0.56520E+05         0.00000E+00
    0.56520E+05        -0.60001E+08         0.00000E+00
    0.00000E+00         0.00000E+00        -0.41749E+08
 
   -0.36772E+08         0.14903E+06         0.00000E+00
    0.14903E+06        -0.60026E+08         0.00000E+00
    0.00000E+00         0.00000E+00        -0.41563E+08
 
   -0.36940E+08         0.21299E+06         0.00000E+00
    0.21299E+06        -0.60074E+08         0.00000E+00
    0.00000E+00         0.00000E+00        -0.41347E+08
 
   -0.37126E+08         0.25298E+06         0.00000E+00
    0.25298E+06        -0.60141E+08         0.00000E+00
    0.00000E+00         0.00000E+00        -0.41135E+08
 
   -0.37313E+08         0.27318E+06         0.00000E+00
    0.27318E+06        -0.60220E+08         0.00000E+00
    0.00000E+00         0.00000E+00        -0.40942E+08
 
   -0.37523E+08         0.27895E+06         0.00000E+00
    0.27895E+06        -0.60304E+08         0.00000E+00
    0.00000E+00         0.00000E+00        -0.40797E+08
 
   -0.37910E+08         0.30234E+06         0.00000E+00
    0.30234E+06        -0.60378E+08         0.00000E+00
    0.00000E+00         0.00000E+00        -0.40820E+08
 
   -0.38344E+08         0.38951E+06         0.00000E+00
    0.38951E+06        -0.60434E+08         0.00000E+00
    0.00000E+00         0.00000E+00        -0.40893E+08
 
   -0.38765E+08         0.53631E+06         0.00000E+00
    0.53631E+06        -0.60466E+08         0.00000E+00
    0.00000E+00         0.00000E+00        -0.40961E+08
 
   -0.39174E+08         0.73679E+06         0.00000E+00
    0.73679E+06        -0.60474E+08         0.00000E+00
    0.00000E+00         0.00000E+00        -0.41026E+08
 
   -0.39573E+08         0.98689E+06         0.00000E+00
    0.98689E+06        -0.60456E+08         0.00000E+00
    0.00000E+00         0.00000E+00        -0.41086E+08
 
   -0.39964E+08         0.12841E+07         0.00000E+00
    0.12841E+07        -0.60412E+08         0.00000E+00
    0.00000E+00         0.00000E+00        -0.41141E+08
 
   -0.40349E+08         0.16277E+07         0.00000E+00
    0.16277E+07        -0.60339E+08         0.00000E+00
    0.00000E+00         0.00000E+00        -0.41192E+08
 
   -0.40730E+08         0.20192E+07         0.00000E+00
    0.20192E+07        -0.60237E+08         0.00000E+00
    0.00000E+00         0.00000E+00        -0.41240E+08
 
   -0.41114E+08         0.24626E+07         0.00000E+00
    0.24626E+07        -0.60101E+08         0.00000E+00
    0.00000E+00         0.00000E+00        -0.41286E+08
 
   -0.36549E+08         0.41821E+05         0.00000E+00
    0.41821E+05        -0.60004E+08         0.00000E+00
    0.00000E+00         0.00000E+00        -0.41124E+08
 
   -0.36707E+08         0.10410E+06         0.00000E+00
    0.10410E+06        -0.60040E+08         0.00000E+00
    0.00000E+00         0.00000E+00        -0.40917E+08
 
   -0.36898E+08         0.14138E+06         0.00000E+00
    0.14138E+06        -0.60112E+08         0.00000E+00
    0.00000E+00         0.00000E+00        -0.40719E+08
 
   -0.37103E+08         0.16223E+06         0.00000E+00
    0.16223E+06        -0.60213E+08         0.00000E+00
    0.00000E+00         0.00000E+00        -0.40553E+08
 
   -0.37304E+08         0.17417E+06         0.00000E+00
    0.17417E+06        -0.60329E+08         0.00000E+00
    0.00000E+00         0.00000E+00        -0.40417E+08
 
   -0.37520E+08         0.18412E+06         0.00000E+00
    0.18412E+06        -0.60440E+08         0.00000E+00
    0.00000E+00         0.00000E+00        -0.40325E+08
 
   -0.37843E+08         0.22587E+06         0.00000E+00
    0.22587E+06        -0.60536E+08         0.00000E+00
    0.00000E+00         0.00000E+00        -0.40343E+08
 
   -0.38214E+08         0.33682E+06         0.00000E+00
    0.33682E+06        -0.60608E+08         0.00000E+00
    0.00000E+00         0.00000E+00        -0.40410E+08
 
   -0.38578E+08         0.50787E+06         0.00000E+00
    0.50787E+06        -0.60658E+08         0.00000E+00
    0.00000E+00         0.00000E+00        -0.40474E+08
 
   -0.38936E+08         0.73347E+06         0.00000E+00
    0.73347E+06        -0.60682E+08         0.00000E+00
    0.00000E+00         0.00000E+00        -0.40533E+08
 
   -0.39286E+08         0.10094E+07         0.00000E+00
    0.10094E+07        -0.60681E+08         0.00000E+00
    0.00000E+00         0.00000E+00        -0.40589E+08
 
   -0.39630E+08         0.13338E+07         0.00000E+00
    0.13338E+07        -0.60653E+08         0.00000E+00
    0.00000E+00         0.00000E+00        -0.40640E+08
 
   -0.39967E+08         0.17055E+07         0.00000E+00
    0.17055E+07        -0.60599E+08         0.00000E+00
    0.00000E+00         0.00000E+00        -0.40686E+08
 
   -0.40298E+08         0.21265E+07         0.00000E+00
    0.21265E+07        -0.60517E+08         0.00000E+00
    0.00000E+00         0.00000E+00        -0.40729E+08
 
   -0.40624E+08         0.26041E+07         0.00000E+00
    0.26041E+07        -0.60405E+08         0.00000E+00
    0.00000E+00         0.00000E+00        -0.40768E+08
 
   -0.36488E+08         0.21757E+05         0.00000E+00
    0.21757E+05        -0.60008E+08         0.00000E+00
    0.00000E+00         0.00000E+00        -0.40402E+08
 
   -0.36676E+08         0.41260E+05         0.00000E+00
    0.41260E+05        -0.60055E+08         0.00000E+00
    0.00000E+00         0.00000E+00        -0.40186E+08
 
   -0.36885E+08         0.37743E+05         0.00000E+00
    0.37743E+05        -0.60153E+08         0.00000E+00
    0.00000E+00         0.00000E+00        -0.40025E+08
 
   -0.37095E+08         0.31781E+05         0.00000E+00
    0.31781E+05        -0.60291E+08         0.00000E+00
    0.00000E+00         0.00000E+00        -0.39927E+08
 
   -0.37295E+08         0.39699E+05         0.00000E+00
    0.39699E+05        -0.60444E+08         0.00000E+00
    0.00000E+00         0.00000E+00        -0.39868E+08
 
   -0.37497E+08         0.65705E+05         0.00000E+00
    0.65705E+05        -0.60583E+08         0.00000E+00
    0.00000E+00         0.00000E+00        -0.39827E+08
 
   -0.37757E+08         0.13361E+06         0.00000E+00
    0.13361E+06        -0.60697E+08         0.00000E+00
    0.00000E+00         0.00000E+00        -0.39834E+08
 
   -0.38061E+08         0.26601E+06         0.00000E+00
    0.26601E+06        -0.60792E+08         0.00000E+00
    0.00000E+00         0.00000E+00        -0.39885E+08
 
   -0.38367E+08         0.46305E+06         0.00000E+00
    0.46305E+06        -0.60857E+08         0.00000E+00
    0.00000E+00         0.00000E+00        -0.39943E+08
 
   -0.38672E+08         0.71267E+06         0.00000E+00
    0.71267E+06        -0.60899E+08         0.00000E+00
    0.00000E+00         0.00000E+00        -0.39998E+08
 
   -0.38973E+08         0.10141E+07         0.00000E+00
    0.10141E+07        -0.60917E+08         0.00000E+00
    0.00000E+00         0.00000E+00        -0.40049E+08
 
   -0.39269E+08         0.13656E+07         0.00000E+00
    0.13656E+07        -0.60909E+08         0.00000E+00
    0.00000E+00         0.00000E+00        -0.40096E+08
 
   -0.39559E+08         0.17639E+07         0.00000E+00
    0.17639E+07        -0.60874E+08         0.00000E+00
    0.00000E+00         0.00000E+00        -0.40138E+08
 
   -0.39837E+08         0.22098E+07         0.00000E+00
    0.22098E+07        -0.60814E+08         0.00000E+00
    0.00000E+00         0.00000E+00        -0.40175E+08
 
   -0.40097E+08         0.27155E+07         0.00000E+00
    0.27155E+07        -0.60733E+08         0.00000E+00
    0.00000E+00         0.00000E+00        -0.40208E+08
 
   -0.36474E+08        -0.40526E+04         0.00000E+00
   -0.40526E+04        -0.60013E+08         0.00000E+00
    0.00000E+00         0.00000E+00        -0.39591E+08
 
   -0.36695E+08        -0.42244E+05         0.00000E+00
   -0.42244E+05        -0.60078E+08         0.00000E+00
    0.00000E+00         0.00000E+00        -0.39381E+08
 
   -0.36912E+08        -0.10008E+06         0.00000E+00
   -0.10008E+06        -0.60206E+08         0.00000E+00
    0.00000E+00         0.00000E+00        -0.39277E+08
 
   -0.37104E+08        -0.13463E+06         0.00000E+00
   -0.13463E+06        -0.60371E+08         0.00000E+00
    0.00000E+00         0.00000E+00        -0.39262E+08
 
   -0.37276E+08        -0.12570E+06         0.00000E+00
   -0.12570E+06        -0.60545E+08         0.00000E+00
    0.00000E+00         0.00000E+00        -0.39285E+08
 
   -0.37446E+08        -0.77326E+05         0.00000E+00
   -0.77326E+05        -0.60709E+08         0.00000E+00
    0.00000E+00         0.00000E+00        -0.39296E+08
 
   -0.37649E+08         0.19591E+05         0.00000E+00
    0.19591E+05        -0.60847E+08         0.00000E+00
    0.00000E+00         0.00000E+00        -0.39307E+08
 
   -0.37880E+08         0.17755E+06         0.00000E+00
    0.17755E+06        -0.60965E+08         0.00000E+00
    0.00000E+00         0.00000E+00        -0.39328E+08
 
   -0.38130E+08         0.39716E+06         0.00000E+00
    0.39716E+06        -0.61062E+08         0.00000E+00
    0.00000E+00         0.00000E+00        -0.39369E+08
 
   -0.38384E+08         0.67177E+06         0.00000E+00
    0.67177E+06        -0.61128E+08         0.00000E+00
    0.00000E+00         0.00000E+00        -0.39421E+08
 
   -0.38632E+08         0.99975E+06         0.00000E+00
    0.99975E+06        -0.61164E+08         0.00000E+00
    0.00000E+00         0.00000E+00        -0.39467E+08
 
   -0.38880E+08         0.13775E+07         0.00000E+00
    0.13775E+07        -0.61175E+08         0.00000E+00
    0.00000E+00         0.00000E+00        -0.39510E+08
 
   -0.39126E+08         0.18005E+07         0.00000E+00
    0.18005E+07        -0.61163E+08         0.00000E+00
    0.00000E+00         0.00000E+00        -0.39549E+08
 
   -0.39355E+08         0.22661E+07         0.00000E+00
    0.22661E+07        -0.61131E+08         0.00000E+00
    0.00000E+00         0.00000E+00        -0.39583E+08
 
   -0.39540E+08         0.27878E+07         0.00000E+00
    0.27878E+07        -0.61087E+08         0.00000E+00
    0.00000E+00         0.00000E+00        -0.39608E+08
 
   -0.36521E+08        -0.43724E+05         0.00000E+00
   -0.43724E+05        -0.60021E+08         0.00000E+00
    0.00000E+00         0.00000E+00        -0.38698E+08
 
   -0.36779E+08        -0.15791E+06         0.00000E+00
   -0.15791E+06        -0.60133E+08         0.00000E+00
    0.00000E+00         0.00000E+00        -0.38539E+08
 
   -0.36981E+08        -0.26264E+06         0.00000E+00
   -0.26264E+06        -0.60284E+08         0.00000E+00
    0.00000E+00         0.00000E+00        -0.38511E+08
 
   -0.37122E+08        -0.31272E+06         0.00000E+00
   -0.31272E+06        -0.60444E+08         0.00000E+00
    0.00000E+00         0.00000E+00        -0.38564E+08
 
   -0.37241E+08        -0.30107E+06         0.00000E+00
   -0.30107E+06        -0.60609E+08         0.00000E+00
    0.00000E+00         0.00000E+00        -0.38646E+08
 
   -0.37370E+08        -0.23749E+06         0.00000E+00
   -0.23749E+06        -0.60778E+08         0.00000E+00
    0.00000E+00         0.00000E+00        -0.38720E+08
 
   -0.37517E+08        -0.12502E+06         0.00000E+00
   -0.12502E+06        -0.60938E+08         0.00000E+00
    0.00000E+00         0.00000E+00        -0.38762E+08
 
   -0.37679E+08         0.53831E+05         0.00000E+00
    0.53831E+05        -0.61084E+08         0.00000E+00
    0.00000E+00         0.00000E+00        -0.38777E+08
 
   -0.37869E+08         0.29902E+06         0.00000E+00
    0.29902E+06        -0.61212E+08         0.00000E+00
    0.00000E+00         0.00000E+00        -0.38803E+08
 
   -0.38067E+08         0.60504E+06         0.00000E+00
    0.60504E+06        -0.61319E+08         0.00000E+00
    0.00000E+00         0.00000E+00        -0.38834E+08
 
   -0.38266E+08         0.96213E+06         0.00000E+00
    0.96213E+06        -0.61397E+08         0.00000E+00
    0.00000E+00         0.00000E+00        -0.38859E+08
 
   -0.38466E+08         0.13648E+07         0.00000E+00
    0.13648E+07        -0.61445E+08         0.00000E+00
    0.00000E+00         0.00000E+00        -0.38883E+08
 
   -0.38672E+08         0.18082E+07         0.00000E+00
    0.18082E+07        -0.61463E+08         0.00000E+00
    0.00000E+00         0.00000E+00        -0.38920E+08
 
   -0.38863E+08         0.22894E+07         0.00000E+00
    0.22894E+07        -0.61467E+08         0.00000E+00
    0.00000E+00         0.00000E+00        -0.38954E+08
 
   -0.38980E+08         0.28003E+07         0.00000E+00
    0.28003E+07        -0.61479E+08         0.00000E+00
    0.00000E+00         0.00000E+00        -0.38989E+08
 
   -0.36648E+08        -0.10381E+06         0.00000E+00
   -0.10381E+06        -0.60071E+08         0.00000E+00
    0.00000E+00         0.00000E+00        -0.37780E+08
 
   -0.36935E+08        -0.28597E+06         0.00000E+00
   -0.28597E+06        -0.60164E+08         0.00000E+00
    0.00000E+00         0.00000E+00        -0.37752E+08
 
   -0.37080E+08        -0.42722E+06         0.00000E+00
   -0.42722E+06        -0.60292E+08         0.00000E+00
    0.00000E+00         0.00000E+00        -0.37798E+08
 
   -0.37146E+08        -0.49315E+06         0.00000E+00
   -0.49315E+06        -0.60454E+08         0.00000E+00
    0.00000E+00         0.00000E+00        -0.37862E+08
 
   -0.37189E+08        -0.48013E+06         0.00000E+00
   -0.48013E+06        -0.60627E+08         0.00000E+00
    0.00000E+00         0.00000E+00        -0.37946E+08
 
   -0.37275E+08        -0.40372E+06         0.00000E+00
   -0.40372E+06        -0.60797E+08         0.00000E+00
    0.00000E+00         0.00000E+00        -0.38072E+08
 
   -0.37364E+08        -0.27331E+06         0.00000E+00
   -0.27331E+06        -0.60952E+08         0.00000E+00
    0.00000E+00         0.00000E+00        -0.38174E+08
 
   -0.37466E+08        -0.83108E+05         0.00000E+00
   -0.83108E+05        -0.61093E+08         0.00000E+00
    0.00000E+00         0.00000E+00        -0.38244E+08
 
   -0.37586E+08         0.17342E+06         0.00000E+00
    0.17342E+06        -0.61225E+08         0.00000E+00
    0.00000E+00         0.00000E+00        -0.38290E+08
 
   -0.37722E+08         0.49877E+06         0.00000E+00
    0.49877E+06        -0.61344E+08         0.00000E+00
    0.00000E+00         0.00000E+00        -0.38321E+08
 
   -0.37870E+08         0.88332E+06         0.00000E+00
    0.88332E+06        -0.61443E+08         0.00000E+00
    0.00000E+00         0.00000E+00        -0.38345E+08
 
   -0.38028E+08         0.13161E+07         0.00000E+00
    0.13161E+07        -0.61516E+08         0.00000E+00
    0.00000E+00         0.00000E+00        -0.38368E+08
 
   -0.38195E+08         0.17872E+07         0.00000E+00
    0.17872E+07        -0.61566E+08         0.00000E+00
    0.00000E+00         0.00000E+00        -0.38403E+08
 
   -0.38360E+08         0.22809E+07         0.00000E+00
    0.22809E+07        -0.61590E+08         0.00000E+00
    0.00000E+00         0.00000E+00        -0.38463E+08
 
   -0.38529E+08         0.27536E+07         0.00000E+00
    0.27536E+07        -0.61614E+08         0.00000E+00
    0.00000E+00         0.00000E+00        -0.38561E+08
 
   -0.36890E+08        -0.16553E+06         0.00000E+00
   -0.16553E+06        -0.60049E+08         0.00000E+00
    0.00000E+00         0.00000E+00        -0.37007E+08
 
   -0.37131E+08        -0.41619E+06         0.00000E+00
   -0.41619E+06        -0.60114E+08         0.00000E+00
    0.00000E+00         0.00000E+00        -0.37066E+08
 
   -0.37201E+08        -0.58355E+06         0.00000E+00
   -0.58355E+06        -0.60255E+08         0.00000E+00
    0.00000E+00         0.00000E+00        -0.37104E+08
 
   -0.37172E+08        -0.66815E+06         0.00000E+00
   -0.66815E+06        -0.60430E+08         0.00000E+00
    0.00000E+00         0.00000E+00        -0.37132E+08
 
   -0.37139E+08        -0.66015E+06         0.00000E+00
   -0.66015E+06        -0.60601E+08         0.00000E+00
    0.00000E+00         0.00000E+00        -0.37211E+08
 
   -0.37159E+08        -0.57114E+06         0.00000E+00
   -0.57114E+06        -0.60769E+08         0.00000E+00
    0.00000E+00         0.00000E+00        -0.37364E+08
 
   -0.37195E+08        -0.42253E+06         0.00000E+00
   -0.42253E+06        -0.60926E+08         0.00000E+00
    0.00000E+00         0.00000E+00        -0.37523E+08
 
   -0.37235E+08        -0.21541E+06         0.00000E+00
   -0.21541E+06        -0.61065E+08         0.00000E+00
    0.00000E+00         0.00000E+00        -0.37654E+08
 
   -0.37287E+08         0.57829E+05         0.00000E+00
    0.57829E+05        -0.61185E+08         0.00000E+00
    0.00000E+00         0.00000E+00        -0.37754E+08
 
   -0.37357E+08         0.39978E+06         0.00000E+00
    0.39978E+06        -0.61287E+08         0.00000E+00
    0.00000E+00         0.00000E+00        -0.37829E+08
 
   -0.37449E+08         0.80414E+06         0.00000E+00
    0.80414E+06        -0.61372E+08         0.00000E+00
    0.00000E+00         0.00000E+00        -0.37891E+08
 
   -0.37565E+08         0.12582E+07         0.00000E+00
    0.12582E+07        -0.61440E+08         0.00000E+00
    0.00000E+00         0.00000E+00        -0.37948E+08
 
   -0.37705E+08         0.17459E+07         0.00000E+00
    0.17459E+07        -0.61491E+08         0.00000E+00
    0.00000E+00         0.00000E+00        -0.38012E+08
 
   -0.37876E+08         0.22404E+07         0.00000E+00
    0.22404E+07        -0.61538E+08         0.00000E+00
    0.00000E+00         0.00000E+00        -0.38089E+08
 
   -0.38084E+08         0.27131E+07         0.00000E+00
    0.27131E+07        -0.61581E+08         0.00000E+00
    0.00000E+00         0.00000E+00        -0.38165E+08
 
   -0.37235E+08        -0.21349E+06         0.00000E+00
   -0.21349E+06        -0.60014E+08         0.00000E+00
    0.00000E+00         0.00000E+00        -0.36328E+08
 
   -0.37365E+08        -0.52974E+06         0.00000E+00
   -0.52974E+06        -0.60093E+08         0.00000E+00
    0.00000E+00         0.00000E+00        -0.36369E+08
 
   -0.37341E+08        -0.73602E+06         0.00000E+00
   -0.73602E+06        -0.60220E+08         0.00000E+00
    0.00000E+00         0.00000E+00        -0.36388E+08
 
   -0.37218E+08        -0.83796E+06         0.00000E+00
   -0.83796E+06        -0.60373E+08         0.00000E+00
    0.00000E+00         0.00000E+00        -0.36395E+08
 
   -0.37083E+08        -0.83396E+06         0.00000E+00
   -0.83396E+06        -0.60545E+08         0.00000E+00
    0.00000E+00         0.00000E+00        -0.36447E+08
 
   -0.37028E+08        -0.73757E+06         0.00000E+00
   -0.73757E+06        -0.60709E+08         0.00000E+00
    0.00000E+00         0.00000E+00        -0.36614E+08
 
   -0.37008E+08        -0.57253E+06         0.00000E+00
   -0.57253E+06        -0.60865E+08         0.00000E+00
    0.00000E+00         0.00000E+00        -0.36822E+08
 
   -0.36984E+08        -0.34431E+06         0.00000E+00
   -0.34431E+06        -0.61002E+08         0.00000E+00
    0.00000E+00         0.00000E+00        -0.37009E+08
 
   -0.36970E+08        -0.49916E+05         0.00000E+00
   -0.49916E+05        -0.61119E+08         0.00000E+00
    0.00000E+00         0.00000E+00        -0.37168E+08
 
   -0.36975E+08         0.31015E+06         0.00000E+00
    0.31015E+06        -0.61216E+08         0.00000E+00
    0.00000E+00         0.00000E+00        -0.37300E+08
 
   -0.37012E+08         0.72995E+06         0.00000E+00
    0.72995E+06        -0.61298E+08         0.00000E+00
    0.00000E+00         0.00000E+00        -0.37411E+08
 
   -0.37088E+08         0.11968E+07         0.00000E+00
    0.11968E+07        -0.61367E+08         0.00000E+00
    0.00000E+00         0.00000E+00        -0.37510E+08
 
   -0.37211E+08         0.16916E+07         0.00000E+00
    0.16916E+07        -0.61428E+08         0.00000E+00
    0.00000E+00         0.00000E+00        -0.37599E+08
 
   -0.37386E+08         0.21937E+07         0.00000E+00
    0.21937E+07        -0.61480E+08         0.00000E+00
    0.00000E+00         0.00000E+00        -0.37673E+08
 
   -0.37611E+08         0.26883E+07         0.00000E+00
    0.26883E+07        -0.61512E+08         0.00000E+00
    0.00000E+00         0.00000E+00        -0.37720E+08
 
   -0.37659E+08        -0.24897E+06         0.00000E+00
   -0.24897E+06        -0.60016E+08         0.00000E+00
    0.00000E+00         0.00000E+00        -0.35642E+08
 
   -0.37648E+08        -0.62952E+06         0.00000E+00
   -0.62952E+06        -0.60077E+08         0.00000E+00
    0.00000E+00         0.00000E+00        -0.35652E+08
 
   -0.37508E+08        -0.87199E+06         0.00000E+00
   -0.87199E+06        -0.60187E+08         0.00000E+00
    0.00000E+00         0.00000E+00        -0.35647E+08
 
   -0.37277E+08        -0.99388E+06         0.00000E+00
   -0.99388E+06        -0.60325E+08         0.00000E+00
    0.00000E+00         0.00000E+00        -0.35632E+08
 
   -0.37026E+08        -0.99716E+06         0.00000E+00
   -0.99716E+06        -0.60478E+08         0.00000E+00
    0.00000E+00         0.00000E+00        -0.35653E+08
 
   -0.36889E+08        -0.89658E+06         0.00000E+00
   -0.89658E+06        -0.60629E+08         0.00000E+00
    0.00000E+00         0.00000E+00        -0.35833E+08
 
   -0.36802E+08        -0.71884E+06         0.00000E+00
   -0.71884E+06        -0.60776E+08         0.00000E+00
    0.00000E+00         0.00000E+00        -0.36083E+08
 
   -0.36712E+08        -0.47153E+06         0.00000E+00
   -0.47153E+06        -0.60909E+08         0.00000E+00
    0.00000E+00         0.00000E+00        -0.36320E+08
 
   -0.36632E+08        -0.15698E+06         0.00000E+00
   -0.15698E+06        -0.61024E+08         0.00000E+00
    0.00000E+00         0.00000E+00        -0.36535E+08
 
   -0.36577E+08         0.22017E+06         0.00000E+00
    0.22017E+06        -0.61122E+08         0.00000E+00
    0.00000E+00         0.00000E+00        -0.36723E+08
 
   -0.36562E+08         0.65260E+06         0.00000E+00
    0.65260E+06        -0.61207E+08         0.00000E+00
    0.00000E+00         0.00000E+00        -0.36887E+08
 
   -0.36602E+08         0.11287E+07         0.00000E+00
    0.11287E+07        -0.61282E+08         0.00000E+00
    0.00000E+00         0.00000E+00        -0.37026E+08
 
   -0.36706E+08         0.16340E+07         0.00000E+00
    0.16340E+07        -0.61347E+08         0.00000E+00
    0.00000E+00         0.00000E+00        -0.37137E+08
 
   -0.36877E+08         0.21542E+07         0.00000E+00
    0.21542E+07        -0.61396E+08         0.00000E+00
    0.00000E+00         0.00000E+00        -0.37211E+08
 
   -0.37113E+08         0.26734E+07         0.00000E+00
    0.26734E+07        -0.61422E+08         0.00000E+00
    0.00000E+00         0.00000E+00        -0.37243E+08
 
   -0.38147E+08        -0.28027E+06         0.00000E+00
   -0.28027E+06        -0.60013E+08         0.00000E+00
    0.00000E+00         0.00000E+00        -0.34940E+08
 
   -0.37979E+08        -0.71224E+06         0.00000E+00
   -0.71224E+06        -0.60066E+08         0.00000E+00
    0.00000E+00         0.00000E+00        -0.34918E+08
 
   -0.37702E+08        -0.98955E+06         0.00000E+00
   -0.98955E+06        -0.60158E+08         0.00000E+00
    0.00000E+00         0.00000E+00        -0.34884E+08
 
   -0.37347E+08        -0.11300E+07         0.00000E+00
   -0.11300E+07        -0.60274E+08         0.00000E+00
    0.00000E+00         0.00000E+00        -0.34843E+08
 
   -0.36972E+08        -0.11410E+07         0.00000E+00
   -0.11410E+07        -0.60405E+08         0.00000E+00
    0.00000E+00         0.00000E+00        -0.34832E+08
 
   -0.36744E+08        -0.10405E+07         0.00000E+00
   -0.10405E+07        -0.60536E+08         0.00000E+00
    0.00000E+00         0.00000E+00        -0.35028E+08
 
   -0.36583E+08        -0.85500E+06         0.00000E+00
   -0.85500E+06        -0.60667E+08         0.00000E+00
    0.00000E+00         0.00000E+00        -0.35313E+08
 
   -0.36422E+08        -0.59391E+06         0.00000E+00
   -0.59391E+06        -0.60789E+08         0.00000E+00
    0.00000E+00         0.00000E+00        -0.35591E+08
 
   -0.36277E+08        -0.26420E+06         0.00000E+00
   -0.26420E+06        -0.60900E+08         0.00000E+00
    0.00000E+00         0.00000E+00        -0.35851E+08
 
   -0.36165E+08         0.12649E+06         0.00000E+00
    0.12649E+06        -0.60998E+08         0.00000E+00
    0.00000E+00         0.00000E+00        -0.36090E+08
 
   -0.36102E+08         0.56954E+06         0.00000E+00
    0.56954E+06        -0.61087E+08         0.00000E+00
    0.00000E+00         0.00000E+00        -0.36301E+08
 
   -0.36105E+08         0.10560E+07         0.00000E+00
    0.10560E+07        -0.61167E+08         0.00000E+00
    0.00000E+00         0.00000E+00        -0.36479E+08
 
   -0.36183E+08         0.15761E+07         0.00000E+00
    0.15761E+07        -0.61235E+08         0.00000E+00
    0.00000E+00         0.00000E+00        -0.36616E+08
 
   -0.36344E+08         0.21176E+07         0.00000E+00
    0.21176E+07        -0.61285E+08         0.00000E+00
    0.00000E+00         0.00000E+00        -0.36703E+08
 
   -0.36588E+08         0.26636E+07         0.00000E+00
    0.26636E+07        -0.61310E+08         0.00000E+00
    0.00000E+00         0.00000E+00        -0.36732E+08
 
   -0.38690E+08        -0.30681E+06         0.00000E+00
   -0.30681E+06        -0.60011E+08         0.00000E+00
    0.00000E+00         0.00000E+00        -0.34222E+08
 
   -0.38349E+08        -0.78117E+06         0.00000E+00
   -0.78117E+06        -0.60055E+08         0.00000E+00
    0.00000E+00         0.00000E+00        -0.34165E+08
 
   -0.37920E+08        -0.10866E+07         0.00000E+00
   -0.10866E+07        -0.60129E+08         0.00000E+00
    0.00000E+00         0.00000E+00        -0.34099E+08
 
   -0.37429E+08        -0.12424E+07         0.00000E+00
   -0.12424E+07        -0.60223E+08         0.00000E+00
    0.00000E+00         0.00000E+00        -0.34029E+08
 
   -0.36922E+08        -0.12609E+07         0.00000E+00
   -0.12609E+07        -0.60327E+08         0.00000E+00
    0.00000E+00         0.00000E+00        -0.33988E+08
 
   -0.36599E+08        -0.11627E+07         0.00000E+00
   -0.11627E+07        -0.60433E+08         0.00000E+00
    0.00000E+00         0.00000E+00        -0.34198E+08
 
   -0.36355E+08        -0.97393E+06         0.00000E+00
   -0.97393E+06        -0.60540E+08         0.00000E+00
    0.00000E+00         0.00000E+00        -0.34511E+08
 
   -0.36121E+08        -0.70542E+06         0.00000E+00
   -0.70542E+06        -0.60645E+08         0.00000E+00
    0.00000E+00         0.00000E+00        -0.34819E+08
 
   -0.35911E+08        -0.36702E+06         0.00000E+00
   -0.36702E+06        -0.60744E+08         0.00000E+00
    0.00000E+00         0.00000E+00        -0.35114E+08
 
   -0.35742E+08         0.31761E+05         0.00000E+00
    0.31761E+05        -0.60838E+08         0.00000E+00
    0.00000E+00         0.00000E+00        -0.35390E+08
 
   -0.35632E+08         0.48278E+06         0.00000E+00
    0.48278E+06        -0.60927E+08         0.00000E+00
    0.00000E+00         0.00000E+00        -0.35641E+08
 
   -0.35594E+08         0.97925E+06         0.00000E+00
    0.97925E+06        -0.61010E+08         0.00000E+00
    0.00000E+00         0.00000E+00        -0.35858E+08
 
   -0.35642E+08         0.15143E+07         0.00000E+00
    0.15143E+07        -0.61083E+08         0.00000E+00
    0.00000E+00         0.00000E+00        -0.36028E+08
 
   -0.35787E+08         0.20777E+07         0.00000E+00
    0.20777E+07        -0.61140E+08         0.00000E+00
    0.00000E+00         0.00000E+00        -0.36141E+08
 
   -0.36033E+08         0.26527E+07         0.00000E+00
    0.26527E+07        -0.61171E+08         0.00000E+00
    0.00000E+00         0.00000E+00        -0.36182E+08
 
   -0.39277E+08        -0.32869E+06         0.00000E+00
   -0.32869E+06        -0.60009E+08         0.00000E+00
    0.00000E+00         0.00000E+00        -0.33490E+08
 
   -0.38750E+08        -0.83659E+06         0.00000E+00
   -0.83659E+06        -0.60044E+08         0.00000E+00
    0.00000E+00         0.00000E+00        -0.33395E+08
 
   -0.38156E+08        -0.11626E+07         0.00000E+00
   -0.11626E+07        -0.60101E+08         0.00000E+00
    0.00000E+00         0.00000E+00        -0.33295E+08
 
   -0.37519E+08        -0.13283E+07         0.00000E+00
   -0.13283E+07        -0.60169E+08         0.00000E+00
    0.00000E+00         0.00000E+00        -0.33193E+08
 
   -0.36878E+08        -0.13521E+07         0.00000E+00
   -0.13521E+07        -0.60243E+08         0.00000E+00
    0.00000E+00         0.00000E+00        -0.33122E+08
 
   -0.36454E+08        -0.12569E+07         0.00000E+00
   -0.12569E+07        -0.60318E+08         0.00000E+00
    0.00000E+00         0.00000E+00        -0.33343E+08
 
   -0.36125E+08        -0.10680E+07         0.00000E+00
   -0.10680E+07        -0.60395E+08         0.00000E+00
    0.00000E+00         0.00000E+00        -0.33674E+08
 
   -0.35815E+08        -0.79800E+06         0.00000E+00
   -0.79800E+06        -0.60473E+08         0.00000E+00
    0.00000E+00         0.00000E+00        -0.33999E+08
 
   -0.35539E+08        -0.45812E+06         0.00000E+00
   -0.45812E+06        -0.60553E+08         0.00000E+00
    0.00000E+00         0.00000E+00        -0.34315E+08
 
   -0.35314E+08        -0.57895E+05         0.00000E+00
   -0.57895E+05        -0.60635E+08         0.00000E+00
    0.00000E+00         0.00000E+00        -0.34617E+08
 
   -0.35154E+08         0.39562E+06         0.00000E+00
    0.39562E+06        -0.60719E+08         0.00000E+00
    0.00000E+00         0.00000E+00        -0.34900E+08
 
   -0.35072E+08         0.89771E+06         0.00000E+00
    0.89771E+06        -0.60803E+08         0.00000E+00
    0.00000E+00         0.00000E+00        -0.35153E+08
 
   -0.35083E+08         0.14441E+07         0.00000E+00
    0.14441E+07        -0.60884E+08         0.00000E+00
    0.00000E+00         0.00000E+00        -0.35366E+08
 
   -0.35204E+08         0.20274E+07         0.00000E+00
    0.20274E+07        -0.60953E+08         0.00000E+00
    0.00000E+00         0.00000E+00        -0.35518E+08
 
   -0.35446E+08         0.26325E+07         0.00000E+00
    0.26325E+07        -0.60999E+08         0.00000E+00
    0.00000E+00         0.00000E+00        -0.35588E+08
 
   -0.39901E+08        -0.34625E+06         0.00000E+00
   -0.34625E+06        -0.60007E+08         0.00000E+00
    0.00000E+00         0.00000E+00        -0.32745E+08
 
   -0.39173E+08        -0.87869E+06         0.00000E+00
   -0.87869E+06        -0.60033E+08         0.00000E+00
    0.00000E+00         0.00000E+00        -0.32609E+08
 
   -0.38403E+08        -0.12162E+07         0.00000E+00
   -0.12162E+07        -0.60072E+08         0.00000E+00
    0.00000E+00         0.00000E+00        -0.32472E+08
 
   -0.37613E+08        -0.13848E+07         0.00000E+00
   -0.13848E+07        -0.60113E+08         0.00000E+00
    0.00000E+00         0.00000E+00        -0.32337E+08
 
   -0.36839E+08        -0.14096E+07         0.00000E+00
   -0.14096E+07        -0.60152E+08         0.00000E+00
    0.00000E+00         0.00000E+00        -0.32237E+08
 
   -0.36312E+08        -0.13162E+07         0.00000E+00
   -0.13162E+07        -0.60190E+08         0.00000E+00
    0.00000E+00         0.00000E+00        -0.32460E+08
 
   -0.35895E+08        -0.11290E+07         0.00000E+00
   -0.11290E+07        -0.60229E+08         0.00000E+00
    0.00000E+00         0.00000E+00        -0.32796E+08
 
   -0.35510E+08        -0.86267E+06         0.00000E+00
   -0.86267E+06        -0.60271E+08         0.00000E+00
    0.00000E+00         0.00000E+00        -0.33125E+08
 
   -0.35171E+08        -0.52896E+06         0.00000E+00
   -0.52896E+06        -0.60322E+08         0.00000E+00
    0.00000E+00         0.00000E+00        -0.33447E+08
 
   -0.34889E+08        -0.13597E+06         0.00000E+00
   -0.13597E+06        -0.60384E+08         0.00000E+00
    0.00000E+00         0.00000E+00        -0.33763E+08
 
   -0.34676E+08         0.31154E+06         0.00000E+00
    0.31154E+06        -0.60459E+08         0.00000E+00
    0.00000E+00         0.00000E+00        -0.34070E+08
 
   -0.34545E+08         0.81110E+06         0.00000E+00
    0.81110E+06        -0.60544E+08         0.00000E+00
    0.00000E+00         0.00000E+00        -0.34360E+08
 
   -0.34511E+08         0.13613E+07         0.00000E+00
    0.13613E+07        -0.60634E+08         0.00000E+00
    0.00000E+00         0.00000E+00        -0.34619E+08
 
   -0.34596E+08         0.19591E+07         0.00000E+00
    0.19591E+07        -0.60721E+08         0.00000E+00
    0.00000E+00         0.00000E+00        -0.34826E+08
 
   -0.34825E+08         0.25932E+07         0.00000E+00
    0.25932E+07        -0.60790E+08         0.00000E+00
    0.00000E+00         0.00000E+00        -0.34943E+08
 
   -0.40552E+08        -0.36021E+06         0.00000E+00
   -0.36021E+06        -0.60006E+08         0.00000E+00
    0.00000E+00         0.00000E+00        -0.31989E+08
 
   -0.39609E+08        -0.90772E+06         0.00000E+00
   -0.90772E+06        -0.60024E+08         0.00000E+00
    0.00000E+00         0.00000E+00        -0.31810E+08
 
   -0.38651E+08        -0.12456E+07         0.00000E+00
   -0.12456E+07        -0.60044E+08         0.00000E+00
    0.00000E+00         0.00000E+00        -0.31633E+08
 
   -0.37703E+08        -0.14074E+07         0.00000E+00
   -0.14074E+07        -0.60053E+08         0.00000E+00
    0.00000E+00         0.00000E+00        -0.31461E+08
 
   -0.36799E+08        -0.14269E+07         0.00000E+00
   -0.14269E+07        -0.60052E+08         0.00000E+00
    0.00000E+00         0.00000E+00        -0.31332E+08
 
   -0.36171E+08        -0.13325E+07         0.00000E+00
   -0.13325E+07        -0.60044E+08         0.00000E+00
    0.00000E+00         0.00000E+00        -0.31546E+08
 
   -0.35670E+08        -0.11478E+07         0.00000E+00
   -0.11478E+07        -0.60035E+08         0.00000E+00
    0.00000E+00         0.00000E+00        -0.31871E+08
 
   -0.35215E+08        -0.89016E+06         0.00000E+00
   -0.89016E+06        -0.60033E+08         0.00000E+00
    0.00000E+00         0.00000E+00        -0.32187E+08
 
   -0.34814E+08        -0.57134E+06         0.00000E+00
   -0.57134E+06        -0.60046E+08         0.00000E+00
    0.00000E+00         0.00000E+00        -0.32500E+08
 
   -0.34475E+08        -0.19658E+06         0.00000E+00
   -0.19658E+06        -0.60083E+08         0.00000E+00
    0.00000E+00         0.00000E+00        -0.32819E+08
 
   -0.34208E+08         0.23316E+06         0.00000E+00
    0.23316E+06        -0.60144E+08         0.00000E+00
    0.00000E+00         0.00000E+00        -0.33144E+08
 
   -0.34022E+08         0.71881E+06         0.00000E+00
    0.71881E+06        -0.60228E+08         0.00000E+00
    0.00000E+00         0.00000E+00        -0.33469E+08
 
   -0.33934E+08         0.12621E+07         0.00000E+00
    0.12621E+07        -0.60330E+08         0.00000E+00
    0.00000E+00         0.00000E+00        -0.33782E+08
 
   -0.33969E+08         0.18653E+07         0.00000E+00
    0.18653E+07        -0.60440E+08         0.00000E+00
    0.00000E+00         0.00000E+00        -0.34056E+08
 
   -0.34169E+08         0.25251E+07         0.00000E+00
    0.25251E+07        -0.60542E+08         0.00000E+00
    0.00000E+00         0.00000E+00        -0.34244E+08
 
   -0.41223E+08        -0.37168E+06         0.00000E+00
   -0.37168E+06        -0.60005E+08         0.00000E+00
    0.00000E+00         0.00000E+00        -0.31224E+08
 
   -0.40045E+08        -0.92370E+06         0.00000E+00
   -0.92370E+06        -0.60016E+08         0.00000E+00
    0.00000E+00         0.00000E+00        -0.30997E+08
 
   -0.38887E+08        -0.12472E+07         0.00000E+00
   -0.12472E+07        -0.60014E+08         0.00000E+00
    0.00000E+00         0.00000E+00        -0.30777E+08
 
   -0.37781E+08        -0.13889E+07         0.00000E+00
   -0.13889E+07        -0.59985E+08         0.00000E+00
    0.00000E+00         0.00000E+00        -0.30567E+08
 
   -0.36756E+08        -0.13956E+07         0.00000E+00
   -0.13956E+07        -0.59933E+08         0.00000E+00
    0.00000E+00         0.00000E+00        -0.30407E+08
 
   -0.36030E+08        -0.12968E+07         0.00000E+00
   -0.12968E+07        -0.59869E+08         0.00000E+00
    0.00000E+00         0.00000E+00        -0.30596E+08
 
   -0.35451E+08        -0.11155E+07         0.00000E+00
   -0.11155E+07        -0.59804E+08         0.00000E+00
    0.00000E+00         0.00000E+00        -0.30892E+08
 
   -0.34935E+08        -0.87217E+06         0.00000E+00
   -0.87217E+06        -0.59750E+08         0.00000E+00
    0.00000E+00         0.00000E+00        -0.31177E+08
 
   -0.34480E+08        -0.57783E+06         0.00000E+00
   -0.57783E+06        -0.59720E+08         0.00000E+00
    0.00000E+00         0.00000E+00        -0.31467E+08
 
   -0.34088E+08        -0.23454E+06         0.00000E+00
   -0.23454E+06        -0.59724E+08         0.00000E+00
    0.00000E+00         0.00000E+00        -0.31776E+08
 
   -0.33763E+08         0.16211E+06         0.00000E+00
    0.16211E+06        -0.59768E+08         0.00000E+00
    0.00000E+00         0.00000E+00        -0.32111E+08
 
   -0.33517E+08         0.61927E+06         0.00000E+00
    0.61927E+06        -0.59853E+08         0.00000E+00
    0.00000E+00         0.00000E+00        -0.32472E+08
 
   -0.33364E+08         0.11432E+07         0.00000E+00
    0.11432E+07        -0.59971E+08         0.00000E+00
    0.00000E+00         0.00000E+00        -0.32846E+08
 
   -0.33330E+08         0.17392E+07         0.00000E+00
    0.17392E+07        -0.60108E+08         0.00000E+00
    0.00000E+00         0.00000E+00        -0.33204E+08
 
   -0.33480E+08         0.24109E+07         0.00000E+00
    0.24109E+07        -0.60253E+08         0.00000E+00
    0.00000E+00         0.00000E+00        -0.33484E+08
 
   -0.41907E+08        -0.38208E+06         0.00000E+00
   -0.38208E+06        -0.60005E+08         0.00000E+00
    0.00000E+00         0.00000E+00        -0.30454E+08
 
   -0.40466E+08        -0.92521E+06         0.00000E+00
   -0.92521E+06        -0.60008E+08         0.00000E+00
    0.00000E+00         0.00000E+00        -0.30172E+08
 
   -0.39095E+08        -0.12139E+07         0.00000E+00
   -0.12139E+07        -0.59977E+08         0.00000E+00
    0.00000E+00         0.00000E+00        -0.29904E+08
 
   -0.37835E+08        -0.13181E+07         0.00000E+00
   -0.13181E+07        -0.59898E+08         0.00000E+00
    0.00000E+00         0.00000E+00        -0.29654E+08
 
   -0.36705E+08        -0.13041E+07         0.00000E+00
   -0.13041E+07        -0.59782E+08         0.00000E+00
    0.00000E+00         0.00000E+00        -0.29459E+08
 
   -0.35887E+08        -0.11997E+07         0.00000E+00
   -0.11997E+07        -0.59651E+08         0.00000E+00
    0.00000E+00         0.00000E+00        -0.29598E+08
 
   -0.35244E+08        -0.10251E+07         0.00000E+00
   -0.10251E+07        -0.59523E+08         0.00000E+00
    0.00000E+00         0.00000E+00        -0.29847E+08
 
   -0.34679E+08        -0.80301E+06         0.00000E+00
   -0.80301E+06        -0.59414E+08         0.00000E+00
    0.00000E+00         0.00000E+00        -0.30088E+08
 
   -0.34180E+08        -0.54279E+06         0.00000E+00
   -0.54279E+06        -0.59336E+08         0.00000E+00
    0.00000E+00         0.00000E+00        -0.30341E+08
 
   -0.33741E+08        -0.24474E+06         0.00000E+00
   -0.24474E+06        -0.59303E+08         0.00000E+00
    0.00000E+00         0.00000E+00        -0.30626E+08
 
   -0.33360E+08         0.10049E+06         0.00000E+00
    0.10049E+06        -0.59327E+08         0.00000E+00
    0.00000E+00         0.00000E+00        -0.30961E+08
 
   -0.33045E+08         0.50899E+06         0.00000E+00
    0.50899E+06        -0.59411E+08         0.00000E+00
    0.00000E+00         0.00000E+00        -0.31355E+08
 
   -0.32814E+08         0.99641E+06         0.00000E+00
    0.99641E+06        -0.59551E+08         0.00000E+00
    0.00000E+00         0.00000E+00        -0.31798E+08
 
   -0.32696E+08         0.15723E+07         0.00000E+00
    0.15723E+07        -0.59729E+08         0.00000E+00
    0.00000E+00         0.00000E+00        -0.32260E+08
 
   -0.32762E+08         0.22458E+07         0.00000E+00
    0.22458E+07        -0.59923E+08         0.00000E+00
    0.00000E+00         0.00000E+00        -0.32661E+08
 
   -0.42598E+08        -0.39230E+06         0.00000E+00
   -0.39230E+06        -0.60005E+08         0.00000E+00
    0.00000E+00         0.00000E+00        -0.29679E+08
 
   -0.40849E+08        -0.90585E+06         0.00000E+00
   -0.90585E+06        -0.59994E+08         0.00000E+00
    0.00000E+00         0.00000E+00        -0.29334E+08
 
   -0.39251E+08        -0.11318E+07         0.00000E+00
   -0.11318E+07        -0.59919E+08         0.00000E+00
    0.00000E+00         0.00000E+00        -0.29011E+08
 
   -0.37851E+08        -0.11789E+07         0.00000E+00
   -0.11789E+07        -0.59770E+08         0.00000E+00
    0.00000E+00         0.00000E+00        -0.28718E+08
 
   -0.36644E+08        -0.11381E+07         0.00000E+00
   -0.11381E+07        -0.59576E+08         0.00000E+00
    0.00000E+00         0.00000E+00        -0.28483E+08
 
   -0.35745E+08        -0.10335E+07         0.00000E+00
   -0.10335E+07        -0.59365E+08         0.00000E+00
    0.00000E+00         0.00000E+00        -0.28534E+08
 
   -0.35055E+08        -0.87425E+06         0.00000E+00
   -0.87425E+06        -0.59174E+08         0.00000E+00
    0.00000E+00         0.00000E+00        -0.28725E+08
 
   -0.34454E+08        -0.68111E+06         0.00000E+00
   -0.68111E+06        -0.59009E+08         0.00000E+00
    0.00000E+00         0.00000E+00        -0.28911E+08
 
   -0.33926E+08        -0.46441E+06         0.00000E+00
   -0.46441E+06        -0.58885E+08         0.00000E+00
    0.00000E+00         0.00000E+00        -0.29116E+08
 
   -0.33451E+08        -0.22336E+06         0.00000E+00
   -0.22336E+06        -0.58816E+08         0.00000E+00
    0.00000E+00         0.00000E+00        -0.29366E+08
 
   -0.33019E+08         0.52776E+05         0.00000E+00
    0.52776E+05        -0.58815E+08         0.00000E+00
    0.00000E+00         0.00000E+00        -0.29687E+08
 
   -0.32629E+08         0.38731E+06         0.00000E+00
    0.38731E+06        -0.58894E+08         0.00000E+00
    0.00000E+00         0.00000E+00        -0.30102E+08
 
   -0.32304E+08         0.81203E+06         0.00000E+00
    0.81203E+06        -0.59058E+08         0.00000E+00
    0.00000E+00         0.00000E+00        -0.30616E+08
 
   -0.32075E+08         0.13514E+07         0.00000E+00
    0.13514E+07        -0.59289E+08         0.00000E+00
    0.00000E+00         0.00000E+00        -0.31203E+08
 
   -0.32017E+08         0.20203E+07         0.00000E+00
    0.20203E+07        -0.59549E+08         0.00000E+00
    0.00000E+00         0.00000E+00        -0.31777E+08
 
   -0.43283E+08        -0.39985E+06         0.00000E+00
   -0.39985E+06        -0.60002E+08         0.00000E+00
    0.00000E+00         0.00000E+00        -0.28903E+08
 
   -0.41161E+08        -0.84395E+06         0.00000E+00
   -0.84395E+06        -0.59955E+08         0.00000E+00
    0.00000E+00         0.00000E+00        -0.28476E+08
 
   -0.39332E+08        -0.97292E+06         0.00000E+00
   -0.97292E+06        -0.59796E+08         0.00000E+00
    0.00000E+00         0.00000E+00        -0.28089E+08
 
   -0.37821E+08        -0.95485E+06         0.00000E+00
   -0.95485E+06        -0.59551E+08         0.00000E+00
    0.00000E+00         0.00000E+00        -0.27753E+08
 
   -0.36578E+08        -0.88804E+06         0.00000E+00
   -0.88804E+06        -0.59274E+08         0.00000E+00
    0.00000E+00         0.00000E+00        -0.27472E+08
 
   -0.35617E+08        -0.79522E+06         0.00000E+00
   -0.79522E+06        -0.58992E+08         0.00000E+00
    0.00000E+00         0.00000E+00        -0.27391E+08
 
   -0.34892E+08        -0.66339E+06         0.00000E+00
   -0.66339E+06        -0.58727E+08         0.00000E+00
    0.00000E+00         0.00000E+00        -0.27505E+08
 
   -0.34272E+08        -0.51158E+06         0.00000E+00
   -0.51158E+06        -0.58515E+08         0.00000E+00
    0.00000E+00         0.00000E+00        -0.27635E+08
 
   -0.33727E+08        -0.34670E+06         0.00000E+00
   -0.34670E+06        -0.58353E+08         0.00000E+00
    0.00000E+00         0.00000E+00        -0.27790E+08
 
   -0.33231E+08        -0.17224E+06         0.00000E+00
   -0.17224E+06        -0.58256E+08         0.00000E+00
    0.00000E+00         0.00000E+00        -0.28000E+08
 
   -0.32760E+08         0.24034E+05         0.00000E+00
    0.24034E+05        -0.58233E+08         0.00000E+00
    0.00000E+00         0.00000E+00        -0.28295E+08
 
   -0.32300E+08         0.26410E+06         0.00000E+00
    0.26410E+06        -0.58299E+08         0.00000E+00
    0.00000E+00         0.00000E+00        -0.28707E+08
 
   -0.31860E+08         0.58736E+06         0.00000E+00
    0.58736E+06        -0.58471E+08         0.00000E+00
    0.00000E+00         0.00000E+00        -0.29271E+08
 
   -0.31489E+08         0.10550E+07         0.00000E+00
    0.10550E+07        -0.58766E+08         0.00000E+00
    0.00000E+00         0.00000E+00        -0.30003E+08
 
   -0.31253E+08         0.16991E+07         0.00000E+00
    0.16991E+07        -0.59132E+08         0.00000E+00
    0.00000E+00         0.00000E+00        -0.30824E+08
 
   -0.43921E+08        -0.38809E+06         0.00000E+00
   -0.38809E+06        -0.59985E+08         0.00000E+00
    0.00000E+00         0.00000E+00        -0.28121E+08
 
   -0.41347E+08        -0.67538E+06         0.00000E+00
   -0.67538E+06        -0.59828E+08         0.00000E+00
    0.00000E+00         0.00000E+00        -0.27580E+08
 
   -0.39332E+08        -0.68864E+06         0.00000E+00
   -0.68864E+06        -0.59505E+08         0.00000E+00
    0.00000E+00         0.00000E+00        -0.27120E+08
 
   -0.37762E+08        -0.63557E+06         0.00000E+00
   -0.63557E+06        -0.59139E+08         0.00000E+00
    0.00000E+00         0.00000E+00        -0.26743E+08
 
   -0.36510E+08        -0.56540E+06         0.00000E+00
   -0.56540E+06        -0.58782E+08         0.00000E+00
    0.00000E+00         0.00000E+00        -0.26434E+08
 
   -0.35521E+08        -0.49468E+06         0.00000E+00
   -0.49468E+06        -0.58468E+08         0.00000E+00
    0.00000E+00         0.00000E+00        -0.26208E+08
 
   -0.34770E+08        -0.40561E+06         0.00000E+00
   -0.40561E+06        -0.58165E+08         0.00000E+00
    0.00000E+00         0.00000E+00        -0.26183E+08
 
   -0.34139E+08        -0.30367E+06         0.00000E+00
   -0.30367E+06        -0.57904E+08         0.00000E+00
    0.00000E+00         0.00000E+00        -0.26246E+08
 
   -0.33593E+08        -0.20433E+06         0.00000E+00
   -0.20433E+06        -0.57724E+08         0.00000E+00
    0.00000E+00         0.00000E+00        -0.26360E+08
 
   -0.33087E+08        -0.10301E+06         0.00000E+00
   -0.10301E+06        -0.57618E+08         0.00000E+00
    0.00000E+00         0.00000E+00        -0.26539E+08
 
   -0.32590E+08         0.12648E+05         0.00000E+00
    0.12648E+05        -0.57585E+08         0.00000E+00
    0.00000E+00         0.00000E+00        -0.26805E+08
 
   -0.32081E+08         0.15360E+06         0.00000E+00
    0.15360E+06        -0.57640E+08         0.00000E+00
    0.00000E+00         0.00000E+00        -0.27194E+08
 
   -0.31541E+08         0.34529E+06         0.00000E+00
    0.34529E+06        -0.57805E+08         0.00000E+00
    0.00000E+00         0.00000E+00        -0.27765E+08
 
   -0.30970E+08         0.65768E+06         0.00000E+00
    0.65768E+06        -0.58124E+08         0.00000E+00
    0.00000E+00         0.00000E+00        -0.28606E+08
 
   -0.30484E+08         0.12356E+07         0.00000E+00
    0.12356E+07        -0.58662E+08         0.00000E+00
    0.00000E+00         0.00000E+00        -0.29785E+08
 
   -0.44382E+08        -0.24506E+06         0.00000E+00
   -0.24506E+06        -0.59823E+08         0.00000E+00
    0.00000E+00         0.00000E+00        -0.27287E+08
 
   -0.41372E+08        -0.27972E+06         0.00000E+00
   -0.27972E+06        -0.59375E+08         0.00000E+00
    0.00000E+00         0.00000E+00        -0.26596E+08
 
   -0.39302E+08        -0.25461E+06         0.00000E+00
   -0.25461E+06        -0.58876E+08         0.00000E+00
    0.00000E+00         0.00000E+00        -0.26085E+08
 
   -0.37713E+08        -0.22609E+06         0.00000E+00
   -0.22609E+06        -0.58412E+08         0.00000E+00
    0.00000E+00         0.00000E+00        -0.25678E+08
 
   -0.36458E+08        -0.19623E+06         0.00000E+00
   -0.19623E+06        -0.57999E+08         0.00000E+00
    0.00000E+00         0.00000E+00        -0.25349E+08
 
   -0.35474E+08        -0.16545E+06         0.00000E+00
   -0.16545E+06        -0.57642E+08         0.00000E+00
    0.00000E+00         0.00000E+00        -0.25086E+08
 
   -0.34706E+08        -0.13378E+06         0.00000E+00
   -0.13378E+06        -0.57362E+08         0.00000E+00
    0.00000E+00         0.00000E+00        -0.24882E+08
 
   -0.34061E+08        -0.97676E+05         0.00000E+00
   -0.97676E+05        -0.57151E+08         0.00000E+00
    0.00000E+00         0.00000E+00        -0.24757E+08
 
   -0.33529E+08        -0.65791E+05         0.00000E+00
   -0.65791E+05        -0.56991E+08         0.00000E+00
    0.00000E+00         0.00000E+00        -0.24838E+08
 
   -0.33016E+08        -0.33452E+05         0.00000E+00
   -0.33452E+05        -0.56894E+08         0.00000E+00
    0.00000E+00         0.00000E+00        -0.24997E+08
 
   -0.32507E+08         0.48775E+04         0.00000E+00
    0.48775E+04        -0.56869E+08         0.00000E+00
    0.00000E+00         0.00000E+00        -0.25240E+08
 
   -0.31976E+08         0.51157E+05         0.00000E+00
    0.51157E+05        -0.56931E+08         0.00000E+00
    0.00000E+00         0.00000E+00        -0.25604E+08
 
   -0.31383E+08         0.11252E+06         0.00000E+00
    0.11252E+06        -0.57103E+08         0.00000E+00
    0.00000E+00         0.00000E+00        -0.26154E+08
 
   -0.30665E+08         0.21458E+06         0.00000E+00
    0.21458E+06        -0.57439E+08         0.00000E+00
    0.00000E+00         0.00000E+00        -0.27032E+08
 
   -0.29734E+08         0.48177E+06         0.00000E+00
    0.48177E+06        -0.58066E+08         0.00000E+00
    0.00000E+00         0.00000E+00        -0.28574E+08
 
SCALARS stressS double 
LOOKUP_TABLE default
  -47346421.2389797     
  -47314970.1737127     
  -47259356.6595973     
  -47179084.7330830     
  -47074302.1722834     
  -46949592.0399516     
  -46917971.3361883     
  -47205431.8363026     
  -47471780.0601506     
  -47716066.9096594     
  -47940222.9477168     
  -48146056.1360886     
  -48335273.8629081     
  -48509498.8663889     
  -48670279.7206836     
  -47323699.1367177     
  -47292356.0065780     
  -47237090.1820469     
  -47157467.7415239     
  -47054268.1916267     
  -46931915.0238317     
  -46908161.8896092     
  -47194508.0540163     
  -47459068.0975088     
  -47701698.5649396     
  -47924313.9781370     
  -48128709.9425321     
  -48316585.2464416     
  -48489555.3259483     
  -48649162.9651305     
  -47278245.8004725     
  -47247136.8290238     
  -47192650.0192314     
  -47114399.7459281     
  -47014359.7780882     
  -46896961.3809525     
  -46888717.1604252     
  -47172586.0953546     
  -47433581.3648010     
  -47672909.6384274     
  -47892448.8376642     
  -48093976.9957542     
  -48279175.3108671     
  -48449643.6625421     
  -48606913.4311634     
  -47210226.7414762     
  -47179706.1417229     
  -47126396.5282251     
  -47050449.9524737     
  -46955369.9487782     
  -46845819.6143085     
  -46860322.7871132     
  -47139508.1372768     
  -47395210.9012761     
  -47629592.8065900     
  -47844528.9945432     
  -48041773.9967366     
  -48222977.6015681     
  -48389713.3957092     
  -48543496.0279507     
  -47120100.5796069     
  -47090657.5649100     
  -47038978.3356907     
  -46966645.2095541     
  -46878535.2512058     
  -46780056.5360880     
  -46823451.3180956     
  -47095171.8351608     
  -47343794.4957569     
  -47571570.2413311     
  -47780396.1592366     
  -47971971.9145584     
  -48147891.2701821     
  -48309686.9855311     
  -48458852.0899837     
  -47008252.8149927     
  -46980186.2727664     
  -46931035.9055211     
  -46864477.4334463     
  -46785952.4614738     
  -46701733.2060334     
  -46777768.5845974     
  -47039480.8925505     
  -47279041.1725990     
  -47498563.9411869     
  -47699822.7958729     
  -47884395.3039051     
  -48053783.7513058     
  -48209461.6547564     
  -48352896.4463540     
  -46875239.1029707     
  -46848638.5238914     
  -46803621.6908889     
  -46745373.0598981     
  -46679956.0689372     
  -46612768.0512010     
  -46722643.7548547     
  -46971861.7334878     
  -47200431.9765013     
  -47410171.7196271     
  -47602509.0782266     
  -47778828.9338915     
  -47940500.8012051     
  -48088918.2549732     
  -48225520.3069945     
  -46721347.6479573     
  -46696768.6290292     
  -46657718.5962881     
  -46610952.0196048     
  -46562357.9812441     
  -46516643.3427810     
  -46656723.6493919     
  -46891065.0139037     
  -47107219.8375654     
  -47305869.4457184     
  -47488095.9229269     
  -47655036.3143797     
  -47807888.7998085     
  -47947942.4599032     
  -48076605.3342322     
  -46546357.0330118     
  -46524775.0250029     
  -46494664.4181551     
  -46462957.9981773     
  -46434151.0584738     
  -46417234.3038555     
  -46576436.9524321     
  -46795777.6503052     
  -46998504.8029017     
  -47185052.8575997     
  -47356192.7260338     
  -47512793.2854738     
  -47655834.5051255     
  -47786465.8510995     
  -47906056.0944868     
  -46350570.6821845     
  -46333025.2035714     
  -46315534.7920229     
  -46303390.2289003     
  -46298147.7891149     
  -46314980.5587463     
  -46480532.2877913     
  -46684786.7913787     
  -46873365.2230424     
  -47047074.0742350     
  -47206414.2675120     
  -47351933.6536489     
  -47484329.8551714     
  -47604539.1960569     
  -47713863.3555958     
  -46132255.3924176     
  -46120418.2047436     
  -46120399.0898110     
  -46134049.9613026     
  -46158664.8826452     
  -46208047.5015844     
  -46369386.6164449     
  -46556972.1948985     
  -46730828.4351600     
  -46891270.5526714     
  -47038395.1881476     
  -47172406.6396668     
  -47293567.7886548     
  -47402463.7251172     
  -47500226.2550765     
  -45892478.8458917     
  -45887865.1717350     
  -45909769.0211379     
  -45956334.1344965     
  -46016863.0023818     
  -46095344.1373165     
  -46240842.1318250     
  -46410921.9596872     
  -46569907.6461477     
  -46716861.3128281     
  -46851821.9336922     
  -46974300.7233052     
  -47084070.5031204     
  -47181034.2315409     
  -47265816.0486281     
  -45632642.9517728     
  -45639062.2538643     
  -45687598.7969304     
  -45771158.3326628     
  -45868927.0640056     
  -45968820.6263557     
  -46095956.5971645     
  -46245631.4326099     
  -46388763.2456219     
  -46523289.2803980     
  -46646368.2449613     
  -46757698.7668260     
  -46856756.8137032     
  -46942060.2460650     
  -47012417.8548527     
  -45359240.6385240     
  -45384714.0046396     
  -45465140.0128263     
  -45578949.2545218     
  -45701673.6616671     
  -45817145.2464017     
  -45934240.0596206     
  -46057723.8797010     
  -46187307.5677668     
  -46310891.6093117     
  -46421399.2831391     
  -46521715.7758413     
  -46612716.6207247     
  -46689333.1941440     
  -46744939.1973075     
  -45079962.8998869     
  -45150274.5497899     
  -45258656.5179234     
  -45376774.7290793     
  -45498562.4198634     
  -45622557.7237251     
  -45738677.5575934     
  -45846600.2208677     
  -45961408.6212154     
  -46073350.7733113     
  -46174210.0361623     
  -46264878.5513247     
  -46351605.6687936     
  -46427921.0150062     
  -46482824.5900835     
  -44832843.6893214     
  -44950428.6247325     
  -45056935.2523998     
  -45154259.3435475     
  -45254056.7422148     
  -45381348.1272222     
  -45496703.7115287     
  -45600965.1176012     
  -45700404.6129200     
  -45795946.8107873     
  -45885720.4060199     
  -45970455.6213252     
  -46054552.6898418     
  -46137517.7507541     
  -46234503.9961099     
  -44648835.9977179     
  -44770415.3420432     
  -44853442.9010689     
  -44911221.8198414     
  -44983673.0504049     
  -45097367.7866375     
  -45214887.2471797     
  -45318175.4128523     
  -45408699.4363744     
  -45491212.9025240     
  -45570821.3072612     
  -45651050.5163818     
  -45736299.0845349     
  -45834504.5033642     
  -45943321.1380617     
  -44526026.2036543     
  -44609152.6443189     
  -44649646.9254264     
  -44662025.1489200     
  -44691864.6878192     
  -44783741.1985486     
  -44898096.0235420     
  -44998627.7972752     
  -45085504.7524477     
  -45163707.1939476     
  -45240227.9500304     
  -45321467.7310703     
  -45412466.2492277     
  -45512971.8307281     
  -45614150.0238678     
  -44439046.5278096     
  -44459306.9111937     
  -44447530.6841038     
  -44411023.0512868     
  -44385695.5142870     
  -44450401.2724754     
  -44553794.0833273     
  -44647019.5127484     
  -44730142.6613318     
  -44807491.7091941     
  -44885496.9101488     
  -44970073.9082826     
  -45063248.4940327     
  -45161444.9430568     
  -45259221.8212771     
  -44366703.6084421     
  -44320855.6743702     
  -44247906.0410601     
  -44154847.4229139     
  -44069712.4522499     
  -44102779.8775704     
  -44187670.4279445     
  -44267302.6751332     
  -44342706.9808079     
  -44417640.2928979     
  -44496776.3697947     
  -44583597.9709716     
  -44678148.7324635     
  -44777409.6943000     
  -44876556.2942569     
  -44307612.4693816     
  -44189392.0994962     
  -44049489.4131272     
  -43893808.4698611     
  -43745525.7681446     
  -43743252.7191930     
  -43802393.7442621     
  -43861397.8202253     
  -43922789.1680090     
  -43990129.3433826     
  -44066517.0424800     
  -44153736.3042768     
  -44251177.2873320     
  -44355815.4570965     
  -44462056.7717652     
  -44258764.4345446     
  -44062736.7771479     
  -43850529.8053479     
  -43627345.6405999     
  -43414451.5611426     
  -43371878.3180923     
  -43398143.8665171     
  -43429130.6826208     
  -43469115.8960417     
  -43522133.5036129     
  -43590839.8737179     
  -43676234.0877633     
  -43777596.4543237     
  -43891585.1156548     
  -44011182.8928395     
  -44217695.0491361     
  -43938514.6142949     
  -43649095.4907203     
  -43354320.0094751     
  -43076050.9483463     
  -42987423.5258597     
  -42973418.5482123     
  -42968801.1245888     
  -42979941.3300956     
  -43012101.6763520     
  -43068287.2793716     
  -43149375.3691312     
  -43254681.2653700     
  -43380869.7264387     
  -43519420.8273281     
  -44182248.8743554     
  -43814078.2673822     
  -43442364.6253392     
  -43072566.8936894     
  -42727701.6011619     
  -42586964.4481538     
  -42525243.0285303     
  -42478026.9588466     
  -42453633.0677629     
  -42459000.0172958     
  -42498447.4741633     
  -42573185.0909240     
  -42681864.5280911     
  -42821614.9618877     
  -42985125.7754818     
  -44150750.8605607     
  -43685943.1700173     
  -43225867.2795255     
  -42777664.0109613     
  -42365139.2160123     
  -42164806.9019689     
  -42049033.4212196     
  -41954088.0157933     
  -41889106.4615306     
  -41862478.7333664     
  -41880933.6129556     
  -41947361.6796444     
  -42059962.0358354     
  -42213952.8347936     
  -42405680.0251108     
  -44121936.1572163     
  -43548685.9512298     
  -42991950.1144759     
  -42462128.4406648     
  -41981717.4375207     
  -41711768.9667929     
  -41538117.6272740     
  -41393555.8412504     
  -41285665.4453166     
  -41223448.5622504     
  -41215867.9351262     
  -41270384.2763985     
  -41387862.1907346     
  -41561667.0598572     
  -41782017.5356917     
  -44094238.6319610     
  -43392462.0071046     
  -42726804.9765226     
  -42113250.2591150     
  -41567815.2209472     
  -41215034.5894770     
  -40984398.3237738     
  -40791230.5223893     
  -40642395.7982793     
  -40544312.8248652     
  -40506848.6244179     
  -40541426.9728642     
  -40659023.7779945     
  -40855704.4780885     
  -41114061.6385107     
  -44062668.4917018     
  -43197427.7316915     
  -42405511.4049256     
  -41708248.1834062     
  -41108156.3763738     
  -40666696.9363584     
  -40374820.5618665     
  -40140886.4713792     
  -39956666.0928537     
  -39828891.6177834     
  -39762637.0021228     
  -39768631.1934951     
  -39867563.1362984     
  -40085968.8462940     
  -40402946.7896798     
  -44008748.5395743     
  -42918102.1423341     
  -41985778.6518486     
  -41214683.3484061     
  -40575207.4245054     
  -40065745.1585382     
  -39706155.8503855     
  -39429719.2019605     
  -39225721.2336365     
  -39081032.7786980     
  -38993443.5925383     
  -38971577.9817895     
  -39036840.7097936     
  -39233290.0525911     
  -39643646.2936966     
  -43830784.3542134     
  -42447664.6113771     
  -41420952.8788579     
  -40601002.7666920     
  -39935462.7526331     
  -39400588.8209938     
  -38983227.2951399     
  -38656212.3403445     
  -38452638.1294432     
  -38302288.9061200     
  -38205426.9929352     
  -38170247.1427796     
  -38213488.0874156     
  -38378770.3148027     
  -38791531.7189633     
SCALARS 2waySource double 
LOOKUP_TABLE default
 -8.268862805610520E-005
 -8.202812558320838E-005
 -8.105225064918795E-005
 -7.962101970216776E-005
 -7.778608769293503E-005
 -7.576028864822971E-005
 -1.249178684384288E-004
 -1.282830678943589E-004
 -1.305961528035537E-004
 -1.327971650973244E-004
 -1.348843957128235E-004
 -1.368606369461407E-004
 -1.387260899260834E-004
 -1.404747389459386E-004
 -1.420927534594523E-004
 -8.224780577050468E-005
 -8.166306970847491E-005
 -8.073940874413058E-005
 -7.940004966008371E-005
 -7.758384966131288E-005
 -7.626153901556884E-005
 -1.251693864059129E-004
 -1.281775321793882E-004
 -1.304709373037887E-004
 -1.326442404045940E-004
 -1.347040810790525E-004
 -1.366590981778868E-004
 -1.385120807198914E-004
 -1.402581198476544E-004
 -1.418840050858125E-004
 -8.154663332288607E-005
 -8.104277991115600E-005
 -8.017421414526076E-005
 -7.888542970711944E-005
 -7.709992462385738E-005
 -7.733139640594568E-005
 -1.254059100867382E-004
 -1.279803453954663E-004
 -1.302211499240147E-004
 -1.323264917678423E-004
 -1.343275993821807E-004
 -1.362416358668941E-004
 -1.380738789701775E-004
 -1.398205641206501E-004
 -1.414693627076638E-004
 -8.057582541293518E-005
 -8.010356824731505E-005
 -7.928180448204419E-005
 -7.803936261466836E-005
 -7.632296902729374E-005
 -7.909463140814228E-005
 -1.254014454760031E-004
 -1.277299034211822E-004
 -1.298310711270542E-004
 -1.318122175165264E-004
 -1.337207375565129E-004
 -1.355739814912502E-004
 -1.373776669562161E-004
 -1.391282860464352E-004
 -1.408142957819995E-004
 -7.935074575717515E-005
 -7.879303823139876E-005
 -7.804109742862003E-005
 -7.692761679858415E-005
 -7.531830654877822E-005
 -8.147322077873106E-005
 -1.254245162039393E-004
 -1.273867160253248E-004
 -1.292389152100246E-004
 -1.310463494747686E-004
 -1.328312182516727E-004
 -1.346065346312109E-004
 -1.363756320817791E-004
 -1.381339300304964E-004
 -1.398702248484539E-004
 -7.773757046841500E-005
 -7.708961754835481E-005
 -7.635193352110521E-005
 -7.533837239371592E-005
 -7.409597357314313E-005
 -8.517647466744937E-005
 -1.253259152379861E-004
 -1.267931732648852E-004
 -1.283546677148147E-004
 -1.299520948005707E-004
 -1.315904636717169E-004
 -1.332762954746694E-004
 -1.350083985754446E-004
 -1.367792356761412E-004
 -1.385771634227622E-004
 -7.573288767741313E-005
 -7.503345377885774E-005
 -7.422725660407420E-005
 -7.321060560202217E-005
 -7.248551605031250E-005
 -9.009269867214652E-005
 -1.247203052945142E-004
 -1.258165824976242E-004
 -1.270730544925260E-004
 -1.284369215428865E-004
 -1.299164599279835E-004
 -1.315102929243762E-004
 -1.332088384007626E-004
 -1.349991211894721E-004
 -1.368678853625121E-004
 -7.326515759381881E-005
 -7.246522245005349E-005
 -7.163100019296330E-005
 -7.088966600751649E-005
 -7.086983306233995E-005
 -9.659486647921886E-005
 -1.235279451020968E-004
 -1.243499158067088E-004
 -1.252718451098633E-004
 -1.263923125813513E-004
 -1.277178716770847E-004
 -1.292304297865778E-004
 -1.309073532912110E-004
 -1.327272457895197E-004
 -1.346737548733693E-004
 -7.041942266634056E-005
 -6.938996280601860E-005
 -6.848734912436216E-005
 -6.826495166527830E-005
 -7.148412328789343E-005
 -1.037847734073116E-004
 -1.218851778677244E-004
 -1.222315093361916E-004
 -1.227977306329762E-004
 -1.236993101813602E-004
 -1.249005101110460E-004
 -1.263601371940849E-004
 -1.280385221410384E-004
 -1.299027635633605E-004
 -1.319319910478005E-004
 -6.736409888838796E-005
 -6.594528427718700E-005
 -6.497130690651271E-005
 -6.572237918143192E-005
 -7.503791260020018E-005
 -1.074066902736621E-004
 -1.195745934211850E-004
 -1.192062266580778E-004
 -1.194934876556155E-004
 -1.202424134507219E-004
 -1.213772643203126E-004
 -1.228327967248504E-004
 -1.245482821314642E-004
 -1.264775400050541E-004
 -1.285933498682134E-004
 -6.414025087314148E-005
 -6.250918294660816E-005
 -6.191624216526101E-005
 -6.523345715310616E-005
 -8.086258361355694E-005
 -1.067468052838832E-004
 -1.157123588029935E-004
 -1.150865240463761E-004
 -1.152279008330459E-004
 -1.159244372653300E-004
 -1.170816519533773E-004
 -1.185985436939131E-004
 -1.204015999324260E-004
 -1.224219979328091E-004
 -1.246273087513812E-004
 -6.084044890273403E-005
 -5.997678444290113E-005
 -6.116113175407395E-005
 -7.038052913776324E-005
 -8.411696226897985E-005
 -1.019323515414700E-004
 -1.102545083528127E-004
 -1.097587917627587E-004
 -1.098873411653606E-004
 -1.107026142521669E-004
 -1.119615860330969E-004
 -1.136354910222061E-004
 -1.155921497898529E-004
 -1.177269758087357E-004
 -1.200143150389161E-004
 -5.785921536539092E-005
 -5.914272833944869E-005
 -6.811743391708854E-005
 -7.678291644423048E-005
 -8.350316732172800E-005
 -9.372103086503537E-005
 -1.014632942254572E-004
 -1.029234247802903E-004
 -1.036337182208767E-004
 -1.044649913759809E-004
 -1.059795345679504E-004
 -1.079896281090331E-004
 -1.101739835376054E-004
 -1.123807472044943E-004
 -1.146994555204587E-004
 -5.553125810507318E-005
 -6.657792355213360E-005
 -7.695820495451831E-005
 -7.938829962743065E-005
 -8.102810133416930E-005
 -8.481295793665928E-005
 -8.942437090859433E-005
 -9.407520809333865E-005
 -9.599199959448189E-005
 -9.683922550851929E-005
 -9.920924914300312E-005
 -1.019738339792916E-004
 -1.042931400193661E-004
 -1.063484010305680E-004
 -1.083691820521103E-004
 -6.326956835809322E-005
 -7.357370608418169E-005
 -7.862535782260423E-005
 -8.027065990449969E-005
 -8.047127484664602E-005
 -7.921787439987198E-005
 -7.973908408644719E-005
 -8.189001775937111E-005
 -8.407581452726052E-005
 -8.702921971690238E-005
 -9.124761947955609E-005
 -9.575074776332334E-005
 -9.812094462768219E-005
 -9.982553876179530E-005
 -9.942646757840300E-005
 -6.742263283409095E-005
 -7.653172111941943E-005
 -8.144141121070560E-005
 -8.340496674804544E-005
 -8.239404780887701E-005
 -7.596418708012267E-005
 -7.252815766673661E-005
 -7.328967349144979E-005
 -7.577685361263154E-005
 -7.974297567264359E-005
 -8.395667716049210E-005
 -8.760188722033995E-005
 -9.005764348810743E-005
 -9.266000605890571E-005
 -9.553394390219354E-005
 -7.324610179573662E-005
 -7.775577014709776E-005
 -8.276054922567091E-005
 -8.760151077449585E-005
 -8.399941928754367E-005
 -7.299259830284483E-005
 -6.584071949431530E-005
 -6.588759858704331E-005
 -7.054771852583914E-005
 -7.628327985540114E-005
 -8.112215009998115E-005
 -8.503545929407783E-005
 -8.850346953124459E-005
 -9.238543524441666E-005
 -9.756318408757261E-005
 -7.373703618922305E-005
 -7.815449043064223E-005
 -8.313206906012866E-005
 -8.800771725184575E-005
 -8.546055228963254E-005
 -6.916561052475301E-005
 -5.833623823658818E-005
 -5.868011993453050E-005
 -6.268118132922596E-005
 -6.674223095103444E-005
 -7.101900748371768E-005
 -7.536913995588831E-005
 -8.019493924538642E-005
 -8.596236832028051E-005
 -9.209394532815563E-005
 -7.326820684137842E-005
 -7.839996404812957E-005
 -8.273843221325414E-005
 -8.693377853519606E-005
 -8.539511491178180E-005
 -6.391690452027985E-005
 -5.114211839116294E-005
 -5.236745640316898E-005
 -5.487768626273242E-005
 -5.808267238930580E-005
 -6.190555970329311E-005
 -6.656018502328395E-005
 -7.208858844176628E-005
 -7.824491951721114E-005
 -8.449088826107099E-005
 -7.373315027235342E-005
 -7.825539719522936E-005
 -8.193191639377873E-005
 -8.515722774971016E-005
 -8.395593562582026E-005
 -5.734428193183973E-005
 -4.521448548200926E-005
 -4.625517138842526E-005
 -4.796480300350628E-005
 -5.036576936600786E-005
 -5.374350342451365E-005
 -5.819029529516576E-005
 -6.358003980280500E-005
 -6.954911279947784E-005
 -7.581234843443197E-005
 -7.475827643257069E-005
 -7.820486166963252E-005
 -8.085687627544481E-005
 -8.297837873587555E-005
 -8.158948534604194E-005
 -5.043215584742086E-005
 -4.012453176648063E-005
 -4.057339633612017E-005
 -4.159521038359502E-005
 -4.332986628633867E-005
 -4.609466564900539E-005
 -4.994349756176191E-005
 -5.475313474472839E-005
 -6.030724731170339E-005
 -6.641079568212661E-005
 -7.616615574876416E-005
 -7.826388954238327E-005
 -7.969003927440181E-005
 -8.061297682069778E-005
 -7.831511013374625E-005
 -4.431474215871641E-005
 -3.525212584667744E-005
 -3.513620060193149E-005
 -3.548913808218703E-005
 -3.653908572534395E-005
 -3.857274440093586E-005
 -4.164891138015649E-005
 -4.572817954290182E-005
 -5.072771702659331E-005
 -5.652123253812234E-005
 -7.780107425705863E-005
 -7.840366210662441E-005
 -7.846944777849268E-005
 -7.814474900591091E-005
 -7.451016798563841E-005
 -3.873684015135909E-005
 -3.045638752937650E-005
 -2.970198873663908E-005
 -2.934624312468847E-005
 -2.965759516288214E-005
 -3.090270291218532E-005
 -3.317581747602559E-005
 -3.649986519740977E-005
 -4.089076353980435E-005
 -4.629755580363453E-005
 -7.958337922479546E-005
 -7.856210545591780E-005
 -7.715124599795543E-005
 -7.551962552803418E-005
 -7.053637140877585E-005
 -3.377141702106719E-005
 -2.564800147042306E-005
 -2.408985609651564E-005
 -2.294195737479339E-005
 -2.246276627737082E-005
 -2.288133367211755E-005
 -2.435033586227551E-005
 -2.696291538874841E-005
 -3.078854093614919E-005
 -3.584105303570634E-005
 -8.150014269925042E-005
 -7.864930306409452E-005
 -7.560109994180009E-005
 -7.260977610760052E-005
 -6.641652515347172E-005
 -2.967700545788104E-005
 -2.069910766268253E-005
 -1.816244382672537E-005
 -1.613944760534004E-005
 -1.481939819099719E-005
 -1.434559572924891E-005
 -1.500019887073298E-005
 -1.696174206803131E-005
 -2.036687602448960E-005
 -2.520355645806930E-005
 -8.356546222863527E-005
 -7.853256206370930E-005
 -7.355550537988850E-005
 -6.908688012920007E-005
 -6.208118174111206E-005
 -2.687139728347401E-005
 -1.546989536767108E-005
 -1.172847763799081E-005
 -8.922337217008735E-006
 -6.616105092428314E-006
 -5.180736188940339E-006
 -4.934867334995372E-006
 -6.344985304320365E-006
 -9.566278957437048E-006
 -1.444530056570866E-005
 -8.574915315880740E-005
 -7.803250114436802E-005
 -7.068663596915116E-005
 -6.427650876749571E-005
 -5.698843533391561E-005
 -2.677504724456201E-005
 -9.434631594865992E-006
 -5.163251427248067E-006
 -9.884535856972369E-007
  2.181121541140953E-006
  4.809105298527584E-006
  5.931216035536467E-006
  4.894821460210545E-006
  1.659988470679175E-006
 -3.558742138067585E-006
 -8.788878597756005E-005
 -7.689236777150873E-005
 -6.675411241559485E-005
 -5.784541868308495E-005
 -4.968439175787512E-005
 -2.885976897156639E-005
 -6.692139468567262E-006
  3.020836389362526E-006
  7.257817786750720E-006
  1.219133272993798E-005
  1.589636443967208E-005
  1.724883310461938E-005
  1.655842982628335E-005
  1.338699932119728E-005
  7.540764571581874E-006
 -8.958760569450259E-005
 -7.452557650055859E-005
 -6.154226550108112E-005
 -5.045256750326663E-005
 -4.016798401266996E-005
 -2.775318292557838E-005
 -6.263162851379780E-006
  6.622932933811703E-006
  1.752039576834700E-005
  2.506259300809786E-005
  2.745384151821519E-005
  2.841332167811531E-005
  2.818503497981677E-005
  2.571416974313015E-005
  1.892721749023799E-005
 -8.917780749543048E-005
 -6.939405617775722E-005
 -5.486162434888606E-005
 -4.266758819963374E-005
 -3.125708380838661E-005
 -1.912269330687044E-005
 -5.948049433700077E-006
  6.047129427968750E-006
  2.970053493920389E-005
  3.787352438749152E-005
  3.838403166046025E-005
  3.927295564585463E-005
  3.941042010093385E-005
  3.762458366628973E-005
  3.085674626457218E-005
SCALARS poroP double 
LOOKUP_TABLE default
  1.010234261074159E-005
  8.356416442718488E-006
  6.572538136455680E-006
  4.777423075720248E-006
  2.999592422064106E-006
  1.274699677001346E-006
  1.182521236398770E-008
  0.000000000000000E+000
  0.000000000000000E+000
  0.000000000000000E+000
  0.000000000000000E+000
  0.000000000000000E+000
  0.000000000000000E+000
  0.000000000000000E+000
  0.000000000000000E+000
  1.001445801780314E-005
  8.271868725955912E-006
  6.494666937899296E-006
  4.708942261888703E-006
  2.944416876678433E-006
  1.235524756357608E-006
  7.088149738766087E-009
  0.000000000000000E+000
  0.000000000000000E+000
  0.000000000000000E+000
  0.000000000000000E+000
  0.000000000000000E+000
  0.000000000000000E+000
  0.000000000000000E+000
  0.000000000000000E+000
  9.839840997705942E-006
  8.103121083124762E-006
  6.338092945586235E-006
  4.571374459026465E-006
  2.835185993184967E-006
  1.160977141936486E-006
  2.151901288754655E-009
  0.000000000000000E+000
  0.000000000000000E+000
  0.000000000000000E+000
  0.000000000000000E+000
  0.000000000000000E+000
  0.000000000000000E+000
  0.000000000000000E+000
  0.000000000000000E+000
  9.578436621614927E-006
  7.849093251686465E-006
  6.101707176150269E-006
  4.364932983279599E-006
  2.672320173817309E-006
  1.053412736579904E-006
  0.000000000000000E+000
  0.000000000000000E+000
  0.000000000000000E+000
  0.000000000000000E+000
  0.000000000000000E+000
  0.000000000000000E+000
  0.000000000000000E+000
  0.000000000000000E+000
  0.000000000000000E+000
  9.228347624667986E-006
  7.508878419213285E-006
  5.785754994143138E-006
  4.091681980640961E-006
  2.459189441766973E-006
  9.166011028159242E-007
  0.000000000000000E+000
  0.000000000000000E+000
  0.000000000000000E+000
  0.000000000000000E+000
  0.000000000000000E+000
  0.000000000000000E+000
  0.000000000000000E+000
  0.000000000000000E+000
  0.000000000000000E+000
  8.792062683995811E-006
  7.084785717563783E-006
  5.395201094120153E-006
  3.757550295909684E-006
  2.202493320229526E-006
  7.573699132133189E-007
  0.000000000000000E+000
  0.000000000000000E+000
  0.000000000000000E+000
  0.000000000000000E+000
  0.000000000000000E+000
  0.000000000000000E+000
  0.000000000000000E+000
  0.000000000000000E+000
  0.000000000000000E+000
  8.268328859452229E-006
  6.579644172644353E-006
  4.937026085474208E-006
  3.373821150196759E-006
  1.916237010265718E-006
  5.859334669503764E-007
  0.000000000000000E+000
  0.000000000000000E+000
  0.000000000000000E+000
  0.000000000000000E+000
  0.000000000000000E+000
  0.000000000000000E+000
  0.000000000000000E+000
  0.000000000000000E+000
  0.000000000000000E+000
  7.658025457838742E-006
  5.999660432026814E-006
  4.423187393716502E-006
  2.956289736470718E-006
  1.616323806670955E-006
  4.171705099707609E-007
  0.000000000000000E+000
  0.000000000000000E+000
  0.000000000000000E+000
  0.000000000000000E+000
  0.000000000000000E+000
  0.000000000000000E+000
  0.000000000000000E+000
  0.000000000000000E+000
  0.000000000000000E+000
  6.962279566284994E-006
  5.357546810383388E-006
  3.872176330226142E-006
  2.522260958767083E-006
  1.318916849162484E-006
  2.867654099496450E-007
  0.000000000000000E+000
  0.000000000000000E+000
  0.000000000000000E+000
  0.000000000000000E+000
  0.000000000000000E+000
  0.000000000000000E+000
  0.000000000000000E+000
  0.000000000000000E+000
  0.000000000000000E+000
  6.175093298359925E-006
  4.661742328180969E-006
  3.298464961250206E-006
  2.088273984940943E-006
  1.040666456222969E-006
  2.037268600429046E-007
  0.000000000000000E+000
  0.000000000000000E+000
  0.000000000000000E+000
  0.000000000000000E+000
  0.000000000000000E+000
  0.000000000000000E+000
  0.000000000000000E+000
  0.000000000000000E+000
  0.000000000000000E+000
  5.309699895926125E-006
  3.918271794047652E-006
  2.708206606333264E-006
  1.668299176985313E-006
  7.989463249075602E-007
  1.512962611984762E-007
  0.000000000000000E+000
  0.000000000000000E+000
  0.000000000000000E+000
  0.000000000000000E+000
  0.000000000000000E+000
  0.000000000000000E+000
  0.000000000000000E+000
  0.000000000000000E+000
  0.000000000000000E+000
  4.375702372820678E-006
  3.120490698548995E-006
  2.091308535737307E-006
  1.267059200377675E-006
  6.150539533126326E-007
  1.458772307390793E-007
  0.000000000000000E+000
  0.000000000000000E+000
  0.000000000000000E+000
  0.000000000000000E+000
  0.000000000000000E+000
  0.000000000000000E+000
  0.000000000000000E+000
  0.000000000000000E+000
  0.000000000000000E+000
  3.386840425539381E-006
  2.262411596235746E-006
  1.441393174297136E-006
  8.873187783642542E-007
  4.998791921465002E-007
  1.998623515940856E-007
  3.799035245868265E-008
  0.000000000000000E+000
  0.000000000000000E+000
  0.000000000000000E+000
  0.000000000000000E+000
  0.000000000000000E+000
  0.000000000000000E+000
  0.000000000000000E+000
  0.000000000000000E+000
  2.358099065633794E-006
  1.365524725353591E-006
  7.892917040048001E-007
  5.392994367244404E-007
  4.316392477924845E-007
  2.987657594807884E-007
  1.614092535192979E-007
  4.888101411617430E-008
  0.000000000000000E+000
  0.000000000000000E+000
  0.000000000000000E+000
  0.000000000000000E+000
  0.000000000000000E+000
  0.000000000000000E+000
  0.000000000000000E+000
  1.296678334701294E-006
  5.214181573754057E-007
  2.286309436413577E-007
  2.379578542461783E-007
  3.494007818314139E-007
  4.257447774187191E-007
  3.928809771578079E-007
  2.760858201699037E-007
  1.898140745082717E-007
  1.242335414849368E-007
  5.767530107409824E-008
  4.949900442852221E-009
  0.000000000000000E+000
  0.000000000000000E+000
  3.603108705467551E-008
  3.405173729760513E-007
  2.770778387766398E-008
  1.797531701586288E-008
  9.621859533388546E-008
  2.367705209770734E-007
  4.824735954539124E-007
  6.566118575317716E-007
  7.373801015204126E-007
  7.403816573540272E-007
  6.964399615537116E-007
  6.368286209122492E-007
  5.837291270291588E-007
  5.729678888106959E-007
  6.534111920169977E-007
  8.367005143430773E-007
  0.000000000000000E+000
  0.000000000000000E+000
  0.000000000000000E+000
  4.097406095076329E-009
  1.593401483506149E-007
  5.016806053022580E-007
  8.583640066654708E-007
  1.146527791789906E-006
  1.350615928168848E-006
  1.483633659825544E-006
  1.574982791090441E-006
  1.652040826383892E-006
  1.741442153186292E-006
  1.855790454071324E-006
  1.945266015908844E-006
  0.000000000000000E+000
  0.000000000000000E+000
  0.000000000000000E+000
  0.000000000000000E+000
  1.206911392623480E-007
  5.222250192714923E-007
  1.033554717090625E-006
  1.511009253001448E-006
  1.923783654527161E-006
  2.263616093705682E-006
  2.538985374099326E-006
  2.763566574631069E-006
  2.939836693930170E-006
  3.046628574999394E-006
  3.055866406562062E-006
  0.000000000000000E+000
  0.000000000000000E+000
  0.000000000000000E+000
  0.000000000000000E+000
  9.308398656759637E-008
  5.605238836286777E-007
  1.209983269233501E-006
  1.854587966027654E-006
  2.459544540816956E-006
  3.001629611274342E-006
  3.467027848932197E-006
  3.841761604353692E-006
  4.104159065761806E-006
  4.229265968483779E-006
  4.203210000470863E-006
  0.000000000000000E+000
  0.000000000000000E+000
  0.000000000000000E+000
  0.000000000000000E+000
  7.487422701874863E-008
  6.188212360846523E-007
  1.392000285472637E-006
  2.178707496516531E-006
  2.946932156618516E-006
  3.666386616007732E-006
  4.306213818011093E-006
  4.832312574249153E-006
  5.207207395341973E-006
  5.397582579806143E-006
  5.381143860066347E-006
  0.000000000000000E+000
  0.000000000000000E+000
  0.000000000000000E+000
  0.000000000000000E+000
  6.409758212911550E-008
  6.879695989722200E-007
  1.567639104220122E-006
  2.468701073661842E-006
  3.365120795604987E-006
  4.227053602693262E-006
  5.018963492973429E-006
  5.699129681722267E-006
  6.219385231382136E-006
  6.528152111318661E-006
  6.577113101812248E-006
  0.000000000000000E+000
  0.000000000000000E+000
  0.000000000000000E+000
  0.000000000000000E+000
  6.261084871689060E-008
  7.564695807475678E-007
  1.718443751291372E-006
  2.701147111026233E-006
  3.686992101753903E-006
  4.654086625214799E-006
  5.573464689728738E-006
  6.406894070781991E-006
  7.102432763101010E-006
  7.588016600570692E-006
  7.774476122047213E-006
  0.000000000000000E+000
  0.000000000000000E+000
  0.000000000000000E+000
  0.000000000000000E+000
  6.703104538050088E-008
  8.131036855056010E-007
  1.825069851515648E-006
  2.850153980408546E-006
  3.883809384817943E-006
  4.918575082700925E-006
  5.939080754441483E-006
  6.918398037442183E-006
  7.810835806731921E-006
  8.533907354157024E-006
  8.950698408107381E-006
  0.000000000000000E+000
  0.000000000000000E+000
  0.000000000000000E+000
  0.000000000000000E+000
  7.162042564399956E-008
  8.468414659005670E-007
  1.869492031257892E-006
  2.892759119003597E-006
  3.930036987657066E-006
  4.993213830511321E-006
  6.085145037489075E-006
  7.194659934670590E-006
  8.291365877561605E-006
  9.304819483598096E-006
  1.006892267078134E-005
  0.000000000000000E+000
  0.000000000000000E+000
  0.000000000000000E+000
  0.000000000000000E+000
  7.423161301483125E-008
  8.429821652273801E-007
  1.832998599258616E-006
  2.809011178675324E-006
  3.804704779735731E-006
  4.854452212159417E-006
  5.984205349807702E-006
  7.202587253819983E-006
  8.499521846177916E-006
  9.841221396611894E-006
  1.108788660794505E-005
  0.000000000000000E+000
  0.000000000000000E+000
  0.000000000000000E+000
  0.000000000000000E+000
  7.072554720421409E-008
  7.792113769720886E-007
  1.694263156900666E-006
  2.583705826610624E-006
  3.497080607690626E-006
  4.490222930498807E-006
  5.616961348587199E-006
  6.915803661839946E-006
  8.400064342372224E-006
  1.007121179777783E-005
  1.190742629412270E-005
  0.000000000000000E+000
  0.000000000000000E+000
  0.000000000000000E+000
  0.000000000000000E+000
  5.371186392530383E-008
  6.215904978803370E-007
  1.429185414835241E-006
  2.205072209858353E-006
  3.007886370108063E-006
  3.907550987325598E-006
  4.984052747613484E-006
  6.316197960950153E-006
  7.960628173703347E-006
  9.958050938681543E-006
  1.245568541738567E-005
  0.000000000000000E+000
  0.000000000000000E+000
  0.000000000000000E+000
  0.000000000000000E+000
  1.204090395057792E-008
  3.412632867139203E-007
  1.007649800130044E-006
  1.662842102393653E-006
  2.345058596473136E-006
  3.134208308790955E-006
  4.122677497164663E-006
  5.417624198447455E-006
  7.154324649130976E-006
  9.473236825520761E-006
  1.270227408089055E-005
  0.000000000000000E+000
  0.000000000000000E+000
  0.000000000000000E+000
  0.000000000000000E+000
  0.000000000000000E+000
  4.564623961243531E-008
  4.253002397957268E-007
  9.421316387979062E-007
  1.518885311857783E-006
  2.213588147606701E-006
  3.103859817742482E-006
  4.300131046967611E-006
  5.997117942008895E-006
  8.544294022839572E-006
  1.263751267902930E-005
  3.991557844373531E-009
  0.000000000000000E+000
  0.000000000000000E+000
  0.000000000000000E+000
  0.000000000000000E+000
  0.000000000000000E+000
  0.000000000000000E+000
  8.973601665957660E-008
  5.667488351934264E-007
  1.194105457370278E-006
  1.997560385287462E-006
  3.080794097332165E-006
  4.645253749537363E-006
  7.159247100739388E-006
  1.219742645060903E-005
SCALARS elementIsPlast double 
LOOKUP_TABLE default
   1.00000000000000     
   1.00000000000000     
   1.00000000000000     
   1.00000000000000     
   1.00000000000000     
   1.00000000000000     
   1.00000000000000     
  0.000000000000000E+000
  0.000000000000000E+000
  0.000000000000000E+000
  0.000000000000000E+000
  0.000000000000000E+000
  0.000000000000000E+000
  0.000000000000000E+000
  0.000000000000000E+000
   1.00000000000000     
   1.00000000000000     
   1.00000000000000     
   1.00000000000000     
   1.00000000000000     
   1.00000000000000     
   1.00000000000000     
  0.000000000000000E+000
  0.000000000000000E+000
  0.000000000000000E+000
  0.000000000000000E+000
  0.000000000000000E+000
  0.000000000000000E+000
  0.000000000000000E+000
  0.000000000000000E+000
   1.00000000000000     
   1.00000000000000     
   1.00000000000000     
   1.00000000000000     
   1.00000000000000     
   1.00000000000000     
   1.00000000000000     
  0.000000000000000E+000
  0.000000000000000E+000
  0.000000000000000E+000
  0.000000000000000E+000
  0.000000000000000E+000
  0.000000000000000E+000
  0.000000000000000E+000
  0.000000000000000E+000
   1.00000000000000     
   1.00000000000000     
   1.00000000000000     
   1.00000000000000     
   1.00000000000000     
   1.00000000000000     
  0.000000000000000E+000
  0.000000000000000E+000
  0.000000000000000E+000
  0.000000000000000E+000
  0.000000000000000E+000
  0.000000000000000E+000
  0.000000000000000E+000
  0.000000000000000E+000
  0.000000000000000E+000
   1.00000000000000     
   1.00000000000000     
   1.00000000000000     
   1.00000000000000     
   1.00000000000000     
   1.00000000000000     
  0.000000000000000E+000
  0.000000000000000E+000
  0.000000000000000E+000
  0.000000000000000E+000
  0.000000000000000E+000
  0.000000000000000E+000
  0.000000000000000E+000
  0.000000000000000E+000
  0.000000000000000E+000
   1.00000000000000     
   1.00000000000000     
   1.00000000000000     
   1.00000000000000     
   1.00000000000000     
   1.00000000000000     
  0.000000000000000E+000
  0.000000000000000E+000
  0.000000000000000E+000
  0.000000000000000E+000
  0.000000000000000E+000
  0.000000000000000E+000
  0.000000000000000E+000
  0.000000000000000E+000
  0.000000000000000E+000
   1.00000000000000     
   1.00000000000000     
   1.00000000000000     
   1.00000000000000     
   1.00000000000000     
   1.00000000000000     
  0.000000000000000E+000
  0.000000000000000E+000
  0.000000000000000E+000
  0.000000000000000E+000
  0.000000000000000E+000
  0.000000000000000E+000
  0.000000000000000E+000
  0.000000000000000E+000
  0.000000000000000E+000
   1.00000000000000     
   1.00000000000000     
   1.00000000000000     
   1.00000000000000     
   1.00000000000000     
   1.00000000000000     
  0.000000000000000E+000
  0.000000000000000E+000
  0.000000000000000E+000
  0.000000000000000E+000
  0.000000000000000E+000
  0.000000000000000E+000
  0.000000000000000E+000
  0.000000000000000E+000
  0.000000000000000E+000
   1.00000000000000     
   1.00000000000000     
   1.00000000000000     
   1.00000000000000     
   1.00000000000000     
   1.00000000000000     
  0.000000000000000E+000
  0.000000000000000E+000
  0.000000000000000E+000
  0.000000000000000E+000
  0.000000000000000E+000
  0.000000000000000E+000
  0.000000000000000E+000
  0.000000000000000E+000
  0.000000000000000E+000
   1.00000000000000     
   1.00000000000000     
   1.00000000000000     
   1.00000000000000     
   1.00000000000000     
   1.00000000000000     
  0.000000000000000E+000
  0.000000000000000E+000
  0.000000000000000E+000
  0.000000000000000E+000
  0.000000000000000E+000
  0.000000000000000E+000
  0.000000000000000E+000
  0.000000000000000E+000
  0.000000000000000E+000
   1.00000000000000     
   1.00000000000000     
   1.00000000000000     
   1.00000000000000     
   1.00000000000000     
   1.00000000000000     
  0.000000000000000E+000
  0.000000000000000E+000
  0.000000000000000E+000
  0.000000000000000E+000
  0.000000000000000E+000
  0.000000000000000E+000
  0.000000000000000E+000
  0.000000000000000E+000
  0.000000000000000E+000
   1.00000000000000     
   1.00000000000000     
   1.00000000000000     
   1.00000000000000     
   1.00000000000000     
   1.00000000000000     
  0.000000000000000E+000
  0.000000000000000E+000
  0.000000000000000E+000
  0.000000000000000E+000
  0.000000000000000E+000
  0.000000000000000E+000
  0.000000000000000E+000
  0.000000000000000E+000
  0.000000000000000E+000
   1.00000000000000     
   1.00000000000000     
   1.00000000000000     
   1.00000000000000     
   1.00000000000000     
   1.00000000000000     
   1.00000000000000     
  0.000000000000000E+000
  0.000000000000000E+000
  0.000000000000000E+000
  0.000000000000000E+000
  0.000000000000000E+000
  0.000000000000000E+000
  0.000000000000000E+000
  0.000000000000000E+000
   1.00000000000000     
   1.00000000000000     
   1.00000000000000     
   1.00000000000000     
   1.00000000000000     
   1.00000000000000     
   1.00000000000000     
   1.00000000000000     
  0.000000000000000E+000
  0.000000000000000E+000
  0.000000000000000E+000
  0.000000000000000E+000
  0.000000000000000E+000
  0.000000000000000E+000
  0.000000000000000E+000
   1.00000000000000     
   1.00000000000000     
   1.00000000000000     
   1.00000000000000     
   1.00000000000000     
   1.00000000000000     
   1.00000000000000     
   1.00000000000000     
   1.00000000000000     
   1.00000000000000     
   1.00000000000000     
   1.00000000000000     
  0.000000000000000E+000
  0.000000000000000E+000
   1.00000000000000     
   1.00000000000000     
   1.00000000000000     
   1.00000000000000     
   1.00000000000000     
   1.00000000000000     
   1.00000000000000     
   1.00000000000000     
   1.00000000000000     
   1.00000000000000     
   1.00000000000000     
   1.00000000000000     
   1.00000000000000     
   1.00000000000000     
   1.00000000000000     
   1.00000000000000     
  0.000000000000000E+000
  0.000000000000000E+000
  0.000000000000000E+000
   1.00000000000000     
   1.00000000000000     
   1.00000000000000     
   1.00000000000000     
   1.00000000000000     
   1.00000000000000     
   1.00000000000000     
   1.00000000000000     
   1.00000000000000     
   1.00000000000000     
   1.00000000000000     
   1.00000000000000     
  0.000000000000000E+000
  0.000000000000000E+000
  0.000000000000000E+000
  0.000000000000000E+000
   1.00000000000000     
   1.00000000000000     
   1.00000000000000     
   1.00000000000000     
   1.00000000000000     
   1.00000000000000     
   1.00000000000000     
   1.00000000000000     
   1.00000000000000     
   1.00000000000000     
   1.00000000000000     
  0.000000000000000E+000
  0.000000000000000E+000
  0.000000000000000E+000
  0.000000000000000E+000
   1.00000000000000     
   1.00000000000000     
   1.00000000000000     
   1.00000000000000     
   1.00000000000000     
   1.00000000000000     
   1.00000000000000     
   1.00000000000000     
   1.00000000000000     
   1.00000000000000     
   1.00000000000000     
  0.000000000000000E+000
  0.000000000000000E+000
  0.000000000000000E+000
  0.000000000000000E+000
   1.00000000000000     
   1.00000000000000     
   1.00000000000000     
   1.00000000000000     
   1.00000000000000     
   1.00000000000000     
   1.00000000000000     
   1.00000000000000     
   1.00000000000000     
   1.00000000000000     
   1.00000000000000     
  0.000000000000000E+000
  0.000000000000000E+000
  0.000000000000000E+000
  0.000000000000000E+000
   1.00000000000000     
   1.00000000000000     
   1.00000000000000     
   1.00000000000000     
   1.00000000000000     
   1.00000000000000     
   1.00000000000000     
   1.00000000000000     
   1.00000000000000     
   1.00000000000000     
   1.00000000000000     
  0.000000000000000E+000
  0.000000000000000E+000
  0.000000000000000E+000
  0.000000000000000E+000
   1.00000000000000     
   1.00000000000000     
   1.00000000000000     
   1.00000000000000     
   1.00000000000000     
   1.00000000000000     
   1.00000000000000     
   1.00000000000000     
   1.00000000000000     
   1.00000000000000     
   1.00000000000000     
  0.000000000000000E+000
  0.000000000000000E+000
  0.000000000000000E+000
  0.000000000000000E+000
   1.00000000000000     
   1.00000000000000     
   1.00000000000000     
   1.00000000000000     
   1.00000000000000     
   1.00000000000000     
   1.00000000000000     
   1.00000000000000     
   1.00000000000000     
   1.00000000000000     
   1.00000000000000     
  0.000000000000000E+000
  0.000000000000000E+000
  0.000000000000000E+000
  0.000000000000000E+000
   1.00000000000000     
   1.00000000000000     
   1.00000000000000     
   1.00000000000000     
   1.00000000000000     
   1.00000000000000     
   1.00000000000000     
   1.00000000000000     
   1.00000000000000     
   1.00000000000000     
   1.00000000000000     
  0.000000000000000E+000
  0.000000000000000E+000
  0.000000000000000E+000
  0.000000000000000E+000
   1.00000000000000     
   1.00000000000000     
   1.00000000000000     
   1.00000000000000     
   1.00000000000000     
   1.00000000000000     
   1.00000000000000     
   1.00000000000000     
   1.00000000000000     
   1.00000000000000     
   1.00000000000000     
  0.000000000000000E+000
  0.000000000000000E+000
  0.000000000000000E+000
  0.000000000000000E+000
   1.00000000000000     
   1.00000000000000     
   1.00000000000000     
   1.00000000000000     
   1.00000000000000     
   1.00000000000000     
   1.00000000000000     
   1.00000000000000     
   1.00000000000000     
   1.00000000000000     
   1.00000000000000     
  0.000000000000000E+000
  0.000000000000000E+000
  0.000000000000000E+000
  0.000000000000000E+000
   1.00000000000000     
   1.00000000000000     
   1.00000000000000     
   1.00000000000000     
   1.00000000000000     
   1.00000000000000     
   1.00000000000000     
   1.00000000000000     
   1.00000000000000     
   1.00000000000000     
   1.00000000000000     
  0.000000000000000E+000
  0.000000000000000E+000
  0.000000000000000E+000
  0.000000000000000E+000
   1.00000000000000     
   1.00000000000000     
   1.00000000000000     
   1.00000000000000     
   1.00000000000000     
   1.00000000000000     
   1.00000000000000     
   1.00000000000000     
   1.00000000000000     
   1.00000000000000     
   1.00000000000000     
  0.000000000000000E+000
  0.000000000000000E+000
  0.000000000000000E+000
  0.000000000000000E+000
  0.000000000000000E+000
   1.00000000000000     
   1.00000000000000     
   1.00000000000000     
   1.00000000000000     
   1.00000000000000     
   1.00000000000000     
   1.00000000000000     
   1.00000000000000     
   1.00000000000000     
   1.00000000000000     
  0.000000000000000E+000
  0.000000000000000E+000
  0.000000000000000E+000
  0.000000000000000E+000
  0.000000000000000E+000
  0.000000000000000E+000
  0.000000000000000E+000
   1.00000000000000     
   1.00000000000000     
   1.00000000000000     
   1.00000000000000     
   1.00000000000000     
   1.00000000000000     
   1.00000000000000     
   1.00000000000000     
SCALARS poroL double 
LOOKUP_TABLE default
  0.155951775762752     
  0.155950175065271     
  0.155948625402799     
  0.155947155927967     
  0.155945792425757     
  0.155944533254402     
  0.155942956705836     
  0.155940194962187     
  0.155937668402844     
  0.155935373949199     
  0.155933297849636     
  0.155931427624364     
  0.155929752139597     
  0.155928261626605     
  0.155926947651884     
  0.155951257055792     
  0.155949658791336     
  0.155948113007218     
  0.155946647797152     
  0.155945285343774     
  0.155944024601089     
  0.155942424194888     
  0.155939679143472     
  0.155937169717508     
  0.155934891095241     
  0.155932829498062     
  0.155930972451122     
  0.155929308847122     
  0.155927828975647     
  0.155926524485449     
  0.155950221549197     
  0.155948627268446     
  0.155947087505103     
  0.155945630578590     
  0.155944272056370     
  0.155943009067943     
  0.155941363550012     
  0.155938649370502     
  0.155936174184764     
  0.155933927180814     
  0.155931894566664     
  0.155930063828873     
  0.155928423924464     
  0.155926965272118     
  0.155925679685156     
  0.155948669331869     
  0.155947077891134     
  0.155945546631893     
  0.155944101838628     
  0.155942748729016     
  0.155941482675731     
  0.155939774812585     
  0.155937109432904     
  0.155934685356030     
  0.155932485818760     
  0.155930496623492     
  0.155928705206691     
  0.155927100682709     
  0.155925673698524     
  0.155924416314115     
  0.155946597146987     
  0.155945007442735     
  0.155943488033172     
  0.155942058270096     
  0.155940711943755     
  0.155939440270000     
  0.155937657321518     
  0.155935064056306     
  0.155932708602845     
  0.155930572566921     
  0.155928641077601     
  0.155926901745588     
  0.155925344041818     
  0.155923958980885     
  0.155922738949236     
  0.155944007421847     
  0.155942419705142     
  0.155940914912264     
  0.155939497778252     
  0.155938155981517     
  0.155936877100536     
  0.155935016541836     
  0.155932519434525     
  0.155930251740341     
  0.155928195140201     
  0.155926335206956     
  0.155924660262755     
  0.155923160439827     
  0.155921827299423     
  0.155920653626304     
  0.155940898179726     
  0.155939318458552     
  0.155937829987131     
  0.155936424914324     
  0.155935081744993     
  0.155933794431479     
  0.155931863982328     
  0.155929486938475     
  0.155927325737410     
  0.155925363529865     
  0.155923588102945     
  0.155921989091447     
  0.155920557659715     
  0.155919286120255     
  0.155918167715574     
  0.155937272179838     
  0.155935708300213     
  0.155934242033855     
  0.155932847749965     
  0.155931497011419     
  0.155930187775383     
  0.155928218324172     
  0.155925984521551     
  0.155923944619026     
  0.155922089883483     
  0.155920410460041     
  0.155918897822897     
  0.155917544538953     
  0.155916343911200     
  0.155915289690742     
  0.155933136777939     
  0.155931605080570     
  0.155930164229290     
  0.155928775571856     
  0.155927416965274     
  0.155926071900567     
  0.155924117006340     
  0.155922032027921     
  0.155920124803971     
  0.155918388059387     
  0.155916814226189     
  0.155915396910115     
  0.155914130527504     
  0.155913009690783     
  0.155912028744013     
  0.155928488605941     
  0.155927019471435     
  0.155925608258618     
  0.155924215976776     
  0.155922845431706     
  0.155921463635428     
  0.155919581254325     
  0.155917649871182     
  0.155915883951684     
  0.155914273179471     
  0.155912812154664     
  0.155911497161116     
  0.155910325043695     
  0.155909292327127     
  0.155908394164549     
  0.155923360038866     
  0.155921971661691     
  0.155920585671004     
  0.155919176827585     
  0.155917777813627     
  0.155916373462559     
  0.155914620871905     
  0.155912858654366     
  0.155911240891348     
  0.155909761181029     
  0.155908417504371     
  0.155907209129100     
  0.155906136590724     
  0.155905199403073     
  0.155904394283917     
  0.155917759937531     
  0.155916455151202     
  0.155915089771225     
  0.155913662215218     
  0.155912240123332     
  0.155910840202442     
  0.155909265429068     
  0.155907681557599     
  0.155906214974455     
  0.155904869383289     
  0.155903643605126     
  0.155902542757175     
  0.155901571626864     
  0.155900735247301     
  0.155900034376538     
  0.155911701547420     
  0.155910445636912     
  0.155909095183409     
  0.155907682556418     
  0.155906288237813     
  0.155904952080958     
  0.155903557488460     
  0.155902138579870     
  0.155900832311269     
  0.155899613689250     
  0.155898504206886     
  0.155897508328627     
  0.155896633893713     
  0.155895896845564     
  0.155895311715763     
  0.155905164298776     
  0.155903898174216     
  0.155902565866754     
  0.155901264787136     
  0.155900017156974     
  0.155898794207790     
  0.155897560839095     
  0.155896317125096     
  0.155895105632785     
  0.155894003306685     
  0.155893015685193     
  0.155892123808488     
  0.155891325951116     
  0.155890666219952     
  0.155890200145043     
  0.155898116508327     
  0.155896734302080     
  0.155895498071507     
  0.155894468870470     
  0.155893508569240     
  0.155892497926422     
  0.155891441029037     
  0.155890365635356     
  0.155889271619066     
  0.155888225065193     
  0.155887269330424     
  0.155886417356318     
  0.155885661472440     
  0.155885014920691     
  0.155884597951474     
  0.155890436906352     
  0.155889170545530     
  0.155888264024222     
  0.155887510057668     
  0.155886807609824     
  0.155886009548645     
  0.155885233344947     
  0.155884441622475     
  0.155883599778202     
  0.155882734031900     
  0.155881895158251     
  0.155881106717769     
  0.155880378012985     
  0.155879768496745     
  0.155879179392728     
  0.155882435069752     
  0.155881468282840     
  0.155880784006875     
  0.155880304704330     
  0.155879884961878     
  0.155879355613548     
  0.155878813303554     
  0.155878295468580     
  0.155877769922379     
  0.155877217092081     
  0.155876634271302     
  0.155876029512281     
  0.155875403073361     
  0.155874713785095     
  0.155873938745832     
  0.155873882820741     
  0.155873228235901     
  0.155872901363129     
  0.155872809512988     
  0.155872738156202     
  0.155872500858222     
  0.155872202846439     
  0.155871952388982     
  0.155871710294788     
  0.155871434993765     
  0.155871088373012     
  0.155870642383191     
  0.155870068611315     
  0.155869357112657     
  0.155868560051906     
  0.155864663519557     
  0.155864507282784     
  0.155864611291311     
  0.155864936422274     
  0.155865314202108     
  0.155865412626325     
  0.155865397282113     
  0.155865423330651     
  0.155865448073926     
  0.155865419661844     
  0.155865280824360     
  0.155864979194028     
  0.155864486334255     
  0.155863816306750     
  0.155863011963045     
  0.155854966985373     
  0.155855334032069     
  0.155855936719809     
  0.155856736288241     
  0.155857605340049     
  0.155858079058323     
  0.155858383409192     
  0.155858704360745     
  0.155858994632831     
  0.155859198684975     
  0.155859254553619     
  0.155859108188523     
  0.155858731370116     
  0.155858126843120     
  0.155857325502078     
  0.155844835074079     
  0.155845773662130     
  0.155846918708801     
  0.155848237351698     
  0.155849626938114     
  0.155850501693568     
  0.155851157231067     
  0.155851793728437     
  0.155852358767194     
  0.155852797566174     
  0.155853054735569     
  0.155853081393261     
  0.155852843827001     
  0.155852326865654     
  0.155851541552467     
  0.155834326515457     
  0.155835878018258     
  0.155837605035495     
  0.155839477162406     
  0.155841402634942     
  0.155842699606310     
  0.155843729695826     
  0.155844699614200     
  0.155845552536169     
  0.155846237015142     
  0.155846706961902     
  0.155846922573459     
  0.155846846840747     
  0.155846446180131     
  0.155845701414310     
  0.155823499945423     
  0.155825704409348     
  0.155828048490521     
  0.155830500938406     
  0.155832967237328     
  0.155834704638179     
  0.155836125927796     
  0.155837441452826     
  0.155838591997206     
  0.155839530393344     
  0.155840220874066     
  0.155840635263683     
  0.155840741850951     
  0.155840495877724     
  0.155839841355112     
  0.155812415620047     
  0.155815316211767     
  0.155818312525095     
  0.155821365245563     
  0.155824373019533     
  0.155826564318844     
  0.155828385540675     
  0.155830048220621     
  0.155831496570692     
  0.155832689398952     
  0.155833598528746     
  0.155834208280314     
  0.155834506511065     
  0.155834456105842     
  0.155833961871323     
  0.155801134111333     
  0.155804787227486     
  0.155808477102710     
  0.155812147526092     
  0.155815691348305     
  0.155818345865003     
  0.155820561180587     
  0.155822555225081     
  0.155824286200828     
  0.155825724014555     
  0.155826844628896     
  0.155827638489109     
  0.155828116335392     
  0.155828291557699     
  0.155828066494608     
  0.155789716964635     
  0.155794210162955     
  0.155798650400476     
  0.155802952124809     
  0.155807012587726     
  0.155810137363449     
  0.155812719655339     
  0.155815007921868     
  0.155816987430042     
  0.155818644956870     
  0.155819966865603     
  0.155820937594414     
  0.155821569810350     
  0.155821925548091     
  0.155822071749986     
  0.155778232412070     
  0.155783715687791     
  0.155788991289121     
  0.155793926472719     
  0.155798449100335     
  0.155802044517199     
  0.155804935909381     
  0.155807467810218     
  0.155809638367175     
  0.155811468619298     
  0.155812963924840     
  0.155814117959080     
  0.155814908019108     
  0.155815413628019     
  0.155815928853024     
  0.155766779885957     
  0.155773515294876     
  0.155779746650398     
  0.155785297033794     
  0.155790154804603     
  0.155794141621201     
  0.155797316054634     
  0.155800003537459     
  0.155802294899541     
  0.155804218174013     
  0.155805827990879     
  0.155807151610852     
  0.155808169603709     
  0.155808825410907     
  0.155809619447849     
  0.155755568577796     
  0.155764021657625     
  0.155771298270523     
  0.155777364077717     
  0.155782442857517     
  0.155786587428847     
  0.155789916758572     
  0.155792726582468     
  0.155795011668343     
  0.155796927424950     
  0.155798569008889     
  0.155799984564210     
  0.155801207877722     
  0.155802253999620     
  0.155803191662072     
  0.155745460903747     
  0.155756122267698     
  0.155764060876748     
  0.155770418808411     
  0.155775597197465     
  0.155779777340472     
  0.155783055329747     
  0.155785722972260     
  0.155787819121414     
  0.155789643763785     
  0.155791220483789     
  0.155792592612220     
  0.155793834447197     
  0.155795080138368     
  0.155796943195830     
