# vtk DataFile Version 3.0
vtk output
ASCII
DATASET UNSTRUCTURED_GRID
POINTS       496 double 
  0.00000000E+00  3.00000000E+02  0.00000000E+00
  0.00000000E+00  2.80000000E+02  0.00000000E+00
  0.00000000E+00  2.60000000E+02  0.00000000E+00
  0.00000000E+00  2.40000000E+02  0.00000000E+00
  0.00000000E+00  2.20000000E+02  0.00000000E+00
  0.00000000E+00  2.00000000E+02  0.00000000E+00
  0.00000000E+00  1.80000000E+02  0.00000000E+00
  0.00000000E+00  1.60000000E+02  0.00000000E+00
  0.00000000E+00  1.40000000E+02  0.00000000E+00
  0.00000000E+00  1.20000000E+02  0.00000000E+00
  0.00000000E+00  1.00000000E+02  0.00000000E+00
  0.00000000E+00  8.00000000E+01  0.00000000E+00
  0.00000000E+00  6.00000000E+01  0.00000000E+00
  0.00000000E+00  4.00000000E+01  0.00000000E+00
  0.00000000E+00  2.00000000E+01  0.00000000E+00
  0.00000000E+00  4.99600361E-14  0.00000000E+00
  2.00000000E+01  3.00000000E+02  0.00000000E+00
  2.00000000E+01  2.80000000E+02  0.00000000E+00
  2.00000000E+01  2.60000000E+02  0.00000000E+00
  2.00000000E+01  2.40000000E+02  0.00000000E+00
  2.00000000E+01  2.20000000E+02  0.00000000E+00
  2.00000000E+01  2.00000000E+02  0.00000000E+00
  2.00000000E+01  1.80000000E+02  0.00000000E+00
  2.00000000E+01  1.60000000E+02  0.00000000E+00
  2.00000000E+01  1.40000000E+02  0.00000000E+00
  2.00000000E+01  1.20000000E+02  0.00000000E+00
  2.00000000E+01  1.00000000E+02  0.00000000E+00
  2.00000000E+01  8.00000000E+01  0.00000000E+00
  2.00000000E+01  6.00000000E+01  0.00000000E+00
  2.00000000E+01  4.00000000E+01  0.00000000E+00
  2.00000000E+01  2.00000000E+01  0.00000000E+00
  2.00000000E+01  4.99600361E-14  0.00000000E+00
  4.00000000E+01  3.00000000E+02  0.00000000E+00
  4.00000000E+01  2.80000000E+02  0.00000000E+00
  4.00000000E+01  2.60000000E+02  0.00000000E+00
  4.00000000E+01  2.40000000E+02  0.00000000E+00
  4.00000000E+01  2.20000000E+02  0.00000000E+00
  4.00000000E+01  2.00000000E+02  0.00000000E+00
  4.00000000E+01  1.80000000E+02  0.00000000E+00
  4.00000000E+01  1.60000000E+02  0.00000000E+00
  4.00000000E+01  1.40000000E+02  0.00000000E+00
  4.00000000E+01  1.20000000E+02  0.00000000E+00
  4.00000000E+01  1.00000000E+02  0.00000000E+00
  4.00000000E+01  8.00000000E+01  0.00000000E+00
  4.00000000E+01  6.00000000E+01  0.00000000E+00
  4.00000000E+01  4.00000000E+01  0.00000000E+00
  4.00000000E+01  2.00000000E+01  0.00000000E+00
  4.00000000E+01  4.99600361E-14  0.00000000E+00
  6.00000000E+01  3.00000000E+02  0.00000000E+00
  6.00000000E+01  2.80000000E+02  0.00000000E+00
  6.00000000E+01  2.60000000E+02  0.00000000E+00
  6.00000000E+01  2.40000000E+02  0.00000000E+00
  6.00000000E+01  2.20000000E+02  0.00000000E+00
  6.00000000E+01  2.00000000E+02  0.00000000E+00
  6.00000000E+01  1.80000000E+02  0.00000000E+00
  6.00000000E+01  1.60000000E+02  0.00000000E+00
  6.00000000E+01  1.40000000E+02  0.00000000E+00
  6.00000000E+01  1.20000000E+02  0.00000000E+00
  6.00000000E+01  1.00000000E+02  0.00000000E+00
  6.00000000E+01  8.00000000E+01  0.00000000E+00
  6.00000000E+01  6.00000000E+01  0.00000000E+00
  6.00000000E+01  4.00000000E+01  0.00000000E+00
  6.00000000E+01  2.00000000E+01  0.00000000E+00
  6.00000000E+01  4.99600361E-14  0.00000000E+00
  8.00000000E+01  3.00000000E+02  0.00000000E+00
  8.00000000E+01  2.80000000E+02  0.00000000E+00
  8.00000000E+01  2.60000000E+02  0.00000000E+00
  8.00000000E+01  2.40000000E+02  0.00000000E+00
  8.00000000E+01  2.20000000E+02  0.00000000E+00
  8.00000000E+01  2.00000000E+02  0.00000000E+00
  8.00000000E+01  1.80000000E+02  0.00000000E+00
  8.00000000E+01  1.60000000E+02  0.00000000E+00
  8.00000000E+01  1.40000000E+02  0.00000000E+00
  8.00000000E+01  1.20000000E+02  0.00000000E+00
  8.00000000E+01  1.00000000E+02  0.00000000E+00
  8.00000000E+01  8.00000000E+01  0.00000000E+00
  8.00000000E+01  6.00000000E+01  0.00000000E+00
  8.00000000E+01  4.00000000E+01  0.00000000E+00
  8.00000000E+01  2.00000000E+01  0.00000000E+00
  8.00000000E+01  4.99600361E-14  0.00000000E+00
  1.00000000E+02  3.00000000E+02  0.00000000E+00
  1.00000000E+02  2.80000000E+02  0.00000000E+00
  1.00000000E+02  2.60000000E+02  0.00000000E+00
  1.00000000E+02  2.40000000E+02  0.00000000E+00
  1.00000000E+02  2.20000000E+02  0.00000000E+00
  1.00000000E+02  2.00000000E+02  0.00000000E+00
  1.00000000E+02  1.80000000E+02  0.00000000E+00
  1.00000000E+02  1.60000000E+02  0.00000000E+00
  1.00000000E+02  1.40000000E+02  0.00000000E+00
  1.00000000E+02  1.20000000E+02  0.00000000E+00
  1.00000000E+02  1.00000000E+02  0.00000000E+00
  1.00000000E+02  8.00000000E+01  0.00000000E+00
  1.00000000E+02  6.00000000E+01  0.00000000E+00
  1.00000000E+02  4.00000000E+01  0.00000000E+00
  1.00000000E+02  2.00000000E+01  0.00000000E+00
  1.00000000E+02  4.99600361E-14  0.00000000E+00
  1.20000000E+02  3.00000000E+02  0.00000000E+00
  1.20000000E+02  2.80000000E+02  0.00000000E+00
  1.20000000E+02  2.60000000E+02  0.00000000E+00
  1.20000000E+02  2.40000000E+02  0.00000000E+00
  1.20000000E+02  2.20000000E+02  0.00000000E+00
  1.20000000E+02  2.00000000E+02  0.00000000E+00
  1.20000000E+02  1.80000000E+02  0.00000000E+00
  1.20000000E+02  1.60000000E+02  0.00000000E+00
  1.20000000E+02  1.40000000E+02  0.00000000E+00
  1.20000000E+02  1.20000000E+02  0.00000000E+00
  1.20000000E+02  1.00000000E+02  0.00000000E+00
  1.20000000E+02  8.00000000E+01  0.00000000E+00
  1.20000000E+02  6.00000000E+01  0.00000000E+00
  1.20000000E+02  4.00000000E+01  0.00000000E+00
  1.20000000E+02  2.00000000E+01  0.00000000E+00
  1.20000000E+02  4.99600361E-14  0.00000000E+00
  1.40000000E+02  3.00000000E+02  0.00000000E+00
  1.40000000E+02  2.80000000E+02  0.00000000E+00
  1.40000000E+02  2.60000000E+02  0.00000000E+00
  1.40000000E+02  2.40000000E+02  0.00000000E+00
  1.40000000E+02  2.20000000E+02  0.00000000E+00
  1.40000000E+02  2.00000000E+02  0.00000000E+00
  1.40000000E+02  1.80000000E+02  0.00000000E+00
  1.40000000E+02  1.60000000E+02  0.00000000E+00
  1.40000000E+02  1.40000000E+02  0.00000000E+00
  1.40000000E+02  1.20000000E+02  0.00000000E+00
  1.40000000E+02  1.00000000E+02  0.00000000E+00
  1.40000000E+02  8.00000000E+01  0.00000000E+00
  1.40000000E+02  6.00000000E+01  0.00000000E+00
  1.40000000E+02  4.00000000E+01  0.00000000E+00
  1.40000000E+02  2.00000000E+01  0.00000000E+00
  1.40000000E+02  4.99600361E-14  0.00000000E+00
  1.60000000E+02  3.00000000E+02  0.00000000E+00
  1.60000000E+02  2.80000000E+02  0.00000000E+00
  1.60000000E+02  2.60000000E+02  0.00000000E+00
  1.60000000E+02  2.40000000E+02  0.00000000E+00
  1.60000000E+02  2.20000000E+02  0.00000000E+00
  1.60000000E+02  2.00000000E+02  0.00000000E+00
  1.60000000E+02  1.80000000E+02  0.00000000E+00
  1.60000000E+02  1.60000000E+02  0.00000000E+00
  1.60000000E+02  1.40000000E+02  0.00000000E+00
  1.60000000E+02  1.20000000E+02  0.00000000E+00
  1.60000000E+02  1.00000000E+02  0.00000000E+00
  1.60000000E+02  8.00000000E+01  0.00000000E+00
  1.60000000E+02  6.00000000E+01  0.00000000E+00
  1.60000000E+02  4.00000000E+01  0.00000000E+00
  1.60000000E+02  2.00000000E+01  0.00000000E+00
  1.60000000E+02  4.99600361E-14  0.00000000E+00
  1.80000000E+02  3.00000000E+02  0.00000000E+00
  1.80000000E+02  2.80000000E+02  0.00000000E+00
  1.80000000E+02  2.60000000E+02  0.00000000E+00
  1.80000000E+02  2.40000000E+02  0.00000000E+00
  1.80000000E+02  2.20000000E+02  0.00000000E+00
  1.80000000E+02  2.00000000E+02  0.00000000E+00
  1.80000000E+02  1.80000000E+02  0.00000000E+00
  1.80000000E+02  1.60000000E+02  0.00000000E+00
  1.80000000E+02  1.40000000E+02  0.00000000E+00
  1.80000000E+02  1.20000000E+02  0.00000000E+00
  1.80000000E+02  1.00000000E+02  0.00000000E+00
  1.80000000E+02  8.00000000E+01  0.00000000E+00
  1.80000000E+02  6.00000000E+01  0.00000000E+00
  1.80000000E+02  4.00000000E+01  0.00000000E+00
  1.80000000E+02  2.00000000E+01  0.00000000E+00
  1.80000000E+02  4.99600361E-14  0.00000000E+00
  2.00000000E+02  3.00000000E+02  0.00000000E+00
  2.00000000E+02  2.80000000E+02  0.00000000E+00
  2.00000000E+02  2.60000000E+02  0.00000000E+00
  2.00000000E+02  2.40000000E+02  0.00000000E+00
  2.00000000E+02  2.20000000E+02  0.00000000E+00
  2.00000000E+02  2.00000000E+02  0.00000000E+00
  2.00000000E+02  1.80000000E+02  0.00000000E+00
  2.00000000E+02  1.60000000E+02  0.00000000E+00
  2.00000000E+02  1.40000000E+02  0.00000000E+00
  2.00000000E+02  1.20000000E+02  0.00000000E+00
  2.00000000E+02  1.00000000E+02  0.00000000E+00
  2.00000000E+02  8.00000000E+01  0.00000000E+00
  2.00000000E+02  6.00000000E+01  0.00000000E+00
  2.00000000E+02  4.00000000E+01  0.00000000E+00
  2.00000000E+02  2.00000000E+01  0.00000000E+00
  2.00000000E+02  4.99600361E-14  0.00000000E+00
  2.20000000E+02  3.00000000E+02  0.00000000E+00
  2.20000000E+02  2.80000000E+02  0.00000000E+00
  2.20000000E+02  2.60000000E+02  0.00000000E+00
  2.20000000E+02  2.40000000E+02  0.00000000E+00
  2.20000000E+02  2.20000000E+02  0.00000000E+00
  2.20000000E+02  2.00000000E+02  0.00000000E+00
  2.20000000E+02  1.80000000E+02  0.00000000E+00
  2.20000000E+02  1.60000000E+02  0.00000000E+00
  2.20000000E+02  1.40000000E+02  0.00000000E+00
  2.20000000E+02  1.20000000E+02  0.00000000E+00
  2.20000000E+02  1.00000000E+02  0.00000000E+00
  2.20000000E+02  8.00000000E+01  0.00000000E+00
  2.20000000E+02  6.00000000E+01  0.00000000E+00
  2.20000000E+02  4.00000000E+01  0.00000000E+00
  2.20000000E+02  2.00000000E+01  0.00000000E+00
  2.20000000E+02  4.99600361E-14  0.00000000E+00
  2.40000000E+02  3.00000000E+02  0.00000000E+00
  2.40000000E+02  2.80000000E+02  0.00000000E+00
  2.40000000E+02  2.60000000E+02  0.00000000E+00
  2.40000000E+02  2.40000000E+02  0.00000000E+00
  2.40000000E+02  2.20000000E+02  0.00000000E+00
  2.40000000E+02  2.00000000E+02  0.00000000E+00
  2.40000000E+02  1.80000000E+02  0.00000000E+00
  2.40000000E+02  1.60000000E+02  0.00000000E+00
  2.40000000E+02  1.40000000E+02  0.00000000E+00
  2.40000000E+02  1.20000000E+02  0.00000000E+00
  2.40000000E+02  1.00000000E+02  0.00000000E+00
  2.40000000E+02  8.00000000E+01  0.00000000E+00
  2.40000000E+02  6.00000000E+01  0.00000000E+00
  2.40000000E+02  4.00000000E+01  0.00000000E+00
  2.40000000E+02  2.00000000E+01  0.00000000E+00
  2.40000000E+02  4.99600361E-14  0.00000000E+00
  2.60000000E+02  3.00000000E+02  0.00000000E+00
  2.60000000E+02  2.80000000E+02  0.00000000E+00
  2.60000000E+02  2.60000000E+02  0.00000000E+00
  2.60000000E+02  2.40000000E+02  0.00000000E+00
  2.60000000E+02  2.20000000E+02  0.00000000E+00
  2.60000000E+02  2.00000000E+02  0.00000000E+00
  2.60000000E+02  1.80000000E+02  0.00000000E+00
  2.60000000E+02  1.60000000E+02  0.00000000E+00
  2.60000000E+02  1.40000000E+02  0.00000000E+00
  2.60000000E+02  1.20000000E+02  0.00000000E+00
  2.60000000E+02  1.00000000E+02  0.00000000E+00
  2.60000000E+02  8.00000000E+01  0.00000000E+00
  2.60000000E+02  6.00000000E+01  0.00000000E+00
  2.60000000E+02  4.00000000E+01  0.00000000E+00
  2.60000000E+02  2.00000000E+01  0.00000000E+00
  2.60000000E+02  4.99600361E-14  0.00000000E+00
  2.80000000E+02  3.00000000E+02  0.00000000E+00
  2.80000000E+02  2.80000000E+02  0.00000000E+00
  2.80000000E+02  2.60000000E+02  0.00000000E+00
  2.80000000E+02  2.40000000E+02  0.00000000E+00
  2.80000000E+02  2.20000000E+02  0.00000000E+00
  2.80000000E+02  2.00000000E+02  0.00000000E+00
  2.80000000E+02  1.80000000E+02  0.00000000E+00
  2.80000000E+02  1.60000000E+02  0.00000000E+00
  2.80000000E+02  1.40000000E+02  0.00000000E+00
  2.80000000E+02  1.20000000E+02  0.00000000E+00
  2.80000000E+02  1.00000000E+02  0.00000000E+00
  2.80000000E+02  8.00000000E+01  0.00000000E+00
  2.80000000E+02  6.00000000E+01  0.00000000E+00
  2.80000000E+02  4.00000000E+01  0.00000000E+00
  2.80000000E+02  2.00000000E+01  0.00000000E+00
  2.80000000E+02  4.99600361E-14  0.00000000E+00
  3.00000000E+02  3.00000000E+02  0.00000000E+00
  3.00000000E+02  2.80000000E+02  0.00000000E+00
  3.00000000E+02  2.60000000E+02  0.00000000E+00
  3.00000000E+02  2.40000000E+02  0.00000000E+00
  3.00000000E+02  2.20000000E+02  0.00000000E+00
  3.00000000E+02  2.00000000E+02  0.00000000E+00
  3.00000000E+02  1.80000000E+02  0.00000000E+00
  3.00000000E+02  1.60000000E+02  0.00000000E+00
  3.00000000E+02  1.40000000E+02  0.00000000E+00
  3.00000000E+02  1.20000000E+02  0.00000000E+00
  3.00000000E+02  1.00000000E+02  0.00000000E+00
  3.00000000E+02  8.00000000E+01  0.00000000E+00
  3.00000000E+02  6.00000000E+01  0.00000000E+00
  3.00000000E+02  4.00000000E+01  0.00000000E+00
  3.00000000E+02  2.00000000E+01  0.00000000E+00
  3.00000000E+02  4.99600361E-14  0.00000000E+00
  3.20000000E+02  3.00000000E+02  0.00000000E+00
  3.20000000E+02  2.80000000E+02  0.00000000E+00
  3.20000000E+02  2.60000000E+02  0.00000000E+00
  3.20000000E+02  2.40000000E+02  0.00000000E+00
  3.20000000E+02  2.20000000E+02  0.00000000E+00
  3.20000000E+02  2.00000000E+02  0.00000000E+00
  3.20000000E+02  1.80000000E+02  0.00000000E+00
  3.20000000E+02  1.60000000E+02  0.00000000E+00
  3.20000000E+02  1.40000000E+02  0.00000000E+00
  3.20000000E+02  1.20000000E+02  0.00000000E+00
  3.20000000E+02  1.00000000E+02  0.00000000E+00
  3.20000000E+02  8.00000000E+01  0.00000000E+00
  3.20000000E+02  6.00000000E+01  0.00000000E+00
  3.20000000E+02  4.00000000E+01  0.00000000E+00
  3.20000000E+02  2.00000000E+01  0.00000000E+00
  3.20000000E+02  4.99600361E-14  0.00000000E+00
  3.40000000E+02  3.00000000E+02  0.00000000E+00
  3.40000000E+02  2.80000000E+02  0.00000000E+00
  3.40000000E+02  2.60000000E+02  0.00000000E+00
  3.40000000E+02  2.40000000E+02  0.00000000E+00
  3.40000000E+02  2.20000000E+02  0.00000000E+00
  3.40000000E+02  2.00000000E+02  0.00000000E+00
  3.40000000E+02  1.80000000E+02  0.00000000E+00
  3.40000000E+02  1.60000000E+02  0.00000000E+00
  3.40000000E+02  1.40000000E+02  0.00000000E+00
  3.40000000E+02  1.20000000E+02  0.00000000E+00
  3.40000000E+02  1.00000000E+02  0.00000000E+00
  3.40000000E+02  8.00000000E+01  0.00000000E+00
  3.40000000E+02  6.00000000E+01  0.00000000E+00
  3.40000000E+02  4.00000000E+01  0.00000000E+00
  3.40000000E+02  2.00000000E+01  0.00000000E+00
  3.40000000E+02  4.99600361E-14  0.00000000E+00
  3.60000000E+02  3.00000000E+02  0.00000000E+00
  3.60000000E+02  2.80000000E+02  0.00000000E+00
  3.60000000E+02  2.60000000E+02  0.00000000E+00
  3.60000000E+02  2.40000000E+02  0.00000000E+00
  3.60000000E+02  2.20000000E+02  0.00000000E+00
  3.60000000E+02  2.00000000E+02  0.00000000E+00
  3.60000000E+02  1.80000000E+02  0.00000000E+00
  3.60000000E+02  1.60000000E+02  0.00000000E+00
  3.60000000E+02  1.40000000E+02  0.00000000E+00
  3.60000000E+02  1.20000000E+02  0.00000000E+00
  3.60000000E+02  1.00000000E+02  0.00000000E+00
  3.60000000E+02  8.00000000E+01  0.00000000E+00
  3.60000000E+02  6.00000000E+01  0.00000000E+00
  3.60000000E+02  4.00000000E+01  0.00000000E+00
  3.60000000E+02  2.00000000E+01  0.00000000E+00
  3.60000000E+02  4.99600361E-14  0.00000000E+00
  3.80000000E+02  3.00000000E+02  0.00000000E+00
  3.80000000E+02  2.80000000E+02  0.00000000E+00
  3.80000000E+02  2.60000000E+02  0.00000000E+00
  3.80000000E+02  2.40000000E+02  0.00000000E+00
  3.80000000E+02  2.20000000E+02  0.00000000E+00
  3.80000000E+02  2.00000000E+02  0.00000000E+00
  3.80000000E+02  1.80000000E+02  0.00000000E+00
  3.80000000E+02  1.60000000E+02  0.00000000E+00
  3.80000000E+02  1.40000000E+02  0.00000000E+00
  3.80000000E+02  1.20000000E+02  0.00000000E+00
  3.80000000E+02  1.00000000E+02  0.00000000E+00
  3.80000000E+02  8.00000000E+01  0.00000000E+00
  3.80000000E+02  6.00000000E+01  0.00000000E+00
  3.80000000E+02  4.00000000E+01  0.00000000E+00
  3.80000000E+02  2.00000000E+01  0.00000000E+00
  3.80000000E+02  4.99600361E-14  0.00000000E+00
  4.00000000E+02  3.00000000E+02  0.00000000E+00
  4.00000000E+02  2.80000000E+02  0.00000000E+00
  4.00000000E+02  2.60000000E+02  0.00000000E+00
  4.00000000E+02  2.40000000E+02  0.00000000E+00
  4.00000000E+02  2.20000000E+02  0.00000000E+00
  4.00000000E+02  2.00000000E+02  0.00000000E+00
  4.00000000E+02  1.80000000E+02  0.00000000E+00
  4.00000000E+02  1.60000000E+02  0.00000000E+00
  4.00000000E+02  1.40000000E+02  0.00000000E+00
  4.00000000E+02  1.20000000E+02  0.00000000E+00
  4.00000000E+02  1.00000000E+02  0.00000000E+00
  4.00000000E+02  8.00000000E+01  0.00000000E+00
  4.00000000E+02  6.00000000E+01  0.00000000E+00
  4.00000000E+02  4.00000000E+01  0.00000000E+00
  4.00000000E+02  2.00000000E+01  0.00000000E+00
  4.00000000E+02  4.99600361E-14  0.00000000E+00
  4.20000000E+02  3.00000000E+02  0.00000000E+00
  4.20000000E+02  2.80000000E+02  0.00000000E+00
  4.20000000E+02  2.60000000E+02  0.00000000E+00
  4.20000000E+02  2.40000000E+02  0.00000000E+00
  4.20000000E+02  2.20000000E+02  0.00000000E+00
  4.20000000E+02  2.00000000E+02  0.00000000E+00
  4.20000000E+02  1.80000000E+02  0.00000000E+00
  4.20000000E+02  1.60000000E+02  0.00000000E+00
  4.20000000E+02  1.40000000E+02  0.00000000E+00
  4.20000000E+02  1.20000000E+02  0.00000000E+00
  4.20000000E+02  1.00000000E+02  0.00000000E+00
  4.20000000E+02  8.00000000E+01  0.00000000E+00
  4.20000000E+02  6.00000000E+01  0.00000000E+00
  4.20000000E+02  4.00000000E+01  0.00000000E+00
  4.20000000E+02  2.00000000E+01  0.00000000E+00
  4.20000000E+02  4.99600361E-14  0.00000000E+00
  4.40000000E+02  3.00000000E+02  0.00000000E+00
  4.40000000E+02  2.80000000E+02  0.00000000E+00
  4.40000000E+02  2.60000000E+02  0.00000000E+00
  4.40000000E+02  2.40000000E+02  0.00000000E+00
  4.40000000E+02  2.20000000E+02  0.00000000E+00
  4.40000000E+02  2.00000000E+02  0.00000000E+00
  4.40000000E+02  1.80000000E+02  0.00000000E+00
  4.40000000E+02  1.60000000E+02  0.00000000E+00
  4.40000000E+02  1.40000000E+02  0.00000000E+00
  4.40000000E+02  1.20000000E+02  0.00000000E+00
  4.40000000E+02  1.00000000E+02  0.00000000E+00
  4.40000000E+02  8.00000000E+01  0.00000000E+00
  4.40000000E+02  6.00000000E+01  0.00000000E+00
  4.40000000E+02  4.00000000E+01  0.00000000E+00
  4.40000000E+02  2.00000000E+01  0.00000000E+00
  4.40000000E+02  4.99600361E-14  0.00000000E+00
  4.60000000E+02  3.00000000E+02  0.00000000E+00
  4.60000000E+02  2.80000000E+02  0.00000000E+00
  4.60000000E+02  2.60000000E+02  0.00000000E+00
  4.60000000E+02  2.40000000E+02  0.00000000E+00
  4.60000000E+02  2.20000000E+02  0.00000000E+00
  4.60000000E+02  2.00000000E+02  0.00000000E+00
  4.60000000E+02  1.80000000E+02  0.00000000E+00
  4.60000000E+02  1.60000000E+02  0.00000000E+00
  4.60000000E+02  1.40000000E+02  0.00000000E+00
  4.60000000E+02  1.20000000E+02  0.00000000E+00
  4.60000000E+02  1.00000000E+02  0.00000000E+00
  4.60000000E+02  8.00000000E+01  0.00000000E+00
  4.60000000E+02  6.00000000E+01  0.00000000E+00
  4.60000000E+02  4.00000000E+01  0.00000000E+00
  4.60000000E+02  2.00000000E+01  0.00000000E+00
  4.60000000E+02  4.99600361E-14  0.00000000E+00
  4.80000000E+02  3.00000000E+02  0.00000000E+00
  4.80000000E+02  2.80000000E+02  0.00000000E+00
  4.80000000E+02  2.60000000E+02  0.00000000E+00
  4.80000000E+02  2.40000000E+02  0.00000000E+00
  4.80000000E+02  2.20000000E+02  0.00000000E+00
  4.80000000E+02  2.00000000E+02  0.00000000E+00
  4.80000000E+02  1.80000000E+02  0.00000000E+00
  4.80000000E+02  1.60000000E+02  0.00000000E+00
  4.80000000E+02  1.40000000E+02  0.00000000E+00
  4.80000000E+02  1.20000000E+02  0.00000000E+00
  4.80000000E+02  1.00000000E+02  0.00000000E+00
  4.80000000E+02  8.00000000E+01  0.00000000E+00
  4.80000000E+02  6.00000000E+01  0.00000000E+00
  4.80000000E+02  4.00000000E+01  0.00000000E+00
  4.80000000E+02  2.00000000E+01  0.00000000E+00
  4.80000000E+02  4.99600361E-14  0.00000000E+00
  5.00000000E+02  3.00000000E+02  0.00000000E+00
  5.00000000E+02  2.80000000E+02  0.00000000E+00
  5.00000000E+02  2.60000000E+02  0.00000000E+00
  5.00000000E+02  2.40000000E+02  0.00000000E+00
  5.00000000E+02  2.20000000E+02  0.00000000E+00
  5.00000000E+02  2.00000000E+02  0.00000000E+00
  5.00000000E+02  1.80000000E+02  0.00000000E+00
  5.00000000E+02  1.60000000E+02  0.00000000E+00
  5.00000000E+02  1.40000000E+02  0.00000000E+00
  5.00000000E+02  1.20000000E+02  0.00000000E+00
  5.00000000E+02  1.00000000E+02  0.00000000E+00
  5.00000000E+02  8.00000000E+01  0.00000000E+00
  5.00000000E+02  6.00000000E+01  0.00000000E+00
  5.00000000E+02  4.00000000E+01  0.00000000E+00
  5.00000000E+02  2.00000000E+01  0.00000000E+00
  5.00000000E+02  4.99600361E-14  0.00000000E+00
  5.20000000E+02  3.00000000E+02  0.00000000E+00
  5.20000000E+02  2.80000000E+02  0.00000000E+00
  5.20000000E+02  2.60000000E+02  0.00000000E+00
  5.20000000E+02  2.40000000E+02  0.00000000E+00
  5.20000000E+02  2.20000000E+02  0.00000000E+00
  5.20000000E+02  2.00000000E+02  0.00000000E+00
  5.20000000E+02  1.80000000E+02  0.00000000E+00
  5.20000000E+02  1.60000000E+02  0.00000000E+00
  5.20000000E+02  1.40000000E+02  0.00000000E+00
  5.20000000E+02  1.20000000E+02  0.00000000E+00
  5.20000000E+02  1.00000000E+02  0.00000000E+00
  5.20000000E+02  8.00000000E+01  0.00000000E+00
  5.20000000E+02  6.00000000E+01  0.00000000E+00
  5.20000000E+02  4.00000000E+01  0.00000000E+00
  5.20000000E+02  2.00000000E+01  0.00000000E+00
  5.20000000E+02  4.99600361E-14  0.00000000E+00
  5.40000000E+02  3.00000000E+02  0.00000000E+00
  5.40000000E+02  2.80000000E+02  0.00000000E+00
  5.40000000E+02  2.60000000E+02  0.00000000E+00
  5.40000000E+02  2.40000000E+02  0.00000000E+00
  5.40000000E+02  2.20000000E+02  0.00000000E+00
  5.40000000E+02  2.00000000E+02  0.00000000E+00
  5.40000000E+02  1.80000000E+02  0.00000000E+00
  5.40000000E+02  1.60000000E+02  0.00000000E+00
  5.40000000E+02  1.40000000E+02  0.00000000E+00
  5.40000000E+02  1.20000000E+02  0.00000000E+00
  5.40000000E+02  1.00000000E+02  0.00000000E+00
  5.40000000E+02  8.00000000E+01  0.00000000E+00
  5.40000000E+02  6.00000000E+01  0.00000000E+00
  5.40000000E+02  4.00000000E+01  0.00000000E+00
  5.40000000E+02  2.00000000E+01  0.00000000E+00
  5.40000000E+02  4.99600361E-14  0.00000000E+00
  5.60000000E+02  3.00000000E+02  0.00000000E+00
  5.60000000E+02  2.80000000E+02  0.00000000E+00
  5.60000000E+02  2.60000000E+02  0.00000000E+00
  5.60000000E+02  2.40000000E+02  0.00000000E+00
  5.60000000E+02  2.20000000E+02  0.00000000E+00
  5.60000000E+02  2.00000000E+02  0.00000000E+00
  5.60000000E+02  1.80000000E+02  0.00000000E+00
  5.60000000E+02  1.60000000E+02  0.00000000E+00
  5.60000000E+02  1.40000000E+02  0.00000000E+00
  5.60000000E+02  1.20000000E+02  0.00000000E+00
  5.60000000E+02  1.00000000E+02  0.00000000E+00
  5.60000000E+02  8.00000000E+01  0.00000000E+00
  5.60000000E+02  6.00000000E+01  0.00000000E+00
  5.60000000E+02  4.00000000E+01  0.00000000E+00
  5.60000000E+02  2.00000000E+01  0.00000000E+00
  5.60000000E+02  4.99600361E-14  0.00000000E+00
  5.80000000E+02  3.00000000E+02  0.00000000E+00
  5.80000000E+02  2.80000000E+02  0.00000000E+00
  5.80000000E+02  2.60000000E+02  0.00000000E+00
  5.80000000E+02  2.40000000E+02  0.00000000E+00
  5.80000000E+02  2.20000000E+02  0.00000000E+00
  5.80000000E+02  2.00000000E+02  0.00000000E+00
  5.80000000E+02  1.80000000E+02  0.00000000E+00
  5.80000000E+02  1.60000000E+02  0.00000000E+00
  5.80000000E+02  1.40000000E+02  0.00000000E+00
  5.80000000E+02  1.20000000E+02  0.00000000E+00
  5.80000000E+02  1.00000000E+02  0.00000000E+00
  5.80000000E+02  8.00000000E+01  0.00000000E+00
  5.80000000E+02  6.00000000E+01  0.00000000E+00
  5.80000000E+02  4.00000000E+01  0.00000000E+00
  5.80000000E+02  2.00000000E+01  0.00000000E+00
  5.80000000E+02  4.99600361E-14  0.00000000E+00
  6.00000000E+02  3.00000000E+02  0.00000000E+00
  6.00000000E+02  2.80000000E+02  0.00000000E+00
  6.00000000E+02  2.60000000E+02  0.00000000E+00
  6.00000000E+02  2.40000000E+02  0.00000000E+00
  6.00000000E+02  2.20000000E+02  0.00000000E+00
  6.00000000E+02  2.00000000E+02  0.00000000E+00
  6.00000000E+02  1.80000000E+02  0.00000000E+00
  6.00000000E+02  1.60000000E+02  0.00000000E+00
  6.00000000E+02  1.40000000E+02  0.00000000E+00
  6.00000000E+02  1.20000000E+02  0.00000000E+00
  6.00000000E+02  1.00000000E+02  0.00000000E+00
  6.00000000E+02  8.00000000E+01  0.00000000E+00
  6.00000000E+02  6.00000000E+01  0.00000000E+00
  6.00000000E+02  4.00000000E+01  0.00000000E+00
  6.00000000E+02  2.00000000E+01  0.00000000E+00
  6.00000000E+02  4.99600361E-14  0.00000000E+00
CELLS       450      2250
         4           0           1          17          16
         4           1           2          18          17
         4           2           3          19          18
         4           3           4          20          19
         4           4           5          21          20
         4           5           6          22          21
         4           6           7          23          22
         4           7           8          24          23
         4           8           9          25          24
         4           9          10          26          25
         4          10          11          27          26
         4          11          12          28          27
         4          12          13          29          28
         4          13          14          30          29
         4          14          15          31          30
         4          16          17          33          32
         4          17          18          34          33
         4          18          19          35          34
         4          19          20          36          35
         4          20          21          37          36
         4          21          22          38          37
         4          22          23          39          38
         4          23          24          40          39
         4          24          25          41          40
         4          25          26          42          41
         4          26          27          43          42
         4          27          28          44          43
         4          28          29          45          44
         4          29          30          46          45
         4          30          31          47          46
         4          32          33          49          48
         4          33          34          50          49
         4          34          35          51          50
         4          35          36          52          51
         4          36          37          53          52
         4          37          38          54          53
         4          38          39          55          54
         4          39          40          56          55
         4          40          41          57          56
         4          41          42          58          57
         4          42          43          59          58
         4          43          44          60          59
         4          44          45          61          60
         4          45          46          62          61
         4          46          47          63          62
         4          48          49          65          64
         4          49          50          66          65
         4          50          51          67          66
         4          51          52          68          67
         4          52          53          69          68
         4          53          54          70          69
         4          54          55          71          70
         4          55          56          72          71
         4          56          57          73          72
         4          57          58          74          73
         4          58          59          75          74
         4          59          60          76          75
         4          60          61          77          76
         4          61          62          78          77
         4          62          63          79          78
         4          64          65          81          80
         4          65          66          82          81
         4          66          67          83          82
         4          67          68          84          83
         4          68          69          85          84
         4          69          70          86          85
         4          70          71          87          86
         4          71          72          88          87
         4          72          73          89          88
         4          73          74          90          89
         4          74          75          91          90
         4          75          76          92          91
         4          76          77          93          92
         4          77          78          94          93
         4          78          79          95          94
         4          80          81          97          96
         4          81          82          98          97
         4          82          83          99          98
         4          83          84         100          99
         4          84          85         101         100
         4          85          86         102         101
         4          86          87         103         102
         4          87          88         104         103
         4          88          89         105         104
         4          89          90         106         105
         4          90          91         107         106
         4          91          92         108         107
         4          92          93         109         108
         4          93          94         110         109
         4          94          95         111         110
         4          96          97         113         112
         4          97          98         114         113
         4          98          99         115         114
         4          99         100         116         115
         4         100         101         117         116
         4         101         102         118         117
         4         102         103         119         118
         4         103         104         120         119
         4         104         105         121         120
         4         105         106         122         121
         4         106         107         123         122
         4         107         108         124         123
         4         108         109         125         124
         4         109         110         126         125
         4         110         111         127         126
         4         112         113         129         128
         4         113         114         130         129
         4         114         115         131         130
         4         115         116         132         131
         4         116         117         133         132
         4         117         118         134         133
         4         118         119         135         134
         4         119         120         136         135
         4         120         121         137         136
         4         121         122         138         137
         4         122         123         139         138
         4         123         124         140         139
         4         124         125         141         140
         4         125         126         142         141
         4         126         127         143         142
         4         128         129         145         144
         4         129         130         146         145
         4         130         131         147         146
         4         131         132         148         147
         4         132         133         149         148
         4         133         134         150         149
         4         134         135         151         150
         4         135         136         152         151
         4         136         137         153         152
         4         137         138         154         153
         4         138         139         155         154
         4         139         140         156         155
         4         140         141         157         156
         4         141         142         158         157
         4         142         143         159         158
         4         144         145         161         160
         4         145         146         162         161
         4         146         147         163         162
         4         147         148         164         163
         4         148         149         165         164
         4         149         150         166         165
         4         150         151         167         166
         4         151         152         168         167
         4         152         153         169         168
         4         153         154         170         169
         4         154         155         171         170
         4         155         156         172         171
         4         156         157         173         172
         4         157         158         174         173
         4         158         159         175         174
         4         160         161         177         176
         4         161         162         178         177
         4         162         163         179         178
         4         163         164         180         179
         4         164         165         181         180
         4         165         166         182         181
         4         166         167         183         182
         4         167         168         184         183
         4         168         169         185         184
         4         169         170         186         185
         4         170         171         187         186
         4         171         172         188         187
         4         172         173         189         188
         4         173         174         190         189
         4         174         175         191         190
         4         176         177         193         192
         4         177         178         194         193
         4         178         179         195         194
         4         179         180         196         195
         4         180         181         197         196
         4         181         182         198         197
         4         182         183         199         198
         4         183         184         200         199
         4         184         185         201         200
         4         185         186         202         201
         4         186         187         203         202
         4         187         188         204         203
         4         188         189         205         204
         4         189         190         206         205
         4         190         191         207         206
         4         192         193         209         208
         4         193         194         210         209
         4         194         195         211         210
         4         195         196         212         211
         4         196         197         213         212
         4         197         198         214         213
         4         198         199         215         214
         4         199         200         216         215
         4         200         201         217         216
         4         201         202         218         217
         4         202         203         219         218
         4         203         204         220         219
         4         204         205         221         220
         4         205         206         222         221
         4         206         207         223         222
         4         208         209         225         224
         4         209         210         226         225
         4         210         211         227         226
         4         211         212         228         227
         4         212         213         229         228
         4         213         214         230         229
         4         214         215         231         230
         4         215         216         232         231
         4         216         217         233         232
         4         217         218         234         233
         4         218         219         235         234
         4         219         220         236         235
         4         220         221         237         236
         4         221         222         238         237
         4         222         223         239         238
         4         224         225         241         240
         4         225         226         242         241
         4         226         227         243         242
         4         227         228         244         243
         4         228         229         245         244
         4         229         230         246         245
         4         230         231         247         246
         4         231         232         248         247
         4         232         233         249         248
         4         233         234         250         249
         4         234         235         251         250
         4         235         236         252         251
         4         236         237         253         252
         4         237         238         254         253
         4         238         239         255         254
         4         240         241         257         256
         4         241         242         258         257
         4         242         243         259         258
         4         243         244         260         259
         4         244         245         261         260
         4         245         246         262         261
         4         246         247         263         262
         4         247         248         264         263
         4         248         249         265         264
         4         249         250         266         265
         4         250         251         267         266
         4         251         252         268         267
         4         252         253         269         268
         4         253         254         270         269
         4         254         255         271         270
         4         256         257         273         272
         4         257         258         274         273
         4         258         259         275         274
         4         259         260         276         275
         4         260         261         277         276
         4         261         262         278         277
         4         262         263         279         278
         4         263         264         280         279
         4         264         265         281         280
         4         265         266         282         281
         4         266         267         283         282
         4         267         268         284         283
         4         268         269         285         284
         4         269         270         286         285
         4         270         271         287         286
         4         272         273         289         288
         4         273         274         290         289
         4         274         275         291         290
         4         275         276         292         291
         4         276         277         293         292
         4         277         278         294         293
         4         278         279         295         294
         4         279         280         296         295
         4         280         281         297         296
         4         281         282         298         297
         4         282         283         299         298
         4         283         284         300         299
         4         284         285         301         300
         4         285         286         302         301
         4         286         287         303         302
         4         288         289         305         304
         4         289         290         306         305
         4         290         291         307         306
         4         291         292         308         307
         4         292         293         309         308
         4         293         294         310         309
         4         294         295         311         310
         4         295         296         312         311
         4         296         297         313         312
         4         297         298         314         313
         4         298         299         315         314
         4         299         300         316         315
         4         300         301         317         316
         4         301         302         318         317
         4         302         303         319         318
         4         304         305         321         320
         4         305         306         322         321
         4         306         307         323         322
         4         307         308         324         323
         4         308         309         325         324
         4         309         310         326         325
         4         310         311         327         326
         4         311         312         328         327
         4         312         313         329         328
         4         313         314         330         329
         4         314         315         331         330
         4         315         316         332         331
         4         316         317         333         332
         4         317         318         334         333
         4         318         319         335         334
         4         320         321         337         336
         4         321         322         338         337
         4         322         323         339         338
         4         323         324         340         339
         4         324         325         341         340
         4         325         326         342         341
         4         326         327         343         342
         4         327         328         344         343
         4         328         329         345         344
         4         329         330         346         345
         4         330         331         347         346
         4         331         332         348         347
         4         332         333         349         348
         4         333         334         350         349
         4         334         335         351         350
         4         336         337         353         352
         4         337         338         354         353
         4         338         339         355         354
         4         339         340         356         355
         4         340         341         357         356
         4         341         342         358         357
         4         342         343         359         358
         4         343         344         360         359
         4         344         345         361         360
         4         345         346         362         361
         4         346         347         363         362
         4         347         348         364         363
         4         348         349         365         364
         4         349         350         366         365
         4         350         351         367         366
         4         352         353         369         368
         4         353         354         370         369
         4         354         355         371         370
         4         355         356         372         371
         4         356         357         373         372
         4         357         358         374         373
         4         358         359         375         374
         4         359         360         376         375
         4         360         361         377         376
         4         361         362         378         377
         4         362         363         379         378
         4         363         364         380         379
         4         364         365         381         380
         4         365         366         382         381
         4         366         367         383         382
         4         368         369         385         384
         4         369         370         386         385
         4         370         371         387         386
         4         371         372         388         387
         4         372         373         389         388
         4         373         374         390         389
         4         374         375         391         390
         4         375         376         392         391
         4         376         377         393         392
         4         377         378         394         393
         4         378         379         395         394
         4         379         380         396         395
         4         380         381         397         396
         4         381         382         398         397
         4         382         383         399         398
         4         384         385         401         400
         4         385         386         402         401
         4         386         387         403         402
         4         387         388         404         403
         4         388         389         405         404
         4         389         390         406         405
         4         390         391         407         406
         4         391         392         408         407
         4         392         393         409         408
         4         393         394         410         409
         4         394         395         411         410
         4         395         396         412         411
         4         396         397         413         412
         4         397         398         414         413
         4         398         399         415         414
         4         400         401         417         416
         4         401         402         418         417
         4         402         403         419         418
         4         403         404         420         419
         4         404         405         421         420
         4         405         406         422         421
         4         406         407         423         422
         4         407         408         424         423
         4         408         409         425         424
         4         409         410         426         425
         4         410         411         427         426
         4         411         412         428         427
         4         412         413         429         428
         4         413         414         430         429
         4         414         415         431         430
         4         416         417         433         432
         4         417         418         434         433
         4         418         419         435         434
         4         419         420         436         435
         4         420         421         437         436
         4         421         422         438         437
         4         422         423         439         438
         4         423         424         440         439
         4         424         425         441         440
         4         425         426         442         441
         4         426         427         443         442
         4         427         428         444         443
         4         428         429         445         444
         4         429         430         446         445
         4         430         431         447         446
         4         432         433         449         448
         4         433         434         450         449
         4         434         435         451         450
         4         435         436         452         451
         4         436         437         453         452
         4         437         438         454         453
         4         438         439         455         454
         4         439         440         456         455
         4         440         441         457         456
         4         441         442         458         457
         4         442         443         459         458
         4         443         444         460         459
         4         444         445         461         460
         4         445         446         462         461
         4         446         447         463         462
         4         448         449         465         464
         4         449         450         466         465
         4         450         451         467         466
         4         451         452         468         467
         4         452         453         469         468
         4         453         454         470         469
         4         454         455         471         470
         4         455         456         472         471
         4         456         457         473         472
         4         457         458         474         473
         4         458         459         475         474
         4         459         460         476         475
         4         460         461         477         476
         4         461         462         478         477
         4         462         463         479         478
         4         464         465         481         480
         4         465         466         482         481
         4         466         467         483         482
         4         467         468         484         483
         4         468         469         485         484
         4         469         470         486         485
         4         470         471         487         486
         4         471         472         488         487
         4         472         473         489         488
         4         473         474         490         489
         4         474         475         491         490
         4         475         476         492         491
         4         476         477         493         492
         4         477         478         494         493
         4         478         479         495         494
CELL_TYPES        450
9
9
9
9
9
9
9
9
9
9
9
9
9
9
9
9
9
9
9
9
9
9
9
9
9
9
9
9
9
9
9
9
9
9
9
9
9
9
9
9
9
9
9
9
9
9
9
9
9
9
9
9
9
9
9
9
9
9
9
9
9
9
9
9
9
9
9
9
9
9
9
9
9
9
9
9
9
9
9
9
9
9
9
9
9
9
9
9
9
9
9
9
9
9
9
9
9
9
9
9
9
9
9
9
9
9
9
9
9
9
9
9
9
9
9
9
9
9
9
9
9
9
9
9
9
9
9
9
9
9
9
9
9
9
9
9
9
9
9
9
9
9
9
9
9
9
9
9
9
9
9
9
9
9
9
9
9
9
9
9
9
9
9
9
9
9
9
9
9
9
9
9
9
9
9
9
9
9
9
9
9
9
9
9
9
9
9
9
9
9
9
9
9
9
9
9
9
9
9
9
9
9
9
9
9
9
9
9
9
9
9
9
9
9
9
9
9
9
9
9
9
9
9
9
9
9
9
9
9
9
9
9
9
9
9
9
9
9
9
9
9
9
9
9
9
9
9
9
9
9
9
9
9
9
9
9
9
9
9
9
9
9
9
9
9
9
9
9
9
9
9
9
9
9
9
9
9
9
9
9
9
9
9
9
9
9
9
9
9
9
9
9
9
9
9
9
9
9
9
9
9
9
9
9
9
9
9
9
9
9
9
9
9
9
9
9
9
9
9
9
9
9
9
9
9
9
9
9
9
9
9
9
9
9
9
9
9
9
9
9
9
9
9
9
9
9
9
9
9
9
9
9
9
9
9
9
9
9
9
9
9
9
9
9
9
9
9
9
9
9
9
9
9
9
9
9
9
9
9
9
9
9
9
9
9
9
9
9
9
9
9
9
9
9
9
9
9
9
9
9
9
9
9
9
9
9
9
9
9
9
9
9
9
9
9
9
9
9
9
9
9
9
9
9
9
9
9
9
9
9
9
9
9
9
9
9
9
9
9
9
9
9
9
9
9
9
9
9
9
9
POINT_DATA       496
SCALARS p double 
LOOKUP_TABLE default
   71268751.3702747     
   71268989.1403885     
   71269668.5182892     
   71270670.0314090     
   71271853.3764143     
   71273119.6780948     
   71274388.0786451     
   71275574.2575336     
   71276616.1934425     
   71277540.0300706     
   71278372.0242714     
   71279113.5564111     
   71279760.3085728     
   71280300.6963804     
   71280715.8822863     
   71280889.6382387     
   69244275.8314425     
   69244453.2683090     
   69244867.3156517     
   69245382.2891529     
   69245975.4736648     
   69246634.1703223     
   69247325.2790564     
   69248034.8506261     
   69248752.7130443     
   69249438.6738444     
   69250067.3045069     
   69250626.8337603     
   69251103.5251516     
   69251479.1973673     
   69251718.2437846     
   69251797.5231778     
   67218421.1416775     
   67218491.2841002     
   67218664.0543200     
   67218889.7804741     
   67219155.4302410     
   67219470.4384576     
   67219860.9602564     
   67220311.4315760     
   67220785.8401020     
   67221254.9545406     
   67221696.4333620     
   67222089.9808886     
   67222418.3233106     
   67222662.8489469     
   67222809.0160846     
   67222856.5554492     
   65191390.8875424     
   65191371.8220200     
   65191364.7336273     
   65191438.0164386     
   65191595.2174517     
   65191809.3835693     
   65192060.0608821     
   65192339.1522508     
   65192636.2338530     
   65192936.0270264     
   65193221.1673018     
   65193475.5243563     
   65193683.9478786     
   65193834.4914771     
   65193921.4044597     
   65193948.9132431     
   63163553.9116029     
   63163542.8917960     
   63163544.2535187     
   63163593.8093708     
   63163682.8203747     
   63163804.4034735     
   63163947.8854469     
   63164106.7855399     
   63164275.2272740     
   63164445.7444489     
   63164608.5484748     
   63164752.8543660     
   63164869.0228136     
   63164950.4085471     
   63164995.5628694     
   63165009.4898766     
   61135404.3242035     
   61135400.9712035     
   61135398.7621497     
   61135411.5304982     
   61135444.3057209     
   61135492.5231672     
   61135551.7970951     
   61135618.5737805     
   61135690.0784555     
   61135762.7651417     
   61135831.8812310     
   61135891.9802224     
   61135938.2607418     
   61135968.1795336     
   61135982.6953408     
   61135986.6776026     
   59106960.4739013     
   59106952.6911629     
   59106935.1534660     
   59106916.6383558     
   59106901.4713743     
   59106890.5278478     
   59106882.7410541     
   59106877.3546811     
   59106873.8937980     
   59106871.6730056     
   59106869.4368175     
   59106865.6410654     
   59106859.2233085     
   59106850.5502812     
   59106842.1208519     
   59106838.6352611     
   57078212.5613662     
   57078199.8281705     
   57078166.0904207     
   57078119.4377066     
   57078065.1657067     
   57078006.3054755     
   57077944.7501158     
   57077882.0415842     
   57077819.7826870     
   57077759.4967791     
   57077702.5008704     
   57077650.0338861     
   57077603.6633976     
   57077565.7802237     
   57077539.9256667     
   57077530.7308696     
   55049162.4570061     
   55049144.9920498     
   55049096.9097187     
   55049026.5010478     
   55048940.0691169     
   55048842.4332227     
   55048737.5140536     
   55048628.8606429     
   55048519.9014029     
   55048413.9957436     
   55048314.4097329     
   55048224.3845113     
   55048147.3224836     
   55048087.0059202     
   55048047.7074251     
   55048034.0750424     
   53019812.0146428     
   53019790.5709915     
   53019730.4667657     
   53019640.3660480     
   53019527.5509113     
   53019398.2633552     
   53019258.0742147     
   53019112.1866833     
   53018965.6219258     
   53018823.2827858     
   53018689.9674999     
   53018570.3971609     
   53018469.2802168     
   53018391.3757809     
   53018341.4877218     
   53018324.3340601     
   50990162.4955779     
   50990137.7403878     
   50990067.6539127     
   50989961.2128000     
   50989826.5440289     
   50989671.0857429     
   50989501.7784856     
   50989325.2331712     
   50989147.8376803     
   50988975.8010508     
   50988815.1584582     
   50988671.7669456     
   50988551.3016712     
   50988459.2373639     
   50988400.7852147     
   50988380.7639322     
   48960213.8305645     
   48960186.2654136     
   48960107.7232879     
   48959987.4473294     
   48959834.2937764     
   48959656.7237436     
   48959462.8505184     
   48959260.4961150     
   48959057.2283192     
   48958860.3681310     
   48958676.9731820     
   48958513.8065737     
   48958377.2946680     
   48958273.4672907     
   48958207.8694383     
   48958185.4401314     
   46929964.5108510     
   46929934.4499967     
   46929848.4519789     
   46929716.0425289     
   46929546.7435632     
   46929349.9236108     
   46929134.7253155     
   46928910.0301000     
   46928684.4327011     
   46928466.2108582     
   46928263.2848866     
   46928083.1663184     
   46927932.8942503     
   46927818.9560265     
   46927747.1894157     
   46927722.6692521     
   44899411.5854560     
   44899379.1784417     
   44899286.2621039     
   44899142.7297469     
   44898958.7656495     
   44898744.5836525     
   44898510.2583451     
   44898265.6149736     
   44898020.1521201     
   44897782.9790275     
   44897562.7559097     
   44897367.6297399     
   44897205.1602642     
   44897082.2327764     
   44897004.9574015     
   44896978.5603109     
   42868550.7220282     
   42868515.9859080     
   42868416.3185132     
   42868262.1245505     
   42868064.3024100     
   42867833.8966885     
   42867581.8547354     
   42867318.8592160     
   42867055.2121020     
   42866800.7496271     
   42866564.7718415     
   42866355.9740967     
   42866182.3712554     
   42866051.2092907     
   42865968.8637585     
   42865940.7307183     
   40837376.2841984     
   40837339.1378827     
   40837232.6135920     
   40837067.8183219     
   40836856.4619464     
   40836610.4440796     
   40836341.5553156     
   40836061.2700047     
   40835780.6070249     
   40835510.0358140     
   40835259.4068986     
   40835037.8892154     
   40834853.9006533     
   40834715.0232845     
   40834627.9009714     
   40834598.1241706     
   38805881.4103917     
   38805841.7076103     
   38805728.0422298     
   38805552.4515891     
   38805327.5902291     
   38805066.2660025     
   38804781.1028619     
   38804484.3116194     
   38804187.5452074     
   38803901.8124890     
   38803637.4247092     
   38803403.9511191     
   38803210.1648532     
   38803063.9663287     
   38802972.2791334     
   38802940.9220878     
   36774058.0866193     
   36774015.6467762     
   36773894.4680503     
   36773707.7766139     
   36773469.3320935     
   36773192.9226332     
   36772892.0039875     
   36772579.4667832     
   36772267.5067380     
   36771967.5666993     
   36771690.3176291     
   36771445.6479350     
   36771242.6355622     
   36771089.4848039     
   36770993.4194329     
   36770960.5345310     
   34741897.2104965     
   34741851.8475260     
   34741722.7814986     
   34741524.7131802     
   34741272.6881350     
   34740981.5554925     
   34740665.5968989     
   34740338.3108781     
   34740012.3224632     
   34739699.3785182     
   34739410.3863442     
   34739155.4556718     
   34738943.9103049     
   34738784.2450247     
   34738684.0151564     
   34738649.6596212     
   32709388.6455930     
   32709340.1952949     
   32709202.9504649     
   32708993.4002763     
   32708728.0724521     
   32708422.9556736     
   32708093.1325719     
   32707752.6061880     
   32707414.2795239     
   32707090.0351735     
   32706790.8596196     
   32706526.9607175     
   32706307.8352354     
   32706142.2546527     
   32706038.1511091     
   32706002.4019741     
   30676521.2662480     
   30676469.6126426     
   30676324.0644501     
   30676103.2466112     
   30675825.3765535     
   30675507.6460816     
   30675165.8767982     
   30674814.4222822     
   30674466.2571037     
   30674133.1790190     
   30673826.0516923     
   30673555.0239791     
   30673329.6732122     
   30673159.0319557     
   30673051.4721655     
   30673014.4405668     
   28643282.9926591     
   28643228.0944451     
   28643074.3743269     
   28642842.9849468     
   28642554.0477141     
   28642225.9880916     
   28641875.2432017     
   28641516.2896287     
   28641161.8948501     
   28640823.4870244     
   28640511.5510971     
   28640235.9779411     
   28640006.3071056     
   28639831.8122325     
   28639721.3898443     
   28639683.2347578     
   26609660.8169811     
   26609602.7354859     
   26609441.3315198     
   26609200.7399442     
   26608903.1976256     
   26608568.3312102     
   26608212.9733799     
   26607851.3960856     
   26607495.7949984     
   26607156.8746819     
   26606844.4282149     
   26606567.8413806     
   26606336.4628793     
   26606159.7767486     
   26606047.3127789     
   26606008.2543679     
   24575640.8198073     
   24575579.7518662     
   24575411.6349859     
   24575164.1297348     
   24574861.7722200     
   24574525.2396235     
   24574171.3918342     
   24573813.8406151     
   24573463.7567963     
   24573130.7091121     
   24572823.4375901     
   24572550.5253292     
   24572320.9283326     
   24572144.2836483     
   24572030.8828845     
   24571991.2162915     
   22541208.1707160     
   22541144.4956239     
   22540971.3039019     
   22540720.4435654     
   22540418.8427796     
   22540087.8571812     
   22539743.7810188     
   22539398.9636781     
   22539063.0356380     
   22538744.0014449     
   22538449.1719804     
   22538185.9849999     
   22537962.7289884     
   22537789.0720885     
   22537676.1947438     
   22537636.3071136     
   20506347.1109498     
   20506281.4686012     
   20506105.8154560     
   20505856.9848006     
   20505564.1349376     
   20505248.5144605     
   20504924.9416692     
   20504603.7748099     
   20504292.6069984     
   20503997.5272992     
   20503724.0953406     
   20503478.2414612     
   20503267.1980935     
   20503100.3975125     
   20502989.9715606     
   20502950.3671023     
   18471040.9195354     
   18470974.3633056     
   18470800.4179981     
   18470561.7812000     
   18470289.0155265     
   18470001.7351559     
   18469712.0061069     
   18469427.4781776     
   18469153.3983556     
   18468893.7987535     
   18468652.3457199     
   18468433.1408530     
   18468241.8305681     
   18468087.0324002     
   18467981.6617392     
   18467943.0223073     
   16435271.8085829     
   16435206.1868992     
   16435040.9356806     
   16434825.1414487     
   16434588.3364138     
   16434345.8019539     
   16434105.4897648     
   16433872.0454176     
   16433648.4367607     
   16433436.8307099     
   16433239.1530279     
   16433057.6484617     
   16432895.6915219     
   16432759.9956148     
   16432663.4402275     
   16432626.7029899     
   14399020.8529460     
   14398959.8148603     
   14398816.0004166     
   14398643.2545893     
   14398463.6096327     
   14398284.7050286     
   14398110.3852335     
   14397942.6968139     
   14397782.8642430     
   14397631.7096050     
   14397489.9088042     
   14397358.2225076     
   14397237.9619690     
   14397131.6817078     
   14397049.8696964     
   14397016.8769828     
   12362267.7083849     
   12362220.5921416     
   12362125.1161749     
   12362025.6616015     
   12361926.4086201     
   12361829.8033188     
   12361736.8517794     
   12361648.0869982     
   12361563.7914362     
   12361484.1152684     
   12361409.1361363     
   12361338.9086414     
   12361273.4876978     
   12361213.3443923     
   12361157.9368427     
   12361130.3767592     
   10325000.0000000     
   10325000.0000000     
   10325000.0000000     
   10325000.0000000     
   10325000.0000000     
   10325000.0000000     
   10325000.0000000     
   10325000.0000000     
   10325000.0000000     
   10325000.0000000     
   10325000.0000000     
   10325000.0000000     
   10325000.0000000     
   10325000.0000000     
   10325000.0000000     
   10325000.0000000     
VECTORS u double 
    0.00000E+00        -0.35569E-02         0.00000E+00
    0.00000E+00        -0.22810E-02         0.00000E+00
    0.00000E+00        -0.12628E-02         0.00000E+00
    0.00000E+00        -0.63034E-03         0.00000E+00
    0.00000E+00        -0.34251E-03         0.00000E+00
    0.00000E+00        -0.23480E-03         0.00000E+00
    0.00000E+00        -0.17920E-03         0.00000E+00
    0.00000E+00        -0.95301E-04         0.00000E+00
    0.00000E+00         0.12434E-04         0.00000E+00
    0.00000E+00         0.13249E-03         0.00000E+00
    0.00000E+00         0.24879E-03         0.00000E+00
    0.00000E+00         0.34369E-03         0.00000E+00
    0.00000E+00         0.39756E-03         0.00000E+00
    0.00000E+00         0.38644E-03         0.00000E+00
    0.00000E+00         0.27731E-03         0.00000E+00
    0.00000E+00         0.00000E+00         0.00000E+00
    0.46725E-02        -0.35252E-02         0.00000E+00
    0.44321E-02        -0.23970E-02         0.00000E+00
    0.38712E-02        -0.15666E-02         0.00000E+00
    0.32054E-02        -0.10384E-02         0.00000E+00
    0.26020E-02        -0.73581E-03         0.00000E+00
    0.21330E-02        -0.55986E-03         0.00000E+00
    0.17617E-02        -0.41926E-03         0.00000E+00
    0.14977E-02        -0.27071E-03         0.00000E+00
    0.13364E-02        -0.12005E-03         0.00000E+00
    0.11980E-02         0.27767E-04         0.00000E+00
    0.10632E-02         0.16439E-03         0.00000E+00
    0.92200E-03         0.27550E-03         0.00000E+00
    0.76571E-03         0.34311E-03         0.00000E+00
    0.58249E-03         0.34437E-03         0.00000E+00
    0.35106E-03         0.24681E-03         0.00000E+00
    0.00000E+00         0.00000E+00         0.00000E+00
    0.84479E-02        -0.36812E-02         0.00000E+00
    0.76808E-02        -0.29325E-02         0.00000E+00
    0.66393E-02        -0.23914E-02         0.00000E+00
    0.55786E-02        -0.19673E-02         0.00000E+00
    0.46346E-02        -0.16088E-02         0.00000E+00
    0.38568E-02        -0.12930E-02         0.00000E+00
    0.32798E-02        -0.10028E-02         0.00000E+00
    0.28676E-02        -0.73639E-03         0.00000E+00
    0.25459E-02        -0.49226E-03         0.00000E+00
    0.22657E-02        -0.27317E-03         0.00000E+00
    0.19939E-02        -0.80557E-04         0.00000E+00
    0.17115E-02         0.77170E-04         0.00000E+00
    0.14010E-02         0.18590E-03         0.00000E+00
    0.10411E-02         0.22609E-03         0.00000E+00
    0.59543E-03         0.17183E-03         0.00000E+00
    0.00000E+00         0.00000E+00         0.00000E+00
    0.11191E-01        -0.46013E-02         0.00000E+00
    0.98876E-02        -0.40438E-02         0.00000E+00
    0.85407E-02        -0.35704E-02         0.00000E+00
    0.73090E-02        -0.31086E-02         0.00000E+00
    0.62473E-02        -0.26514E-02         0.00000E+00
    0.53747E-02        -0.22081E-02         0.00000E+00
    0.46734E-02        -0.17879E-02         0.00000E+00
    0.41127E-02        -0.14008E-02         0.00000E+00
    0.36436E-02        -0.10513E-02         0.00000E+00
    0.32213E-02        -0.73877E-03         0.00000E+00
    0.28122E-02        -0.46499E-03         0.00000E+00
    0.23899E-02        -0.23507E-03         0.00000E+00
    0.19307E-02        -0.59125E-04         0.00000E+00
    0.14066E-02         0.48478E-04         0.00000E+00
    0.78003E-03         0.71952E-04         0.00000E+00
    0.00000E+00         0.00000E+00         0.00000E+00
    0.13123E-01        -0.60752E-02         0.00000E+00
    0.11548E-01        -0.54896E-02         0.00000E+00
    0.10124E-01        -0.49249E-02         0.00000E+00
    0.88386E-02        -0.43578E-02         0.00000E+00
    0.77102E-02        -0.37921E-02         0.00000E+00
    0.67453E-02        -0.32378E-02         0.00000E+00
    0.59306E-02        -0.27068E-02         0.00000E+00
    0.52386E-02        -0.22088E-02         0.00000E+00
    0.46327E-02        -0.17502E-02         0.00000E+00
    0.40753E-02        -0.13341E-02         0.00000E+00
    0.35326E-02        -0.96289E-03         0.00000E+00
    0.29755E-02        -0.64068E-03         0.00000E+00
    0.23763E-02        -0.37458E-03         0.00000E+00
    0.17050E-02        -0.17382E-03         0.00000E+00
    0.92640E-03        -0.47361E-04         0.00000E+00
    0.00000E+00         0.00000E+00         0.00000E+00
    0.14736E-01        -0.77749E-02         0.00000E+00
    0.13071E-01        -0.70726E-02         0.00000E+00
    0.11568E-01        -0.63841E-02         0.00000E+00
    0.10219E-01        -0.57047E-02         0.00000E+00
    0.90212E-02        -0.50316E-02         0.00000E+00
    0.79703E-02        -0.43710E-02         0.00000E+00
    0.70529E-02        -0.37326E-02         0.00000E+00
    0.62450E-02        -0.31255E-02         0.00000E+00
    0.55161E-02        -0.25564E-02         0.00000E+00
    0.48336E-02        -0.20300E-02         0.00000E+00
    0.41656E-02        -0.15499E-02         0.00000E+00
    0.34824E-02        -0.11199E-02         0.00000E+00
    0.27550E-02        -0.74496E-03         0.00000E+00
    0.19535E-02        -0.43080E-03         0.00000E+00
    0.10462E-02        -0.18202E-03         0.00000E+00
    0.00000E+00         0.00000E+00         0.00000E+00
    0.16201E-01        -0.95720E-02         0.00000E+00
    0.14451E-01        -0.87504E-02         0.00000E+00
    0.12874E-01        -0.79443E-02         0.00000E+00
    0.11456E-01        -0.71494E-02         0.00000E+00
    0.10187E-01        -0.63654E-02         0.00000E+00
    0.90554E-02        -0.55962E-02         0.00000E+00
    0.80455E-02        -0.48486E-02         0.00000E+00
    0.71349E-02        -0.41300E-02         0.00000E+00
    0.62966E-02        -0.34468E-02         0.00000E+00
    0.55013E-02        -0.28042E-02         0.00000E+00
    0.47191E-02        -0.22061E-02         0.00000E+00
    0.39211E-02        -0.16561E-02         0.00000E+00
    0.30786E-02        -0.11578E-02         0.00000E+00
    0.21633E-02        -0.71474E-03         0.00000E+00
    0.11463E-02        -0.32892E-03         0.00000E+00
    0.00000E+00         0.00000E+00         0.00000E+00
    0.17513E-01        -0.11456E-01         0.00000E+00
    0.15685E-01        -0.10517E-01         0.00000E+00
    0.14037E-01        -0.95930E-02         0.00000E+00
    0.12551E-01        -0.86821E-02         0.00000E+00
    0.11213E-01        -0.77843E-02         0.00000E+00
    0.10007E-01        -0.69024E-02         0.00000E+00
    0.89142E-02        -0.60414E-02         0.00000E+00
    0.79131E-02        -0.52071E-02         0.00000E+00
    0.69785E-02        -0.44052E-02         0.00000E+00
    0.60832E-02        -0.36403E-02         0.00000E+00
    0.51994E-02        -0.29162E-02         0.00000E+00
    0.42993E-02        -0.22364E-02         0.00000E+00
    0.33555E-02        -0.16036E-02         0.00000E+00
    0.23414E-02        -0.10197E-02         0.00000E+00
    0.12309E-02        -0.48552E-03         0.00000E+00
    0.00000E+00         0.00000E+00         0.00000E+00
    0.18666E-01        -0.13416E-01         0.00000E+00
    0.16769E-01        -0.12361E-01         0.00000E+00
    0.15056E-01        -0.11320E-01         0.00000E+00
    0.13508E-01        -0.10291E-01         0.00000E+00
    0.12105E-01        -0.92770E-02         0.00000E+00
    0.10831E-01        -0.82785E-02         0.00000E+00
    0.96647E-02        -0.72996E-02         0.00000E+00
    0.85845E-02        -0.63449E-02         0.00000E+00
    0.75662E-02        -0.54188E-02         0.00000E+00
    0.65840E-02        -0.45257E-02         0.00000E+00
    0.56116E-02        -0.36688E-02         0.00000E+00
    0.46227E-02        -0.28511E-02         0.00000E+00
    0.35913E-02        -0.20747E-02         0.00000E+00
    0.24925E-02        -0.13409E-02         0.00000E+00
    0.13026E-02        -0.64979E-03         0.00000E+00
    0.00000E+00         0.00000E+00         0.00000E+00
    0.19658E-01        -0.15444E-01         0.00000E+00
    0.17702E-01        -0.14272E-01         0.00000E+00
    0.15931E-01        -0.13113E-01         0.00000E+00
    0.14326E-01        -0.11966E-01         0.00000E+00
    0.12866E-01        -0.10833E-01         0.00000E+00
    0.11532E-01        -0.97138E-02         0.00000E+00
    0.10302E-01        -0.86128E-02         0.00000E+00
    0.91540E-02        -0.75328E-02         0.00000E+00
    0.80642E-02        -0.64776E-02         0.00000E+00
    0.70081E-02        -0.54507E-02         0.00000E+00
    0.59603E-02        -0.44549E-02         0.00000E+00
    0.48957E-02        -0.34927E-02         0.00000E+00
    0.37901E-02        -0.25658E-02         0.00000E+00
    0.26197E-02        -0.16749E-02         0.00000E+00
    0.13629E-02        -0.82011E-03         0.00000E+00
    0.00000E+00         0.00000E+00         0.00000E+00
    0.20487E-01        -0.17527E-01         0.00000E+00
    0.18481E-01        -0.16239E-01         0.00000E+00
    0.16662E-01        -0.14961E-01         0.00000E+00
    0.15008E-01        -0.13695E-01         0.00000E+00
    0.13499E-01        -0.12440E-01         0.00000E+00
    0.12114E-01        -0.11198E-01         0.00000E+00
    0.10830E-01        -0.99713E-02         0.00000E+00
    0.96258E-02        -0.87619E-02         0.00000E+00
    0.84768E-02        -0.75730E-02         0.00000E+00
    0.73593E-02        -0.64073E-02         0.00000E+00
    0.62490E-02        -0.52674E-02         0.00000E+00
    0.51218E-02        -0.41553E-02         0.00000E+00
    0.39546E-02        -0.30722E-02         0.00000E+00
    0.27251E-02        -0.20189E-02         0.00000E+00
    0.14130E-02        -0.99517E-03         0.00000E+00
    0.00000E+00         0.00000E+00         0.00000E+00
    0.21154E-01        -0.19656E-01         0.00000E+00
    0.19107E-01        -0.18251E-01         0.00000E+00
    0.17248E-01        -0.16855E-01         0.00000E+00
    0.15555E-01        -0.15468E-01         0.00000E+00
    0.14006E-01        -0.14090E-01         0.00000E+00
    0.12580E-01        -0.12723E-01         0.00000E+00
    0.11253E-01        -0.11366E-01         0.00000E+00
    0.10003E-01        -0.10024E-01         0.00000E+00
    0.88073E-02        -0.86974E-02         0.00000E+00
    0.76409E-02        -0.73889E-02         0.00000E+00
    0.64808E-02        -0.61006E-02         0.00000E+00
    0.53036E-02        -0.48341E-02         0.00000E+00
    0.40871E-02        -0.35905E-02         0.00000E+00
    0.28102E-02        -0.23705E-02         0.00000E+00
    0.14535E-02        -0.11739E-02         0.00000E+00
    0.00000E+00         0.00000E+00         0.00000E+00
    0.21657E-01        -0.21820E-01         0.00000E+00
    0.19579E-01        -0.20299E-01         0.00000E+00
    0.17690E-01        -0.18784E-01         0.00000E+00
    0.15967E-01        -0.17276E-01         0.00000E+00
    0.14388E-01        -0.15773E-01         0.00000E+00
    0.12931E-01        -0.14278E-01         0.00000E+00
    0.11573E-01        -0.12790E-01         0.00000E+00
    0.10290E-01        -0.11312E-01         0.00000E+00
    0.90585E-02        -0.98442E-02         0.00000E+00
    0.78557E-02        -0.83896E-02         0.00000E+00
    0.66581E-02        -0.69494E-02         0.00000E+00
    0.54431E-02        -0.55251E-02         0.00000E+00
    0.41892E-02        -0.41176E-02         0.00000E+00
    0.28760E-02        -0.27277E-02         0.00000E+00
    0.14851E-02        -0.13553E-02         0.00000E+00
    0.00000E+00         0.00000E+00         0.00000E+00
    0.21996E-01        -0.24011E-01         0.00000E+00
    0.19897E-01        -0.22373E-01         0.00000E+00
    0.17988E-01        -0.20739E-01         0.00000E+00
    0.16245E-01        -0.19109E-01         0.00000E+00
    0.14647E-01        -0.17481E-01         0.00000E+00
    0.13171E-01        -0.15856E-01         0.00000E+00
    0.11792E-01        -0.14235E-01         0.00000E+00
    0.10487E-01        -0.12618E-01         0.00000E+00
    0.92329E-02        -0.11007E-01         0.00000E+00
    0.80059E-02        -0.94039E-02         0.00000E+00
    0.67830E-02        -0.78093E-02         0.00000E+00
    0.55421E-02        -0.62247E-02         0.00000E+00
    0.42621E-02        -0.46510E-02         0.00000E+00
    0.29234E-02        -0.30888E-02         0.00000E+00
    0.15079E-02        -0.15385E-02         0.00000E+00
    0.00000E+00         0.00000E+00         0.00000E+00
    0.22171E-01        -0.26218E-01         0.00000E+00
    0.20061E-01        -0.24464E-01         0.00000E+00
    0.18141E-01        -0.22712E-01         0.00000E+00
    0.16390E-01        -0.20958E-01         0.00000E+00
    0.14784E-01        -0.19204E-01         0.00000E+00
    0.13299E-01        -0.17449E-01         0.00000E+00
    0.11911E-01        -0.15693E-01         0.00000E+00
    0.10597E-01        -0.13936E-01         0.00000E+00
    0.93321E-02        -0.12180E-01         0.00000E+00
    0.80930E-02        -0.10427E-01         0.00000E+00
    0.68569E-02        -0.86760E-02         0.00000E+00
    0.56018E-02        -0.69295E-02         0.00000E+00
    0.43069E-02        -0.51880E-02         0.00000E+00
    0.29530E-02        -0.34523E-02         0.00000E+00
    0.15225E-02        -0.17229E-02         0.00000E+00
    0.00000E+00         0.00000E+00         0.00000E+00
    0.22181E-01        -0.28433E-01         0.00000E+00
    0.20069E-01        -0.26564E-01         0.00000E+00
    0.18150E-01        -0.24692E-01         0.00000E+00
    0.16401E-01        -0.22816E-01         0.00000E+00
    0.14798E-01        -0.20936E-01         0.00000E+00
    0.13317E-01        -0.19049E-01         0.00000E+00
    0.11933E-01        -0.17157E-01         0.00000E+00
    0.10621E-01        -0.15260E-01         0.00000E+00
    0.93573E-02        -0.13358E-01         0.00000E+00
    0.81183E-02        -0.11453E-01         0.00000E+00
    0.68809E-02        -0.95454E-02         0.00000E+00
    0.56231E-02        -0.76362E-02         0.00000E+00
    0.43243E-02        -0.57262E-02         0.00000E+00
    0.29654E-02        -0.38164E-02         0.00000E+00
    0.15290E-02        -0.19075E-02         0.00000E+00
    0.00000E+00         0.00000E+00         0.00000E+00
    0.22025E-01        -0.30647E-01         0.00000E+00
    0.19921E-01        -0.28662E-01         0.00000E+00
    0.18013E-01        -0.26672E-01         0.00000E+00
    0.16277E-01        -0.24674E-01         0.00000E+00
    0.14690E-01        -0.22667E-01         0.00000E+00
    0.13225E-01        -0.20649E-01         0.00000E+00
    0.11856E-01        -0.18621E-01         0.00000E+00
    0.10559E-01        -0.16583E-01         0.00000E+00
    0.93095E-02        -0.14535E-01         0.00000E+00
    0.80826E-02        -0.12478E-01         0.00000E+00
    0.68556E-02        -0.10413E-01         0.00000E+00
    0.56065E-02        -0.83414E-02         0.00000E+00
    0.43146E-02        -0.62633E-02         0.00000E+00
    0.29607E-02        -0.41797E-02         0.00000E+00
    0.15276E-02        -0.20917E-02         0.00000E+00
    0.00000E+00         0.00000E+00         0.00000E+00
    0.21700E-01        -0.32851E-01         0.00000E+00
    0.19614E-01        -0.30751E-01         0.00000E+00
    0.17728E-01        -0.28643E-01         0.00000E+00
    0.16019E-01        -0.26523E-01         0.00000E+00
    0.14459E-01        -0.24389E-01         0.00000E+00
    0.13022E-01        -0.22240E-01         0.00000E+00
    0.11682E-01        -0.20076E-01         0.00000E+00
    0.10413E-01        -0.17897E-01         0.00000E+00
    0.91889E-02        -0.15704E-01         0.00000E+00
    0.79862E-02        -0.13496E-01         0.00000E+00
    0.67814E-02        -0.11275E-01         0.00000E+00
    0.55523E-02        -0.90417E-02         0.00000E+00
    0.42779E-02        -0.67965E-02         0.00000E+00
    0.29391E-02        -0.45404E-02         0.00000E+00
    0.15182E-02        -0.22745E-02         0.00000E+00
    0.00000E+00         0.00000E+00         0.00000E+00
    0.21204E-01        -0.35035E-01         0.00000E+00
    0.19146E-01        -0.32821E-01         0.00000E+00
    0.17295E-01        -0.30595E-01         0.00000E+00
    0.15624E-01        -0.28353E-01         0.00000E+00
    0.14105E-01        -0.26093E-01         0.00000E+00
    0.12710E-01        -0.23814E-01         0.00000E+00
    0.11410E-01        -0.21515E-01         0.00000E+00
    0.10181E-01        -0.19196E-01         0.00000E+00
    0.89954E-02        -0.16858E-01         0.00000E+00
    0.78290E-02        -0.14501E-01         0.00000E+00
    0.66580E-02        -0.12126E-01         0.00000E+00
    0.54602E-02        -0.97333E-02         0.00000E+00
    0.42142E-02        -0.73232E-02         0.00000E+00
    0.29004E-02        -0.48968E-02         0.00000E+00
    0.15009E-02        -0.24552E-02         0.00000E+00
    0.00000E+00         0.00000E+00         0.00000E+00
    0.20532E-01        -0.37188E-01         0.00000E+00
    0.18515E-01        -0.34861E-01         0.00000E+00
    0.16712E-01        -0.32519E-01         0.00000E+00
    0.15092E-01        -0.30156E-01         0.00000E+00
    0.13627E-01        -0.27770E-01         0.00000E+00
    0.12286E-01        -0.25361E-01         0.00000E+00
    0.11041E-01        -0.22928E-01         0.00000E+00
    0.98638E-02        -0.20472E-01         0.00000E+00
    0.87287E-02        -0.17991E-01         0.00000E+00
    0.76103E-02        -0.15488E-01         0.00000E+00
    0.64848E-02        -0.12961E-01         0.00000E+00
    0.53294E-02        -0.10412E-01         0.00000E+00
    0.41226E-02        -0.78402E-02         0.00000E+00
    0.28442E-02        -0.52469E-02         0.00000E+00
    0.14754E-02        -0.26329E-02         0.00000E+00
    0.00000E+00         0.00000E+00         0.00000E+00
    0.19681E-01        -0.39299E-01         0.00000E+00
    0.17717E-01        -0.36860E-01         0.00000E+00
    0.15975E-01        -0.34402E-01         0.00000E+00
    0.14421E-01        -0.31919E-01         0.00000E+00
    0.13024E-01        -0.29409E-01         0.00000E+00
    0.11751E-01        -0.26871E-01         0.00000E+00
    0.10572E-01        -0.24306E-01         0.00000E+00
    0.94602E-02        -0.21714E-01         0.00000E+00
    0.83875E-02        -0.19094E-01         0.00000E+00
    0.73288E-02        -0.16447E-01         0.00000E+00
    0.62603E-02        -0.13774E-01         0.00000E+00
    0.51587E-02        -0.11073E-01         0.00000E+00
    0.40021E-02        -0.83441E-02         0.00000E+00
    0.27695E-02        -0.55884E-02         0.00000E+00
    0.14414E-02        -0.28065E-02         0.00000E+00
    0.00000E+00         0.00000E+00         0.00000E+00
    0.18645E-01        -0.41354E-01         0.00000E+00
    0.16750E-01        -0.38805E-01         0.00000E+00
    0.15084E-01        -0.36231E-01         0.00000E+00
    0.13611E-01        -0.33629E-01         0.00000E+00
    0.12295E-01        -0.30996E-01         0.00000E+00
    0.11104E-01        -0.28332E-01         0.00000E+00
    0.10004E-01        -0.25637E-01         0.00000E+00
    0.89690E-02        -0.22912E-01         0.00000E+00
    0.79702E-02        -0.20157E-01         0.00000E+00
    0.69827E-02        -0.17372E-01         0.00000E+00
    0.59823E-02        -0.14557E-01         0.00000E+00
    0.49459E-02        -0.11710E-01         0.00000E+00
    0.38508E-02        -0.88310E-02         0.00000E+00
    0.26751E-02        -0.59191E-02         0.00000E+00
    0.13979E-02        -0.29748E-02         0.00000E+00
    0.00000E+00         0.00000E+00         0.00000E+00
    0.17419E-01        -0.43340E-01         0.00000E+00
    0.15608E-01        -0.40681E-01         0.00000E+00
    0.14035E-01        -0.37993E-01         0.00000E+00
    0.12658E-01        -0.35272E-01         0.00000E+00
    0.11440E-01        -0.32517E-01         0.00000E+00
    0.10343E-01        -0.29728E-01         0.00000E+00
    0.93356E-02        -0.26907E-01         0.00000E+00
    0.83884E-02        -0.24054E-01         0.00000E+00
    0.74745E-02        -0.21170E-01         0.00000E+00
    0.65688E-02        -0.18253E-01         0.00000E+00
    0.56476E-02        -0.15304E-01         0.00000E+00
    0.46876E-02        -0.12319E-01         0.00000E+00
    0.36657E-02        -0.92966E-02         0.00000E+00
    0.25587E-02        -0.62361E-02         0.00000E+00
    0.13440E-02        -0.31367E-02         0.00000E+00
    0.00000E+00         0.00000E+00         0.00000E+00
    0.15997E-01        -0.45237E-01         0.00000E+00
    0.14289E-01        -0.42470E-01         0.00000E+00
    0.12827E-01        -0.39669E-01         0.00000E+00
    0.11564E-01        -0.36830E-01         0.00000E+00
    0.10457E-01        -0.33956E-01         0.00000E+00
    0.94683E-02        -0.31045E-01         0.00000E+00
    0.85643E-02        -0.28102E-01         0.00000E+00
    0.77159E-02        -0.25127E-01         0.00000E+00
    0.68969E-02        -0.22119E-01         0.00000E+00
    0.60832E-02        -0.19079E-01         0.00000E+00
    0.52517E-02        -0.16004E-01         0.00000E+00
    0.43793E-02        -0.12891E-01         0.00000E+00
    0.34427E-02        -0.97360E-02         0.00000E+00
    0.24173E-02        -0.65365E-02         0.00000E+00
    0.12780E-02        -0.32909E-02         0.00000E+00
    0.00000E+00         0.00000E+00         0.00000E+00
    0.14372E-01        -0.47027E-01         0.00000E+00
    0.12789E-01        -0.44153E-01         0.00000E+00
    0.11459E-01        -0.41239E-01         0.00000E+00
    0.10327E-01        -0.38285E-01         0.00000E+00
    0.93473E-02        -0.35292E-01         0.00000E+00
    0.84789E-02        -0.32264E-01         0.00000E+00
    0.76886E-02        -0.29204E-01         0.00000E+00
    0.69483E-02        -0.26113E-01         0.00000E+00
    0.62330E-02        -0.22992E-01         0.00000E+00
    0.55203E-02        -0.19838E-01         0.00000E+00
    0.47884E-02        -0.16649E-01         0.00000E+00
    0.40148E-02        -0.13419E-01         0.00000E+00
    0.31761E-02        -0.10144E-01         0.00000E+00
    0.22463E-02        -0.68170E-02         0.00000E+00
    0.11974E-02        -0.34359E-02         0.00000E+00
    0.00000E+00         0.00000E+00         0.00000E+00
    0.12537E-01        -0.48685E-01         0.00000E+00
    0.11105E-01        -0.45705E-01         0.00000E+00
    0.99298E-02        -0.42680E-01         0.00000E+00
    0.89488E-02        -0.39611E-01         0.00000E+00
    0.81104E-02        -0.36503E-01         0.00000E+00
    0.73737E-02        -0.33362E-01         0.00000E+00
    0.67060E-02        -0.30192E-01         0.00000E+00
    0.60813E-02        -0.26996E-01         0.00000E+00
    0.54771E-02        -0.23771E-01         0.00000E+00
    0.48731E-02        -0.20517E-01         0.00000E+00
    0.42496E-02        -0.17227E-01         0.00000E+00
    0.35856E-02        -0.13895E-01         0.00000E+00
    0.28579E-02        -0.10513E-01         0.00000E+00
    0.20395E-02        -0.70739E-02         0.00000E+00
    0.10986E-02        -0.35702E-02         0.00000E+00
    0.00000E+00         0.00000E+00         0.00000E+00
    0.10486E-01        -0.50184E-01         0.00000E+00
    0.92357E-02        -0.47099E-01         0.00000E+00
    0.82415E-02        -0.43962E-01         0.00000E+00
    0.74306E-02        -0.40780E-01         0.00000E+00
    0.67473E-02        -0.37562E-01         0.00000E+00
    0.61513E-02        -0.34316E-01         0.00000E+00
    0.56130E-02        -0.31047E-01         0.00000E+00
    0.51094E-02        -0.27756E-01         0.00000E+00
    0.46217E-02        -0.24442E-01         0.00000E+00
    0.41326E-02        -0.21100E-01         0.00000E+00
    0.36251E-02        -0.17726E-01         0.00000E+00
    0.30807E-02        -0.14308E-01         0.00000E+00
    0.24776E-02        -0.10838E-01         0.00000E+00
    0.17881E-02        -0.73028E-02         0.00000E+00
    0.97669E-03        -0.36921E-02         0.00000E+00
    0.00000E+00         0.00000E+00         0.00000E+00
    0.82114E-02        -0.51487E-01         0.00000E+00
    0.71811E-02        -0.48298E-01         0.00000E+00
    0.63978E-02        -0.45051E-01         0.00000E+00
    0.57758E-02        -0.41760E-01         0.00000E+00
    0.52583E-02        -0.38439E-01         0.00000E+00
    0.48093E-02        -0.35099E-01         0.00000E+00
    0.44044E-02        -0.31744E-01         0.00000E+00
    0.40254E-02        -0.28373E-01         0.00000E+00
    0.36577E-02        -0.24986E-01         0.00000E+00
    0.32879E-02        -0.21575E-01         0.00000E+00
    0.29026E-02        -0.18132E-01         0.00000E+00
    0.24866E-02        -0.14648E-01         0.00000E+00
    0.20211E-02        -0.11109E-01         0.00000E+00
    0.14798E-02        -0.74987E-02         0.00000E+00
    0.82407E-03        -0.37997E-02         0.00000E+00
    0.00000E+00         0.00000E+00         0.00000E+00
    0.57064E-02        -0.52549E-01         0.00000E+00
    0.49465E-02        -0.49256E-01         0.00000E+00
    0.44059E-02        -0.45901E-01         0.00000E+00
    0.39876E-02        -0.42509E-01         0.00000E+00
    0.36420E-02        -0.39101E-01         0.00000E+00
    0.33429E-02        -0.35684E-01         0.00000E+00
    0.30730E-02        -0.32261E-01         0.00000E+00
    0.28203E-02        -0.28831E-01         0.00000E+00
    0.25745E-02        -0.25388E-01         0.00000E+00
    0.23268E-02        -0.21925E-01         0.00000E+00
    0.20678E-02        -0.18435E-01         0.00000E+00
    0.17869E-02        -0.14904E-01         0.00000E+00
    0.14702E-02        -0.11317E-01         0.00000E+00
    0.10967E-02        -0.76545E-02         0.00000E+00
    0.62887E-03        -0.38901E-02         0.00000E+00
    0.00000E+00         0.00000E+00         0.00000E+00
    0.29656E-02        -0.53302E-01         0.00000E+00
    0.25457E-02        -0.49905E-01         0.00000E+00
    0.22741E-02        -0.46452E-01         0.00000E+00
    0.20652E-02        -0.42984E-01         0.00000E+00
    0.18929E-02        -0.39515E-01         0.00000E+00
    0.17437E-02        -0.36047E-01         0.00000E+00
    0.16091E-02        -0.32581E-01         0.00000E+00
    0.14827E-02        -0.29112E-01         0.00000E+00
    0.13598E-02        -0.25635E-01         0.00000E+00
    0.12356E-02        -0.22141E-01         0.00000E+00
    0.11056E-02        -0.18621E-01         0.00000E+00
    0.96412E-03        -0.15062E-01         0.00000E+00
    0.80389E-03        -0.11449E-01         0.00000E+00
    0.61315E-03        -0.77584E-02         0.00000E+00
    0.36975E-03        -0.39593E-02         0.00000E+00
    0.00000E+00         0.00000E+00         0.00000E+00
    0.00000E+00        -0.53623E-01         0.00000E+00
    0.00000E+00        -0.50144E-01         0.00000E+00
    0.00000E+00        -0.46645E-01         0.00000E+00
    0.00000E+00        -0.43147E-01         0.00000E+00
    0.00000E+00        -0.39655E-01         0.00000E+00
    0.00000E+00        -0.36170E-01         0.00000E+00
    0.00000E+00        -0.32689E-01         0.00000E+00
    0.00000E+00        -0.29207E-01         0.00000E+00
    0.00000E+00        -0.25718E-01         0.00000E+00
    0.00000E+00        -0.22214E-01         0.00000E+00
    0.00000E+00        -0.18684E-01         0.00000E+00
    0.00000E+00        -0.15117E-01         0.00000E+00
    0.00000E+00        -0.11494E-01         0.00000E+00
    0.00000E+00        -0.77955E-02         0.00000E+00
    0.00000E+00        -0.39879E-02         0.00000E+00
    0.00000E+00         0.00000E+00         0.00000E+00
CELL_DATA        450
VECTORS vDarcy double 
    0.11601E-05         0.11896E-09         0.00000E+00
    0.11600E-05         0.31324E-09         0.00000E+00
    0.11600E-05         0.43434E-09         0.00000E+00
    0.11600E-05         0.50867E-09         0.00000E+00
    0.11599E-05         0.55101E-09         0.00000E+00
    0.11599E-05         0.56071E-09         0.00000E+00
    0.11599E-05         0.54232E-09         0.00000E+00
    0.11599E-05         0.50333E-09         0.00000E+00
    0.11599E-05         0.46037E-09         0.00000E+00
    0.11599E-05         0.41767E-09         0.00000E+00
    0.11599E-05         0.37200E-09         0.00000E+00
    0.11599E-05         0.32119E-09         0.00000E+00
    0.11599E-05         0.26188E-09         0.00000E+00
    0.11599E-05         0.18701E-09         0.00000E+00
    0.11599E-05         0.72322E-10         0.00000E+00
    0.11601E-05         0.70887E-10         0.00000E+00
    0.11600E-05         0.16798E-09         0.00000E+00
    0.11599E-05         0.21199E-09         0.00000E+00
    0.11599E-05         0.24576E-09         0.00000E+00
    0.11598E-05         0.27858E-09         0.00000E+00
    0.11598E-05         0.30940E-09         0.00000E+00
    0.11598E-05         0.33178E-09         0.00000E+00
    0.11598E-05         0.34096E-09         0.00000E+00
    0.11598E-05         0.33028E-09         0.00000E+00
    0.11598E-05         0.30596E-09         0.00000E+00
    0.11598E-05         0.27247E-09         0.00000E+00
    0.11598E-05         0.23013E-09         0.00000E+00
    0.11598E-05         0.17728E-09         0.00000E+00
    0.11598E-05         0.11010E-09         0.00000E+00
    0.11597E-05         0.36244E-10         0.00000E+00
    0.11601E-05         0.14615E-10         0.00000E+00
    0.11599E-05         0.47398E-10         0.00000E+00
    0.11598E-05         0.85528E-10         0.00000E+00
    0.11598E-05         0.12094E-09         0.00000E+00
    0.11598E-05         0.15134E-09         0.00000E+00
    0.11598E-05         0.18337E-09         0.00000E+00
    0.11597E-05         0.20862E-09         0.00000E+00
    0.11597E-05         0.22058E-09         0.00000E+00
    0.11597E-05         0.21983E-09         0.00000E+00
    0.11597E-05         0.20772E-09         0.00000E+00
    0.11597E-05         0.18520E-09         0.00000E+00
    0.11597E-05         0.15342E-09         0.00000E+00
    0.11597E-05         0.11291E-09         0.00000E+00
    0.11596E-05         0.66610E-10         0.00000E+00
    0.11596E-05         0.21446E-10         0.00000E+00
    0.11599E-05        -0.86045E-11         0.00000E+00
    0.11598E-05        -0.16377E-11         0.00000E+00
    0.11598E-05         0.35127E-10         0.00000E+00
    0.11597E-05         0.70403E-10         0.00000E+00
    0.11597E-05         0.96001E-10         0.00000E+00
    0.11597E-05         0.11269E-09         0.00000E+00
    0.11597E-05         0.12522E-09         0.00000E+00
    0.11597E-05         0.13308E-09         0.00000E+00
    0.11596E-05         0.13444E-09         0.00000E+00
    0.11596E-05         0.12803E-09         0.00000E+00
    0.11596E-05         0.11394E-09         0.00000E+00
    0.11596E-05         0.92763E-10         0.00000E+00
    0.11596E-05         0.66277E-10         0.00000E+00
    0.11595E-05         0.37738E-10         0.00000E+00
    0.11595E-05         0.11840E-10         0.00000E+00
    0.11598E-05        -0.41096E-11         0.00000E+00
    0.11598E-05        -0.24227E-12         0.00000E+00
    0.11597E-05         0.17819E-10         0.00000E+00
    0.11597E-05         0.34817E-10         0.00000E+00
    0.11596E-05         0.48541E-10         0.00000E+00
    0.11596E-05         0.57958E-10         0.00000E+00
    0.11596E-05         0.64506E-10         0.00000E+00
    0.11596E-05         0.68580E-10         0.00000E+00
    0.11596E-05         0.69507E-10         0.00000E+00
    0.11595E-05         0.66278E-10         0.00000E+00
    0.11595E-05         0.58411E-10         0.00000E+00
    0.11595E-05         0.46419E-10         0.00000E+00
    0.11595E-05         0.31803E-10         0.00000E+00
    0.11594E-05         0.17049E-10         0.00000E+00
    0.11594E-05         0.51167E-11         0.00000E+00
    0.11597E-05        -0.31834E-11         0.00000E+00
    0.11597E-05        -0.56447E-11         0.00000E+00
    0.11596E-05        -0.16427E-11         0.00000E+00
    0.11596E-05         0.50329E-11         0.00000E+00
    0.11596E-05         0.10653E-10         0.00000E+00
    0.11596E-05         0.14715E-10         0.00000E+00
    0.11595E-05         0.17544E-10         0.00000E+00
    0.11595E-05         0.19444E-10         0.00000E+00
    0.11595E-05         0.20135E-10         0.00000E+00
    0.11595E-05         0.19110E-10         0.00000E+00
    0.11594E-05         0.16087E-10         0.00000E+00
    0.11594E-05         0.11389E-10         0.00000E+00
    0.11594E-05         0.60697E-11         0.00000E+00
    0.11593E-05         0.17387E-11         0.00000E+00
    0.11593E-05         0.14188E-12         0.00000E+00
    0.11597E-05        -0.58636E-11         0.00000E+00
    0.11596E-05        -0.14654E-10         0.00000E+00
    0.11596E-05        -0.18624E-10         0.00000E+00
    0.11595E-05        -0.19843E-10         0.00000E+00
    0.11595E-05        -0.19947E-10         0.00000E+00
    0.11595E-05        -0.19814E-10         0.00000E+00
    0.11595E-05        -0.19456E-10         0.00000E+00
    0.11594E-05        -0.18777E-10         0.00000E+00
    0.11594E-05        -0.17858E-10         0.00000E+00
    0.11594E-05        -0.16922E-10         0.00000E+00
    0.11594E-05        -0.16073E-10         0.00000E+00
    0.11593E-05        -0.15079E-10         0.00000E+00
    0.11593E-05        -0.13299E-10         0.00000E+00
    0.11593E-05        -0.97928E-11         0.00000E+00
    0.11593E-05        -0.36219E-11         0.00000E+00
    0.11596E-05        -0.86289E-11         0.00000E+00
    0.11595E-05        -0.23378E-10         0.00000E+00
    0.11595E-05        -0.33447E-10         0.00000E+00
    0.11595E-05        -0.40200E-10         0.00000E+00
    0.11594E-05        -0.44710E-10         0.00000E+00
    0.11594E-05        -0.47559E-10         0.00000E+00
    0.11594E-05        -0.48953E-10         0.00000E+00
    0.11594E-05        -0.48910E-10         0.00000E+00
    0.11593E-05        -0.47472E-10         0.00000E+00
    0.11593E-05        -0.44725E-10         0.00000E+00
    0.11593E-05        -0.40699E-10         0.00000E+00
    0.11593E-05        -0.35254E-10         0.00000E+00
    0.11593E-05        -0.28046E-10         0.00000E+00
    0.11592E-05        -0.18607E-10         0.00000E+00
    0.11592E-05        -0.65192E-11         0.00000E+00
    0.11595E-05        -0.11115E-10         0.00000E+00
    0.11594E-05        -0.30905E-10         0.00000E+00
    0.11594E-05        -0.45851E-10         0.00000E+00
    0.11594E-05        -0.56914E-10         0.00000E+00
    0.11594E-05        -0.64818E-10         0.00000E+00
    0.11593E-05        -0.70010E-10         0.00000E+00
    0.11593E-05        -0.72701E-10         0.00000E+00
    0.11593E-05        -0.72979E-10         0.00000E+00
    0.11593E-05        -0.70898E-10         0.00000E+00
    0.11593E-05        -0.66514E-10         0.00000E+00
    0.11592E-05        -0.59856E-10         0.00000E+00
    0.11592E-05        -0.50882E-10         0.00000E+00
    0.11592E-05        -0.39471E-10         0.00000E+00
    0.11592E-05        -0.25468E-10         0.00000E+00
    0.11592E-05        -0.87909E-11         0.00000E+00
    0.11594E-05        -0.13195E-10         0.00000E+00
    0.11594E-05        -0.37183E-10         0.00000E+00
    0.11593E-05        -0.56132E-10         0.00000E+00
    0.11593E-05        -0.70678E-10         0.00000E+00
    0.11593E-05        -0.81318E-10         0.00000E+00
    0.11593E-05        -0.88383E-10         0.00000E+00
    0.11593E-05        -0.92075E-10         0.00000E+00
    0.11592E-05        -0.92508E-10         0.00000E+00
    0.11592E-05        -0.89769E-10         0.00000E+00
    0.11592E-05        -0.83936E-10         0.00000E+00
    0.11592E-05        -0.75084E-10         0.00000E+00
    0.11592E-05        -0.63267E-10         0.00000E+00
    0.11592E-05        -0.48529E-10         0.00000E+00
    0.11591E-05        -0.30932E-10         0.00000E+00
    0.11591E-05        -0.10614E-10         0.00000E+00
    0.11593E-05        -0.14940E-10         0.00000E+00
    0.11593E-05        -0.42440E-10         0.00000E+00
    0.11593E-05        -0.64736E-10         0.00000E+00
    0.11592E-05        -0.82181E-10         0.00000E+00
    0.11592E-05        -0.95087E-10         0.00000E+00
    0.11592E-05        -0.10369E-09         0.00000E+00
    0.11592E-05        -0.10818E-09         0.00000E+00
    0.11592E-05        -0.10868E-09         0.00000E+00
    0.11592E-05        -0.10532E-09         0.00000E+00
    0.11592E-05        -0.98219E-10         0.00000E+00
    0.11591E-05        -0.87517E-10         0.00000E+00
    0.11591E-05        -0.73361E-10         0.00000E+00
    0.11591E-05        -0.55922E-10         0.00000E+00
    0.11591E-05        -0.35412E-10         0.00000E+00
    0.11591E-05        -0.12118E-10         0.00000E+00
    0.11592E-05        -0.16451E-10         0.00000E+00
    0.11592E-05        -0.46973E-10         0.00000E+00
    0.11592E-05        -0.72135E-10         0.00000E+00
    0.11592E-05        -0.92050E-10         0.00000E+00
    0.11592E-05        -0.10687E-09         0.00000E+00
    0.11591E-05        -0.11677E-09         0.00000E+00
    0.11591E-05        -0.12190E-09         0.00000E+00
    0.11591E-05        -0.12242E-09         0.00000E+00
    0.11591E-05        -0.11848E-09         0.00000E+00
    0.11591E-05        -0.11027E-09         0.00000E+00
    0.11591E-05        -0.97985E-10         0.00000E+00
    0.11591E-05        -0.81857E-10         0.00000E+00
    0.11591E-05        -0.62156E-10         0.00000E+00
    0.11591E-05        -0.39207E-10         0.00000E+00
    0.11591E-05        -0.13400E-10         0.00000E+00
    0.11591E-05        -0.17830E-10         0.00000E+00
    0.11591E-05        -0.51065E-10         0.00000E+00
    0.11591E-05        -0.78757E-10         0.00000E+00
    0.11591E-05        -0.10082E-09         0.00000E+00
    0.11591E-05        -0.11730E-09         0.00000E+00
    0.11591E-05        -0.12829E-09         0.00000E+00
    0.11591E-05        -0.13395E-09         0.00000E+00
    0.11591E-05        -0.13444E-09         0.00000E+00
    0.11591E-05        -0.12997E-09         0.00000E+00
    0.11591E-05        -0.12076E-09         0.00000E+00
    0.11591E-05        -0.10709E-09         0.00000E+00
    0.11591E-05        -0.89251E-10         0.00000E+00
    0.11591E-05        -0.67597E-10         0.00000E+00
    0.11591E-05        -0.42533E-10         0.00000E+00
    0.11591E-05        -0.14531E-10         0.00000E+00
    0.11590E-05        -0.19160E-10         0.00000E+00
    0.11590E-05        -0.54954E-10         0.00000E+00
    0.11590E-05        -0.84956E-10         0.00000E+00
    0.11590E-05        -0.10894E-09         0.00000E+00
    0.11590E-05        -0.12686E-09         0.00000E+00
    0.11590E-05        -0.13878E-09         0.00000E+00
    0.11590E-05        -0.14485E-09         0.00000E+00
    0.11590E-05        -0.14527E-09         0.00000E+00
    0.11590E-05        -0.14028E-09         0.00000E+00
    0.11590E-05        -0.13017E-09         0.00000E+00
    0.11590E-05        -0.11525E-09         0.00000E+00
    0.11590E-05        -0.95894E-10         0.00000E+00
    0.11590E-05        -0.72500E-10         0.00000E+00
    0.11590E-05        -0.45545E-10         0.00000E+00
    0.11590E-05        -0.15559E-10         0.00000E+00
    0.11589E-05        -0.20507E-10         0.00000E+00
    0.11589E-05        -0.58824E-10         0.00000E+00
    0.11590E-05        -0.91004E-10         0.00000E+00
    0.11590E-05        -0.11673E-09         0.00000E+00
    0.11590E-05        -0.13592E-09         0.00000E+00
    0.11590E-05        -0.14862E-09         0.00000E+00
    0.11590E-05        -0.15499E-09         0.00000E+00
    0.11590E-05        -0.15529E-09         0.00000E+00
    0.11590E-05        -0.14979E-09         0.00000E+00
    0.11590E-05        -0.13882E-09         0.00000E+00
    0.11590E-05        -0.12276E-09         0.00000E+00
    0.11590E-05        -0.10202E-09         0.00000E+00
    0.11590E-05        -0.77039E-10         0.00000E+00
    0.11590E-05        -0.48347E-10         0.00000E+00
    0.11590E-05        -0.16521E-10         0.00000E+00
    0.11589E-05        -0.21919E-10         0.00000E+00
    0.11589E-05        -0.62804E-10         0.00000E+00
    0.11589E-05        -0.97087E-10         0.00000E+00
    0.11589E-05        -0.12442E-09         0.00000E+00
    0.11589E-05        -0.14471E-09         0.00000E+00
    0.11589E-05        -0.15803E-09         0.00000E+00
    0.11589E-05        -0.16460E-09         0.00000E+00
    0.11590E-05        -0.16470E-09         0.00000E+00
    0.11590E-05        -0.15868E-09         0.00000E+00
    0.11590E-05        -0.14690E-09         0.00000E+00
    0.11590E-05        -0.12978E-09         0.00000E+00
    0.11590E-05        -0.10776E-09         0.00000E+00
    0.11590E-05        -0.81316E-10         0.00000E+00
    0.11590E-05        -0.51004E-10         0.00000E+00
    0.11590E-05        -0.17438E-10         0.00000E+00
    0.11588E-05        -0.23424E-10         0.00000E+00
    0.11588E-05        -0.66969E-10         0.00000E+00
    0.11588E-05        -0.10331E-09         0.00000E+00
    0.11588E-05        -0.13212E-09         0.00000E+00
    0.11589E-05        -0.15335E-09         0.00000E+00
    0.11589E-05        -0.16714E-09         0.00000E+00
    0.11589E-05        -0.17377E-09         0.00000E+00
    0.11589E-05        -0.17360E-09         0.00000E+00
    0.11590E-05        -0.16703E-09         0.00000E+00
    0.11590E-05        -0.15447E-09         0.00000E+00
    0.11590E-05        -0.13636E-09         0.00000E+00
    0.11590E-05        -0.11316E-09         0.00000E+00
    0.11590E-05        -0.85373E-10         0.00000E+00
    0.11590E-05        -0.53547E-10         0.00000E+00
    0.11590E-05        -0.18322E-10         0.00000E+00
    0.11587E-05        -0.25032E-10         0.00000E+00
    0.11587E-05        -0.71344E-10         0.00000E+00
    0.11588E-05        -0.10970E-09         0.00000E+00
    0.11588E-05        -0.13984E-09         0.00000E+00
    0.11588E-05        -0.16181E-09         0.00000E+00
    0.11589E-05        -0.17588E-09         0.00000E+00
    0.11589E-05        -0.18243E-09         0.00000E+00
    0.11589E-05        -0.18190E-09         0.00000E+00
    0.11589E-05        -0.17475E-09         0.00000E+00
    0.11590E-05        -0.16146E-09         0.00000E+00
    0.11590E-05        -0.14246E-09         0.00000E+00
    0.11590E-05        -0.11821E-09         0.00000E+00
    0.11590E-05        -0.89200E-10         0.00000E+00
    0.11590E-05        -0.55974E-10         0.00000E+00
    0.11590E-05        -0.19174E-10         0.00000E+00
    0.11586E-05        -0.26739E-10         0.00000E+00
    0.11587E-05        -0.75907E-10         0.00000E+00
    0.11587E-05        -0.11619E-09         0.00000E+00
    0.11587E-05        -0.14747E-09         0.00000E+00
    0.11588E-05        -0.16996E-09         0.00000E+00
    0.11588E-05        -0.18409E-09         0.00000E+00
    0.11589E-05        -0.19037E-09         0.00000E+00
    0.11589E-05        -0.18938E-09         0.00000E+00
    0.11589E-05        -0.18165E-09         0.00000E+00
    0.11590E-05        -0.16768E-09         0.00000E+00
    0.11590E-05        -0.14792E-09         0.00000E+00
    0.11590E-05        -0.12278E-09         0.00000E+00
    0.11590E-05        -0.92729E-10         0.00000E+00
    0.11591E-05        -0.58257E-10         0.00000E+00
    0.11591E-05        -0.19988E-10         0.00000E+00
    0.11586E-05        -0.28525E-10         0.00000E+00
    0.11586E-05        -0.80587E-10         0.00000E+00
    0.11587E-05        -0.12265E-09         0.00000E+00
    0.11587E-05        -0.15480E-09         0.00000E+00
    0.11587E-05        -0.17751E-09         0.00000E+00
    0.11588E-05        -0.19141E-09         0.00000E+00
    0.11588E-05        -0.19723E-09         0.00000E+00
    0.11589E-05        -0.19567E-09         0.00000E+00
    0.11589E-05        -0.18736E-09         0.00000E+00
    0.11590E-05        -0.17282E-09         0.00000E+00
    0.11590E-05        -0.15248E-09         0.00000E+00
    0.11590E-05        -0.12670E-09         0.00000E+00
    0.11590E-05        -0.95844E-10         0.00000E+00
    0.11591E-05        -0.60338E-10         0.00000E+00
    0.11591E-05        -0.20748E-10         0.00000E+00
    0.11585E-05        -0.30356E-10         0.00000E+00
    0.11586E-05        -0.85262E-10         0.00000E+00
    0.11586E-05        -0.12884E-09         0.00000E+00
    0.11587E-05        -0.16150E-09         0.00000E+00
    0.11587E-05        -0.18401E-09         0.00000E+00
    0.11588E-05        -0.19733E-09         0.00000E+00
    0.11588E-05        -0.20244E-09         0.00000E+00
    0.11589E-05        -0.20021E-09         0.00000E+00
    0.11589E-05        -0.19136E-09         0.00000E+00
    0.11590E-05        -0.17643E-09         0.00000E+00
    0.11590E-05        -0.15578E-09         0.00000E+00
    0.11590E-05        -0.12969E-09         0.00000E+00
    0.11591E-05        -0.98370E-10         0.00000E+00
    0.11591E-05        -0.62130E-10         0.00000E+00
    0.11591E-05        -0.21430E-10         0.00000E+00
    0.11584E-05        -0.32179E-10         0.00000E+00
    0.11585E-05        -0.89759E-10         0.00000E+00
    0.11586E-05        -0.13444E-09         0.00000E+00
    0.11586E-05        -0.16707E-09         0.00000E+00
    0.11587E-05        -0.18886E-09         0.00000E+00
    0.11588E-05        -0.20117E-09         0.00000E+00
    0.11588E-05        -0.20529E-09         0.00000E+00
    0.11589E-05        -0.20229E-09         0.00000E+00
    0.11589E-05        -0.19299E-09         0.00000E+00
    0.11590E-05        -0.17792E-09         0.00000E+00
    0.11590E-05        -0.15734E-09         0.00000E+00
    0.11591E-05        -0.13138E-09         0.00000E+00
    0.11591E-05        -0.10008E-09         0.00000E+00
    0.11591E-05        -0.63519E-10         0.00000E+00
    0.11591E-05        -0.22005E-10         0.00000E+00
    0.11584E-05        -0.33928E-10         0.00000E+00
    0.11585E-05        -0.93838E-10         0.00000E+00
    0.11585E-05        -0.13900E-09         0.00000E+00
    0.11586E-05        -0.17086E-09         0.00000E+00
    0.11587E-05        -0.19123E-09         0.00000E+00
    0.11588E-05        -0.20201E-09         0.00000E+00
    0.11588E-05        -0.20485E-09         0.00000E+00
    0.11589E-05        -0.20103E-09         0.00000E+00
    0.11589E-05        -0.19144E-09         0.00000E+00
    0.11590E-05        -0.17656E-09         0.00000E+00
    0.11590E-05        -0.15656E-09         0.00000E+00
    0.11591E-05        -0.13134E-09         0.00000E+00
    0.11591E-05        -0.10068E-09         0.00000E+00
    0.11592E-05        -0.64358E-10         0.00000E+00
    0.11592E-05        -0.22433E-10         0.00000E+00
    0.11583E-05        -0.35512E-10         0.00000E+00
    0.11584E-05        -0.97172E-10         0.00000E+00
    0.11585E-05        -0.14190E-09         0.00000E+00
    0.11586E-05        -0.17198E-09         0.00000E+00
    0.11587E-05        -0.19009E-09         0.00000E+00
    0.11588E-05        -0.19876E-09         0.00000E+00
    0.11588E-05        -0.20004E-09         0.00000E+00
    0.11589E-05        -0.19539E-09         0.00000E+00
    0.11590E-05        -0.18574E-09         0.00000E+00
    0.11590E-05        -0.17151E-09         0.00000E+00
    0.11591E-05        -0.15272E-09         0.00000E+00
    0.11591E-05        -0.12901E-09         0.00000E+00
    0.11592E-05        -0.99799E-10         0.00000E+00
    0.11592E-05        -0.64468E-10         0.00000E+00
    0.11592E-05        -0.22666E-10         0.00000E+00
    0.11583E-05        -0.36805E-10         0.00000E+00
    0.11584E-05        -0.99294E-10         0.00000E+00
    0.11585E-05        -0.14224E-09         0.00000E+00
    0.11586E-05        -0.16923E-09         0.00000E+00
    0.11587E-05        -0.18410E-09         0.00000E+00
    0.11588E-05        -0.19010E-09         0.00000E+00
    0.11588E-05        -0.18964E-09         0.00000E+00
    0.11589E-05        -0.18428E-09         0.00000E+00
    0.11590E-05        -0.17490E-09         0.00000E+00
    0.11590E-05        -0.16185E-09         0.00000E+00
    0.11591E-05        -0.14499E-09         0.00000E+00
    0.11591E-05        -0.12371E-09         0.00000E+00
    0.11592E-05        -0.96981E-10         0.00000E+00
    0.11592E-05        -0.63612E-10         0.00000E+00
    0.11593E-05        -0.22646E-10         0.00000E+00
    0.11582E-05        -0.37616E-10         0.00000E+00
    0.11584E-05        -0.99485E-10         0.00000E+00
    0.11585E-05        -0.13873E-09         0.00000E+00
    0.11586E-05        -0.16099E-09         0.00000E+00
    0.11587E-05        -0.17162E-09         0.00000E+00
    0.11588E-05        -0.17460E-09         0.00000E+00
    0.11589E-05        -0.17245E-09         0.00000E+00
    0.11589E-05        -0.16664E-09         0.00000E+00
    0.11590E-05        -0.15794E-09         0.00000E+00
    0.11591E-05        -0.14662E-09         0.00000E+00
    0.11591E-05        -0.13244E-09         0.00000E+00
    0.11592E-05        -0.11459E-09         0.00000E+00
    0.11592E-05        -0.91597E-10         0.00000E+00
    0.11593E-05        -0.61466E-10         0.00000E+00
    0.11593E-05        -0.22287E-10         0.00000E+00
    0.11582E-05        -0.37600E-10         0.00000E+00
    0.11584E-05        -0.96503E-10         0.00000E+00
    0.11585E-05        -0.12930E-09         0.00000E+00
    0.11586E-05        -0.14501E-09         0.00000E+00
    0.11587E-05        -0.15079E-09         0.00000E+00
    0.11588E-05        -0.15087E-09         0.00000E+00
    0.11589E-05        -0.14745E-09         0.00000E+00
    0.11590E-05        -0.14168E-09         0.00000E+00
    0.11590E-05        -0.13416E-09         0.00000E+00
    0.11591E-05        -0.12503E-09         0.00000E+00
    0.11591E-05        -0.11410E-09         0.00000E+00
    0.11592E-05        -0.10060E-09         0.00000E+00
    0.11593E-05        -0.82728E-10         0.00000E+00
    0.11593E-05        -0.57508E-10         0.00000E+00
    0.11594E-05        -0.21468E-10         0.00000E+00
    0.11582E-05        -0.36021E-10         0.00000E+00
    0.11584E-05        -0.87911E-10         0.00000E+00
    0.11585E-05        -0.11053E-09         0.00000E+00
    0.11587E-05        -0.11849E-09         0.00000E+00
    0.11588E-05        -0.11992E-09         0.00000E+00
    0.11589E-05        -0.11800E-09         0.00000E+00
    0.11589E-05        -0.11417E-09         0.00000E+00
    0.11590E-05        -0.10914E-09         0.00000E+00
    0.11591E-05        -0.10327E-09         0.00000E+00
    0.11591E-05        -0.96645E-10         0.00000E+00
    0.11592E-05        -0.89168E-10         0.00000E+00
    0.11592E-05        -0.80355E-10         0.00000E+00
    0.11593E-05        -0.68902E-10         0.00000E+00
    0.11594E-05        -0.50793E-10         0.00000E+00
    0.11594E-05        -0.19858E-10         0.00000E+00
    0.11582E-05        -0.30751E-10         0.00000E+00
    0.11584E-05        -0.68049E-10         0.00000E+00
    0.11586E-05        -0.77422E-10         0.00000E+00
    0.11587E-05        -0.79339E-10         0.00000E+00
    0.11588E-05        -0.78385E-10         0.00000E+00
    0.11589E-05        -0.76050E-10         0.00000E+00
    0.11590E-05        -0.72979E-10         0.00000E+00
    0.11590E-05        -0.69479E-10         0.00000E+00
    0.11591E-05        -0.65700E-10         0.00000E+00
    0.11591E-05        -0.61706E-10         0.00000E+00
    0.11592E-05        -0.57479E-10         0.00000E+00
    0.11593E-05        -0.52862E-10         0.00000E+00
    0.11593E-05        -0.47383E-10         0.00000E+00
    0.11594E-05        -0.39071E-10         0.00000E+00
    0.11595E-05        -0.17243E-10         0.00000E+00
    0.11582E-05        -0.13393E-10         0.00000E+00
    0.11585E-05        -0.27147E-10         0.00000E+00
    0.11586E-05        -0.28283E-10         0.00000E+00
    0.11587E-05        -0.28230E-10         0.00000E+00
    0.11589E-05        -0.27481E-10         0.00000E+00
    0.11589E-05        -0.26445E-10         0.00000E+00
    0.11590E-05        -0.25256E-10         0.00000E+00
    0.11591E-05        -0.23987E-10         0.00000E+00
    0.11591E-05        -0.22675E-10         0.00000E+00
    0.11592E-05        -0.21340E-10         0.00000E+00
    0.11592E-05        -0.19989E-10         0.00000E+00
    0.11593E-05        -0.18622E-10         0.00000E+00
    0.11593E-05        -0.17121E-10         0.00000E+00
    0.11594E-05        -0.15775E-10         0.00000E+00
    0.11595E-05        -0.78473E-11         0.00000E+00
POINT_DATA        496
VECTORS vDarcyNodal double 
    0.11600E-05         0.13624E-09         0.00000E+00
    0.11600E-05         0.26275E-09         0.00000E+00
    0.11600E-05         0.48147E-09         0.00000E+00
    0.11600E-05         0.62567E-09         0.00000E+00
    0.11600E-05         0.70129E-09         0.00000E+00
    0.11599E-05         0.72542E-09         0.00000E+00
    0.11599E-05         0.70228E-09         0.00000E+00
    0.11599E-05         0.63734E-09         0.00000E+00
    0.11599E-05         0.56221E-09         0.00000E+00
    0.11599E-05         0.50211E-09         0.00000E+00
    0.11599E-05         0.44993E-09         0.00000E+00
    0.11599E-05         0.39693E-09         0.00000E+00
    0.11599E-05         0.33939E-09         0.00000E+00
    0.11599E-05         0.27316E-09         0.00000E+00
    0.11599E-05         0.16834E-09         0.00000E+00
    0.11599E-05         0.99325E-10         0.00000E+00
    0.11601E-05         0.10164E-09         0.00000E+00
    0.11600E-05         0.16939E-09         0.00000E+00
    0.11600E-05         0.26601E-09         0.00000E+00
    0.11599E-05         0.31724E-09         0.00000E+00
    0.11599E-05         0.35829E-09         0.00000E+00
    0.11599E-05         0.38622E-09         0.00000E+00
    0.11599E-05         0.40069E-09         0.00000E+00
    0.11599E-05         0.40827E-09         0.00000E+00
    0.11599E-05         0.40146E-09         0.00000E+00
    0.11599E-05         0.37590E-09         0.00000E+00
    0.11599E-05         0.33972E-09         0.00000E+00
    0.11599E-05         0.29625E-09         0.00000E+00
    0.11599E-05         0.24366E-09         0.00000E+00
    0.11599E-05         0.17572E-09         0.00000E+00
    0.11598E-05         0.90986E-10         0.00000E+00
    0.11598E-05         0.45317E-10         0.00000E+00
    0.11601E-05         0.40154E-10         0.00000E+00
    0.11600E-05         0.69519E-10         0.00000E+00
    0.11599E-05         0.11403E-09         0.00000E+00
    0.11598E-05         0.14058E-09         0.00000E+00
    0.11598E-05         0.16611E-09         0.00000E+00
    0.11598E-05         0.20180E-09         0.00000E+00
    0.11598E-05         0.24052E-09         0.00000E+00
    0.11598E-05         0.26448E-09         0.00000E+00
    0.11598E-05         0.26978E-09         0.00000E+00
    0.11598E-05         0.26034E-09         0.00000E+00
    0.11598E-05         0.23872E-09         0.00000E+00
    0.11598E-05         0.20636E-09         0.00000E+00
    0.11597E-05         0.16374E-09         0.00000E+00
    0.11597E-05         0.11166E-09         0.00000E+00
    0.11597E-05         0.55360E-10         0.00000E+00
    0.11596E-05         0.27171E-10         0.00000E+00
    0.11600E-05        -0.10908E-10         0.00000E+00
    0.11599E-05        -0.74816E-11         0.00000E+00
    0.11598E-05         0.18931E-10         0.00000E+00
    0.11598E-05         0.65915E-10         0.00000E+00
    0.11597E-05         0.10620E-09         0.00000E+00
    0.11597E-05         0.13292E-09         0.00000E+00
    0.11597E-05         0.15148E-09         0.00000E+00
    0.11597E-05         0.16473E-09         0.00000E+00
    0.11597E-05         0.17064E-09         0.00000E+00
    0.11597E-05         0.16721E-09         0.00000E+00
    0.11597E-05         0.15421E-09         0.00000E+00
    0.11596E-05         0.13227E-09         0.00000E+00
    0.11596E-05         0.10259E-09         0.00000E+00
    0.11596E-05         0.67860E-10         0.00000E+00
    0.11596E-05         0.32697E-10         0.00000E+00
    0.11595E-05         0.15721E-10         0.00000E+00
    0.11599E-05        -0.63026E-11         0.00000E+00
    0.11598E-05        -0.27619E-11         0.00000E+00
    0.11598E-05         0.14559E-10         0.00000E+00
    0.11597E-05         0.39619E-10         0.00000E+00
    0.11597E-05         0.60210E-10         0.00000E+00
    0.11597E-05         0.75780E-10         0.00000E+00
    0.11596E-05         0.86443E-10         0.00000E+00
    0.11596E-05         0.93571E-10         0.00000E+00
    0.11596E-05         0.96885E-10         0.00000E+00
    0.11596E-05         0.95267E-10         0.00000E+00
    0.11596E-05         0.87769E-10         0.00000E+00
    0.11595E-05         0.74437E-10         0.00000E+00
    0.11595E-05         0.56452E-10         0.00000E+00
    0.11595E-05         0.36158E-10         0.00000E+00
    0.11595E-05         0.16881E-10         0.00000E+00
    0.11594E-05         0.79584E-11         0.00000E+00
    0.11598E-05        -0.19173E-11         0.00000E+00
    0.11598E-05        -0.15902E-11         0.00000E+00
    0.11597E-05         0.30186E-11         0.00000E+00
    0.11597E-05         0.13019E-10         0.00000E+00
    0.11596E-05         0.23151E-10         0.00000E+00
    0.11596E-05         0.30724E-10         0.00000E+00
    0.11596E-05         0.36027E-10         0.00000E+00
    0.11596E-05         0.39521E-10         0.00000E+00
    0.11595E-05         0.41207E-10         0.00000E+00
    0.11595E-05         0.40522E-10         0.00000E+00
    0.11595E-05         0.36923E-10         0.00000E+00
    0.11595E-05         0.30396E-10         0.00000E+00
    0.11594E-05         0.21771E-10         0.00000E+00
    0.11594E-05         0.12695E-10         0.00000E+00
    0.11594E-05         0.52848E-11         0.00000E+00
    0.11594E-05         0.22753E-11         0.00000E+00
    0.11597E-05        -0.44492E-11         0.00000E+00
    0.11597E-05        -0.72373E-11         0.00000E+00
    0.11596E-05        -0.10304E-10         0.00000E+00
    0.11596E-05        -0.96265E-11         0.00000E+00
    0.11596E-05        -0.74621E-11         0.00000E+00
    0.11595E-05        -0.53527E-11         0.00000E+00
    0.11595E-05        -0.37644E-11         0.00000E+00
    0.11595E-05        -0.25281E-11         0.00000E+00
    0.11595E-05        -0.16234E-11         0.00000E+00
    0.11594E-05        -0.12734E-11         0.00000E+00
    0.11594E-05        -0.17233E-11         0.00000E+00
    0.11594E-05        -0.29178E-11         0.00000E+00
    0.11594E-05        -0.43110E-11         0.00000E+00
    0.11593E-05        -0.48855E-11         0.00000E+00
    0.11593E-05        -0.34036E-11         0.00000E+00
    0.11593E-05        -0.19913E-11         0.00000E+00
    0.11596E-05        -0.72777E-11         0.00000E+00
    0.11596E-05        -0.13280E-10         0.00000E+00
    0.11595E-05        -0.22972E-10         0.00000E+00
    0.11595E-05        -0.28838E-10         0.00000E+00
    0.11595E-05        -0.32325E-10         0.00000E+00
    0.11595E-05        -0.34405E-10         0.00000E+00
    0.11594E-05        -0.35503E-10         0.00000E+00
    0.11594E-05        -0.35702E-10         0.00000E+00
    0.11594E-05        -0.35008E-10         0.00000E+00
    0.11594E-05        -0.33503E-10         0.00000E+00
    0.11593E-05        -0.31268E-10         0.00000E+00
    0.11593E-05        -0.28232E-10         0.00000E+00
    0.11593E-05        -0.24065E-10         0.00000E+00
    0.11593E-05        -0.18205E-10         0.00000E+00
    0.11592E-05        -0.10011E-10         0.00000E+00
    0.11592E-05        -0.52522E-11         0.00000E+00
    0.11595E-05        -0.99799E-11         0.00000E+00
    0.11595E-05        -0.18727E-10         0.00000E+00
    0.11595E-05        -0.33852E-10         0.00000E+00
    0.11594E-05        -0.44807E-10         0.00000E+00
    0.11594E-05        -0.52583E-10         0.00000E+00
    0.11594E-05        -0.57862E-10         0.00000E+00
    0.11594E-05        -0.61007E-10         0.00000E+00
    0.11593E-05        -0.62159E-10         0.00000E+00
    0.11593E-05        -0.61371E-10         0.00000E+00
    0.11593E-05        -0.58692E-10         0.00000E+00
    0.11593E-05        -0.54154E-10         0.00000E+00
    0.11593E-05        -0.47720E-10         0.00000E+00
    0.11592E-05        -0.39234E-10         0.00000E+00
    0.11592E-05        -0.28448E-10         0.00000E+00
    0.11592E-05        -0.15116E-10         0.00000E+00
    0.11592E-05        -0.77860E-11         0.00000E+00
    0.11594E-05        -0.12251E-10         0.00000E+00
    0.11594E-05        -0.23293E-10         0.00000E+00
    0.11594E-05        -0.42903E-10         0.00000E+00
    0.11594E-05        -0.57957E-10         0.00000E+00
    0.11593E-05        -0.69148E-10         0.00000E+00
    0.11593E-05        -0.76963E-10         0.00000E+00
    0.11593E-05        -0.81702E-10         0.00000E+00
    0.11593E-05        -0.83520E-10         0.00000E+00
    0.11593E-05        -0.82504E-10         0.00000E+00
    0.11592E-05        -0.78718E-10         0.00000E+00
    0.11592E-05        -0.72214E-10         0.00000E+00
    0.11592E-05        -0.63017E-10         0.00000E+00
    0.11592E-05        -0.51118E-10         0.00000E+00
    0.11592E-05        -0.36489E-10         0.00000E+00
    0.11592E-05        -0.19143E-10         0.00000E+00
    0.11591E-05        -0.97957E-11         0.00000E+00
    0.11593E-05        -0.14139E-10         0.00000E+00
    0.11593E-05        -0.27084E-10         0.00000E+00
    0.11593E-05        -0.50411E-10         0.00000E+00
    0.11593E-05        -0.68852E-10         0.00000E+00
    0.11593E-05        -0.82847E-10         0.00000E+00
    0.11592E-05        -0.92736E-10         0.00000E+00
    0.11592E-05        -0.98754E-10         0.00000E+00
    0.11592E-05        -0.10106E-09         0.00000E+00
    0.11592E-05        -0.99771E-10         0.00000E+00
    0.11592E-05        -0.94986E-10         0.00000E+00
    0.11592E-05        -0.86805E-10         0.00000E+00
    0.11592E-05        -0.75332E-10         0.00000E+00
    0.11591E-05        -0.60677E-10         0.00000E+00
    0.11591E-05        -0.42971E-10         0.00000E+00
    0.11591E-05        -0.22403E-10         0.00000E+00
    0.11591E-05        -0.11432E-10         0.00000E+00
    0.11593E-05        -0.15741E-10         0.00000E+00
    0.11592E-05        -0.30295E-10         0.00000E+00
    0.11592E-05        -0.56764E-10         0.00000E+00
    0.11592E-05        -0.78064E-10         0.00000E+00
    0.11592E-05        -0.94420E-10         0.00000E+00
    0.11592E-05        -0.10604E-09         0.00000E+00
    0.11592E-05        -0.11312E-09         0.00000E+00
    0.11592E-05        -0.11580E-09         0.00000E+00
    0.11591E-05        -0.11423E-09         0.00000E+00
    0.11591E-05        -0.10855E-09         0.00000E+00
    0.11591E-05        -0.98930E-10         0.00000E+00
    0.11591E-05        -0.85545E-10         0.00000E+00
    0.11591E-05        -0.68605E-10         0.00000E+00
    0.11591E-05        -0.48362E-10         0.00000E+00
    0.11591E-05        -0.25127E-10         0.00000E+00
    0.11591E-05        -0.12805E-10         0.00000E+00
    0.11592E-05        -0.17162E-10         0.00000E+00
    0.11592E-05        -0.33129E-10         0.00000E+00
    0.11591E-05        -0.62343E-10         0.00000E+00
    0.11591E-05        -0.86120E-10         0.00000E+00
    0.11591E-05        -0.10450E-09         0.00000E+00
    0.11591E-05        -0.11760E-09         0.00000E+00
    0.11591E-05        -0.12556E-09         0.00000E+00
    0.11591E-05        -0.12852E-09         0.00000E+00
    0.11591E-05        -0.12667E-09         0.00000E+00
    0.11591E-05        -0.12020E-09         0.00000E+00
    0.11591E-05        -0.10933E-09         0.00000E+00
    0.11591E-05        -0.94296E-10         0.00000E+00
    0.11591E-05        -0.75407E-10         0.00000E+00
    0.11591E-05        -0.53001E-10         0.00000E+00
    0.11591E-05        -0.27480E-10         0.00000E+00
    0.11591E-05        -0.13996E-10         0.00000E+00
    0.11591E-05        -0.18497E-10         0.00000E+00
    0.11591E-05        -0.35765E-10         0.00000E+00
    0.11591E-05        -0.67478E-10         0.00000E+00
    0.11591E-05        -0.93461E-10         0.00000E+00
    0.11591E-05        -0.11362E-09         0.00000E+00
    0.11591E-05        -0.12799E-09         0.00000E+00
    0.11591E-05        -0.13668E-09         0.00000E+00
    0.11591E-05        -0.13986E-09         0.00000E+00
    0.11591E-05        -0.13773E-09         0.00000E+00
    0.11591E-05        -0.13053E-09         0.00000E+00
    0.11591E-05        -0.11853E-09         0.00000E+00
    0.11591E-05        -0.10204E-09         0.00000E+00
    0.11591E-05        -0.81441E-10         0.00000E+00
    0.11591E-05        -0.57129E-10         0.00000E+00
    0.11590E-05        -0.29583E-10         0.00000E+00
    0.11590E-05        -0.15065E-10         0.00000E+00
    0.11590E-05        -0.19822E-10         0.00000E+00
    0.11590E-05        -0.38348E-10         0.00000E+00
    0.11590E-05        -0.72432E-10         0.00000E+00
    0.11590E-05        -0.10044E-09         0.00000E+00
    0.11590E-05        -0.12218E-09         0.00000E+00
    0.11590E-05        -0.13765E-09         0.00000E+00
    0.11590E-05        -0.14695E-09         0.00000E+00
    0.11590E-05        -0.15026E-09         0.00000E+00
    0.11590E-05        -0.14782E-09         0.00000E+00
    0.11590E-05        -0.13993E-09         0.00000E+00
    0.11590E-05        -0.12690E-09         0.00000E+00
    0.11590E-05        -0.10910E-09         0.00000E+00
    0.11590E-05        -0.86953E-10         0.00000E+00
    0.11590E-05        -0.60916E-10         0.00000E+00
    0.11590E-05        -0.31521E-10         0.00000E+00
    0.11590E-05        -0.16053E-10         0.00000E+00
    0.11589E-05        -0.21192E-10         0.00000E+00
    0.11589E-05        -0.40983E-10         0.00000E+00
    0.11589E-05        -0.77396E-10         0.00000E+00
    0.11589E-05        -0.10730E-09         0.00000E+00
    0.11589E-05        -0.13047E-09         0.00000E+00
    0.11589E-05        -0.14688E-09         0.00000E+00
    0.11590E-05        -0.15666E-09         0.00000E+00
    0.11590E-05        -0.16002E-09         0.00000E+00
    0.11590E-05        -0.15725E-09         0.00000E+00
    0.11590E-05        -0.14868E-09         0.00000E+00
    0.11590E-05        -0.13469E-09         0.00000E+00
    0.11590E-05        -0.11568E-09         0.00000E+00
    0.11590E-05        -0.92102E-10         0.00000E+00
    0.11590E-05        -0.64470E-10         0.00000E+00
    0.11590E-05        -0.33347E-10         0.00000E+00
    0.11590E-05        -0.16989E-10         0.00000E+00
    0.11588E-05        -0.22646E-10         0.00000E+00
    0.11588E-05        -0.43740E-10         0.00000E+00
    0.11588E-05        -0.82494E-10         0.00000E+00
    0.11589E-05        -0.11421E-09         0.00000E+00
    0.11589E-05        -0.13866E-09         0.00000E+00
    0.11589E-05        -0.15586E-09         0.00000E+00
    0.11589E-05        -0.16598E-09         0.00000E+00
    0.11589E-05        -0.16929E-09         0.00000E+00
    0.11590E-05        -0.16614E-09         0.00000E+00
    0.11590E-05        -0.15690E-09         0.00000E+00
    0.11590E-05        -0.14200E-09         0.00000E+00
    0.11590E-05        -0.12186E-09         0.00000E+00
    0.11590E-05        -0.96970E-10         0.00000E+00
    0.11590E-05        -0.67850E-10         0.00000E+00
    0.11590E-05        -0.35095E-10         0.00000E+00
    0.11590E-05        -0.17887E-10         0.00000E+00
    0.11587E-05        -0.24201E-10         0.00000E+00
    0.11588E-05        -0.46652E-10         0.00000E+00
    0.11588E-05        -0.87784E-10         0.00000E+00
    0.11588E-05        -0.12122E-09         0.00000E+00
    0.11588E-05        -0.14681E-09         0.00000E+00
    0.11589E-05        -0.16462E-09         0.00000E+00
    0.11589E-05        -0.17493E-09         0.00000E+00
    0.11589E-05        -0.17808E-09         0.00000E+00
    0.11589E-05        -0.17449E-09         0.00000E+00
    0.11590E-05        -0.16459E-09         0.00000E+00
    0.11590E-05        -0.14883E-09         0.00000E+00
    0.11590E-05        -0.12767E-09         0.00000E+00
    0.11590E-05        -0.10157E-09         0.00000E+00
    0.11590E-05        -0.71070E-10         0.00000E+00
    0.11590E-05        -0.36774E-10         0.00000E+00
    0.11590E-05        -0.18756E-10         0.00000E+00
    0.11587E-05        -0.25862E-10         0.00000E+00
    0.11587E-05        -0.49723E-10         0.00000E+00
    0.11587E-05        -0.93256E-10         0.00000E+00
    0.11587E-05        -0.12831E-09         0.00000E+00
    0.11588E-05        -0.15484E-09         0.00000E+00
    0.11588E-05        -0.17307E-09         0.00000E+00
    0.11589E-05        -0.18339E-09         0.00000E+00
    0.11589E-05        -0.18625E-09         0.00000E+00
    0.11589E-05        -0.18216E-09         0.00000E+00
    0.11589E-05        -0.17162E-09         0.00000E+00
    0.11590E-05        -0.15508E-09         0.00000E+00
    0.11590E-05        -0.13300E-09         0.00000E+00
    0.11590E-05        -0.10584E-09         0.00000E+00
    0.11590E-05        -0.74104E-10         0.00000E+00
    0.11591E-05        -0.38375E-10         0.00000E+00
    0.11591E-05        -0.19592E-10         0.00000E+00
    0.11586E-05        -0.27616E-10         0.00000E+00
    0.11586E-05        -0.52923E-10         0.00000E+00
    0.11587E-05        -0.98839E-10         0.00000E+00
    0.11587E-05        -0.13535E-09         0.00000E+00
    0.11587E-05        -0.16259E-09         0.00000E+00
    0.11588E-05        -0.18098E-09         0.00000E+00
    0.11588E-05        -0.19108E-09         0.00000E+00
    0.11589E-05        -0.19351E-09         0.00000E+00
    0.11589E-05        -0.18887E-09         0.00000E+00
    0.11589E-05        -0.17771E-09         0.00000E+00
    0.11590E-05        -0.16052E-09         0.00000E+00
    0.11590E-05        -0.13770E-09         0.00000E+00
    0.11590E-05        -0.10967E-09         0.00000E+00
    0.11591E-05        -0.76883E-10         0.00000E+00
    0.11591E-05        -0.39870E-10         0.00000E+00
    0.11591E-05        -0.20383E-10         0.00000E+00
    0.11585E-05        -0.29435E-10         0.00000E+00
    0.11586E-05        -0.56189E-10         0.00000E+00
    0.11586E-05        -0.10439E-09         0.00000E+00
    0.11587E-05        -0.14210E-09         0.00000E+00
    0.11587E-05        -0.16972E-09         0.00000E+00
    0.11588E-05        -0.18794E-09         0.00000E+00
    0.11588E-05        -0.19756E-09         0.00000E+00
    0.11589E-05        -0.19939E-09         0.00000E+00
    0.11589E-05        -0.19416E-09         0.00000E+00
    0.11589E-05        -0.18247E-09         0.00000E+00
    0.11590E-05        -0.16479E-09         0.00000E+00
    0.11590E-05        -0.14148E-09         0.00000E+00
    0.11590E-05        -0.11287E-09         0.00000E+00
    0.11591E-05        -0.79299E-10         0.00000E+00
    0.11591E-05        -0.41215E-10         0.00000E+00
    0.11591E-05        -0.21112E-10         0.00000E+00
    0.11585E-05        -0.31276E-10         0.00000E+00
    0.11585E-05        -0.59428E-10         0.00000E+00
    0.11586E-05        -0.10971E-09         0.00000E+00
    0.11586E-05        -0.14824E-09         0.00000E+00
    0.11587E-05        -0.17579E-09         0.00000E+00
    0.11587E-05        -0.19340E-09         0.00000E+00
    0.11588E-05        -0.20221E-09         0.00000E+00
    0.11589E-05        -0.20326E-09         0.00000E+00
    0.11589E-05        -0.19742E-09         0.00000E+00
    0.11589E-05        -0.18533E-09         0.00000E+00
    0.11590E-05        -0.16743E-09         0.00000E+00
    0.11590E-05        -0.14399E-09         0.00000E+00
    0.11591E-05        -0.11518E-09         0.00000E+00
    0.11591E-05        -0.81201E-10         0.00000E+00
    0.11591E-05        -0.42345E-10         0.00000E+00
    0.11591E-05        -0.21749E-10         0.00000E+00
    0.11584E-05        -0.33082E-10         0.00000E+00
    0.11584E-05        -0.62509E-10         0.00000E+00
    0.11585E-05        -0.11449E-09         0.00000E+00
    0.11586E-05        -0.15328E-09         0.00000E+00
    0.11587E-05        -0.18014E-09         0.00000E+00
    0.11587E-05        -0.19662E-09         0.00000E+00
    0.11588E-05        -0.20424E-09         0.00000E+00
    0.11589E-05        -0.20432E-09         0.00000E+00
    0.11589E-05        -0.19787E-09         0.00000E+00
    0.11590E-05        -0.18559E-09         0.00000E+00
    0.11590E-05        -0.16783E-09         0.00000E+00
    0.11590E-05        -0.14474E-09         0.00000E+00
    0.11591E-05        -0.11628E-09         0.00000E+00
    0.11591E-05        -0.82396E-10         0.00000E+00
    0.11592E-05        -0.43178E-10         0.00000E+00
    0.11592E-05        -0.22261E-10         0.00000E+00
    0.11584E-05        -0.34774E-10         0.00000E+00
    0.11584E-05        -0.65256E-10         0.00000E+00
    0.11585E-05        -0.11835E-09         0.00000E+00
    0.11586E-05        -0.15658E-09         0.00000E+00
    0.11586E-05        -0.18195E-09         0.00000E+00
    0.11587E-05        -0.19662E-09         0.00000E+00
    0.11588E-05        -0.20262E-09         0.00000E+00
    0.11589E-05        -0.20156E-09         0.00000E+00
    0.11589E-05        -0.19459E-09         0.00000E+00
    0.11590E-05        -0.18241E-09         0.00000E+00
    0.11590E-05        -0.16529E-09         0.00000E+00
    0.11591E-05        -0.14316E-09         0.00000E+00
    0.11591E-05        -0.11574E-09         0.00000E+00
    0.11592E-05        -0.82639E-10         0.00000E+00
    0.11592E-05        -0.43613E-10         0.00000E+00
    0.11592E-05        -0.22604E-10         0.00000E+00
    0.11583E-05        -0.36250E-10         0.00000E+00
    0.11584E-05        -0.67427E-10         0.00000E+00
    0.11585E-05        -0.12072E-09         0.00000E+00
    0.11586E-05        -0.15729E-09         0.00000E+00
    0.11586E-05        -0.18012E-09         0.00000E+00
    0.11587E-05        -0.19222E-09         0.00000E+00
    0.11588E-05        -0.19618E-09         0.00000E+00
    0.11589E-05        -0.19387E-09         0.00000E+00
    0.11589E-05        -0.18654E-09         0.00000E+00
    0.11590E-05        -0.17484E-09         0.00000E+00
    0.11590E-05        -0.15895E-09         0.00000E+00
    0.11591E-05        -0.13857E-09         0.00000E+00
    0.11591E-05        -0.11307E-09         0.00000E+00
    0.11592E-05        -0.81628E-10         0.00000E+00
    0.11592E-05        -0.43521E-10         0.00000E+00
    0.11592E-05        -0.22728E-10         0.00000E+00
    0.11583E-05        -0.37360E-10         0.00000E+00
    0.11583E-05        -0.68672E-10         0.00000E+00
    0.11584E-05        -0.12082E-09         0.00000E+00
    0.11586E-05        -0.15419E-09         0.00000E+00
    0.11587E-05        -0.17321E-09         0.00000E+00
    0.11587E-05        -0.18198E-09         0.00000E+00
    0.11588E-05        -0.18357E-09         0.00000E+00
    0.11589E-05        -0.18005E-09         0.00000E+00
    0.11590E-05        -0.17264E-09         0.00000E+00
    0.11590E-05        -0.16190E-09         0.00000E+00
    0.11591E-05        -0.14789E-09         0.00000E+00
    0.11591E-05        -0.13013E-09         0.00000E+00
    0.11592E-05        -0.10762E-09         0.00000E+00
    0.11592E-05        -0.78966E-10         0.00000E+00
    0.11593E-05        -0.42737E-10         0.00000E+00
    0.11593E-05        -0.22564E-10         0.00000E+00
    0.11582E-05        -0.37871E-10         0.00000E+00
    0.11583E-05        -0.68429E-10         0.00000E+00
    0.11584E-05        -0.11740E-09         0.00000E+00
    0.11586E-05        -0.14554E-09         0.00000E+00
    0.11587E-05        -0.15940E-09         0.00000E+00
    0.11588E-05        -0.16424E-09         0.00000E+00
    0.11588E-05        -0.16347E-09         0.00000E+00
    0.11589E-05        -0.15903E-09         0.00000E+00
    0.11590E-05        -0.15195E-09         0.00000E+00
    0.11590E-05        -0.14267E-09         0.00000E+00
    0.11591E-05        -0.13118E-09         0.00000E+00
    0.11592E-05        -0.11690E-09         0.00000E+00
    0.11592E-05        -0.98569E-10         0.00000E+00
    0.11593E-05        -0.74098E-10         0.00000E+00
    0.11593E-05        -0.41017E-10         0.00000E+00
    0.11593E-05        -0.22011E-10         0.00000E+00
    0.11582E-05        -0.37330E-10         0.00000E+00
    0.11583E-05        -0.65674E-10         0.00000E+00
    0.11584E-05        -0.10841E-09         0.00000E+00
    0.11586E-05        -0.12878E-09         0.00000E+00
    0.11587E-05        -0.13640E-09         0.00000E+00
    0.11588E-05        -0.13742E-09         0.00000E+00
    0.11589E-05        -0.13484E-09         0.00000E+00
    0.11589E-05        -0.13010E-09         0.00000E+00
    0.11590E-05        -0.12389E-09         0.00000E+00
    0.11591E-05        -0.11652E-09         0.00000E+00
    0.11591E-05        -0.10796E-09         0.00000E+00
    0.11592E-05        -0.97796E-10         0.00000E+00
    0.11592E-05        -0.84758E-10         0.00000E+00
    0.11593E-05        -0.66139E-10         0.00000E+00
    0.11594E-05        -0.37960E-10         0.00000E+00
    0.11594E-05        -0.20926E-10         0.00000E+00
    0.11582E-05        -0.34713E-10         0.00000E+00
    0.11583E-05        -0.58259E-10         0.00000E+00
    0.11585E-05        -0.90041E-10         0.00000E+00
    0.11586E-05        -0.10025E-09         0.00000E+00
    0.11587E-05        -0.10201E-09         0.00000E+00
    0.11588E-05        -0.10051E-09         0.00000E+00
    0.11589E-05        -0.97328E-10         0.00000E+00
    0.11590E-05        -0.93215E-10         0.00000E+00
    0.11590E-05        -0.88517E-10         0.00000E+00
    0.11591E-05        -0.83391E-10         0.00000E+00
    0.11592E-05        -0.77856E-10         0.00000E+00
    0.11592E-05        -0.71729E-10         0.00000E+00
    0.11593E-05        -0.64501E-10         0.00000E+00
    0.11593E-05        -0.53557E-10         0.00000E+00
    0.11594E-05        -0.32692E-10         0.00000E+00
    0.11595E-05        -0.18791E-10         0.00000E+00
    0.11582E-05        -0.26789E-10         0.00000E+00
    0.11583E-05        -0.40544E-10         0.00000E+00
    0.11585E-05        -0.55435E-10         0.00000E+00
    0.11587E-05        -0.56518E-10         0.00000E+00
    0.11588E-05        -0.55716E-10         0.00000E+00
    0.11589E-05        -0.53930E-10         0.00000E+00
    0.11590E-05        -0.51705E-10         0.00000E+00
    0.11590E-05        -0.49247E-10         0.00000E+00
    0.11591E-05        -0.46665E-10         0.00000E+00
    0.11591E-05        -0.44017E-10         0.00000E+00
    0.11592E-05        -0.41331E-10         0.00000E+00
    0.11592E-05        -0.38614E-10         0.00000E+00
    0.11593E-05        -0.35746E-10         0.00000E+00
    0.11594E-05        -0.32898E-10         0.00000E+00
    0.11594E-05        -0.23623E-10         0.00000E+00
    0.11595E-05        -0.15695E-10         0.00000E+00
    0.11582E-05         0.00000E+00         0.00000E+00
    0.11583E-05         0.00000E+00         0.00000E+00
    0.11585E-05        -0.29796E-20         0.00000E+00
    0.11587E-05         0.52785E-24         0.00000E+00
    0.11588E-05         0.29801E-20         0.00000E+00
    0.11589E-05         0.00000E+00         0.00000E+00
    0.11590E-05         0.00000E+00         0.00000E+00
    0.11590E-05        -0.29814E-20         0.00000E+00
    0.11591E-05        -0.33127E-20         0.00000E+00
    0.11592E-05         0.33133E-20         0.00000E+00
    0.11592E-05         0.29820E-20         0.00000E+00
    0.11593E-05        -0.33138E-20         0.00000E+00
    0.11593E-05        -0.33116E-21         0.00000E+00
    0.11594E-05         0.33141E-20         0.00000E+00
    0.11595E-05         0.66288E-21         0.00000E+00
    0.11595E-05         0.00000E+00         0.00000E+00
CELL_DATA        450
TENSORS stressef double 
    0.19520E+08         0.16531E+06         0.00000E+00
    0.16531E+06         0.11004E+08         0.00000E+00
    0.00000E+00         0.00000E+00         0.71316E+07
 
    0.19662E+08         0.16162E+06         0.00000E+00
    0.16162E+06         0.11408E+08         0.00000E+00
    0.00000E+00         0.00000E+00         0.73634E+07
 
    0.19442E+08         0.66057E+04         0.00000E+00
    0.66057E+04         0.11461E+08         0.00000E+00
    0.00000E+00         0.00000E+00         0.69770E+07
 
    0.18774E+08        -0.19692E+06         0.00000E+00
   -0.19692E+06         0.11080E+08         0.00000E+00
    0.00000E+00         0.00000E+00         0.58679E+07
 
    0.17498E+08        -0.35393E+06         0.00000E+00
   -0.35393E+06         0.10409E+08         0.00000E+00
    0.00000E+00         0.00000E+00         0.38555E+07
 
    0.15886E+08        -0.34924E+06         0.00000E+00
   -0.34924E+06         0.96328E+07         0.00000E+00
    0.00000E+00         0.00000E+00         0.14744E+07
 
    0.14172E+08        -0.34358E+06         0.00000E+00
   -0.34358E+06         0.89584E+07         0.00000E+00
    0.00000E+00         0.00000E+00        -0.80495E+06
 
    0.11899E+08        -0.35805E+06         0.00000E+00
   -0.35805E+06         0.82940E+07         0.00000E+00
    0.00000E+00         0.00000E+00        -0.18376E+07
 
    0.99475E+07        -0.24190E+06         0.00000E+00
   -0.24190E+06         0.77402E+07         0.00000E+00
    0.00000E+00         0.00000E+00        -0.23408E+07
 
    0.82087E+07        -0.13349E+06         0.00000E+00
   -0.13349E+06         0.73877E+07         0.00000E+00
    0.00000E+00         0.00000E+00        -0.27602E+07
 
    0.65038E+07        -0.29109E+05         0.00000E+00
   -0.29109E+05         0.72381E+07         0.00000E+00
    0.00000E+00         0.00000E+00        -0.31314E+07
 
    0.47205E+07         0.80625E+05         0.00000E+00
    0.80625E+05         0.72976E+07         0.00000E+00
    0.00000E+00         0.00000E+00        -0.34754E+07
 
    0.27401E+07         0.20985E+06         0.00000E+00
    0.20985E+06         0.75927E+07         0.00000E+00
    0.00000E+00         0.00000E+00        -0.38109E+07
 
    0.37757E+06         0.38561E+06         0.00000E+00
    0.38561E+06         0.81910E+07         0.00000E+00
    0.00000E+00         0.00000E+00        -0.41613E+07
 
   -0.28800E+07         0.77961E+06         0.00000E+00
    0.77961E+06         0.93001E+07         0.00000E+00
    0.00000E+00         0.00000E+00        -0.45875E+07
 
    0.17795E+08         0.38027E+06         0.00000E+00
    0.38027E+06         0.81531E+07         0.00000E+00
    0.00000E+00         0.00000E+00         0.43037E+07
 
    0.17515E+08         0.33044E+06         0.00000E+00
    0.33044E+06         0.79456E+07         0.00000E+00
    0.00000E+00         0.00000E+00         0.37927E+07
 
    0.17149E+08        -0.10306E+05         0.00000E+00
   -0.10306E+05         0.78346E+07         0.00000E+00
    0.00000E+00         0.00000E+00         0.30975E+07
 
    0.16425E+08        -0.40585E+06         0.00000E+00
   -0.40585E+06         0.78277E+07         0.00000E+00
    0.00000E+00         0.00000E+00         0.19014E+07
 
    0.15299E+08        -0.70464E+06         0.00000E+00
   -0.70464E+06         0.78340E+07         0.00000E+00
    0.00000E+00         0.00000E+00         0.28229E+06
 
    0.13918E+08        -0.86329E+06         0.00000E+00
   -0.86329E+06         0.77373E+07         0.00000E+00
    0.00000E+00         0.00000E+00        -0.12765E+07
 
    0.11983E+08        -0.91135E+06         0.00000E+00
   -0.91135E+06         0.73684E+07         0.00000E+00
    0.00000E+00         0.00000E+00        -0.20030E+07
 
    0.10022E+08        -0.86758E+06         0.00000E+00
   -0.86758E+06         0.69935E+07         0.00000E+00
    0.00000E+00         0.00000E+00        -0.24732E+07
 
    0.81154E+07        -0.62345E+06         0.00000E+00
   -0.62345E+06         0.66786E+07         0.00000E+00
    0.00000E+00         0.00000E+00        -0.29196E+07
 
    0.63774E+07        -0.34297E+06         0.00000E+00
   -0.34297E+06         0.64648E+07         0.00000E+00
    0.00000E+00         0.00000E+00        -0.33111E+07
 
    0.46799E+07        -0.51581E+05         0.00000E+00
   -0.51581E+05         0.63992E+07         0.00000E+00
    0.00000E+00         0.00000E+00        -0.36640E+07
 
    0.29224E+07         0.26688E+06         0.00000E+00
    0.26688E+06         0.65137E+07         0.00000E+00
    0.00000E+00         0.00000E+00        -0.39919E+07
 
    0.10042E+07         0.64773E+06         0.00000E+00
    0.64773E+06         0.68461E+07         0.00000E+00
    0.00000E+00         0.00000E+00        -0.43075E+07
 
   -0.12101E+07         0.11745E+07         0.00000E+00
    0.11745E+07         0.74597E+07         0.00000E+00
    0.00000E+00         0.00000E+00        -0.46251E+07
 
   -0.37450E+07         0.21190E+07         0.00000E+00
    0.21190E+07         0.84412E+07         0.00000E+00
    0.00000E+00         0.00000E+00        -0.49324E+07
 
    0.16087E+08         0.93768E+05         0.00000E+00
    0.93768E+05         0.57732E+07         0.00000E+00
    0.00000E+00         0.00000E+00         0.13826E+07
 
    0.15394E+08         0.20173E+06         0.00000E+00
    0.20173E+06         0.53888E+07         0.00000E+00
    0.00000E+00         0.00000E+00         0.12071E+06
 
    0.14726E+08        -0.58751E+05         0.00000E+00
   -0.58751E+05         0.53625E+07         0.00000E+00
    0.00000E+00         0.00000E+00        -0.10263E+07
 
    0.14061E+08        -0.42551E+06         0.00000E+00
   -0.42551E+06         0.54754E+07         0.00000E+00
    0.00000E+00         0.00000E+00        -0.18178E+07
 
    0.12978E+08        -0.75173E+06         0.00000E+00
   -0.75173E+06         0.55342E+07         0.00000E+00
    0.00000E+00         0.00000E+00        -0.21622E+07
 
    0.11644E+08        -0.10316E+07         0.00000E+00
   -0.10316E+07         0.54909E+07         0.00000E+00
    0.00000E+00         0.00000E+00        -0.24425E+07
 
    0.99754E+07        -0.11649E+07         0.00000E+00
   -0.11649E+07         0.54125E+07         0.00000E+00
    0.00000E+00         0.00000E+00        -0.27959E+07
 
    0.81617E+07        -0.10587E+07         0.00000E+00
   -0.10587E+07         0.53165E+07         0.00000E+00
    0.00000E+00         0.00000E+00        -0.31809E+07
 
    0.63931E+07        -0.79009E+06         0.00000E+00
   -0.79009E+06         0.52442E+07         0.00000E+00
    0.00000E+00         0.00000E+00        -0.35512E+07
 
    0.46952E+07        -0.41792E+06         0.00000E+00
   -0.41792E+06         0.52082E+07         0.00000E+00
    0.00000E+00         0.00000E+00        -0.38991E+07
 
    0.30341E+07         0.13523E+05         0.00000E+00
    0.13523E+05         0.52636E+07         0.00000E+00
    0.00000E+00         0.00000E+00        -0.42205E+07
 
    0.13383E+07         0.51095E+06         0.00000E+00
    0.51095E+06         0.54575E+07         0.00000E+00
    0.00000E+00         0.00000E+00        -0.45202E+07
 
   -0.46107E+06         0.11169E+07         0.00000E+00
    0.11169E+07         0.58318E+07         0.00000E+00
    0.00000E+00         0.00000E+00        -0.48036E+07
 
   -0.24010E+07         0.19291E+07         0.00000E+00
    0.19291E+07         0.64246E+07         0.00000E+00
    0.00000E+00         0.00000E+00        -0.50705E+07
 
   -0.44178E+07         0.31004E+07         0.00000E+00
    0.31004E+07         0.72077E+07         0.00000E+00
    0.00000E+00         0.00000E+00        -0.53139E+07
 
    0.14256E+08        -0.81158E+05         0.00000E+00
   -0.81158E+05         0.39008E+07         0.00000E+00
    0.00000E+00         0.00000E+00        -0.18260E+07
 
    0.13226E+08        -0.72014E+05         0.00000E+00
   -0.72014E+05         0.39115E+07         0.00000E+00
    0.00000E+00         0.00000E+00        -0.24176E+07
 
    0.12400E+08        -0.21331E+06         0.00000E+00
   -0.21331E+06         0.37565E+07         0.00000E+00
    0.00000E+00         0.00000E+00        -0.26213E+07
 
    0.11641E+08        -0.48948E+06         0.00000E+00
   -0.48948E+06         0.35966E+07         0.00000E+00
    0.00000E+00         0.00000E+00        -0.28119E+07
 
    0.10660E+08        -0.81452E+06         0.00000E+00
   -0.81452E+06         0.35007E+07         0.00000E+00
    0.00000E+00         0.00000E+00        -0.30331E+07
 
    0.94089E+07        -0.10585E+07         0.00000E+00
   -0.10585E+07         0.34639E+07         0.00000E+00
    0.00000E+00         0.00000E+00        -0.32955E+07
 
    0.79376E+07        -0.11608E+07         0.00000E+00
   -0.11608E+07         0.34912E+07         0.00000E+00
    0.00000E+00         0.00000E+00        -0.35882E+07
 
    0.63330E+07        -0.10587E+07         0.00000E+00
   -0.10587E+07         0.35520E+07         0.00000E+00
    0.00000E+00         0.00000E+00        -0.38999E+07
 
    0.47073E+07        -0.77347E+06         0.00000E+00
   -0.77347E+06         0.36222E+07         0.00000E+00
    0.00000E+00         0.00000E+00        -0.42131E+07
 
    0.31083E+07        -0.35248E+06         0.00000E+00
   -0.35248E+06         0.37225E+07         0.00000E+00
    0.00000E+00         0.00000E+00        -0.45139E+07
 
    0.15275E+07         0.17624E+06         0.00000E+00
    0.17624E+06         0.38845E+07         0.00000E+00
    0.00000E+00         0.00000E+00        -0.47979E+07
 
   -0.66849E+05         0.81289E+06         0.00000E+00
    0.81289E+06         0.41472E+07         0.00000E+00
    0.00000E+00         0.00000E+00        -0.50635E+07
 
   -0.17040E+07         0.15925E+07         0.00000E+00
    0.15925E+07         0.45426E+07         0.00000E+00
    0.00000E+00         0.00000E+00        -0.53103E+07
 
   -0.33794E+07         0.25810E+07         0.00000E+00
    0.25810E+07         0.50790E+07         0.00000E+00
    0.00000E+00         0.00000E+00        -0.55356E+07
 
   -0.50228E+07         0.38563E+07         0.00000E+00
    0.38563E+07         0.57211E+07         0.00000E+00
    0.00000E+00         0.00000E+00        -0.57325E+07
 
    0.12108E+08        -0.10442E+06         0.00000E+00
   -0.10442E+06         0.21134E+07         0.00000E+00
    0.00000E+00         0.00000E+00        -0.29932E+07
 
    0.11081E+08        -0.28201E+06         0.00000E+00
   -0.28201E+06         0.20628E+07         0.00000E+00
    0.00000E+00         0.00000E+00        -0.32173E+07
 
    0.10180E+08        -0.42164E+06         0.00000E+00
   -0.42164E+06         0.18743E+07         0.00000E+00
    0.00000E+00         0.00000E+00        -0.34429E+07
 
    0.93359E+07        -0.63646E+06         0.00000E+00
   -0.63646E+06         0.17041E+07         0.00000E+00
    0.00000E+00         0.00000E+00        -0.36523E+07
 
    0.83748E+07        -0.87408E+06         0.00000E+00
   -0.87408E+06         0.16045E+07         0.00000E+00
    0.00000E+00         0.00000E+00        -0.38701E+07
 
    0.72341E+07        -0.10458E+07         0.00000E+00
   -0.10458E+07         0.15899E+07         0.00000E+00
    0.00000E+00         0.00000E+00        -0.41059E+07
 
    0.59287E+07        -0.10849E+07         0.00000E+00
   -0.10849E+07         0.16472E+07         0.00000E+00
    0.00000E+00         0.00000E+00        -0.43593E+07
 
    0.45134E+07        -0.95345E+06         0.00000E+00
   -0.95345E+06         0.17584E+07         0.00000E+00
    0.00000E+00         0.00000E+00        -0.46231E+07
 
    0.30512E+07        -0.64713E+06         0.00000E+00
   -0.64713E+06         0.19043E+07         0.00000E+00
    0.00000E+00         0.00000E+00        -0.48883E+07
 
    0.15841E+07        -0.18567E+06         0.00000E+00
   -0.18567E+06         0.20837E+07         0.00000E+00
    0.00000E+00         0.00000E+00        -0.51469E+07
 
    0.12329E+06         0.41350E+06         0.00000E+00
    0.41350E+06         0.23138E+07         0.00000E+00
    0.00000E+00         0.00000E+00        -0.53932E+07
 
   -0.13371E+07         0.11508E+07         0.00000E+00
    0.11508E+07         0.26172E+07         0.00000E+00
    0.00000E+00         0.00000E+00        -0.56239E+07
 
   -0.27992E+07         0.20474E+07         0.00000E+00
    0.20474E+07         0.30101E+07         0.00000E+00
    0.00000E+00         0.00000E+00        -0.58362E+07
 
   -0.42424E+07         0.31401E+07         0.00000E+00
    0.31401E+07         0.34906E+07         0.00000E+00
    0.00000E+00         0.00000E+00        -0.60263E+07
 
   -0.56086E+07         0.44642E+07         0.00000E+00
    0.44642E+07         0.40274E+07         0.00000E+00
    0.00000E+00         0.00000E+00        -0.61889E+07
 
    0.98443E+07        -0.14679E+06         0.00000E+00
   -0.14679E+06         0.10763E+06         0.00000E+00
    0.00000E+00         0.00000E+00        -0.38486E+07
 
    0.88664E+07        -0.38638E+06         0.00000E+00
   -0.38638E+06         0.37217E+05         0.00000E+00
    0.00000E+00         0.00000E+00        -0.40668E+07
 
    0.79746E+07        -0.58250E+06         0.00000E+00
   -0.58250E+06        -0.67199E+05         0.00000E+00
    0.00000E+00         0.00000E+00        -0.42734E+07
 
    0.71025E+07        -0.76241E+06         0.00000E+00
   -0.76241E+06        -0.18484E+06         0.00000E+00
    0.00000E+00         0.00000E+00        -0.44779E+07
 
    0.61729E+07        -0.92288E+06         0.00000E+00
   -0.92288E+06        -0.25677E+06         0.00000E+00
    0.00000E+00         0.00000E+00        -0.46837E+07
 
    0.51307E+07        -0.10145E+07         0.00000E+00
   -0.10145E+07        -0.25752E+06         0.00000E+00
    0.00000E+00         0.00000E+00        -0.48969E+07
 
    0.39720E+07        -0.98692E+06         0.00000E+00
   -0.98692E+06        -0.18699E+06         0.00000E+00
    0.00000E+00         0.00000E+00        -0.51182E+07
 
    0.27247E+07        -0.80760E+06         0.00000E+00
   -0.80760E+06        -0.57886E+05         0.00000E+00
    0.00000E+00         0.00000E+00        -0.53447E+07
 
    0.14270E+07        -0.46524E+06         0.00000E+00
   -0.46524E+06         0.11694E+06         0.00000E+00
    0.00000E+00         0.00000E+00        -0.55711E+07
 
    0.11057E+06         0.36530E+05         0.00000E+00
    0.36530E+05         0.33231E+06         0.00000E+00
    0.00000E+00         0.00000E+00        -0.57923E+07
 
   -0.12065E+07         0.69101E+06         0.00000E+00
    0.69101E+06         0.59292E+06         0.00000E+00
    0.00000E+00         0.00000E+00        -0.60038E+07
 
   -0.25147E+07         0.14986E+07         0.00000E+00
    0.14986E+07         0.90806E+06         0.00000E+00
    0.00000E+00         0.00000E+00        -0.62017E+07
 
   -0.38023E+07         0.24702E+07         0.00000E+00
    0.24702E+07         0.12828E+07         0.00000E+00
    0.00000E+00         0.00000E+00        -0.63827E+07
 
   -0.50440E+07         0.36225E+07         0.00000E+00
    0.36225E+07         0.17100E+07         0.00000E+00
    0.00000E+00         0.00000E+00        -0.65432E+07
 
   -0.61946E+07         0.49671E+07         0.00000E+00
    0.49671E+07         0.21658E+07         0.00000E+00
    0.00000E+00         0.00000E+00        -0.66790E+07
 
    0.75119E+07        -0.17778E+06         0.00000E+00
   -0.17778E+06        -0.19191E+07         0.00000E+00
    0.00000E+00         0.00000E+00        -0.47223E+07
 
    0.66071E+07        -0.46345E+06         0.00000E+00
   -0.46345E+06        -0.19626E+07         0.00000E+00
    0.00000E+00         0.00000E+00        -0.49203E+07
 
    0.57577E+07        -0.67962E+06         0.00000E+00
   -0.67962E+06        -0.20334E+07         0.00000E+00
    0.00000E+00         0.00000E+00        -0.51116E+07
 
    0.49192E+07        -0.84318E+06         0.00000E+00
   -0.84318E+06        -0.21017E+07         0.00000E+00
    0.00000E+00         0.00000E+00        -0.52993E+07
 
    0.40440E+07        -0.94899E+06         0.00000E+00
   -0.94899E+06        -0.21394E+07         0.00000E+00
    0.00000E+00         0.00000E+00        -0.54872E+07
 
    0.30985E+07        -0.97258E+06         0.00000E+00
   -0.97258E+06        -0.21232E+07         0.00000E+00
    0.00000E+00         0.00000E+00        -0.56775E+07
 
    0.20730E+07        -0.88140E+06         0.00000E+00
   -0.88140E+06        -0.20466E+07         0.00000E+00
    0.00000E+00         0.00000E+00        -0.58708E+07
 
    0.97973E+06        -0.64981E+06         0.00000E+00
   -0.64981E+06        -0.19141E+07         0.00000E+00
    0.00000E+00         0.00000E+00        -0.60657E+07
 
   -0.15848E+06        -0.26427E+06         0.00000E+00
   -0.26427E+06        -0.17340E+07         0.00000E+00
    0.00000E+00         0.00000E+00        -0.62591E+07
 
   -0.13183E+07         0.27872E+06         0.00000E+00
    0.27872E+06        -0.15116E+07         0.00000E+00
    0.00000E+00         0.00000E+00        -0.64475E+07
 
   -0.24809E+07         0.97855E+06         0.00000E+00
    0.97855E+06        -0.12483E+07         0.00000E+00
    0.00000E+00         0.00000E+00        -0.66274E+07
 
   -0.36306E+07         0.18359E+07         0.00000E+00
    0.18359E+07        -0.94301E+06         0.00000E+00
    0.00000E+00         0.00000E+00        -0.67956E+07
 
   -0.47501E+07         0.28548E+07         0.00000E+00
    0.28548E+07        -0.59764E+06         0.00000E+00
    0.00000E+00         0.00000E+00        -0.69489E+07
 
   -0.58144E+07         0.40399E+07         0.00000E+00
    0.40399E+07        -0.22110E+06         0.00000E+00
    0.00000E+00         0.00000E+00        -0.70841E+07
 
   -0.67892E+07         0.53904E+07         0.00000E+00
    0.53904E+07         0.16848E+06         0.00000E+00
    0.00000E+00         0.00000E+00        -0.71981E+07
 
    0.51329E+07        -0.19767E+06         0.00000E+00
   -0.19767E+06        -0.39428E+07         0.00000E+00
    0.00000E+00         0.00000E+00        -0.56051E+07
 
    0.43200E+07        -0.51237E+06         0.00000E+00
   -0.51237E+06        -0.39696E+07         0.00000E+00
    0.00000E+00         0.00000E+00        -0.57812E+07
 
    0.35412E+07        -0.73782E+06         0.00000E+00
   -0.73782E+06        -0.40101E+07         0.00000E+00
    0.00000E+00         0.00000E+00        -0.59521E+07
 
    0.27680E+07        -0.88517E+06         0.00000E+00
   -0.88517E+06        -0.40461E+07         0.00000E+00
    0.00000E+00         0.00000E+00        -0.61200E+07
 
    0.19708E+07        -0.95150E+06         0.00000E+00
   -0.95150E+06        -0.40568E+07         0.00000E+00
    0.00000E+00         0.00000E+00        -0.62868E+07
 
    0.11275E+07        -0.92179E+06         0.00000E+00
   -0.92179E+06        -0.40266E+07         0.00000E+00
    0.00000E+00         0.00000E+00        -0.64536E+07
 
    0.22945E+06        -0.77561E+06         0.00000E+00
   -0.77561E+06        -0.39477E+07         0.00000E+00
    0.00000E+00         0.00000E+00        -0.66208E+07
 
   -0.71855E+06        -0.49424E+06         0.00000E+00
   -0.49424E+06        -0.38200E+07         0.00000E+00
    0.00000E+00         0.00000E+00        -0.67874E+07
 
   -0.17029E+07        -0.65281E+05         0.00000E+00
   -0.65281E+05        -0.36478E+07         0.00000E+00
    0.00000E+00         0.00000E+00        -0.69515E+07
 
   -0.27067E+07         0.51717E+06         0.00000E+00
    0.51717E+06        -0.34359E+07         0.00000E+00
    0.00000E+00         0.00000E+00        -0.71107E+07
 
   -0.37129E+07         0.12549E+07         0.00000E+00
    0.12549E+07        -0.31878E+07         0.00000E+00
    0.00000E+00         0.00000E+00        -0.72623E+07
 
   -0.47051E+07         0.21484E+07         0.00000E+00
    0.21484E+07        -0.29067E+07         0.00000E+00
    0.00000E+00         0.00000E+00        -0.74038E+07
 
   -0.56650E+07         0.31974E+07         0.00000E+00
    0.31974E+07        -0.25977E+07         0.00000E+00
    0.00000E+00         0.00000E+00        -0.75325E+07
 
   -0.65705E+07         0.44001E+07         0.00000E+00
    0.44001E+07        -0.22701E+07         0.00000E+00
    0.00000E+00         0.00000E+00        -0.76458E+07
 
   -0.73955E+07         0.57493E+07         0.00000E+00
    0.57493E+07        -0.19375E+07         0.00000E+00
    0.00000E+00         0.00000E+00        -0.77414E+07
 
    0.27253E+07        -0.20859E+06         0.00000E+00
   -0.20859E+06        -0.59688E+07         0.00000E+00
    0.00000E+00         0.00000E+00        -0.64945E+07
 
    0.20176E+07        -0.53962E+06         0.00000E+00
   -0.53962E+06        -0.59822E+07         0.00000E+00
    0.00000E+00         0.00000E+00        -0.66466E+07
 
    0.13288E+07        -0.76796E+06         0.00000E+00
   -0.76796E+06        -0.60022E+07         0.00000E+00
    0.00000E+00         0.00000E+00        -0.67951E+07
 
    0.64225E+06        -0.90107E+06         0.00000E+00
   -0.90107E+06        -0.60160E+07         0.00000E+00
    0.00000E+00         0.00000E+00        -0.69410E+07
 
   -0.60538E+05        -0.93690E+06         0.00000E+00
   -0.93690E+06        -0.60098E+07         0.00000E+00
    0.00000E+00         0.00000E+00        -0.70852E+07
 
   -0.79411E+06        -0.86584E+06         0.00000E+00
   -0.86584E+06        -0.59719E+07         0.00000E+00
    0.00000E+00         0.00000E+00        -0.72284E+07
 
   -0.15654E+07        -0.67437E+06         0.00000E+00
   -0.67437E+06        -0.58952E+07         0.00000E+00
    0.00000E+00         0.00000E+00        -0.73704E+07
 
   -0.23728E+07        -0.34928E+06         0.00000E+00
   -0.34928E+06        -0.57779E+07         0.00000E+00
    0.00000E+00         0.00000E+00        -0.75108E+07
 
   -0.32082E+07         0.11941E+06         0.00000E+00
    0.11941E+06        -0.56220E+07         0.00000E+00
    0.00000E+00         0.00000E+00        -0.76482E+07
 
   -0.40592E+07         0.73741E+06         0.00000E+00
    0.73741E+06        -0.54308E+07         0.00000E+00
    0.00000E+00         0.00000E+00        -0.77809E+07
 
   -0.49119E+07         0.15069E+07         0.00000E+00
    0.15069E+07        -0.52086E+07         0.00000E+00
    0.00000E+00         0.00000E+00        -0.79070E+07
 
   -0.57512E+07         0.24273E+07         0.00000E+00
    0.24273E+07        -0.49602E+07         0.00000E+00
    0.00000E+00         0.00000E+00        -0.80244E+07
 
   -0.65605E+07         0.34963E+07         0.00000E+00
    0.34963E+07        -0.46915E+07         0.00000E+00
    0.00000E+00         0.00000E+00        -0.81311E+07
 
   -0.73213E+07         0.47082E+07         0.00000E+00
    0.47082E+07        -0.44113E+07         0.00000E+00
    0.00000E+00         0.00000E+00        -0.82250E+07
 
   -0.80138E+07         0.60531E+07         0.00000E+00
    0.60531E+07        -0.41300E+07         0.00000E+00
    0.00000E+00         0.00000E+00        -0.83045E+07
 
    0.30275E+06        -0.21337E+06         0.00000E+00
   -0.21337E+06        -0.79961E+07         0.00000E+00
    0.00000E+00         0.00000E+00        -0.73876E+07
 
   -0.29230E+06        -0.55209E+06         0.00000E+00
   -0.55209E+06        -0.80014E+07         0.00000E+00
    0.00000E+00         0.00000E+00        -0.75151E+07
 
   -0.87810E+06        -0.78002E+06         0.00000E+00
   -0.78002E+06        -0.80087E+07         0.00000E+00
    0.00000E+00         0.00000E+00        -0.76402E+07
 
   -0.14634E+07        -0.90110E+06         0.00000E+00
   -0.90110E+06        -0.80100E+07         0.00000E+00
    0.00000E+00         0.00000E+00        -0.77631E+07
 
   -0.20596E+07        -0.91337E+06         0.00000E+00
   -0.91337E+06        -0.79956E+07         0.00000E+00
    0.00000E+00         0.00000E+00        -0.78841E+07
 
   -0.26766E+07        -0.81020E+06         0.00000E+00
   -0.81020E+06        -0.79567E+07         0.00000E+00
    0.00000E+00         0.00000E+00        -0.80034E+07
 
   -0.33196E+07        -0.58238E+06         0.00000E+00
   -0.58238E+06        -0.78874E+07         0.00000E+00
    0.00000E+00         0.00000E+00        -0.81210E+07
 
   -0.39886E+07        -0.22066E+06         0.00000E+00
   -0.22066E+06        -0.77854E+07         0.00000E+00
    0.00000E+00         0.00000E+00        -0.82365E+07
 
   -0.46785E+07         0.28232E+06         0.00000E+00
    0.28232E+06        -0.76510E+07         0.00000E+00
    0.00000E+00         0.00000E+00        -0.83490E+07
 
   -0.53809E+07         0.93096E+06         0.00000E+00
    0.93096E+06        -0.74869E+07         0.00000E+00
    0.00000E+00         0.00000E+00        -0.84573E+07
 
   -0.60845E+07         0.17266E+07         0.00000E+00
    0.17266E+07        -0.72967E+07         0.00000E+00
    0.00000E+00         0.00000E+00        -0.85599E+07
 
   -0.67768E+07         0.26680E+07         0.00000E+00
    0.26680E+07        -0.70854E+07         0.00000E+00
    0.00000E+00         0.00000E+00        -0.86553E+07
 
   -0.74439E+07         0.37507E+07         0.00000E+00
    0.37507E+07        -0.68589E+07         0.00000E+00
    0.00000E+00         0.00000E+00        -0.87421E+07
 
   -0.80710E+07         0.49676E+07         0.00000E+00
    0.49676E+07        -0.66246E+07         0.00000E+00
    0.00000E+00         0.00000E+00        -0.88186E+07
 
   -0.86428E+07         0.63076E+07         0.00000E+00
    0.63076E+07        -0.63907E+07         0.00000E+00
    0.00000E+00         0.00000E+00        -0.88836E+07
 
   -0.21261E+07        -0.21468E+06         0.00000E+00
   -0.21468E+06        -0.10025E+08         0.00000E+00
    0.00000E+00         0.00000E+00        -0.82826E+07
 
   -0.26052E+07        -0.55630E+06         0.00000E+00
   -0.55630E+06        -0.10026E+08         0.00000E+00
    0.00000E+00         0.00000E+00        -0.83859E+07
 
   -0.30796E+07        -0.78257E+06         0.00000E+00
   -0.78257E+06        -0.10028E+08         0.00000E+00
    0.00000E+00         0.00000E+00        -0.84872E+07
 
   -0.35535E+07        -0.89411E+06         0.00000E+00
   -0.89411E+06        -0.10025E+08         0.00000E+00
    0.00000E+00         0.00000E+00        -0.85865E+07
 
   -0.40341E+07        -0.88848E+06         0.00000E+00
   -0.88848E+06        -0.10010E+08         0.00000E+00
    0.00000E+00         0.00000E+00        -0.86839E+07
 
   -0.45284E+07        -0.76066E+06         0.00000E+00
   -0.76066E+06        -0.99764E+07         0.00000E+00
    0.00000E+00         0.00000E+00        -0.87795E+07
 
   -0.50408E+07        -0.50420E+06         0.00000E+00
   -0.50420E+06        -0.99196E+07         0.00000E+00
    0.00000E+00         0.00000E+00        -0.88732E+07
 
   -0.55720E+07        -0.11274E+06         0.00000E+00
   -0.11274E+06        -0.98368E+07         0.00000E+00
    0.00000E+00         0.00000E+00        -0.89648E+07
 
   -0.61193E+07         0.41873E+06         0.00000E+00
    0.41873E+06        -0.97279E+07         0.00000E+00
    0.00000E+00         0.00000E+00        -0.90536E+07
 
   -0.66767E+07         0.10930E+07         0.00000E+00
    0.10930E+07        -0.95944E+07         0.00000E+00
    0.00000E+00         0.00000E+00        -0.91388E+07
 
   -0.72360E+07         0.19102E+07         0.00000E+00
    0.19102E+07        -0.94395E+07         0.00000E+00
    0.00000E+00         0.00000E+00        -0.92196E+07
 
   -0.77873E+07         0.28680E+07         0.00000E+00
    0.28680E+07        -0.92675E+07         0.00000E+00
    0.00000E+00         0.00000E+00        -0.92947E+07
 
   -0.83196E+07         0.39609E+07         0.00000E+00
    0.39609E+07        -0.90835E+07         0.00000E+00
    0.00000E+00         0.00000E+00        -0.93630E+07
 
   -0.88212E+07         0.51809E+07         0.00000E+00
    0.51809E+07        -0.88937E+07         0.00000E+00
    0.00000E+00         0.00000E+00        -0.94235E+07
 
   -0.92809E+07         0.65165E+07         0.00000E+00
    0.65165E+07        -0.87045E+07         0.00000E+00
    0.00000E+00         0.00000E+00        -0.94753E+07
 
   -0.45570E+07        -0.21480E+06         0.00000E+00
   -0.21480E+06        -0.12055E+08         0.00000E+00
    0.00000E+00         0.00000E+00        -0.91789E+07
 
   -0.49193E+07        -0.55779E+06         0.00000E+00
   -0.55779E+06        -0.12056E+08         0.00000E+00
    0.00000E+00         0.00000E+00        -0.92582E+07
 
   -0.52768E+07        -0.78280E+06         0.00000E+00
   -0.78280E+06        -0.12058E+08         0.00000E+00
    0.00000E+00         0.00000E+00        -0.93357E+07
 
   -0.56320E+07        -0.88757E+06         0.00000E+00
   -0.88757E+06        -0.12057E+08         0.00000E+00
    0.00000E+00         0.00000E+00        -0.94113E+07
 
   -0.59902E+07        -0.86887E+06         0.00000E+00
   -0.86887E+06        -0.12048E+08         0.00000E+00
    0.00000E+00         0.00000E+00        -0.94850E+07
 
   -0.63568E+07        -0.72254E+06         0.00000E+00
   -0.72254E+06        -0.12025E+08         0.00000E+00
    0.00000E+00         0.00000E+00        -0.95569E+07
 
   -0.67360E+07        -0.44396E+06         0.00000E+00
   -0.44396E+06        -0.11985E+08         0.00000E+00
    0.00000E+00         0.00000E+00        -0.96270E+07
 
   -0.71294E+07        -0.28919E+05         0.00000E+00
   -0.28919E+05        -0.11925E+08         0.00000E+00
    0.00000E+00         0.00000E+00        -0.96952E+07
 
   -0.75356E+07         0.52561E+06         0.00000E+00
    0.52561E+06        -0.11844E+08         0.00000E+00
    0.00000E+00         0.00000E+00        -0.97613E+07
 
   -0.79512E+07         0.12208E+07         0.00000E+00
    0.12208E+07        -0.11744E+08         0.00000E+00
    0.00000E+00         0.00000E+00        -0.98246E+07
 
   -0.83704E+07         0.20557E+07         0.00000E+00
    0.20557E+07        -0.11626E+08         0.00000E+00
    0.00000E+00         0.00000E+00        -0.98846E+07
 
   -0.87859E+07         0.30266E+07         0.00000E+00
    0.30266E+07        -0.11494E+08         0.00000E+00
    0.00000E+00         0.00000E+00        -0.99405E+07
 
   -0.91895E+07         0.41277E+07         0.00000E+00
    0.41277E+07        -0.11352E+08         0.00000E+00
    0.00000E+00         0.00000E+00        -0.99917E+07
 
   -0.95724E+07         0.53501E+07         0.00000E+00
    0.53501E+07        -0.11205E+08         0.00000E+00
    0.00000E+00         0.00000E+00        -0.10037E+08
 
   -0.99261E+07         0.66825E+07         0.00000E+00
    0.66825E+07        -0.11059E+08         0.00000E+00
    0.00000E+00         0.00000E+00        -0.10077E+08
 
   -0.69896E+07        -0.21556E+06         0.00000E+00
   -0.21556E+06        -0.14086E+08         0.00000E+00
    0.00000E+00         0.00000E+00        -0.10076E+08
 
   -0.72348E+07        -0.56101E+06         0.00000E+00
   -0.56101E+06        -0.14090E+08         0.00000E+00
    0.00000E+00         0.00000E+00        -0.10132E+08
 
   -0.74716E+07        -0.78655E+06         0.00000E+00
   -0.78655E+06        -0.14096E+08         0.00000E+00
    0.00000E+00         0.00000E+00        -0.10186E+08
 
   -0.77027E+07        -0.88756E+06         0.00000E+00
   -0.88756E+06        -0.14103E+08         0.00000E+00
    0.00000E+00         0.00000E+00        -0.10238E+08
 
   -0.79329E+07        -0.86004E+06         0.00000E+00
   -0.86004E+06        -0.14105E+08         0.00000E+00
    0.00000E+00         0.00000E+00        -0.10287E+08
 
   -0.81677E+07        -0.70032E+06         0.00000E+00
   -0.70032E+06        -0.14098E+08         0.00000E+00
    0.00000E+00         0.00000E+00        -0.10336E+08
 
   -0.84112E+07        -0.40508E+06         0.00000E+00
   -0.40508E+06        -0.14078E+08         0.00000E+00
    0.00000E+00         0.00000E+00        -0.10382E+08
 
   -0.86660E+07         0.28257E+05         0.00000E+00
    0.28257E+05        -0.14043E+08         0.00000E+00
    0.00000E+00         0.00000E+00        -0.10428E+08
 
   -0.89323E+07         0.60107E+06         0.00000E+00
    0.60107E+06        -0.13992E+08         0.00000E+00
    0.00000E+00         0.00000E+00        -0.10471E+08
 
   -0.92085E+07         0.13131E+07         0.00000E+00
    0.13131E+07        -0.13925E+08         0.00000E+00
    0.00000E+00         0.00000E+00        -0.10513E+08
 
   -0.94910E+07         0.21623E+07         0.00000E+00
    0.21623E+07        -0.13844E+08         0.00000E+00
    0.00000E+00         0.00000E+00        -0.10553E+08
 
   -0.97750E+07         0.31441E+07         0.00000E+00
    0.31441E+07        -0.13752E+08         0.00000E+00
    0.00000E+00         0.00000E+00        -0.10591E+08
 
   -0.10055E+08         0.42521E+07         0.00000E+00
    0.42521E+07        -0.13652E+08         0.00000E+00
    0.00000E+00         0.00000E+00        -0.10626E+08
 
   -0.10324E+08         0.54770E+07         0.00000E+00
    0.54770E+07        -0.13547E+08         0.00000E+00
    0.00000E+00         0.00000E+00        -0.10657E+08
 
   -0.10576E+08         0.68076E+07         0.00000E+00
    0.68076E+07        -0.13441E+08         0.00000E+00
    0.00000E+00         0.00000E+00        -0.10685E+08
 
   -0.94262E+07        -0.21832E+06         0.00000E+00
   -0.21832E+06        -0.16118E+08         0.00000E+00
    0.00000E+00         0.00000E+00        -0.10975E+08
 
   -0.95540E+07        -0.56937E+06         0.00000E+00
   -0.56937E+06        -0.16126E+08         0.00000E+00
    0.00000E+00         0.00000E+00        -0.11008E+08
 
   -0.96668E+07        -0.79832E+06         0.00000E+00
   -0.79832E+06        -0.16141E+08         0.00000E+00
    0.00000E+00         0.00000E+00        -0.11038E+08
 
   -0.97691E+07        -0.89879E+06         0.00000E+00
   -0.89879E+06        -0.16159E+08         0.00000E+00
    0.00000E+00         0.00000E+00        -0.11065E+08
 
   -0.98668E+07        -0.86626E+06         0.00000E+00
   -0.86626E+06        -0.16175E+08         0.00000E+00
    0.00000E+00         0.00000E+00        -0.11091E+08
 
   -0.99658E+07        -0.69745E+06         0.00000E+00
   -0.69745E+06        -0.16187E+08         0.00000E+00
    0.00000E+00         0.00000E+00        -0.11115E+08
 
   -0.10071E+08        -0.39007E+06         0.00000E+00
   -0.39007E+06        -0.16190E+08         0.00000E+00
    0.00000E+00         0.00000E+00        -0.11139E+08
 
   -0.10187E+08         0.57108E+05         0.00000E+00
    0.57108E+05        -0.16182E+08         0.00000E+00
    0.00000E+00         0.00000E+00        -0.11161E+08
 
   -0.10313E+08         0.64412E+06         0.00000E+00
    0.64412E+06        -0.16162E+08         0.00000E+00
    0.00000E+00         0.00000E+00        -0.11183E+08
 
   -0.10452E+08         0.13695E+07         0.00000E+00
    0.13695E+07        -0.16129E+08         0.00000E+00
    0.00000E+00         0.00000E+00        -0.11204E+08
 
   -0.10600E+08         0.22302E+07         0.00000E+00
    0.22302E+07        -0.16086E+08         0.00000E+00
    0.00000E+00         0.00000E+00        -0.11225E+08
 
   -0.10756E+08         0.32211E+07         0.00000E+00
    0.32211E+07        -0.16033E+08         0.00000E+00
    0.00000E+00         0.00000E+00        -0.11245E+08
 
   -0.10916E+08         0.43351E+07         0.00000E+00
    0.43351E+07        -0.15973E+08         0.00000E+00
    0.00000E+00         0.00000E+00        -0.11264E+08
 
   -0.11075E+08         0.55630E+07         0.00000E+00
    0.55630E+07        -0.15909E+08         0.00000E+00
    0.00000E+00         0.00000E+00        -0.11281E+08
 
   -0.11230E+08         0.68933E+07         0.00000E+00
    0.68933E+07        -0.15843E+08         0.00000E+00
    0.00000E+00         0.00000E+00        -0.11298E+08
 
   -0.11872E+08        -0.22406E+06         0.00000E+00
   -0.22406E+06        -0.18150E+08         0.00000E+00
    0.00000E+00         0.00000E+00        -0.11876E+08
 
   -0.11880E+08        -0.58534E+06         0.00000E+00
   -0.58534E+06        -0.18164E+08         0.00000E+00
    0.00000E+00         0.00000E+00        -0.11885E+08
 
   -0.11866E+08        -0.82133E+06         0.00000E+00
   -0.82133E+06        -0.18190E+08         0.00000E+00
    0.00000E+00         0.00000E+00        -0.11891E+08
 
   -0.11835E+08        -0.92462E+06         0.00000E+00
   -0.92462E+06        -0.18222E+08         0.00000E+00
    0.00000E+00         0.00000E+00        -0.11895E+08
 
   -0.11796E+08        -0.89050E+06         0.00000E+00
   -0.89050E+06        -0.18256E+08         0.00000E+00
    0.00000E+00         0.00000E+00        -0.11896E+08
 
   -0.11755E+08        -0.71621E+06         0.00000E+00
   -0.71621E+06        -0.18288E+08         0.00000E+00
    0.00000E+00         0.00000E+00        -0.11896E+08
 
   -0.11720E+08        -0.40045E+06         0.00000E+00
   -0.40045E+06        -0.18315E+08         0.00000E+00
    0.00000E+00         0.00000E+00        -0.11896E+08
 
   -0.11695E+08         0.56859E+05         0.00000E+00
    0.56859E+05        -0.18335E+08         0.00000E+00
    0.00000E+00         0.00000E+00        -0.11895E+08
 
   -0.11683E+08         0.65457E+06         0.00000E+00
    0.65457E+06        -0.18345E+08         0.00000E+00
    0.00000E+00         0.00000E+00        -0.11895E+08
 
   -0.11685E+08         0.13903E+07         0.00000E+00
    0.13903E+07        -0.18347E+08         0.00000E+00
    0.00000E+00         0.00000E+00        -0.11895E+08
 
   -0.11701E+08         0.22601E+07         0.00000E+00
    0.22601E+07        -0.18340E+08         0.00000E+00
    0.00000E+00         0.00000E+00        -0.11897E+08
 
   -0.11730E+08         0.32584E+07         0.00000E+00
    0.32584E+07        -0.18325E+08         0.00000E+00
    0.00000E+00         0.00000E+00        -0.11899E+08
 
   -0.11772E+08         0.43779E+07         0.00000E+00
    0.43779E+07        -0.18305E+08         0.00000E+00
    0.00000E+00         0.00000E+00        -0.11903E+08
 
   -0.11824E+08         0.56093E+07         0.00000E+00
    0.56093E+07        -0.18280E+08         0.00000E+00
    0.00000E+00         0.00000E+00        -0.11907E+08
 
   -0.11884E+08         0.69410E+07         0.00000E+00
    0.69410E+07        -0.18252E+08         0.00000E+00
    0.00000E+00         0.00000E+00        -0.11912E+08
 
   -0.14332E+08        -0.23343E+06         0.00000E+00
   -0.23343E+06        -0.20183E+08         0.00000E+00
    0.00000E+00         0.00000E+00        -0.12781E+08
 
   -0.14218E+08        -0.61055E+06         0.00000E+00
   -0.61055E+06        -0.20204E+08         0.00000E+00
    0.00000E+00         0.00000E+00        -0.12766E+08
 
   -0.14072E+08        -0.85769E+06         0.00000E+00
   -0.85769E+06        -0.20241E+08         0.00000E+00
    0.00000E+00         0.00000E+00        -0.12748E+08
 
   -0.13903E+08        -0.96711E+06         0.00000E+00
   -0.96711E+06        -0.20289E+08         0.00000E+00
    0.00000E+00         0.00000E+00        -0.12726E+08
 
   -0.13723E+08        -0.93442E+06         0.00000E+00
   -0.93442E+06        -0.20342E+08         0.00000E+00
    0.00000E+00         0.00000E+00        -0.12702E+08
 
   -0.13540E+08        -0.75764E+06         0.00000E+00
   -0.75764E+06        -0.20396E+08         0.00000E+00
    0.00000E+00         0.00000E+00        -0.12677E+08
 
   -0.13362E+08        -0.43657E+06         0.00000E+00
   -0.43657E+06        -0.20447E+08         0.00000E+00
    0.00000E+00         0.00000E+00        -0.12652E+08
 
   -0.13195E+08         0.27727E+05         0.00000E+00
    0.27727E+05        -0.20493E+08         0.00000E+00
    0.00000E+00         0.00000E+00        -0.12628E+08
 
   -0.13043E+08         0.63308E+06         0.00000E+00
    0.63308E+06        -0.20534E+08         0.00000E+00
    0.00000E+00         0.00000E+00        -0.12606E+08
 
   -0.12909E+08         0.13763E+07         0.00000E+00
    0.13763E+07        -0.20568E+08         0.00000E+00
    0.00000E+00         0.00000E+00        -0.12586E+08
 
   -0.12794E+08         0.22529E+07         0.00000E+00
    0.22529E+07        -0.20596E+08         0.00000E+00
    0.00000E+00         0.00000E+00        -0.12568E+08
 
   -0.12699E+08         0.32572E+07         0.00000E+00
    0.32572E+07        -0.20619E+08         0.00000E+00
    0.00000E+00         0.00000E+00        -0.12553E+08
 
   -0.12625E+08         0.43816E+07         0.00000E+00
    0.43816E+07        -0.20637E+08         0.00000E+00
    0.00000E+00         0.00000E+00        -0.12541E+08
 
   -0.12571E+08         0.56168E+07         0.00000E+00
    0.56168E+07        -0.20650E+08         0.00000E+00
    0.00000E+00         0.00000E+00        -0.12532E+08
 
   -0.12537E+08         0.69514E+07         0.00000E+00
    0.69514E+07        -0.20660E+08         0.00000E+00
    0.00000E+00         0.00000E+00        -0.12527E+08
 
   -0.16814E+08        -0.24684E+06         0.00000E+00
   -0.24684E+06        -0.22217E+08         0.00000E+00
    0.00000E+00         0.00000E+00        -0.13690E+08
 
   -0.16572E+08        -0.64589E+06         0.00000E+00
   -0.64589E+06        -0.22245E+08         0.00000E+00
    0.00000E+00         0.00000E+00        -0.13651E+08
 
   -0.16288E+08        -0.90838E+06         0.00000E+00
   -0.90838E+06        -0.22295E+08         0.00000E+00
    0.00000E+00         0.00000E+00        -0.13607E+08
 
   -0.15977E+08        -0.10270E+07         0.00000E+00
   -0.10270E+07        -0.22358E+08         0.00000E+00
    0.00000E+00         0.00000E+00        -0.13559E+08
 
   -0.15651E+08        -0.99827E+06         0.00000E+00
   -0.99827E+06        -0.22430E+08         0.00000E+00
    0.00000E+00         0.00000E+00        -0.13509E+08
 
   -0.15322E+08        -0.82142E+06         0.00000E+00
   -0.82142E+06        -0.22504E+08         0.00000E+00
    0.00000E+00         0.00000E+00        -0.13458E+08
 
   -0.14999E+08        -0.49755E+06         0.00000E+00
   -0.49755E+06        -0.22578E+08         0.00000E+00
    0.00000E+00         0.00000E+00        -0.13408E+08
 
   -0.14689E+08        -0.28967E+05         0.00000E+00
   -0.28967E+05        -0.22649E+08         0.00000E+00
    0.00000E+00         0.00000E+00        -0.13360E+08
 
   -0.14398E+08         0.58122E+06         0.00000E+00
    0.58122E+06        -0.22718E+08         0.00000E+00
    0.00000E+00         0.00000E+00        -0.13315E+08
 
   -0.14128E+08         0.13292E+07         0.00000E+00
    0.13292E+07        -0.22782E+08         0.00000E+00
    0.00000E+00         0.00000E+00        -0.13274E+08
 
   -0.13882E+08         0.22102E+07         0.00000E+00
    0.22102E+07        -0.22844E+08         0.00000E+00
    0.00000E+00         0.00000E+00        -0.13236E+08
 
   -0.13664E+08         0.32186E+07         0.00000E+00
    0.32186E+07        -0.22902E+08         0.00000E+00
    0.00000E+00         0.00000E+00        -0.13204E+08
 
   -0.13473E+08         0.43470E+07         0.00000E+00
    0.43470E+07        -0.22958E+08         0.00000E+00
    0.00000E+00         0.00000E+00        -0.13176E+08
 
   -0.13314E+08         0.55864E+07         0.00000E+00
    0.55864E+07        -0.23009E+08         0.00000E+00
    0.00000E+00         0.00000E+00        -0.13155E+08
 
   -0.13187E+08         0.69253E+07         0.00000E+00
    0.69253E+07        -0.23056E+08         0.00000E+00
    0.00000E+00         0.00000E+00        -0.13139E+08
 
   -0.19325E+08        -0.26440E+06         0.00000E+00
   -0.26440E+06        -0.24251E+08         0.00000E+00
    0.00000E+00         0.00000E+00        -0.14606E+08
 
   -0.18948E+08        -0.69156E+06         0.00000E+00
   -0.69156E+06        -0.24286E+08         0.00000E+00
    0.00000E+00         0.00000E+00        -0.14540E+08
 
   -0.18519E+08        -0.97337E+06         0.00000E+00
   -0.97337E+06        -0.24348E+08         0.00000E+00
    0.00000E+00         0.00000E+00        -0.14469E+08
 
   -0.18058E+08        -0.11038E+07         0.00000E+00
   -0.11038E+07        -0.24427E+08         0.00000E+00
    0.00000E+00         0.00000E+00        -0.14393E+08
 
   -0.17581E+08        -0.10809E+07         0.00000E+00
   -0.10809E+07        -0.24515E+08         0.00000E+00
    0.00000E+00         0.00000E+00        -0.14315E+08
 
   -0.17103E+08        -0.90573E+06         0.00000E+00
   -0.90573E+06        -0.24607E+08         0.00000E+00
    0.00000E+00         0.00000E+00        -0.14238E+08
 
   -0.16634E+08        -0.58109E+06         0.00000E+00
   -0.58109E+06        -0.24701E+08         0.00000E+00
    0.00000E+00         0.00000E+00        -0.14162E+08
 
   -0.16180E+08        -0.11065E+06         0.00000E+00
   -0.11065E+06        -0.24795E+08         0.00000E+00
    0.00000E+00         0.00000E+00        -0.14089E+08
 
   -0.15749E+08         0.50155E+06         0.00000E+00
    0.50155E+06        -0.24888E+08         0.00000E+00
    0.00000E+00         0.00000E+00        -0.14021E+08
 
   -0.15344E+08         0.12512E+07         0.00000E+00
    0.12512E+07        -0.24980E+08         0.00000E+00
    0.00000E+00         0.00000E+00        -0.13958E+08
 
   -0.14968E+08         0.21338E+07         0.00000E+00
    0.21338E+07        -0.25073E+08         0.00000E+00
    0.00000E+00         0.00000E+00        -0.13900E+08
 
   -0.14625E+08         0.31439E+07         0.00000E+00
    0.31439E+07        -0.25165E+08         0.00000E+00
    0.00000E+00         0.00000E+00        -0.13850E+08
 
   -0.14319E+08         0.42749E+07         0.00000E+00
    0.42749E+07        -0.25257E+08         0.00000E+00
    0.00000E+00         0.00000E+00        -0.13807E+08
 
   -0.14053E+08         0.55182E+07         0.00000E+00
    0.55182E+07        -0.25346E+08         0.00000E+00
    0.00000E+00         0.00000E+00        -0.13772E+08
 
   -0.13833E+08         0.68626E+07         0.00000E+00
    0.68626E+07        -0.25430E+08         0.00000E+00
    0.00000E+00         0.00000E+00        -0.13746E+08
 
   -0.21873E+08        -0.28606E+06         0.00000E+00
   -0.28606E+06        -0.26285E+08         0.00000E+00
    0.00000E+00         0.00000E+00        -0.15530E+08
 
   -0.21350E+08        -0.74712E+06         0.00000E+00
   -0.74712E+06        -0.26327E+08         0.00000E+00
    0.00000E+00         0.00000E+00        -0.15436E+08
 
   -0.20767E+08        -0.10516E+07         0.00000E+00
   -0.10516E+07        -0.26400E+08         0.00000E+00
    0.00000E+00         0.00000E+00        -0.15334E+08
 
   -0.20149E+08        -0.11955E+07         0.00000E+00
   -0.11955E+07        -0.26491E+08         0.00000E+00
    0.00000E+00         0.00000E+00        -0.15229E+08
 
   -0.19517E+08        -0.11795E+07         0.00000E+00
   -0.11795E+07        -0.26593E+08         0.00000E+00
    0.00000E+00         0.00000E+00        -0.15122E+08
 
   -0.18886E+08        -0.10071E+07         0.00000E+00
   -0.10071E+07        -0.26700E+08         0.00000E+00
    0.00000E+00         0.00000E+00        -0.15016E+08
 
   -0.18268E+08        -0.68330E+06         0.00000E+00
   -0.68330E+06        -0.26810E+08         0.00000E+00
    0.00000E+00         0.00000E+00        -0.14913E+08
 
   -0.17671E+08        -0.21332E+06         0.00000E+00
   -0.21332E+06        -0.26920E+08         0.00000E+00
    0.00000E+00         0.00000E+00        -0.14815E+08
 
   -0.17101E+08         0.39782E+06         0.00000E+00
    0.39782E+06        -0.27033E+08         0.00000E+00
    0.00000E+00         0.00000E+00        -0.14722E+08
 
   -0.16560E+08         0.11457E+07         0.00000E+00
    0.11457E+07        -0.27149E+08         0.00000E+00
    0.00000E+00         0.00000E+00        -0.14636E+08
 
   -0.16054E+08         0.20261E+07         0.00000E+00
    0.20261E+07        -0.27270E+08         0.00000E+00
    0.00000E+00         0.00000E+00        -0.14559E+08
 
   -0.15586E+08         0.30347E+07         0.00000E+00
    0.30347E+07        -0.27394E+08         0.00000E+00
    0.00000E+00         0.00000E+00        -0.14490E+08
 
   -0.15162E+08         0.41659E+07         0.00000E+00
    0.41659E+07        -0.27521E+08         0.00000E+00
    0.00000E+00         0.00000E+00        -0.14431E+08
 
   -0.14788E+08         0.54121E+07         0.00000E+00
    0.54121E+07        -0.27648E+08         0.00000E+00
    0.00000E+00         0.00000E+00        -0.14382E+08
 
   -0.14471E+08         0.67629E+07         0.00000E+00
    0.67629E+07        -0.27770E+08         0.00000E+00
    0.00000E+00         0.00000E+00        -0.14344E+08
 
   -0.24465E+08        -0.31154E+06         0.00000E+00
   -0.31154E+06        -0.28319E+08         0.00000E+00
    0.00000E+00         0.00000E+00        -0.16463E+08
 
   -0.23782E+08        -0.81151E+06         0.00000E+00
   -0.81151E+06        -0.28367E+08         0.00000E+00
    0.00000E+00         0.00000E+00        -0.16337E+08
 
   -0.23033E+08        -0.11409E+07         0.00000E+00
   -0.11409E+07        -0.28449E+08         0.00000E+00
    0.00000E+00         0.00000E+00        -0.16203E+08
 
   -0.22251E+08        -0.12989E+07         0.00000E+00
   -0.12989E+07        -0.28550E+08         0.00000E+00
    0.00000E+00         0.00000E+00        -0.16066E+08
 
   -0.21457E+08        -0.12897E+07         0.00000E+00
   -0.12897E+07        -0.28661E+08         0.00000E+00
    0.00000E+00         0.00000E+00        -0.15928E+08
 
   -0.20671E+08        -0.11203E+07         0.00000E+00
   -0.11203E+07        -0.28777E+08         0.00000E+00
    0.00000E+00         0.00000E+00        -0.15792E+08
 
   -0.19904E+08        -0.79849E+06         0.00000E+00
   -0.79849E+06        -0.28895E+08         0.00000E+00
    0.00000E+00         0.00000E+00        -0.15660E+08
 
   -0.19164E+08        -0.33137E+06         0.00000E+00
   -0.33137E+06        -0.29016E+08         0.00000E+00
    0.00000E+00         0.00000E+00        -0.15534E+08
 
   -0.18456E+08         0.27512E+06         0.00000E+00
    0.27512E+06        -0.29143E+08         0.00000E+00
    0.00000E+00         0.00000E+00        -0.15417E+08
 
   -0.17782E+08         0.10166E+07         0.00000E+00
    0.10166E+07        -0.29277E+08         0.00000E+00
    0.00000E+00         0.00000E+00        -0.15308E+08
 
   -0.17145E+08         0.18900E+07         0.00000E+00
    0.18900E+07        -0.29422E+08         0.00000E+00
    0.00000E+00         0.00000E+00        -0.15209E+08
 
   -0.16551E+08         0.28923E+07         0.00000E+00
    0.28923E+07        -0.29576E+08         0.00000E+00
    0.00000E+00         0.00000E+00        -0.15121E+08
 
   -0.16005E+08         0.40200E+07         0.00000E+00
    0.40200E+07        -0.29737E+08         0.00000E+00
    0.00000E+00         0.00000E+00        -0.15045E+08
 
   -0.15519E+08         0.52674E+07         0.00000E+00
    0.52674E+07        -0.29902E+08         0.00000E+00
    0.00000E+00         0.00000E+00        -0.14982E+08
 
   -0.15101E+08         0.66250E+07         0.00000E+00
    0.66250E+07        -0.30064E+08         0.00000E+00
    0.00000E+00         0.00000E+00        -0.14933E+08
 
   -0.27107E+08        -0.34040E+06         0.00000E+00
   -0.34040E+06        -0.30354E+08         0.00000E+00
    0.00000E+00         0.00000E+00        -0.17407E+08
 
   -0.26247E+08        -0.88302E+06         0.00000E+00
   -0.88302E+06        -0.30407E+08         0.00000E+00
    0.00000E+00         0.00000E+00        -0.17245E+08
 
   -0.25319E+08        -0.12379E+07         0.00000E+00
   -0.12379E+07        -0.30494E+08         0.00000E+00
    0.00000E+00         0.00000E+00        -0.17075E+08
 
   -0.24362E+08        -0.14088E+07         0.00000E+00
   -0.14088E+07        -0.30600E+08         0.00000E+00
    0.00000E+00         0.00000E+00        -0.16903E+08
 
   -0.23402E+08        -0.14050E+07         0.00000E+00
   -0.14050E+07        -0.30713E+08         0.00000E+00
    0.00000E+00         0.00000E+00        -0.16731E+08
 
   -0.22459E+08        -0.12380E+07         0.00000E+00
   -0.12380E+07        -0.30829E+08         0.00000E+00
    0.00000E+00         0.00000E+00        -0.16563E+08
 
   -0.21544E+08        -0.91890E+06         0.00000E+00
   -0.91890E+06        -0.30947E+08         0.00000E+00
    0.00000E+00         0.00000E+00        -0.16401E+08
 
   -0.20664E+08        -0.45733E+06         0.00000E+00
   -0.45733E+06        -0.31070E+08         0.00000E+00
    0.00000E+00         0.00000E+00        -0.16247E+08
 
   -0.19820E+08         0.14003E+06         0.00000E+00
    0.14003E+06        -0.31203E+08         0.00000E+00
    0.00000E+00         0.00000E+00        -0.16103E+08
 
   -0.19014E+08         0.86928E+06         0.00000E+00
    0.86928E+06        -0.31349E+08         0.00000E+00
    0.00000E+00         0.00000E+00        -0.15970E+08
 
   -0.18247E+08         0.17288E+07         0.00000E+00
    0.17288E+07        -0.31513E+08         0.00000E+00
    0.00000E+00         0.00000E+00        -0.15849E+08
 
   -0.17524E+08         0.27183E+07         0.00000E+00
    0.27183E+07        -0.31694E+08         0.00000E+00
    0.00000E+00         0.00000E+00        -0.15741E+08
 
   -0.16853E+08         0.38371E+07         0.00000E+00
    0.38371E+07        -0.31890E+08         0.00000E+00
    0.00000E+00         0.00000E+00        -0.15648E+08
 
   -0.16247E+08         0.50822E+07         0.00000E+00
    0.50822E+07        -0.32094E+08         0.00000E+00
    0.00000E+00         0.00000E+00        -0.15569E+08
 
   -0.15721E+08         0.64462E+07         0.00000E+00
    0.64462E+07        -0.32298E+08         0.00000E+00
    0.00000E+00         0.00000E+00        -0.15507E+08
 
   -0.29805E+08        -0.37202E+06         0.00000E+00
   -0.37202E+06        -0.32388E+08         0.00000E+00
    0.00000E+00         0.00000E+00        -0.18362E+08
 
   -0.28746E+08        -0.95924E+06         0.00000E+00
   -0.95924E+06        -0.32444E+08         0.00000E+00
    0.00000E+00         0.00000E+00        -0.18159E+08
 
   -0.27623E+08        -0.13379E+07         0.00000E+00
   -0.13379E+07        -0.32533E+08         0.00000E+00
    0.00000E+00         0.00000E+00        -0.17950E+08
 
   -0.26480E+08        -0.15184E+07         0.00000E+00
   -0.15184E+07        -0.32636E+08         0.00000E+00
    0.00000E+00         0.00000E+00        -0.17739E+08
 
   -0.25349E+08        -0.15166E+07         0.00000E+00
   -0.15166E+07        -0.32743E+08         0.00000E+00
    0.00000E+00         0.00000E+00        -0.17530E+08
 
   -0.24248E+08        -0.13501E+07         0.00000E+00
   -0.13501E+07        -0.32848E+08         0.00000E+00
    0.00000E+00         0.00000E+00        -0.17328E+08
 
   -0.23189E+08        -0.10345E+07         0.00000E+00
   -0.10345E+07        -0.32955E+08         0.00000E+00
    0.00000E+00         0.00000E+00        -0.17134E+08
 
   -0.22173E+08        -0.58174E+06         0.00000E+00
   -0.58174E+06        -0.33069E+08         0.00000E+00
    0.00000E+00         0.00000E+00        -0.16951E+08
 
   -0.21198E+08         0.75027E+03         0.00000E+00
    0.75027E+03        -0.33198E+08         0.00000E+00
    0.00000E+00         0.00000E+00        -0.16780E+08
 
   -0.20263E+08         0.71001E+06         0.00000E+00
    0.71001E+06        -0.33348E+08         0.00000E+00
    0.00000E+00         0.00000E+00        -0.16622E+08
 
   -0.19367E+08         0.15468E+07         0.00000E+00
    0.15468E+07        -0.33525E+08         0.00000E+00
    0.00000E+00         0.00000E+00        -0.16478E+08
 
   -0.18513E+08         0.25143E+07         0.00000E+00
    0.25143E+07        -0.33730E+08         0.00000E+00
    0.00000E+00         0.00000E+00        -0.16349E+08
 
   -0.17710E+08         0.36160E+07         0.00000E+00
    0.36160E+07        -0.33961E+08         0.00000E+00
    0.00000E+00         0.00000E+00        -0.16236E+08
 
   -0.16975E+08         0.48534E+07         0.00000E+00
    0.48534E+07        -0.34208E+08         0.00000E+00
    0.00000E+00         0.00000E+00        -0.16141E+08
 
   -0.16330E+08         0.62226E+07         0.00000E+00
    0.62226E+07        -0.34458E+08         0.00000E+00
    0.00000E+00         0.00000E+00        -0.16065E+08
 
   -0.32561E+08        -0.40564E+06         0.00000E+00
   -0.40564E+06        -0.34423E+08         0.00000E+00
    0.00000E+00         0.00000E+00        -0.19329E+08
 
   -0.31277E+08        -0.10369E+07         0.00000E+00
   -0.10369E+07        -0.34479E+08         0.00000E+00
    0.00000E+00         0.00000E+00        -0.19080E+08
 
   -0.29940E+08        -0.14345E+07         0.00000E+00
   -0.14345E+07        -0.34564E+08         0.00000E+00
    0.00000E+00         0.00000E+00        -0.18826E+08
 
   -0.28601E+08        -0.16180E+07         0.00000E+00
   -0.16180E+07        -0.34656E+08         0.00000E+00
    0.00000E+00         0.00000E+00        -0.18572E+08
 
   -0.27294E+08        -0.16129E+07         0.00000E+00
   -0.16129E+07        -0.34743E+08         0.00000E+00
    0.00000E+00         0.00000E+00        -0.18323E+08
 
   -0.26040E+08        -0.14442E+07         0.00000E+00
   -0.14442E+07        -0.34825E+08         0.00000E+00
    0.00000E+00         0.00000E+00        -0.18085E+08
 
   -0.24841E+08        -0.11328E+07         0.00000E+00
   -0.11328E+07        -0.34906E+08         0.00000E+00
    0.00000E+00         0.00000E+00        -0.17858E+08
 
   -0.23697E+08        -0.69307E+06         0.00000E+00
   -0.69307E+06        -0.34998E+08         0.00000E+00
    0.00000E+00         0.00000E+00        -0.17644E+08
 
   -0.22599E+08        -0.13286E+06         0.00000E+00
   -0.13286E+06        -0.35112E+08         0.00000E+00
    0.00000E+00         0.00000E+00        -0.17445E+08
 
   -0.21540E+08         0.54638E+06         0.00000E+00
    0.54638E+06        -0.35257E+08         0.00000E+00
    0.00000E+00         0.00000E+00        -0.17261E+08
 
   -0.20516E+08         0.13486E+07         0.00000E+00
    0.13486E+07        -0.35440E+08         0.00000E+00
    0.00000E+00         0.00000E+00        -0.17093E+08
 
   -0.19528E+08         0.22815E+07         0.00000E+00
    0.22815E+07        -0.35666E+08         0.00000E+00
    0.00000E+00         0.00000E+00        -0.16942E+08
 
   -0.18585E+08         0.33549E+07         0.00000E+00
    0.33549E+07        -0.35931E+08         0.00000E+00
    0.00000E+00         0.00000E+00        -0.16809E+08
 
   -0.17708E+08         0.45763E+07         0.00000E+00
    0.45763E+07        -0.36225E+08         0.00000E+00
    0.00000E+00         0.00000E+00        -0.16695E+08
 
   -0.16926E+08         0.59476E+07         0.00000E+00
    0.59476E+07        -0.36529E+08         0.00000E+00
    0.00000E+00         0.00000E+00        -0.16603E+08
 
   -0.35376E+08        -0.44031E+06         0.00000E+00
   -0.44031E+06        -0.36457E+08         0.00000E+00
    0.00000E+00         0.00000E+00        -0.20308E+08
 
   -0.33836E+08        -0.11116E+07         0.00000E+00
   -0.11116E+07        -0.36511E+08         0.00000E+00
    0.00000E+00         0.00000E+00        -0.20006E+08
 
   -0.32261E+08        -0.15187E+07         0.00000E+00
   -0.15187E+07        -0.36585E+08         0.00000E+00
    0.00000E+00         0.00000E+00        -0.19700E+08
 
   -0.30716E+08        -0.16950E+07         0.00000E+00
   -0.16950E+07        -0.36652E+08         0.00000E+00
    0.00000E+00         0.00000E+00        -0.19399E+08
 
   -0.29234E+08        -0.16787E+07         0.00000E+00
   -0.16787E+07        -0.36704E+08         0.00000E+00
    0.00000E+00         0.00000E+00        -0.19107E+08
 
   -0.27831E+08        -0.15046E+07         0.00000E+00
   -0.15046E+07        -0.36744E+08         0.00000E+00
    0.00000E+00         0.00000E+00        -0.18830E+08
 
   -0.26505E+08        -0.11988E+07         0.00000E+00
   -0.11988E+07        -0.36784E+08         0.00000E+00
    0.00000E+00         0.00000E+00        -0.18568E+08
 
   -0.25243E+08        -0.77795E+06         0.00000E+00
   -0.77795E+06        -0.36839E+08         0.00000E+00
    0.00000E+00         0.00000E+00        -0.18324E+08
 
   -0.24032E+08        -0.24949E+06         0.00000E+00
   -0.24949E+06        -0.36924E+08         0.00000E+00
    0.00000E+00         0.00000E+00        -0.18097E+08
 
   -0.22857E+08         0.38711E+06         0.00000E+00
    0.38711E+06        -0.37052E+08         0.00000E+00
    0.00000E+00         0.00000E+00        -0.17887E+08
 
   -0.21709E+08         0.11395E+07         0.00000E+00
    0.11395E+07        -0.37235E+08         0.00000E+00
    0.00000E+00         0.00000E+00        -0.17694E+08
 
   -0.20584E+08         0.20215E+07         0.00000E+00
    0.20215E+07        -0.37478E+08         0.00000E+00
    0.00000E+00         0.00000E+00        -0.17520E+08
 
   -0.19491E+08         0.30506E+07         0.00000E+00
    0.30506E+07        -0.37779E+08         0.00000E+00
    0.00000E+00         0.00000E+00        -0.17364E+08
 
   -0.18454E+08         0.42439E+07         0.00000E+00
    0.42439E+07        -0.38126E+08         0.00000E+00
    0.00000E+00         0.00000E+00        -0.17229E+08
 
   -0.17511E+08         0.56118E+07         0.00000E+00
    0.56118E+07        -0.38494E+08         0.00000E+00
    0.00000E+00         0.00000E+00        -0.17118E+08
 
   -0.38250E+08        -0.47484E+06         0.00000E+00
   -0.47484E+06        -0.38492E+08         0.00000E+00
    0.00000E+00         0.00000E+00        -0.21300E+08
 
   -0.36412E+08        -0.11769E+07         0.00000E+00
   -0.11769E+07        -0.38539E+08         0.00000E+00
    0.00000E+00         0.00000E+00        -0.20934E+08
 
   -0.34575E+08        -0.15779E+07         0.00000E+00
   -0.15779E+07        -0.38589E+08         0.00000E+00
    0.00000E+00         0.00000E+00        -0.20570E+08
 
   -0.32814E+08        -0.17318E+07         0.00000E+00
   -0.17318E+07        -0.38613E+08         0.00000E+00
    0.00000E+00         0.00000E+00        -0.20215E+08
 
   -0.31162E+08        -0.16950E+07         0.00000E+00
   -0.16950E+07        -0.38609E+08         0.00000E+00
    0.00000E+00         0.00000E+00        -0.19877E+08
 
   -0.29623E+08        -0.15127E+07         0.00000E+00
   -0.15127E+07        -0.38587E+08         0.00000E+00
    0.00000E+00         0.00000E+00        -0.19560E+08
 
   -0.28183E+08        -0.12160E+07         0.00000E+00
   -0.12160E+07        -0.38567E+08         0.00000E+00
    0.00000E+00         0.00000E+00        -0.19264E+08
 
   -0.26820E+08        -0.82192E+06         0.00000E+00
   -0.82192E+06        -0.38569E+08         0.00000E+00
    0.00000E+00         0.00000E+00        -0.18989E+08
 
   -0.25510E+08        -0.33699E+06         0.00000E+00
   -0.33699E+06        -0.38612E+08         0.00000E+00
    0.00000E+00         0.00000E+00        -0.18734E+08
 
   -0.24230E+08         0.24177E+06         0.00000E+00
    0.24177E+06        -0.38714E+08         0.00000E+00
    0.00000E+00         0.00000E+00        -0.18498E+08
 
   -0.22963E+08         0.92597E+06         0.00000E+00
    0.92597E+06        -0.38888E+08         0.00000E+00
    0.00000E+00         0.00000E+00        -0.18280E+08
 
   -0.21700E+08         0.17358E+07         0.00000E+00
    0.17358E+07        -0.39143E+08         0.00000E+00
    0.00000E+00         0.00000E+00        -0.18080E+08
 
   -0.20444E+08         0.26989E+07         0.00000E+00
    0.26989E+07        -0.39481E+08         0.00000E+00
    0.00000E+00         0.00000E+00        -0.17899E+08
 
   -0.19223E+08         0.38459E+07         0.00000E+00
    0.38459E+07        -0.39889E+08         0.00000E+00
    0.00000E+00         0.00000E+00        -0.17740E+08
 
   -0.18086E+08         0.52014E+07         0.00000E+00
    0.52014E+07        -0.40335E+08         0.00000E+00
    0.00000E+00         0.00000E+00        -0.17606E+08
 
   -0.41177E+08        -0.50762E+06         0.00000E+00
   -0.50762E+06        -0.40526E+08         0.00000E+00
    0.00000E+00         0.00000E+00        -0.22301E+08
 
   -0.38987E+08        -0.12230E+07         0.00000E+00
   -0.12230E+07        -0.40559E+08         0.00000E+00
    0.00000E+00         0.00000E+00        -0.21861E+08
 
   -0.36861E+08        -0.15927E+07         0.00000E+00
   -0.15927E+07        -0.40566E+08         0.00000E+00
    0.00000E+00         0.00000E+00        -0.21428E+08
 
   -0.34883E+08        -0.17046E+07         0.00000E+00
   -0.17046E+07        -0.40522E+08         0.00000E+00
    0.00000E+00         0.00000E+00        -0.21015E+08
 
   -0.33073E+08        -0.16380E+07         0.00000E+00
   -0.16380E+07        -0.40434E+08         0.00000E+00
    0.00000E+00         0.00000E+00        -0.20628E+08
 
   -0.31418E+08        -0.14482E+07         0.00000E+00
   -0.14482E+07        -0.40328E+08         0.00000E+00
    0.00000E+00         0.00000E+00        -0.20270E+08
 
   -0.29884E+08        -0.11673E+07         0.00000E+00
   -0.11673E+07        -0.40230E+08         0.00000E+00
    0.00000E+00         0.00000E+00        -0.19940E+08
 
   -0.28439E+08        -0.81111E+06         0.00000E+00
   -0.81111E+06        -0.40164E+08         0.00000E+00
    0.00000E+00         0.00000E+00        -0.19636E+08
 
   -0.27046E+08        -0.38364E+06         0.00000E+00
   -0.38364E+06        -0.40154E+08         0.00000E+00
    0.00000E+00         0.00000E+00        -0.19354E+08
 
   -0.25676E+08         0.12028E+06         0.00000E+00
    0.12028E+06        -0.40218E+08         0.00000E+00
    0.00000E+00         0.00000E+00        -0.19093E+08
 
   -0.24301E+08         0.71525E+06         0.00000E+00
    0.71525E+06        -0.40374E+08         0.00000E+00
    0.00000E+00         0.00000E+00        -0.18850E+08
 
   -0.22900E+08         0.14272E+07         0.00000E+00
    0.14272E+07        -0.40636E+08         0.00000E+00
    0.00000E+00         0.00000E+00        -0.18624E+08
 
   -0.21470E+08         0.22951E+07         0.00000E+00
    0.22951E+07        -0.41011E+08         0.00000E+00
    0.00000E+00         0.00000E+00        -0.18416E+08
 
   -0.20035E+08         0.33690E+07         0.00000E+00
    0.33690E+07        -0.41490E+08         0.00000E+00
    0.00000E+00         0.00000E+00        -0.18228E+08
 
   -0.18656E+08         0.46963E+07         0.00000E+00
    0.46963E+07        -0.42034E+08         0.00000E+00
    0.00000E+00         0.00000E+00        -0.18065E+08
 
   -0.44142E+08        -0.53594E+06         0.00000E+00
   -0.53594E+06        -0.42559E+08         0.00000E+00
    0.00000E+00         0.00000E+00        -0.23311E+08
 
   -0.41530E+08        -0.12320E+07         0.00000E+00
   -0.12320E+07        -0.42563E+08         0.00000E+00
    0.00000E+00         0.00000E+00        -0.22778E+08
 
   -0.39091E+08        -0.15326E+07         0.00000E+00
   -0.15326E+07        -0.42496E+08         0.00000E+00
    0.00000E+00         0.00000E+00        -0.22265E+08
 
   -0.36907E+08        -0.15808E+07         0.00000E+00
   -0.15808E+07        -0.42344E+08         0.00000E+00
    0.00000E+00         0.00000E+00        -0.21788E+08
 
   -0.34967E+08        -0.14812E+07         0.00000E+00
   -0.14812E+07        -0.42141E+08         0.00000E+00
    0.00000E+00         0.00000E+00        -0.21352E+08
 
   -0.33222E+08        -0.12916E+07         0.00000E+00
   -0.12916E+07        -0.41928E+08         0.00000E+00
    0.00000E+00         0.00000E+00        -0.20955E+08
 
   -0.31620E+08        -0.10391E+07         0.00000E+00
   -0.10391E+07        -0.41738E+08         0.00000E+00
    0.00000E+00         0.00000E+00        -0.20594E+08
 
   -0.30113E+08        -0.73500E+06         0.00000E+00
   -0.73500E+06        -0.41597E+08         0.00000E+00
    0.00000E+00         0.00000E+00        -0.20262E+08
 
   -0.28658E+08        -0.38030E+06         0.00000E+00
   -0.38030E+06        -0.41526E+08         0.00000E+00
    0.00000E+00         0.00000E+00        -0.19957E+08
 
   -0.27215E+08         0.31628E+05         0.00000E+00
    0.31628E+05        -0.41545E+08         0.00000E+00
    0.00000E+00         0.00000E+00        -0.19672E+08
 
   -0.25746E+08         0.51616E+06         0.00000E+00
    0.51616E+06        -0.41675E+08         0.00000E+00
    0.00000E+00         0.00000E+00        -0.19405E+08
 
   -0.24216E+08         0.11014E+07         0.00000E+00
    0.11014E+07        -0.41934E+08         0.00000E+00
    0.00000E+00         0.00000E+00        -0.19153E+08
 
   -0.22604E+08         0.18362E+07         0.00000E+00
    0.18362E+07        -0.42343E+08         0.00000E+00
    0.00000E+00         0.00000E+00        -0.18915E+08
 
   -0.20918E+08         0.27955E+07         0.00000E+00
    0.27955E+07        -0.42901E+08         0.00000E+00
    0.00000E+00         0.00000E+00        -0.18693E+08
 
   -0.19231E+08         0.40673E+07         0.00000E+00
    0.40673E+07        -0.43572E+08         0.00000E+00
    0.00000E+00         0.00000E+00        -0.18494E+08
 
   -0.47118E+08        -0.55344E+06         0.00000E+00
   -0.55344E+06        -0.44587E+08         0.00000E+00
    0.00000E+00         0.00000E+00        -0.24321E+08
 
   -0.43990E+08        -0.11668E+07         0.00000E+00
   -0.11668E+07        -0.44530E+08         0.00000E+00
    0.00000E+00         0.00000E+00        -0.23669E+08
 
   -0.41234E+08        -0.13465E+07         0.00000E+00
   -0.13465E+07        -0.44327E+08         0.00000E+00
    0.00000E+00         0.00000E+00        -0.23064E+08
 
   -0.38884E+08        -0.13203E+07         0.00000E+00
   -0.13203E+07        -0.44015E+08         0.00000E+00
    0.00000E+00         0.00000E+00        -0.22522E+08
 
   -0.36853E+08        -0.12010E+07         0.00000E+00
   -0.12010E+07        -0.43669E+08         0.00000E+00
    0.00000E+00         0.00000E+00        -0.22040E+08
 
   -0.35051E+08        -0.10306E+07         0.00000E+00
   -0.10306E+07        -0.43339E+08         0.00000E+00
    0.00000E+00         0.00000E+00        -0.21609E+08
 
   -0.33405E+08        -0.82539E+06         0.00000E+00
   -0.82539E+06        -0.43054E+08         0.00000E+00
    0.00000E+00         0.00000E+00        -0.21220E+08
 
   -0.31859E+08        -0.59010E+06         0.00000E+00
   -0.59010E+06        -0.42837E+08         0.00000E+00
    0.00000E+00         0.00000E+00        -0.20866E+08
 
   -0.30360E+08        -0.32330E+06         0.00000E+00
   -0.32330E+06        -0.42707E+08         0.00000E+00
    0.00000E+00         0.00000E+00        -0.20540E+08
 
   -0.28863E+08        -0.18349E+05         0.00000E+00
   -0.18349E+05        -0.42680E+08         0.00000E+00
    0.00000E+00         0.00000E+00        -0.20236E+08
 
   -0.27321E+08         0.33795E+06         0.00000E+00
    0.33795E+06        -0.42777E+08         0.00000E+00
    0.00000E+00         0.00000E+00        -0.19948E+08
 
   -0.25682E+08         0.77016E+06         0.00000E+00
    0.77016E+06        -0.43023E+08         0.00000E+00
    0.00000E+00         0.00000E+00        -0.19672E+08
 
   -0.23893E+08         0.13259E+07         0.00000E+00
    0.13259E+07        -0.43449E+08         0.00000E+00
    0.00000E+00         0.00000E+00        -0.19401E+08
 
   -0.21922E+08         0.21063E+07         0.00000E+00
    0.21063E+07        -0.44092E+08         0.00000E+00
    0.00000E+00         0.00000E+00        -0.19138E+08
 
   -0.19831E+08         0.32700E+07         0.00000E+00
    0.32700E+07        -0.44925E+08         0.00000E+00
    0.00000E+00         0.00000E+00        -0.18890E+08
 
   -0.50038E+08        -0.53745E+06         0.00000E+00
   -0.53745E+06        -0.46598E+08         0.00000E+00
    0.00000E+00         0.00000E+00        -0.25317E+08
 
   -0.46287E+08        -0.93829E+06         0.00000E+00
   -0.93829E+06        -0.46380E+08         0.00000E+00
    0.00000E+00         0.00000E+00        -0.24505E+08
 
   -0.43276E+08        -0.96259E+06         0.00000E+00
   -0.96259E+06        -0.45933E+08         0.00000E+00
    0.00000E+00         0.00000E+00        -0.23799E+08
 
   -0.40833E+08        -0.89386E+06         0.00000E+00
   -0.89386E+06        -0.45427E+08         0.00000E+00
    0.00000E+00         0.00000E+00        -0.23200E+08
 
   -0.38757E+08        -0.79067E+06         0.00000E+00
   -0.79067E+06        -0.44938E+08         0.00000E+00
    0.00000E+00         0.00000E+00        -0.22681E+08
 
   -0.36927E+08        -0.66884E+06         0.00000E+00
   -0.66884E+06        -0.44502E+08         0.00000E+00
    0.00000E+00         0.00000E+00        -0.22224E+08
 
   -0.35260E+08        -0.53298E+06         0.00000E+00
   -0.53298E+06        -0.44137E+08         0.00000E+00
    0.00000E+00         0.00000E+00        -0.21815E+08
 
   -0.33690E+08        -0.38326E+06         0.00000E+00
   -0.38326E+06        -0.43859E+08         0.00000E+00
    0.00000E+00         0.00000E+00        -0.21445E+08
 
   -0.32166E+08        -0.21729E+06         0.00000E+00
   -0.21729E+06        -0.43680E+08         0.00000E+00
    0.00000E+00         0.00000E+00        -0.21104E+08
 
   -0.30634E+08        -0.30228E+05         0.00000E+00
   -0.30228E+05        -0.43615E+08         0.00000E+00
    0.00000E+00         0.00000E+00        -0.20786E+08
 
   -0.29043E+08         0.18657E+06         0.00000E+00
    0.18657E+06        -0.43681E+08         0.00000E+00
    0.00000E+00         0.00000E+00        -0.20482E+08
 
   -0.27327E+08         0.44909E+06         0.00000E+00
    0.44909E+06        -0.43905E+08         0.00000E+00
    0.00000E+00         0.00000E+00        -0.20186E+08
 
   -0.25403E+08         0.79002E+06         0.00000E+00
    0.79002E+06        -0.44326E+08         0.00000E+00
    0.00000E+00         0.00000E+00        -0.19887E+08
 
   -0.23139E+08         0.12920E+07         0.00000E+00
    0.12920E+07        -0.45014E+08         0.00000E+00
    0.00000E+00         0.00000E+00        -0.19574E+08
 
   -0.20504E+08         0.22287E+07         0.00000E+00
    0.22287E+07        -0.46064E+08         0.00000E+00
    0.00000E+00         0.00000E+00        -0.19260E+08
 
   -0.52715E+08        -0.33867E+06         0.00000E+00
   -0.33867E+06        -0.48414E+08         0.00000E+00
    0.00000E+00         0.00000E+00        -0.26225E+08
 
   -0.48362E+08        -0.38790E+06         0.00000E+00
   -0.38790E+06        -0.47794E+08         0.00000E+00
    0.00000E+00         0.00000E+00        -0.25210E+08
 
   -0.45275E+08        -0.35575E+06         0.00000E+00
   -0.35575E+06        -0.47099E+08         0.00000E+00
    0.00000E+00         0.00000E+00        -0.24440E+08
 
   -0.42804E+08        -0.31853E+06         0.00000E+00
   -0.31853E+06        -0.46446E+08         0.00000E+00
    0.00000E+00         0.00000E+00        -0.23807E+08
 
   -0.40715E+08        -0.27688E+06         0.00000E+00
   -0.27688E+06        -0.45864E+08         0.00000E+00
    0.00000E+00         0.00000E+00        -0.23267E+08
 
   -0.38876E+08        -0.23222E+06         0.00000E+00
   -0.23222E+06        -0.45364E+08         0.00000E+00
    0.00000E+00         0.00000E+00        -0.22795E+08
 
   -0.37200E+08        -0.18446E+06         0.00000E+00
   -0.18446E+06        -0.44953E+08         0.00000E+00
    0.00000E+00         0.00000E+00        -0.22376E+08
 
   -0.35621E+08        -0.13297E+06         0.00000E+00
   -0.13297E+06        -0.44640E+08         0.00000E+00
    0.00000E+00         0.00000E+00        -0.21997E+08
 
   -0.34084E+08        -0.76609E+05         0.00000E+00
   -0.76609E+05        -0.44433E+08         0.00000E+00
    0.00000E+00         0.00000E+00        -0.21649E+08
 
   -0.32537E+08        -0.13611E+05         0.00000E+00
   -0.13611E+05        -0.44346E+08         0.00000E+00
    0.00000E+00         0.00000E+00        -0.21323E+08
 
   -0.30921E+08         0.58989E+05         0.00000E+00
    0.58989E+05        -0.44393E+08         0.00000E+00
    0.00000E+00         0.00000E+00        -0.21011E+08
 
   -0.29166E+08         0.14650E+06         0.00000E+00
    0.14650E+06        -0.44600E+08         0.00000E+00
    0.00000E+00         0.00000E+00        -0.20703E+08
 
   -0.27169E+08         0.26042E+06         0.00000E+00
    0.26042E+06        -0.45007E+08         0.00000E+00
    0.00000E+00         0.00000E+00        -0.20387E+08
 
   -0.24745E+08         0.42683E+06         0.00000E+00
    0.42683E+06        -0.45695E+08         0.00000E+00
    0.00000E+00         0.00000E+00        -0.20041E+08
 
   -0.21374E+08         0.81748E+06         0.00000E+00
    0.81748E+06        -0.46880E+08         0.00000E+00
    0.00000E+00         0.00000E+00        -0.19604E+08
 
TENSORS stresstot double 
   -0.50737E+08         0.16531E+06         0.00000E+00
    0.16531E+06        -0.59252E+08         0.00000E+00
    0.00000E+00         0.00000E+00        -0.63125E+08
 
   -0.50595E+08         0.16162E+06         0.00000E+00
    0.16162E+06        -0.58849E+08         0.00000E+00
    0.00000E+00         0.00000E+00        -0.62894E+08
 
   -0.50816E+08         0.66057E+04         0.00000E+00
    0.66057E+04        -0.58797E+08         0.00000E+00
    0.00000E+00         0.00000E+00        -0.63281E+08
 
   -0.51484E+08        -0.19692E+06         0.00000E+00
   -0.19692E+06        -0.59179E+08         0.00000E+00
    0.00000E+00         0.00000E+00        -0.64391E+08
 
   -0.52761E+08        -0.35393E+06         0.00000E+00
   -0.35393E+06        -0.59851E+08         0.00000E+00
    0.00000E+00         0.00000E+00        -0.66404E+08
 
   -0.54375E+08        -0.34924E+06         0.00000E+00
   -0.34924E+06        -0.60628E+08         0.00000E+00
    0.00000E+00         0.00000E+00        -0.68786E+08
 
   -0.56090E+08        -0.34358E+06         0.00000E+00
   -0.34358E+06        -0.61303E+08         0.00000E+00
    0.00000E+00         0.00000E+00        -0.71066E+08
 
   -0.58364E+08        -0.35805E+06         0.00000E+00
   -0.35805E+06        -0.61968E+08         0.00000E+00
    0.00000E+00         0.00000E+00        -0.72100E+08
 
   -0.60316E+08        -0.24190E+06         0.00000E+00
   -0.24190E+06        -0.62523E+08         0.00000E+00
    0.00000E+00         0.00000E+00        -0.72604E+08
 
   -0.62055E+08        -0.13349E+06         0.00000E+00
   -0.13349E+06        -0.62876E+08         0.00000E+00
    0.00000E+00         0.00000E+00        -0.73024E+08
 
   -0.63761E+08        -0.29109E+05         0.00000E+00
   -0.29109E+05        -0.63026E+08         0.00000E+00
    0.00000E+00         0.00000E+00        -0.73396E+08
 
   -0.65545E+08         0.80625E+05         0.00000E+00
    0.80625E+05        -0.62968E+08         0.00000E+00
    0.00000E+00         0.00000E+00        -0.73741E+08
 
   -0.67526E+08         0.20985E+06         0.00000E+00
    0.20985E+06        -0.62673E+08         0.00000E+00
    0.00000E+00         0.00000E+00        -0.74077E+08
 
   -0.69888E+08         0.38561E+06         0.00000E+00
    0.38561E+06        -0.62075E+08         0.00000E+00
    0.00000E+00         0.00000E+00        -0.74427E+08
 
   -0.73146E+08         0.77961E+06         0.00000E+00
    0.77961E+06        -0.60966E+08         0.00000E+00
    0.00000E+00         0.00000E+00        -0.74854E+08
 
   -0.50436E+08         0.38027E+06         0.00000E+00
    0.38027E+06        -0.60078E+08         0.00000E+00
    0.00000E+00         0.00000E+00        -0.63928E+08
 
   -0.50717E+08         0.33044E+06         0.00000E+00
    0.33044E+06        -0.60286E+08         0.00000E+00
    0.00000E+00         0.00000E+00        -0.64439E+08
 
   -0.51083E+08        -0.10306E+05         0.00000E+00
   -0.10306E+05        -0.60397E+08         0.00000E+00
    0.00000E+00         0.00000E+00        -0.65134E+08
 
   -0.51808E+08        -0.40585E+06         0.00000E+00
   -0.40585E+06        -0.60405E+08         0.00000E+00
    0.00000E+00         0.00000E+00        -0.66331E+08
 
   -0.52934E+08        -0.70464E+06         0.00000E+00
   -0.70464E+06        -0.60399E+08         0.00000E+00
    0.00000E+00         0.00000E+00        -0.67951E+08
 
   -0.54315E+08        -0.86329E+06         0.00000E+00
   -0.86329E+06        -0.60496E+08         0.00000E+00
    0.00000E+00         0.00000E+00        -0.69510E+08
 
   -0.56251E+08        -0.91135E+06         0.00000E+00
   -0.91135E+06        -0.60865E+08         0.00000E+00
    0.00000E+00         0.00000E+00        -0.70237E+08
 
   -0.58213E+08        -0.86758E+06         0.00000E+00
   -0.86758E+06        -0.61241E+08         0.00000E+00
    0.00000E+00         0.00000E+00        -0.70708E+08
 
   -0.60120E+08        -0.62345E+06         0.00000E+00
   -0.62345E+06        -0.61556E+08         0.00000E+00
    0.00000E+00         0.00000E+00        -0.71155E+08
 
   -0.61858E+08        -0.34297E+06         0.00000E+00
   -0.34297E+06        -0.61771E+08         0.00000E+00
    0.00000E+00         0.00000E+00        -0.71547E+08
 
   -0.63556E+08        -0.51581E+05         0.00000E+00
   -0.51581E+05        -0.61837E+08         0.00000E+00
    0.00000E+00         0.00000E+00        -0.71900E+08
 
   -0.65314E+08         0.26688E+06         0.00000E+00
    0.26688E+06        -0.61723E+08         0.00000E+00
    0.00000E+00         0.00000E+00        -0.72229E+08
 
   -0.67233E+08         0.64773E+06         0.00000E+00
    0.64773E+06        -0.61391E+08         0.00000E+00
    0.00000E+00         0.00000E+00        -0.72544E+08
 
   -0.69447E+08         0.11745E+07         0.00000E+00
    0.11745E+07        -0.60777E+08         0.00000E+00
    0.00000E+00         0.00000E+00        -0.72862E+08
 
   -0.71982E+08         0.21190E+07         0.00000E+00
    0.21190E+07        -0.59796E+08         0.00000E+00
    0.00000E+00         0.00000E+00        -0.73170E+08
 
   -0.50118E+08         0.93768E+05         0.00000E+00
    0.93768E+05        -0.60432E+08         0.00000E+00
    0.00000E+00         0.00000E+00        -0.64822E+08
 
   -0.50810E+08         0.20173E+06         0.00000E+00
    0.20173E+06        -0.60816E+08         0.00000E+00
    0.00000E+00         0.00000E+00        -0.66084E+08
 
   -0.51479E+08        -0.58751E+05         0.00000E+00
   -0.58751E+05        -0.60843E+08         0.00000E+00
    0.00000E+00         0.00000E+00        -0.67231E+08
 
   -0.52145E+08        -0.42551E+06         0.00000E+00
   -0.42551E+06        -0.60730E+08         0.00000E+00
    0.00000E+00         0.00000E+00        -0.68023E+08
 
   -0.53228E+08        -0.75173E+06         0.00000E+00
   -0.75173E+06        -0.60671E+08         0.00000E+00
    0.00000E+00         0.00000E+00        -0.68368E+08
 
   -0.54561E+08        -0.10316E+07         0.00000E+00
   -0.10316E+07        -0.60715E+08         0.00000E+00
    0.00000E+00         0.00000E+00        -0.68648E+08
 
   -0.56231E+08        -0.11649E+07         0.00000E+00
   -0.11649E+07        -0.60794E+08         0.00000E+00
    0.00000E+00         0.00000E+00        -0.69002E+08
 
   -0.58045E+08        -0.10587E+07         0.00000E+00
   -0.10587E+07        -0.60890E+08         0.00000E+00
    0.00000E+00         0.00000E+00        -0.69387E+08
 
   -0.59814E+08        -0.79009E+06         0.00000E+00
   -0.79009E+06        -0.60963E+08         0.00000E+00
    0.00000E+00         0.00000E+00        -0.69758E+08
 
   -0.61512E+08        -0.41792E+06         0.00000E+00
   -0.41792E+06        -0.60999E+08         0.00000E+00
    0.00000E+00         0.00000E+00        -0.70106E+08
 
   -0.63173E+08         0.13523E+05         0.00000E+00
    0.13523E+05        -0.60944E+08         0.00000E+00
    0.00000E+00         0.00000E+00        -0.70428E+08
 
   -0.64870E+08         0.51095E+06         0.00000E+00
    0.51095E+06        -0.60750E+08         0.00000E+00
    0.00000E+00         0.00000E+00        -0.70728E+08
 
   -0.66669E+08         0.11169E+07         0.00000E+00
    0.11169E+07        -0.60376E+08         0.00000E+00
    0.00000E+00         0.00000E+00        -0.71012E+08
 
   -0.68609E+08         0.19291E+07         0.00000E+00
    0.19291E+07        -0.59784E+08         0.00000E+00
    0.00000E+00         0.00000E+00        -0.71279E+08
 
   -0.70626E+08         0.31004E+07         0.00000E+00
    0.31004E+07        -0.59001E+08         0.00000E+00
    0.00000E+00         0.00000E+00        -0.71522E+08
 
   -0.49921E+08        -0.81158E+05         0.00000E+00
   -0.81158E+05        -0.60277E+08         0.00000E+00
    0.00000E+00         0.00000E+00        -0.66003E+08
 
   -0.50952E+08        -0.72014E+05         0.00000E+00
   -0.72014E+05        -0.60266E+08         0.00000E+00
    0.00000E+00         0.00000E+00        -0.66595E+08
 
   -0.51777E+08        -0.21331E+06         0.00000E+00
   -0.21331E+06        -0.60421E+08         0.00000E+00
    0.00000E+00         0.00000E+00        -0.66799E+08
 
   -0.52537E+08        -0.48948E+06         0.00000E+00
   -0.48948E+06        -0.60581E+08         0.00000E+00
    0.00000E+00         0.00000E+00        -0.66989E+08
 
   -0.53518E+08        -0.81452E+06         0.00000E+00
   -0.81452E+06        -0.60677E+08         0.00000E+00
    0.00000E+00         0.00000E+00        -0.67211E+08
 
   -0.54769E+08        -0.10585E+07         0.00000E+00
   -0.10585E+07        -0.60714E+08         0.00000E+00
    0.00000E+00         0.00000E+00        -0.67473E+08
 
   -0.56241E+08        -0.11608E+07         0.00000E+00
   -0.11608E+07        -0.60687E+08         0.00000E+00
    0.00000E+00         0.00000E+00        -0.67766E+08
 
   -0.57845E+08        -0.10587E+07         0.00000E+00
   -0.10587E+07        -0.60626E+08         0.00000E+00
    0.00000E+00         0.00000E+00        -0.68078E+08
 
   -0.59471E+08        -0.77347E+06         0.00000E+00
   -0.77347E+06        -0.60556E+08         0.00000E+00
    0.00000E+00         0.00000E+00        -0.68392E+08
 
   -0.61070E+08        -0.35248E+06         0.00000E+00
   -0.35248E+06        -0.60456E+08         0.00000E+00
    0.00000E+00         0.00000E+00        -0.68693E+08
 
   -0.62651E+08         0.17624E+06         0.00000E+00
    0.17624E+06        -0.60295E+08         0.00000E+00
    0.00000E+00         0.00000E+00        -0.68977E+08
 
   -0.64246E+08         0.81289E+06         0.00000E+00
    0.81289E+06        -0.60032E+08         0.00000E+00
    0.00000E+00         0.00000E+00        -0.69243E+08
 
   -0.65883E+08         0.15925E+07         0.00000E+00
    0.15925E+07        -0.59637E+08         0.00000E+00
    0.00000E+00         0.00000E+00        -0.69490E+08
 
   -0.67559E+08         0.25810E+07         0.00000E+00
    0.25810E+07        -0.59100E+08         0.00000E+00
    0.00000E+00         0.00000E+00        -0.69715E+08
 
   -0.69202E+08         0.38563E+07         0.00000E+00
    0.38563E+07        -0.58458E+08         0.00000E+00
    0.00000E+00         0.00000E+00        -0.69912E+08
 
   -0.50041E+08        -0.10442E+06         0.00000E+00
   -0.10442E+06        -0.60036E+08         0.00000E+00
    0.00000E+00         0.00000E+00        -0.65143E+08
 
   -0.51068E+08        -0.28201E+06         0.00000E+00
   -0.28201E+06        -0.60087E+08         0.00000E+00
    0.00000E+00         0.00000E+00        -0.65367E+08
 
   -0.51970E+08        -0.42164E+06         0.00000E+00
   -0.42164E+06        -0.60275E+08         0.00000E+00
    0.00000E+00         0.00000E+00        -0.65592E+08
 
   -0.52814E+08        -0.63646E+06         0.00000E+00
   -0.63646E+06        -0.60445E+08         0.00000E+00
    0.00000E+00         0.00000E+00        -0.65802E+08
 
   -0.53775E+08        -0.87408E+06         0.00000E+00
   -0.87408E+06        -0.60545E+08         0.00000E+00
    0.00000E+00         0.00000E+00        -0.66020E+08
 
   -0.54916E+08        -0.10458E+07         0.00000E+00
   -0.10458E+07        -0.60560E+08         0.00000E+00
    0.00000E+00         0.00000E+00        -0.66256E+08
 
   -0.56221E+08        -0.10849E+07         0.00000E+00
   -0.10849E+07        -0.60503E+08         0.00000E+00
    0.00000E+00         0.00000E+00        -0.66509E+08
 
   -0.57637E+08        -0.95345E+06         0.00000E+00
   -0.95345E+06        -0.60392E+08         0.00000E+00
    0.00000E+00         0.00000E+00        -0.66773E+08
 
   -0.59099E+08        -0.64713E+06         0.00000E+00
   -0.64713E+06        -0.60246E+08         0.00000E+00
    0.00000E+00         0.00000E+00        -0.67038E+08
 
   -0.60566E+08        -0.18567E+06         0.00000E+00
   -0.18567E+06        -0.60066E+08         0.00000E+00
    0.00000E+00         0.00000E+00        -0.67297E+08
 
   -0.62027E+08         0.41350E+06         0.00000E+00
    0.41350E+06        -0.59836E+08         0.00000E+00
    0.00000E+00         0.00000E+00        -0.67543E+08
 
   -0.63487E+08         0.11508E+07         0.00000E+00
    0.11508E+07        -0.59533E+08         0.00000E+00
    0.00000E+00         0.00000E+00        -0.67774E+08
 
   -0.64950E+08         0.20474E+07         0.00000E+00
    0.20474E+07        -0.59140E+08         0.00000E+00
    0.00000E+00         0.00000E+00        -0.67987E+08
 
   -0.66393E+08         0.31401E+07         0.00000E+00
    0.31401E+07        -0.58660E+08         0.00000E+00
    0.00000E+00         0.00000E+00        -0.68177E+08
 
   -0.67759E+08         0.44642E+07         0.00000E+00
    0.44642E+07        -0.58123E+08         0.00000E+00
    0.00000E+00         0.00000E+00        -0.68339E+08
 
   -0.50277E+08        -0.14679E+06         0.00000E+00
   -0.14679E+06        -0.60014E+08         0.00000E+00
    0.00000E+00         0.00000E+00        -0.63970E+08
 
   -0.51255E+08        -0.38638E+06         0.00000E+00
   -0.38638E+06        -0.60084E+08         0.00000E+00
    0.00000E+00         0.00000E+00        -0.64188E+08
 
   -0.52147E+08        -0.58250E+06         0.00000E+00
   -0.58250E+06        -0.60188E+08         0.00000E+00
    0.00000E+00         0.00000E+00        -0.64395E+08
 
   -0.53019E+08        -0.76241E+06         0.00000E+00
   -0.76241E+06        -0.60306E+08         0.00000E+00
    0.00000E+00         0.00000E+00        -0.64599E+08
 
   -0.53948E+08        -0.92288E+06         0.00000E+00
   -0.92288E+06        -0.60378E+08         0.00000E+00
    0.00000E+00         0.00000E+00        -0.64805E+08
 
   -0.54990E+08        -0.10145E+07         0.00000E+00
   -0.10145E+07        -0.60379E+08         0.00000E+00
    0.00000E+00         0.00000E+00        -0.65018E+08
 
   -0.56149E+08        -0.98692E+06         0.00000E+00
   -0.98692E+06        -0.60308E+08         0.00000E+00
    0.00000E+00         0.00000E+00        -0.65239E+08
 
   -0.57397E+08        -0.80760E+06         0.00000E+00
   -0.80760E+06        -0.60179E+08         0.00000E+00
    0.00000E+00         0.00000E+00        -0.65466E+08
 
   -0.58694E+08        -0.46524E+06         0.00000E+00
   -0.46524E+06        -0.60004E+08         0.00000E+00
    0.00000E+00         0.00000E+00        -0.65692E+08
 
   -0.60011E+08         0.36530E+05         0.00000E+00
    0.36530E+05        -0.59789E+08         0.00000E+00
    0.00000E+00         0.00000E+00        -0.65914E+08
 
   -0.61328E+08         0.69101E+06         0.00000E+00
    0.69101E+06        -0.59528E+08         0.00000E+00
    0.00000E+00         0.00000E+00        -0.66125E+08
 
   -0.62636E+08         0.14986E+07         0.00000E+00
    0.14986E+07        -0.59213E+08         0.00000E+00
    0.00000E+00         0.00000E+00        -0.66323E+08
 
   -0.63924E+08         0.24702E+07         0.00000E+00
    0.24702E+07        -0.58839E+08         0.00000E+00
    0.00000E+00         0.00000E+00        -0.66504E+08
 
   -0.65165E+08         0.36225E+07         0.00000E+00
    0.36225E+07        -0.58411E+08         0.00000E+00
    0.00000E+00         0.00000E+00        -0.66665E+08
 
   -0.66316E+08         0.49671E+07         0.00000E+00
    0.49671E+07        -0.57956E+08         0.00000E+00
    0.00000E+00         0.00000E+00        -0.66800E+08
 
   -0.50581E+08        -0.17778E+06         0.00000E+00
   -0.17778E+06        -0.60012E+08         0.00000E+00
    0.00000E+00         0.00000E+00        -0.62815E+08
 
   -0.51485E+08        -0.46345E+06         0.00000E+00
   -0.46345E+06        -0.60055E+08         0.00000E+00
    0.00000E+00         0.00000E+00        -0.63013E+08
 
   -0.52335E+08        -0.67962E+06         0.00000E+00
   -0.67962E+06        -0.60126E+08         0.00000E+00
    0.00000E+00         0.00000E+00        -0.63204E+08
 
   -0.53173E+08        -0.84318E+06         0.00000E+00
   -0.84318E+06        -0.60194E+08         0.00000E+00
    0.00000E+00         0.00000E+00        -0.63392E+08
 
   -0.54048E+08        -0.94899E+06         0.00000E+00
   -0.94899E+06        -0.60232E+08         0.00000E+00
    0.00000E+00         0.00000E+00        -0.63580E+08
 
   -0.54994E+08        -0.97258E+06         0.00000E+00
   -0.97258E+06        -0.60216E+08         0.00000E+00
    0.00000E+00         0.00000E+00        -0.63770E+08
 
   -0.56019E+08        -0.88140E+06         0.00000E+00
   -0.88140E+06        -0.60139E+08         0.00000E+00
    0.00000E+00         0.00000E+00        -0.63963E+08
 
   -0.57113E+08        -0.64981E+06         0.00000E+00
   -0.64981E+06        -0.60007E+08         0.00000E+00
    0.00000E+00         0.00000E+00        -0.64158E+08
 
   -0.58251E+08        -0.26427E+06         0.00000E+00
   -0.26427E+06        -0.59826E+08         0.00000E+00
    0.00000E+00         0.00000E+00        -0.64351E+08
 
   -0.59411E+08         0.27872E+06         0.00000E+00
    0.27872E+06        -0.59604E+08         0.00000E+00
    0.00000E+00         0.00000E+00        -0.64540E+08
 
   -0.60573E+08         0.97855E+06         0.00000E+00
    0.97855E+06        -0.59341E+08         0.00000E+00
    0.00000E+00         0.00000E+00        -0.64720E+08
 
   -0.61723E+08         0.18359E+07         0.00000E+00
    0.18359E+07        -0.59035E+08         0.00000E+00
    0.00000E+00         0.00000E+00        -0.64888E+08
 
   -0.62842E+08         0.28548E+07         0.00000E+00
    0.28548E+07        -0.58690E+08         0.00000E+00
    0.00000E+00         0.00000E+00        -0.65041E+08
 
   -0.63907E+08         0.40399E+07         0.00000E+00
    0.40399E+07        -0.58313E+08         0.00000E+00
    0.00000E+00         0.00000E+00        -0.65176E+08
 
   -0.64881E+08         0.53904E+07         0.00000E+00
    0.53904E+07        -0.57924E+08         0.00000E+00
    0.00000E+00         0.00000E+00        -0.65290E+08
 
   -0.50931E+08        -0.19767E+06         0.00000E+00
   -0.19767E+06        -0.60007E+08         0.00000E+00
    0.00000E+00         0.00000E+00        -0.61669E+08
 
   -0.51744E+08        -0.51237E+06         0.00000E+00
   -0.51237E+06        -0.60033E+08         0.00000E+00
    0.00000E+00         0.00000E+00        -0.61845E+08
 
   -0.52522E+08        -0.73782E+06         0.00000E+00
   -0.73782E+06        -0.60074E+08         0.00000E+00
    0.00000E+00         0.00000E+00        -0.62016E+08
 
   -0.53296E+08        -0.88517E+06         0.00000E+00
   -0.88517E+06        -0.60110E+08         0.00000E+00
    0.00000E+00         0.00000E+00        -0.62184E+08
 
   -0.54093E+08        -0.95150E+06         0.00000E+00
   -0.95150E+06        -0.60120E+08         0.00000E+00
    0.00000E+00         0.00000E+00        -0.62350E+08
 
   -0.54936E+08        -0.92179E+06         0.00000E+00
   -0.92179E+06        -0.60090E+08         0.00000E+00
    0.00000E+00         0.00000E+00        -0.62517E+08
 
   -0.55834E+08        -0.77561E+06         0.00000E+00
   -0.77561E+06        -0.60011E+08         0.00000E+00
    0.00000E+00         0.00000E+00        -0.62684E+08
 
   -0.56782E+08        -0.49424E+06         0.00000E+00
   -0.49424E+06        -0.59883E+08         0.00000E+00
    0.00000E+00         0.00000E+00        -0.62851E+08
 
   -0.57766E+08        -0.65281E+05         0.00000E+00
   -0.65281E+05        -0.59711E+08         0.00000E+00
    0.00000E+00         0.00000E+00        -0.63015E+08
 
   -0.58770E+08         0.51717E+06         0.00000E+00
    0.51717E+06        -0.59499E+08         0.00000E+00
    0.00000E+00         0.00000E+00        -0.63174E+08
 
   -0.59776E+08         0.12549E+07         0.00000E+00
    0.12549E+07        -0.59251E+08         0.00000E+00
    0.00000E+00         0.00000E+00        -0.63325E+08
 
   -0.60768E+08         0.21484E+07         0.00000E+00
    0.21484E+07        -0.58970E+08         0.00000E+00
    0.00000E+00         0.00000E+00        -0.63467E+08
 
   -0.61728E+08         0.31974E+07         0.00000E+00
    0.31974E+07        -0.58661E+08         0.00000E+00
    0.00000E+00         0.00000E+00        -0.63595E+08
 
   -0.62633E+08         0.44001E+07         0.00000E+00
    0.44001E+07        -0.58333E+08         0.00000E+00
    0.00000E+00         0.00000E+00        -0.63709E+08
 
   -0.63458E+08         0.57493E+07         0.00000E+00
    0.57493E+07        -0.58000E+08         0.00000E+00
    0.00000E+00         0.00000E+00        -0.63804E+08
 
   -0.51309E+08        -0.20859E+06         0.00000E+00
   -0.20859E+06        -0.60003E+08         0.00000E+00
    0.00000E+00         0.00000E+00        -0.60529E+08
 
   -0.52017E+08        -0.53962E+06         0.00000E+00
   -0.53962E+06        -0.60017E+08         0.00000E+00
    0.00000E+00         0.00000E+00        -0.60681E+08
 
   -0.52706E+08        -0.76796E+06         0.00000E+00
   -0.76796E+06        -0.60037E+08         0.00000E+00
    0.00000E+00         0.00000E+00        -0.60829E+08
 
   -0.53392E+08        -0.90107E+06         0.00000E+00
   -0.90107E+06        -0.60050E+08         0.00000E+00
    0.00000E+00         0.00000E+00        -0.60975E+08
 
   -0.54095E+08        -0.93690E+06         0.00000E+00
   -0.93690E+06        -0.60044E+08         0.00000E+00
    0.00000E+00         0.00000E+00        -0.61119E+08
 
   -0.54828E+08        -0.86584E+06         0.00000E+00
   -0.86584E+06        -0.60006E+08         0.00000E+00
    0.00000E+00         0.00000E+00        -0.61262E+08
 
   -0.55599E+08        -0.67437E+06         0.00000E+00
   -0.67437E+06        -0.59929E+08         0.00000E+00
    0.00000E+00         0.00000E+00        -0.61404E+08
 
   -0.56407E+08        -0.34928E+06         0.00000E+00
   -0.34928E+06        -0.59812E+08         0.00000E+00
    0.00000E+00         0.00000E+00        -0.61545E+08
 
   -0.57242E+08         0.11941E+06         0.00000E+00
    0.11941E+06        -0.59656E+08         0.00000E+00
    0.00000E+00         0.00000E+00        -0.61682E+08
 
   -0.58093E+08         0.73741E+06         0.00000E+00
    0.73741E+06        -0.59464E+08         0.00000E+00
    0.00000E+00         0.00000E+00        -0.61814E+08
 
   -0.58945E+08         0.15069E+07         0.00000E+00
    0.15069E+07        -0.59242E+08         0.00000E+00
    0.00000E+00         0.00000E+00        -0.61940E+08
 
   -0.59785E+08         0.24273E+07         0.00000E+00
    0.24273E+07        -0.58994E+08         0.00000E+00
    0.00000E+00         0.00000E+00        -0.62058E+08
 
   -0.60594E+08         0.34963E+07         0.00000E+00
    0.34963E+07        -0.58725E+08         0.00000E+00
    0.00000E+00         0.00000E+00        -0.62164E+08
 
   -0.61355E+08         0.47082E+07         0.00000E+00
    0.47082E+07        -0.58444E+08         0.00000E+00
    0.00000E+00         0.00000E+00        -0.62258E+08
 
   -0.62047E+08         0.60531E+07         0.00000E+00
    0.60531E+07        -0.58163E+08         0.00000E+00
    0.00000E+00         0.00000E+00        -0.62338E+08
 
   -0.51702E+08        -0.21337E+06         0.00000E+00
   -0.21337E+06        -0.60001E+08         0.00000E+00
    0.00000E+00         0.00000E+00        -0.59393E+08
 
   -0.52297E+08        -0.55209E+06         0.00000E+00
   -0.55209E+06        -0.60006E+08         0.00000E+00
    0.00000E+00         0.00000E+00        -0.59520E+08
 
   -0.52883E+08        -0.78002E+06         0.00000E+00
   -0.78002E+06        -0.60014E+08         0.00000E+00
    0.00000E+00         0.00000E+00        -0.59645E+08
 
   -0.53468E+08        -0.90110E+06         0.00000E+00
   -0.90110E+06        -0.60015E+08         0.00000E+00
    0.00000E+00         0.00000E+00        -0.59768E+08
 
   -0.54064E+08        -0.91337E+06         0.00000E+00
   -0.91337E+06        -0.60000E+08         0.00000E+00
    0.00000E+00         0.00000E+00        -0.59889E+08
 
   -0.54681E+08        -0.81020E+06         0.00000E+00
   -0.81020E+06        -0.59961E+08         0.00000E+00
    0.00000E+00         0.00000E+00        -0.60008E+08
 
   -0.55324E+08        -0.58238E+06         0.00000E+00
   -0.58238E+06        -0.59892E+08         0.00000E+00
    0.00000E+00         0.00000E+00        -0.60125E+08
 
   -0.55993E+08        -0.22066E+06         0.00000E+00
   -0.22066E+06        -0.59790E+08         0.00000E+00
    0.00000E+00         0.00000E+00        -0.60241E+08
 
   -0.56683E+08         0.28232E+06         0.00000E+00
    0.28232E+06        -0.59655E+08         0.00000E+00
    0.00000E+00         0.00000E+00        -0.60353E+08
 
   -0.57385E+08         0.93096E+06         0.00000E+00
    0.93096E+06        -0.59491E+08         0.00000E+00
    0.00000E+00         0.00000E+00        -0.60461E+08
 
   -0.58088E+08         0.17266E+07         0.00000E+00
    0.17266E+07        -0.59300E+08         0.00000E+00
    0.00000E+00         0.00000E+00        -0.60564E+08
 
   -0.58780E+08         0.26680E+07         0.00000E+00
    0.26680E+07        -0.59089E+08         0.00000E+00
    0.00000E+00         0.00000E+00        -0.60659E+08
 
   -0.59447E+08         0.37507E+07         0.00000E+00
    0.37507E+07        -0.58862E+08         0.00000E+00
    0.00000E+00         0.00000E+00        -0.60746E+08
 
   -0.60074E+08         0.49676E+07         0.00000E+00
    0.49676E+07        -0.58628E+08         0.00000E+00
    0.00000E+00         0.00000E+00        -0.60822E+08
 
   -0.60646E+08         0.63076E+07         0.00000E+00
    0.63076E+07        -0.58394E+08         0.00000E+00
    0.00000E+00         0.00000E+00        -0.60887E+08
 
   -0.52101E+08        -0.21468E+06         0.00000E+00
   -0.21468E+06        -0.60000E+08         0.00000E+00
    0.00000E+00         0.00000E+00        -0.58258E+08
 
   -0.52580E+08        -0.55630E+06         0.00000E+00
   -0.55630E+06        -0.60001E+08         0.00000E+00
    0.00000E+00         0.00000E+00        -0.58361E+08
 
   -0.53055E+08        -0.78257E+06         0.00000E+00
   -0.78257E+06        -0.60003E+08         0.00000E+00
    0.00000E+00         0.00000E+00        -0.58462E+08
 
   -0.53528E+08        -0.89411E+06         0.00000E+00
   -0.89411E+06        -0.60000E+08         0.00000E+00
    0.00000E+00         0.00000E+00        -0.58561E+08
 
   -0.54009E+08        -0.88848E+06         0.00000E+00
   -0.88848E+06        -0.59985E+08         0.00000E+00
    0.00000E+00         0.00000E+00        -0.58659E+08
 
   -0.54503E+08        -0.76066E+06         0.00000E+00
   -0.76066E+06        -0.59951E+08         0.00000E+00
    0.00000E+00         0.00000E+00        -0.58754E+08
 
   -0.55015E+08        -0.50420E+06         0.00000E+00
   -0.50420E+06        -0.59894E+08         0.00000E+00
    0.00000E+00         0.00000E+00        -0.58848E+08
 
   -0.55546E+08        -0.11274E+06         0.00000E+00
   -0.11274E+06        -0.59811E+08         0.00000E+00
    0.00000E+00         0.00000E+00        -0.58939E+08
 
   -0.56093E+08         0.41873E+06         0.00000E+00
    0.41873E+06        -0.59702E+08         0.00000E+00
    0.00000E+00         0.00000E+00        -0.59028E+08
 
   -0.56651E+08         0.10930E+07         0.00000E+00
    0.10930E+07        -0.59568E+08         0.00000E+00
    0.00000E+00         0.00000E+00        -0.59113E+08
 
   -0.57210E+08         0.19102E+07         0.00000E+00
    0.19102E+07        -0.59413E+08         0.00000E+00
    0.00000E+00         0.00000E+00        -0.59193E+08
 
   -0.57761E+08         0.28680E+07         0.00000E+00
    0.28680E+07        -0.59241E+08         0.00000E+00
    0.00000E+00         0.00000E+00        -0.59268E+08
 
   -0.58293E+08         0.39609E+07         0.00000E+00
    0.39609E+07        -0.59057E+08         0.00000E+00
    0.00000E+00         0.00000E+00        -0.59336E+08
 
   -0.58795E+08         0.51809E+07         0.00000E+00
    0.51809E+07        -0.58867E+08         0.00000E+00
    0.00000E+00         0.00000E+00        -0.59397E+08
 
   -0.59254E+08         0.65165E+07         0.00000E+00
    0.65165E+07        -0.58678E+08         0.00000E+00
    0.00000E+00         0.00000E+00        -0.59449E+08
 
   -0.52502E+08        -0.21480E+06         0.00000E+00
   -0.21480E+06        -0.60000E+08         0.00000E+00
    0.00000E+00         0.00000E+00        -0.57124E+08
 
   -0.52864E+08        -0.55779E+06         0.00000E+00
   -0.55779E+06        -0.60001E+08         0.00000E+00
    0.00000E+00         0.00000E+00        -0.57203E+08
 
   -0.53222E+08        -0.78280E+06         0.00000E+00
   -0.78280E+06        -0.60003E+08         0.00000E+00
    0.00000E+00         0.00000E+00        -0.57281E+08
 
   -0.53577E+08        -0.88757E+06         0.00000E+00
   -0.88757E+06        -0.60002E+08         0.00000E+00
    0.00000E+00         0.00000E+00        -0.57356E+08
 
   -0.53935E+08        -0.86887E+06         0.00000E+00
   -0.86887E+06        -0.59992E+08         0.00000E+00
    0.00000E+00         0.00000E+00        -0.57430E+08
 
   -0.54301E+08        -0.72254E+06         0.00000E+00
   -0.72254E+06        -0.59970E+08         0.00000E+00
    0.00000E+00         0.00000E+00        -0.57501E+08
 
   -0.54680E+08        -0.44396E+06         0.00000E+00
   -0.44396E+06        -0.59930E+08         0.00000E+00
    0.00000E+00         0.00000E+00        -0.57571E+08
 
   -0.55073E+08        -0.28919E+05         0.00000E+00
   -0.28919E+05        -0.59869E+08         0.00000E+00
    0.00000E+00         0.00000E+00        -0.57639E+08
 
   -0.55479E+08         0.52561E+06         0.00000E+00
    0.52561E+06        -0.59788E+08         0.00000E+00
    0.00000E+00         0.00000E+00        -0.57705E+08
 
   -0.55895E+08         0.12208E+07         0.00000E+00
    0.12208E+07        -0.59687E+08         0.00000E+00
    0.00000E+00         0.00000E+00        -0.57768E+08
 
   -0.56314E+08         0.20557E+07         0.00000E+00
    0.20557E+07        -0.59569E+08         0.00000E+00
    0.00000E+00         0.00000E+00        -0.57828E+08
 
   -0.56729E+08         0.30266E+07         0.00000E+00
    0.30266E+07        -0.59437E+08         0.00000E+00
    0.00000E+00         0.00000E+00        -0.57884E+08
 
   -0.57133E+08         0.41277E+07         0.00000E+00
    0.41277E+07        -0.59295E+08         0.00000E+00
    0.00000E+00         0.00000E+00        -0.57935E+08
 
   -0.57515E+08         0.53501E+07         0.00000E+00
    0.53501E+07        -0.59148E+08         0.00000E+00
    0.00000E+00         0.00000E+00        -0.57980E+08
 
   -0.57869E+08         0.66825E+07         0.00000E+00
    0.66825E+07        -0.59001E+08         0.00000E+00
    0.00000E+00         0.00000E+00        -0.58020E+08
 
   -0.52904E+08        -0.21556E+06         0.00000E+00
   -0.21556E+06        -0.60001E+08         0.00000E+00
    0.00000E+00         0.00000E+00        -0.55991E+08
 
   -0.53149E+08        -0.56101E+06         0.00000E+00
   -0.56101E+06        -0.60004E+08         0.00000E+00
    0.00000E+00         0.00000E+00        -0.56047E+08
 
   -0.53386E+08        -0.78655E+06         0.00000E+00
   -0.78655E+06        -0.60011E+08         0.00000E+00
    0.00000E+00         0.00000E+00        -0.56100E+08
 
   -0.53617E+08        -0.88756E+06         0.00000E+00
   -0.88756E+06        -0.60017E+08         0.00000E+00
    0.00000E+00         0.00000E+00        -0.56152E+08
 
   -0.53847E+08        -0.86004E+06         0.00000E+00
   -0.86004E+06        -0.60019E+08         0.00000E+00
    0.00000E+00         0.00000E+00        -0.56202E+08
 
   -0.54082E+08        -0.70032E+06         0.00000E+00
   -0.70032E+06        -0.60011E+08         0.00000E+00
    0.00000E+00         0.00000E+00        -0.56250E+08
 
   -0.54325E+08        -0.40508E+06         0.00000E+00
   -0.40508E+06        -0.59991E+08         0.00000E+00
    0.00000E+00         0.00000E+00        -0.56296E+08
 
   -0.54579E+08         0.28257E+05         0.00000E+00
    0.28257E+05        -0.59956E+08         0.00000E+00
    0.00000E+00         0.00000E+00        -0.56341E+08
 
   -0.54846E+08         0.60107E+06         0.00000E+00
    0.60107E+06        -0.59905E+08         0.00000E+00
    0.00000E+00         0.00000E+00        -0.56385E+08
 
   -0.55122E+08         0.13131E+07         0.00000E+00
    0.13131E+07        -0.59838E+08         0.00000E+00
    0.00000E+00         0.00000E+00        -0.56426E+08
 
   -0.55404E+08         0.21623E+07         0.00000E+00
    0.21623E+07        -0.59757E+08         0.00000E+00
    0.00000E+00         0.00000E+00        -0.56466E+08
 
   -0.55688E+08         0.31441E+07         0.00000E+00
    0.31441E+07        -0.59665E+08         0.00000E+00
    0.00000E+00         0.00000E+00        -0.56504E+08
 
   -0.55967E+08         0.42521E+07         0.00000E+00
    0.42521E+07        -0.59565E+08         0.00000E+00
    0.00000E+00         0.00000E+00        -0.56538E+08
 
   -0.56236E+08         0.54770E+07         0.00000E+00
    0.54770E+07        -0.59460E+08         0.00000E+00
    0.00000E+00         0.00000E+00        -0.56570E+08
 
   -0.56489E+08         0.68076E+07         0.00000E+00
    0.68076E+07        -0.59354E+08         0.00000E+00
    0.00000E+00         0.00000E+00        -0.56597E+08
 
   -0.53310E+08        -0.21832E+06         0.00000E+00
   -0.21832E+06        -0.60002E+08         0.00000E+00
    0.00000E+00         0.00000E+00        -0.54859E+08
 
   -0.53438E+08        -0.56937E+06         0.00000E+00
   -0.56937E+06        -0.60010E+08         0.00000E+00
    0.00000E+00         0.00000E+00        -0.54891E+08
 
   -0.53551E+08        -0.79832E+06         0.00000E+00
   -0.79832E+06        -0.60024E+08         0.00000E+00
    0.00000E+00         0.00000E+00        -0.54921E+08
 
   -0.53653E+08        -0.89879E+06         0.00000E+00
   -0.89879E+06        -0.60042E+08         0.00000E+00
    0.00000E+00         0.00000E+00        -0.54949E+08
 
   -0.53750E+08        -0.86626E+06         0.00000E+00
   -0.86626E+06        -0.60059E+08         0.00000E+00
    0.00000E+00         0.00000E+00        -0.54975E+08
 
   -0.53849E+08        -0.69745E+06         0.00000E+00
   -0.69745E+06        -0.60070E+08         0.00000E+00
    0.00000E+00         0.00000E+00        -0.54999E+08
 
   -0.53954E+08        -0.39007E+06         0.00000E+00
   -0.39007E+06        -0.60073E+08         0.00000E+00
    0.00000E+00         0.00000E+00        -0.55022E+08
 
   -0.54069E+08         0.57108E+05         0.00000E+00
    0.57108E+05        -0.60065E+08         0.00000E+00
    0.00000E+00         0.00000E+00        -0.55044E+08
 
   -0.54196E+08         0.64412E+06         0.00000E+00
    0.64412E+06        -0.60044E+08         0.00000E+00
    0.00000E+00         0.00000E+00        -0.55065E+08
 
   -0.54334E+08         0.13695E+07         0.00000E+00
    0.13695E+07        -0.60011E+08         0.00000E+00
    0.00000E+00         0.00000E+00        -0.55086E+08
 
   -0.54482E+08         0.22302E+07         0.00000E+00
    0.22302E+07        -0.59968E+08         0.00000E+00
    0.00000E+00         0.00000E+00        -0.55107E+08
 
   -0.54638E+08         0.32211E+07         0.00000E+00
    0.32211E+07        -0.59915E+08         0.00000E+00
    0.00000E+00         0.00000E+00        -0.55126E+08
 
   -0.54797E+08         0.43351E+07         0.00000E+00
    0.43351E+07        -0.59855E+08         0.00000E+00
    0.00000E+00         0.00000E+00        -0.55145E+08
 
   -0.54956E+08         0.55630E+07         0.00000E+00
    0.55630E+07        -0.59790E+08         0.00000E+00
    0.00000E+00         0.00000E+00        -0.55163E+08
 
   -0.55111E+08         0.68933E+07         0.00000E+00
    0.68933E+07        -0.59724E+08         0.00000E+00
    0.00000E+00         0.00000E+00        -0.55179E+08
 
   -0.53725E+08        -0.22406E+06         0.00000E+00
   -0.22406E+06        -0.60003E+08         0.00000E+00
    0.00000E+00         0.00000E+00        -0.53729E+08
 
   -0.53733E+08        -0.58534E+06         0.00000E+00
   -0.58534E+06        -0.60017E+08         0.00000E+00
    0.00000E+00         0.00000E+00        -0.53738E+08
 
   -0.53718E+08        -0.82133E+06         0.00000E+00
   -0.82133E+06        -0.60042E+08         0.00000E+00
    0.00000E+00         0.00000E+00        -0.53744E+08
 
   -0.53687E+08        -0.92462E+06         0.00000E+00
   -0.92462E+06        -0.60074E+08         0.00000E+00
    0.00000E+00         0.00000E+00        -0.53747E+08
 
   -0.53648E+08        -0.89050E+06         0.00000E+00
   -0.89050E+06        -0.60108E+08         0.00000E+00
    0.00000E+00         0.00000E+00        -0.53748E+08
 
   -0.53607E+08        -0.71621E+06         0.00000E+00
   -0.71621E+06        -0.60140E+08         0.00000E+00
    0.00000E+00         0.00000E+00        -0.53748E+08
 
   -0.53572E+08        -0.40045E+06         0.00000E+00
   -0.40045E+06        -0.60167E+08         0.00000E+00
    0.00000E+00         0.00000E+00        -0.53747E+08
 
   -0.53547E+08         0.56859E+05         0.00000E+00
    0.56859E+05        -0.60186E+08         0.00000E+00
    0.00000E+00         0.00000E+00        -0.53747E+08
 
   -0.53534E+08         0.65457E+06         0.00000E+00
    0.65457E+06        -0.60196E+08         0.00000E+00
    0.00000E+00         0.00000E+00        -0.53746E+08
 
   -0.53536E+08         0.13903E+07         0.00000E+00
    0.13903E+07        -0.60198E+08         0.00000E+00
    0.00000E+00         0.00000E+00        -0.53746E+08
 
   -0.53552E+08         0.22601E+07         0.00000E+00
    0.22601E+07        -0.60190E+08         0.00000E+00
    0.00000E+00         0.00000E+00        -0.53747E+08
 
   -0.53581E+08         0.32584E+07         0.00000E+00
    0.32584E+07        -0.60176E+08         0.00000E+00
    0.00000E+00         0.00000E+00        -0.53750E+08
 
   -0.53623E+08         0.43779E+07         0.00000E+00
    0.43779E+07        -0.60155E+08         0.00000E+00
    0.00000E+00         0.00000E+00        -0.53753E+08
 
   -0.53674E+08         0.56093E+07         0.00000E+00
    0.56093E+07        -0.60130E+08         0.00000E+00
    0.00000E+00         0.00000E+00        -0.53757E+08
 
   -0.53734E+08         0.69410E+07         0.00000E+00
    0.69410E+07        -0.60102E+08         0.00000E+00
    0.00000E+00         0.00000E+00        -0.53763E+08
 
   -0.54153E+08        -0.23343E+06         0.00000E+00
   -0.23343E+06        -0.60005E+08         0.00000E+00
    0.00000E+00         0.00000E+00        -0.52602E+08
 
   -0.54040E+08        -0.61055E+06         0.00000E+00
   -0.61055E+06        -0.60026E+08         0.00000E+00
    0.00000E+00         0.00000E+00        -0.52588E+08
 
   -0.53893E+08        -0.85769E+06         0.00000E+00
   -0.85769E+06        -0.60063E+08         0.00000E+00
    0.00000E+00         0.00000E+00        -0.52569E+08
 
   -0.53724E+08        -0.96711E+06         0.00000E+00
   -0.96711E+06        -0.60110E+08         0.00000E+00
    0.00000E+00         0.00000E+00        -0.52547E+08
 
   -0.53544E+08        -0.93442E+06         0.00000E+00
   -0.93442E+06        -0.60163E+08         0.00000E+00
    0.00000E+00         0.00000E+00        -0.52523E+08
 
   -0.53360E+08        -0.75764E+06         0.00000E+00
   -0.75764E+06        -0.60216E+08         0.00000E+00
    0.00000E+00         0.00000E+00        -0.52498E+08
 
   -0.53182E+08        -0.43657E+06         0.00000E+00
   -0.43657E+06        -0.60267E+08         0.00000E+00
    0.00000E+00         0.00000E+00        -0.52473E+08
 
   -0.53015E+08         0.27727E+05         0.00000E+00
    0.27727E+05        -0.60313E+08         0.00000E+00
    0.00000E+00         0.00000E+00        -0.52449E+08
 
   -0.52863E+08         0.63308E+06         0.00000E+00
    0.63308E+06        -0.60353E+08         0.00000E+00
    0.00000E+00         0.00000E+00        -0.52426E+08
 
   -0.52729E+08         0.13763E+07         0.00000E+00
    0.13763E+07        -0.60387E+08         0.00000E+00
    0.00000E+00         0.00000E+00        -0.52405E+08
 
   -0.52613E+08         0.22529E+07         0.00000E+00
    0.22529E+07        -0.60415E+08         0.00000E+00
    0.00000E+00         0.00000E+00        -0.52387E+08
 
   -0.52518E+08         0.32572E+07         0.00000E+00
    0.32572E+07        -0.60438E+08         0.00000E+00
    0.00000E+00         0.00000E+00        -0.52372E+08
 
   -0.52444E+08         0.43816E+07         0.00000E+00
    0.43816E+07        -0.60456E+08         0.00000E+00
    0.00000E+00         0.00000E+00        -0.52360E+08
 
   -0.52390E+08         0.56168E+07         0.00000E+00
    0.56168E+07        -0.60469E+08         0.00000E+00
    0.00000E+00         0.00000E+00        -0.52351E+08
 
   -0.52356E+08         0.69514E+07         0.00000E+00
    0.69514E+07        -0.60479E+08         0.00000E+00
    0.00000E+00         0.00000E+00        -0.52346E+08
 
   -0.54604E+08        -0.24684E+06         0.00000E+00
   -0.24684E+06        -0.60007E+08         0.00000E+00
    0.00000E+00         0.00000E+00        -0.51480E+08
 
   -0.54362E+08        -0.64589E+06         0.00000E+00
   -0.64589E+06        -0.60035E+08         0.00000E+00
    0.00000E+00         0.00000E+00        -0.51441E+08
 
   -0.54078E+08        -0.90838E+06         0.00000E+00
   -0.90838E+06        -0.60084E+08         0.00000E+00
    0.00000E+00         0.00000E+00        -0.51396E+08
 
   -0.53766E+08        -0.10270E+07         0.00000E+00
   -0.10270E+07        -0.60148E+08         0.00000E+00
    0.00000E+00         0.00000E+00        -0.51348E+08
 
   -0.53440E+08        -0.99827E+06         0.00000E+00
   -0.99827E+06        -0.60219E+08         0.00000E+00
    0.00000E+00         0.00000E+00        -0.51298E+08
 
   -0.53111E+08        -0.82142E+06         0.00000E+00
   -0.82142E+06        -0.60293E+08         0.00000E+00
    0.00000E+00         0.00000E+00        -0.51247E+08
 
   -0.52787E+08        -0.49755E+06         0.00000E+00
   -0.49755E+06        -0.60367E+08         0.00000E+00
    0.00000E+00         0.00000E+00        -0.51197E+08
 
   -0.52478E+08        -0.28967E+05         0.00000E+00
   -0.28967E+05        -0.60438E+08         0.00000E+00
    0.00000E+00         0.00000E+00        -0.51149E+08
 
   -0.52186E+08         0.58122E+06         0.00000E+00
    0.58122E+06        -0.60506E+08         0.00000E+00
    0.00000E+00         0.00000E+00        -0.51103E+08
 
   -0.51916E+08         0.13292E+07         0.00000E+00
    0.13292E+07        -0.60570E+08         0.00000E+00
    0.00000E+00         0.00000E+00        -0.51061E+08
 
   -0.51670E+08         0.22102E+07         0.00000E+00
    0.22102E+07        -0.60631E+08         0.00000E+00
    0.00000E+00         0.00000E+00        -0.51024E+08
 
   -0.51451E+08         0.32186E+07         0.00000E+00
    0.32186E+07        -0.60690E+08         0.00000E+00
    0.00000E+00         0.00000E+00        -0.50991E+08
 
   -0.51261E+08         0.43470E+07         0.00000E+00
    0.43470E+07        -0.60745E+08         0.00000E+00
    0.00000E+00         0.00000E+00        -0.50964E+08
 
   -0.51101E+08         0.55864E+07         0.00000E+00
    0.55864E+07        -0.60796E+08         0.00000E+00
    0.00000E+00         0.00000E+00        -0.50942E+08
 
   -0.50974E+08         0.69253E+07         0.00000E+00
    0.69253E+07        -0.60843E+08         0.00000E+00
    0.00000E+00         0.00000E+00        -0.50926E+08
 
   -0.55083E+08        -0.26440E+06         0.00000E+00
   -0.26440E+06        -0.60009E+08         0.00000E+00
    0.00000E+00         0.00000E+00        -0.50364E+08
 
   -0.54706E+08        -0.69156E+06         0.00000E+00
   -0.69156E+06        -0.60044E+08         0.00000E+00
    0.00000E+00         0.00000E+00        -0.50298E+08
 
   -0.54277E+08        -0.97337E+06         0.00000E+00
   -0.97337E+06        -0.60106E+08         0.00000E+00
    0.00000E+00         0.00000E+00        -0.50226E+08
 
   -0.53816E+08        -0.11038E+07         0.00000E+00
   -0.11038E+07        -0.60184E+08         0.00000E+00
    0.00000E+00         0.00000E+00        -0.50150E+08
 
   -0.53339E+08        -0.10809E+07         0.00000E+00
   -0.10809E+07        -0.60272E+08         0.00000E+00
    0.00000E+00         0.00000E+00        -0.50073E+08
 
   -0.52860E+08        -0.90573E+06         0.00000E+00
   -0.90573E+06        -0.60364E+08         0.00000E+00
    0.00000E+00         0.00000E+00        -0.49995E+08
 
   -0.52390E+08        -0.58109E+06         0.00000E+00
   -0.58109E+06        -0.60458E+08         0.00000E+00
    0.00000E+00         0.00000E+00        -0.49919E+08
 
   -0.51937E+08        -0.11065E+06         0.00000E+00
   -0.11065E+06        -0.60551E+08         0.00000E+00
    0.00000E+00         0.00000E+00        -0.49846E+08
 
   -0.51505E+08         0.50155E+06         0.00000E+00
    0.50155E+06        -0.60644E+08         0.00000E+00
    0.00000E+00         0.00000E+00        -0.49777E+08
 
   -0.51100E+08         0.12512E+07         0.00000E+00
    0.12512E+07        -0.60736E+08         0.00000E+00
    0.00000E+00         0.00000E+00        -0.49713E+08
 
   -0.50723E+08         0.21338E+07         0.00000E+00
    0.21338E+07        -0.60828E+08         0.00000E+00
    0.00000E+00         0.00000E+00        -0.49656E+08
 
   -0.50380E+08         0.31439E+07         0.00000E+00
    0.31439E+07        -0.60920E+08         0.00000E+00
    0.00000E+00         0.00000E+00        -0.49605E+08
 
   -0.50074E+08         0.42749E+07         0.00000E+00
    0.42749E+07        -0.61012E+08         0.00000E+00
    0.00000E+00         0.00000E+00        -0.49562E+08
 
   -0.49808E+08         0.55182E+07         0.00000E+00
    0.55182E+07        -0.61101E+08         0.00000E+00
    0.00000E+00         0.00000E+00        -0.49527E+08
 
   -0.49588E+08         0.68626E+07         0.00000E+00
    0.68626E+07        -0.61185E+08         0.00000E+00
    0.00000E+00         0.00000E+00        -0.49500E+08
 
   -0.55599E+08        -0.28606E+06         0.00000E+00
   -0.28606E+06        -0.60010E+08         0.00000E+00
    0.00000E+00         0.00000E+00        -0.49256E+08
 
   -0.55075E+08        -0.74712E+06         0.00000E+00
   -0.74712E+06        -0.60053E+08         0.00000E+00
    0.00000E+00         0.00000E+00        -0.49161E+08
 
   -0.54492E+08        -0.10516E+07         0.00000E+00
   -0.10516E+07        -0.60125E+08         0.00000E+00
    0.00000E+00         0.00000E+00        -0.49059E+08
 
   -0.53874E+08        -0.11955E+07         0.00000E+00
   -0.11955E+07        -0.60216E+08         0.00000E+00
    0.00000E+00         0.00000E+00        -0.48954E+08
 
   -0.53242E+08        -0.11795E+07         0.00000E+00
   -0.11795E+07        -0.60318E+08         0.00000E+00
    0.00000E+00         0.00000E+00        -0.48847E+08
 
   -0.52610E+08        -0.10071E+07         0.00000E+00
   -0.10071E+07        -0.60425E+08         0.00000E+00
    0.00000E+00         0.00000E+00        -0.48741E+08
 
   -0.51992E+08        -0.68330E+06         0.00000E+00
   -0.68330E+06        -0.60534E+08         0.00000E+00
    0.00000E+00         0.00000E+00        -0.48638E+08
 
   -0.51395E+08        -0.21332E+06         0.00000E+00
   -0.21332E+06        -0.60644E+08         0.00000E+00
    0.00000E+00         0.00000E+00        -0.48539E+08
 
   -0.50824E+08         0.39782E+06         0.00000E+00
    0.39782E+06        -0.60757E+08         0.00000E+00
    0.00000E+00         0.00000E+00        -0.48445E+08
 
   -0.50284E+08         0.11457E+07         0.00000E+00
    0.11457E+07        -0.60873E+08         0.00000E+00
    0.00000E+00         0.00000E+00        -0.48359E+08
 
   -0.49777E+08         0.20261E+07         0.00000E+00
    0.20261E+07        -0.60993E+08         0.00000E+00
    0.00000E+00         0.00000E+00        -0.48281E+08
 
   -0.49309E+08         0.30347E+07         0.00000E+00
    0.30347E+07        -0.61117E+08         0.00000E+00
    0.00000E+00         0.00000E+00        -0.48212E+08
 
   -0.48884E+08         0.41659E+07         0.00000E+00
    0.41659E+07        -0.61244E+08         0.00000E+00
    0.00000E+00         0.00000E+00        -0.48153E+08
 
   -0.48510E+08         0.54121E+07         0.00000E+00
    0.54121E+07        -0.61370E+08         0.00000E+00
    0.00000E+00         0.00000E+00        -0.48104E+08
 
   -0.48194E+08         0.67629E+07         0.00000E+00
    0.67629E+07        -0.61492E+08         0.00000E+00
    0.00000E+00         0.00000E+00        -0.48067E+08
 
   -0.56158E+08        -0.31154E+06         0.00000E+00
   -0.31154E+06        -0.60012E+08         0.00000E+00
    0.00000E+00         0.00000E+00        -0.48156E+08
 
   -0.55475E+08        -0.81151E+06         0.00000E+00
   -0.81151E+06        -0.60060E+08         0.00000E+00
    0.00000E+00         0.00000E+00        -0.48030E+08
 
   -0.54726E+08        -0.11409E+07         0.00000E+00
   -0.11409E+07        -0.60142E+08         0.00000E+00
    0.00000E+00         0.00000E+00        -0.47896E+08
 
   -0.53943E+08        -0.12989E+07         0.00000E+00
   -0.12989E+07        -0.60242E+08         0.00000E+00
    0.00000E+00         0.00000E+00        -0.47758E+08
 
   -0.53149E+08        -0.12897E+07         0.00000E+00
   -0.12897E+07        -0.60353E+08         0.00000E+00
    0.00000E+00         0.00000E+00        -0.47620E+08
 
   -0.52363E+08        -0.11203E+07         0.00000E+00
   -0.11203E+07        -0.60468E+08         0.00000E+00
    0.00000E+00         0.00000E+00        -0.47484E+08
 
   -0.51596E+08        -0.79849E+06         0.00000E+00
   -0.79849E+06        -0.60586E+08         0.00000E+00
    0.00000E+00         0.00000E+00        -0.47352E+08
 
   -0.50856E+08        -0.33137E+06         0.00000E+00
   -0.33137E+06        -0.60707E+08         0.00000E+00
    0.00000E+00         0.00000E+00        -0.47226E+08
 
   -0.50147E+08         0.27512E+06         0.00000E+00
    0.27512E+06        -0.60833E+08         0.00000E+00
    0.00000E+00         0.00000E+00        -0.47107E+08
 
   -0.49472E+08         0.10166E+07         0.00000E+00
    0.10166E+07        -0.60968E+08         0.00000E+00
    0.00000E+00         0.00000E+00        -0.46998E+08
 
   -0.48835E+08         0.18900E+07         0.00000E+00
    0.18900E+07        -0.61112E+08         0.00000E+00
    0.00000E+00         0.00000E+00        -0.46899E+08
 
   -0.48241E+08         0.28923E+07         0.00000E+00
    0.28923E+07        -0.61266E+08         0.00000E+00
    0.00000E+00         0.00000E+00        -0.46811E+08
 
   -0.47695E+08         0.40200E+07         0.00000E+00
    0.40200E+07        -0.61427E+08         0.00000E+00
    0.00000E+00         0.00000E+00        -0.46735E+08
 
   -0.47208E+08         0.52674E+07         0.00000E+00
    0.52674E+07        -0.61592E+08         0.00000E+00
    0.00000E+00         0.00000E+00        -0.46672E+08
 
   -0.46791E+08         0.66250E+07         0.00000E+00
    0.66250E+07        -0.61753E+08         0.00000E+00
    0.00000E+00         0.00000E+00        -0.46622E+08
 
   -0.56767E+08        -0.34040E+06         0.00000E+00
   -0.34040E+06        -0.60013E+08         0.00000E+00
    0.00000E+00         0.00000E+00        -0.47067E+08
 
   -0.55906E+08        -0.88302E+06         0.00000E+00
   -0.88302E+06        -0.60066E+08         0.00000E+00
    0.00000E+00         0.00000E+00        -0.46905E+08
 
   -0.54979E+08        -0.12379E+07         0.00000E+00
   -0.12379E+07        -0.60154E+08         0.00000E+00
    0.00000E+00         0.00000E+00        -0.46735E+08
 
   -0.54021E+08        -0.14088E+07         0.00000E+00
   -0.14088E+07        -0.60259E+08         0.00000E+00
    0.00000E+00         0.00000E+00        -0.46562E+08
 
   -0.53061E+08        -0.14050E+07         0.00000E+00
   -0.14050E+07        -0.60372E+08         0.00000E+00
    0.00000E+00         0.00000E+00        -0.46390E+08
 
   -0.52117E+08        -0.12380E+07         0.00000E+00
   -0.12380E+07        -0.60487E+08         0.00000E+00
    0.00000E+00         0.00000E+00        -0.46222E+08
 
   -0.51202E+08        -0.91890E+06         0.00000E+00
   -0.91890E+06        -0.60605E+08         0.00000E+00
    0.00000E+00         0.00000E+00        -0.46059E+08
 
   -0.50322E+08        -0.45733E+06         0.00000E+00
   -0.45733E+06        -0.60728E+08         0.00000E+00
    0.00000E+00         0.00000E+00        -0.45905E+08
 
   -0.49477E+08         0.14003E+06         0.00000E+00
    0.14003E+06        -0.60860E+08         0.00000E+00
    0.00000E+00         0.00000E+00        -0.45761E+08
 
   -0.48671E+08         0.86928E+06         0.00000E+00
    0.86928E+06        -0.61006E+08         0.00000E+00
    0.00000E+00         0.00000E+00        -0.45627E+08
 
   -0.47904E+08         0.17288E+07         0.00000E+00
    0.17288E+07        -0.61170E+08         0.00000E+00
    0.00000E+00         0.00000E+00        -0.45506E+08
 
   -0.47181E+08         0.27183E+07         0.00000E+00
    0.27183E+07        -0.61350E+08         0.00000E+00
    0.00000E+00         0.00000E+00        -0.45398E+08
 
   -0.46510E+08         0.38371E+07         0.00000E+00
    0.38371E+07        -0.61546E+08         0.00000E+00
    0.00000E+00         0.00000E+00        -0.45304E+08
 
   -0.45903E+08         0.50822E+07         0.00000E+00
    0.50822E+07        -0.61751E+08         0.00000E+00
    0.00000E+00         0.00000E+00        -0.45226E+08
 
   -0.45377E+08         0.64462E+07         0.00000E+00
    0.64462E+07        -0.61954E+08         0.00000E+00
    0.00000E+00         0.00000E+00        -0.45164E+08
 
   -0.57431E+08        -0.37202E+06         0.00000E+00
   -0.37202E+06        -0.60015E+08         0.00000E+00
    0.00000E+00         0.00000E+00        -0.45989E+08
 
   -0.56372E+08        -0.95924E+06         0.00000E+00
   -0.95924E+06        -0.60070E+08         0.00000E+00
    0.00000E+00         0.00000E+00        -0.45786E+08
 
   -0.55249E+08        -0.13379E+07         0.00000E+00
   -0.13379E+07        -0.60159E+08         0.00000E+00
    0.00000E+00         0.00000E+00        -0.45576E+08
 
   -0.54106E+08        -0.15184E+07         0.00000E+00
   -0.15184E+07        -0.60262E+08         0.00000E+00
    0.00000E+00         0.00000E+00        -0.45365E+08
 
   -0.52974E+08        -0.15166E+07         0.00000E+00
   -0.15166E+07        -0.60368E+08         0.00000E+00
    0.00000E+00         0.00000E+00        -0.45156E+08
 
   -0.51874E+08        -0.13501E+07         0.00000E+00
   -0.13501E+07        -0.60473E+08         0.00000E+00
    0.00000E+00         0.00000E+00        -0.44953E+08
 
   -0.50814E+08        -0.10345E+07         0.00000E+00
   -0.10345E+07        -0.60580E+08         0.00000E+00
    0.00000E+00         0.00000E+00        -0.44759E+08
 
   -0.49797E+08        -0.58174E+06         0.00000E+00
   -0.58174E+06        -0.60694E+08         0.00000E+00
    0.00000E+00         0.00000E+00        -0.44576E+08
 
   -0.48822E+08         0.75027E+03         0.00000E+00
    0.75027E+03        -0.60822E+08         0.00000E+00
    0.00000E+00         0.00000E+00        -0.44404E+08
 
   -0.47887E+08         0.71001E+06         0.00000E+00
    0.71001E+06        -0.60972E+08         0.00000E+00
    0.00000E+00         0.00000E+00        -0.44246E+08
 
   -0.46990E+08         0.15468E+07         0.00000E+00
    0.15468E+07        -0.61149E+08         0.00000E+00
    0.00000E+00         0.00000E+00        -0.44101E+08
 
   -0.46136E+08         0.25143E+07         0.00000E+00
    0.25143E+07        -0.61354E+08         0.00000E+00
    0.00000E+00         0.00000E+00        -0.43972E+08
 
   -0.45333E+08         0.36160E+07         0.00000E+00
    0.36160E+07        -0.61584E+08         0.00000E+00
    0.00000E+00         0.00000E+00        -0.43859E+08
 
   -0.44598E+08         0.48534E+07         0.00000E+00
    0.48534E+07        -0.61831E+08         0.00000E+00
    0.00000E+00         0.00000E+00        -0.43764E+08
 
   -0.43952E+08         0.62226E+07         0.00000E+00
    0.62226E+07        -0.62081E+08         0.00000E+00
    0.00000E+00         0.00000E+00        -0.43688E+08
 
   -0.58153E+08        -0.40564E+06         0.00000E+00
   -0.40564E+06        -0.60015E+08         0.00000E+00
    0.00000E+00         0.00000E+00        -0.44922E+08
 
   -0.56869E+08        -0.10369E+07         0.00000E+00
   -0.10369E+07        -0.60072E+08         0.00000E+00
    0.00000E+00         0.00000E+00        -0.44673E+08
 
   -0.55532E+08        -0.14345E+07         0.00000E+00
   -0.14345E+07        -0.60157E+08         0.00000E+00
    0.00000E+00         0.00000E+00        -0.44418E+08
 
   -0.54193E+08        -0.16180E+07         0.00000E+00
   -0.16180E+07        -0.60248E+08         0.00000E+00
    0.00000E+00         0.00000E+00        -0.44164E+08
 
   -0.52886E+08        -0.16129E+07         0.00000E+00
   -0.16129E+07        -0.60335E+08         0.00000E+00
    0.00000E+00         0.00000E+00        -0.43915E+08
 
   -0.51631E+08        -0.14442E+07         0.00000E+00
   -0.14442E+07        -0.60416E+08         0.00000E+00
    0.00000E+00         0.00000E+00        -0.43676E+08
 
   -0.50433E+08        -0.11328E+07         0.00000E+00
   -0.11328E+07        -0.60497E+08         0.00000E+00
    0.00000E+00         0.00000E+00        -0.43449E+08
 
   -0.49288E+08        -0.69307E+06         0.00000E+00
   -0.69307E+06        -0.60589E+08         0.00000E+00
    0.00000E+00         0.00000E+00        -0.43235E+08
 
   -0.48189E+08        -0.13286E+06         0.00000E+00
   -0.13286E+06        -0.60702E+08         0.00000E+00
    0.00000E+00         0.00000E+00        -0.43035E+08
 
   -0.47130E+08         0.54638E+06         0.00000E+00
    0.54638E+06        -0.60846E+08         0.00000E+00
    0.00000E+00         0.00000E+00        -0.42851E+08
 
   -0.46106E+08         0.13486E+07         0.00000E+00
    0.13486E+07        -0.61030E+08         0.00000E+00
    0.00000E+00         0.00000E+00        -0.42683E+08
 
   -0.45117E+08         0.22815E+07         0.00000E+00
    0.22815E+07        -0.61255E+08         0.00000E+00
    0.00000E+00         0.00000E+00        -0.42532E+08
 
   -0.44175E+08         0.33549E+07         0.00000E+00
    0.33549E+07        -0.61520E+08         0.00000E+00
    0.00000E+00         0.00000E+00        -0.42398E+08
 
   -0.43297E+08         0.45763E+07         0.00000E+00
    0.45763E+07        -0.61814E+08         0.00000E+00
    0.00000E+00         0.00000E+00        -0.42284E+08
 
   -0.42515E+08         0.59476E+07         0.00000E+00
    0.59476E+07        -0.62118E+08         0.00000E+00
    0.00000E+00         0.00000E+00        -0.42192E+08
 
   -0.58935E+08        -0.44031E+06         0.00000E+00
   -0.44031E+06        -0.60016E+08         0.00000E+00
    0.00000E+00         0.00000E+00        -0.43867E+08
 
   -0.57394E+08        -0.11116E+07         0.00000E+00
   -0.11116E+07        -0.60070E+08         0.00000E+00
    0.00000E+00         0.00000E+00        -0.43564E+08
 
   -0.55820E+08        -0.15187E+07         0.00000E+00
   -0.15187E+07        -0.60143E+08         0.00000E+00
    0.00000E+00         0.00000E+00        -0.43258E+08
 
   -0.54273E+08        -0.16950E+07         0.00000E+00
   -0.16950E+07        -0.60210E+08         0.00000E+00
    0.00000E+00         0.00000E+00        -0.42957E+08
 
   -0.52792E+08        -0.16787E+07         0.00000E+00
   -0.16787E+07        -0.60261E+08         0.00000E+00
    0.00000E+00         0.00000E+00        -0.42665E+08
 
   -0.51389E+08        -0.15046E+07         0.00000E+00
   -0.15046E+07        -0.60301E+08         0.00000E+00
    0.00000E+00         0.00000E+00        -0.42387E+08
 
   -0.50061E+08        -0.11988E+07         0.00000E+00
   -0.11988E+07        -0.60341E+08         0.00000E+00
    0.00000E+00         0.00000E+00        -0.42125E+08
 
   -0.48799E+08        -0.77795E+06         0.00000E+00
   -0.77795E+06        -0.60395E+08         0.00000E+00
    0.00000E+00         0.00000E+00        -0.41881E+08
 
   -0.47588E+08        -0.24949E+06         0.00000E+00
   -0.24949E+06        -0.60480E+08         0.00000E+00
    0.00000E+00         0.00000E+00        -0.41653E+08
 
   -0.46413E+08         0.38711E+06         0.00000E+00
    0.38711E+06        -0.60608E+08         0.00000E+00
    0.00000E+00         0.00000E+00        -0.41443E+08
 
   -0.45264E+08         0.11395E+07         0.00000E+00
    0.11395E+07        -0.60791E+08         0.00000E+00
    0.00000E+00         0.00000E+00        -0.41250E+08
 
   -0.44139E+08         0.20215E+07         0.00000E+00
    0.20215E+07        -0.61034E+08         0.00000E+00
    0.00000E+00         0.00000E+00        -0.41075E+08
 
   -0.43046E+08         0.30506E+07         0.00000E+00
    0.30506E+07        -0.61334E+08         0.00000E+00
    0.00000E+00         0.00000E+00        -0.40919E+08
 
   -0.42008E+08         0.42439E+07         0.00000E+00
    0.42439E+07        -0.61681E+08         0.00000E+00
    0.00000E+00         0.00000E+00        -0.40784E+08
 
   -0.41066E+08         0.56118E+07         0.00000E+00
    0.56118E+07        -0.62049E+08         0.00000E+00
    0.00000E+00         0.00000E+00        -0.40673E+08
 
   -0.59774E+08        -0.47484E+06         0.00000E+00
   -0.47484E+06        -0.60015E+08         0.00000E+00
    0.00000E+00         0.00000E+00        -0.42823E+08
 
   -0.57935E+08        -0.11769E+07         0.00000E+00
   -0.11769E+07        -0.60063E+08         0.00000E+00
    0.00000E+00         0.00000E+00        -0.42458E+08
 
   -0.56099E+08        -0.15779E+07         0.00000E+00
   -0.15779E+07        -0.60112E+08         0.00000E+00
    0.00000E+00         0.00000E+00        -0.42093E+08
 
   -0.54337E+08        -0.17318E+07         0.00000E+00
   -0.17318E+07        -0.60136E+08         0.00000E+00
    0.00000E+00         0.00000E+00        -0.41738E+08
 
   -0.52685E+08        -0.16950E+07         0.00000E+00
   -0.16950E+07        -0.60132E+08         0.00000E+00
    0.00000E+00         0.00000E+00        -0.41400E+08
 
   -0.51146E+08        -0.15127E+07         0.00000E+00
   -0.15127E+07        -0.60110E+08         0.00000E+00
    0.00000E+00         0.00000E+00        -0.41082E+08
 
   -0.49705E+08        -0.12160E+07         0.00000E+00
   -0.12160E+07        -0.60089E+08         0.00000E+00
    0.00000E+00         0.00000E+00        -0.40786E+08
 
   -0.48342E+08        -0.82192E+06         0.00000E+00
   -0.82192E+06        -0.60091E+08         0.00000E+00
    0.00000E+00         0.00000E+00        -0.40511E+08
 
   -0.47031E+08        -0.33699E+06         0.00000E+00
   -0.33699E+06        -0.60134E+08         0.00000E+00
    0.00000E+00         0.00000E+00        -0.40255E+08
 
   -0.45751E+08         0.24177E+06         0.00000E+00
    0.24177E+06        -0.60235E+08         0.00000E+00
    0.00000E+00         0.00000E+00        -0.40019E+08
 
   -0.44484E+08         0.92597E+06         0.00000E+00
    0.92597E+06        -0.60409E+08         0.00000E+00
    0.00000E+00         0.00000E+00        -0.39801E+08
 
   -0.43220E+08         0.17358E+07         0.00000E+00
    0.17358E+07        -0.60664E+08         0.00000E+00
    0.00000E+00         0.00000E+00        -0.39601E+08
 
   -0.41965E+08         0.26989E+07         0.00000E+00
    0.26989E+07        -0.61002E+08         0.00000E+00
    0.00000E+00         0.00000E+00        -0.39420E+08
 
   -0.40743E+08         0.38459E+07         0.00000E+00
    0.38459E+07        -0.61409E+08         0.00000E+00
    0.00000E+00         0.00000E+00        -0.39261E+08
 
   -0.39606E+08         0.52014E+07         0.00000E+00
    0.52014E+07        -0.61856E+08         0.00000E+00
    0.00000E+00         0.00000E+00        -0.39126E+08
 
   -0.60665E+08        -0.50762E+06         0.00000E+00
   -0.50762E+06        -0.60014E+08         0.00000E+00
    0.00000E+00         0.00000E+00        -0.41790E+08
 
   -0.58475E+08        -0.12230E+07         0.00000E+00
   -0.12230E+07        -0.60047E+08         0.00000E+00
    0.00000E+00         0.00000E+00        -0.41349E+08
 
   -0.56349E+08        -0.15927E+07         0.00000E+00
   -0.15927E+07        -0.60055E+08         0.00000E+00
    0.00000E+00         0.00000E+00        -0.40916E+08
 
   -0.54371E+08        -0.17046E+07         0.00000E+00
   -0.17046E+07        -0.60010E+08         0.00000E+00
    0.00000E+00         0.00000E+00        -0.40503E+08
 
   -0.52561E+08        -0.16380E+07         0.00000E+00
   -0.16380E+07        -0.59922E+08         0.00000E+00
    0.00000E+00         0.00000E+00        -0.40116E+08
 
   -0.50905E+08        -0.14482E+07         0.00000E+00
   -0.14482E+07        -0.59815E+08         0.00000E+00
    0.00000E+00         0.00000E+00        -0.39758E+08
 
   -0.49372E+08        -0.11673E+07         0.00000E+00
   -0.11673E+07        -0.59717E+08         0.00000E+00
    0.00000E+00         0.00000E+00        -0.39427E+08
 
   -0.47926E+08        -0.81111E+06         0.00000E+00
   -0.81111E+06        -0.59651E+08         0.00000E+00
    0.00000E+00         0.00000E+00        -0.39123E+08
 
   -0.46533E+08        -0.38364E+06         0.00000E+00
   -0.38364E+06        -0.59641E+08         0.00000E+00
    0.00000E+00         0.00000E+00        -0.38841E+08
 
   -0.45163E+08         0.12028E+06         0.00000E+00
    0.12028E+06        -0.59704E+08         0.00000E+00
    0.00000E+00         0.00000E+00        -0.38579E+08
 
   -0.43787E+08         0.71525E+06         0.00000E+00
    0.71525E+06        -0.59860E+08         0.00000E+00
    0.00000E+00         0.00000E+00        -0.38336E+08
 
   -0.42386E+08         0.14272E+07         0.00000E+00
    0.14272E+07        -0.60122E+08         0.00000E+00
    0.00000E+00         0.00000E+00        -0.38110E+08
 
   -0.40956E+08         0.22951E+07         0.00000E+00
    0.22951E+07        -0.60497E+08         0.00000E+00
    0.00000E+00         0.00000E+00        -0.37902E+08
 
   -0.39520E+08         0.33690E+07         0.00000E+00
    0.33690E+07        -0.60975E+08         0.00000E+00
    0.00000E+00         0.00000E+00        -0.37714E+08
 
   -0.38141E+08         0.46963E+07         0.00000E+00
    0.46963E+07        -0.61520E+08         0.00000E+00
    0.00000E+00         0.00000E+00        -0.37551E+08
 
   -0.61595E+08        -0.53594E+06         0.00000E+00
   -0.53594E+06        -0.60012E+08         0.00000E+00
    0.00000E+00         0.00000E+00        -0.40764E+08
 
   -0.58983E+08        -0.12320E+07         0.00000E+00
   -0.12320E+07        -0.60016E+08         0.00000E+00
    0.00000E+00         0.00000E+00        -0.40231E+08
 
   -0.56544E+08        -0.15326E+07         0.00000E+00
   -0.15326E+07        -0.59949E+08         0.00000E+00
    0.00000E+00         0.00000E+00        -0.39718E+08
 
   -0.54360E+08        -0.15808E+07         0.00000E+00
   -0.15808E+07        -0.59797E+08         0.00000E+00
    0.00000E+00         0.00000E+00        -0.39241E+08
 
   -0.52419E+08        -0.14812E+07         0.00000E+00
   -0.14812E+07        -0.59593E+08         0.00000E+00
    0.00000E+00         0.00000E+00        -0.38804E+08
 
   -0.50674E+08        -0.12916E+07         0.00000E+00
   -0.12916E+07        -0.59380E+08         0.00000E+00
    0.00000E+00         0.00000E+00        -0.38408E+08
 
   -0.49072E+08        -0.10391E+07         0.00000E+00
   -0.10391E+07        -0.59190E+08         0.00000E+00
    0.00000E+00         0.00000E+00        -0.38046E+08
 
   -0.47565E+08        -0.73500E+06         0.00000E+00
   -0.73500E+06        -0.59048E+08         0.00000E+00
    0.00000E+00         0.00000E+00        -0.37714E+08
 
   -0.46109E+08        -0.38030E+06         0.00000E+00
   -0.38030E+06        -0.58977E+08         0.00000E+00
    0.00000E+00         0.00000E+00        -0.37408E+08
 
   -0.44666E+08         0.31628E+05         0.00000E+00
    0.31628E+05        -0.58996E+08         0.00000E+00
    0.00000E+00         0.00000E+00        -0.37123E+08
 
   -0.43196E+08         0.51616E+06         0.00000E+00
    0.51616E+06        -0.59125E+08         0.00000E+00
    0.00000E+00         0.00000E+00        -0.36856E+08
 
   -0.41667E+08         0.11014E+07         0.00000E+00
    0.11014E+07        -0.59385E+08         0.00000E+00
    0.00000E+00         0.00000E+00        -0.36604E+08
 
   -0.40054E+08         0.18362E+07         0.00000E+00
    0.18362E+07        -0.59793E+08         0.00000E+00
    0.00000E+00         0.00000E+00        -0.36365E+08
 
   -0.38368E+08         0.27955E+07         0.00000E+00
    0.27955E+07        -0.60352E+08         0.00000E+00
    0.00000E+00         0.00000E+00        -0.36143E+08
 
   -0.36681E+08         0.40673E+07         0.00000E+00
    0.40673E+07        -0.61022E+08         0.00000E+00
    0.00000E+00         0.00000E+00        -0.35944E+08
 
   -0.62535E+08        -0.55344E+06         0.00000E+00
   -0.55344E+06        -0.60004E+08         0.00000E+00
    0.00000E+00         0.00000E+00        -0.39738E+08
 
   -0.59407E+08        -0.11668E+07         0.00000E+00
   -0.11668E+07        -0.59947E+08         0.00000E+00
    0.00000E+00         0.00000E+00        -0.39086E+08
 
   -0.56651E+08        -0.13465E+07         0.00000E+00
   -0.13465E+07        -0.59743E+08         0.00000E+00
    0.00000E+00         0.00000E+00        -0.38481E+08
 
   -0.54300E+08        -0.13203E+07         0.00000E+00
   -0.13203E+07        -0.59431E+08         0.00000E+00
    0.00000E+00         0.00000E+00        -0.37939E+08
 
   -0.52269E+08        -0.12010E+07         0.00000E+00
   -0.12010E+07        -0.59086E+08         0.00000E+00
    0.00000E+00         0.00000E+00        -0.37456E+08
 
   -0.50467E+08        -0.10306E+07         0.00000E+00
   -0.10306E+07        -0.58755E+08         0.00000E+00
    0.00000E+00         0.00000E+00        -0.37025E+08
 
   -0.48821E+08        -0.82539E+06         0.00000E+00
   -0.82539E+06        -0.58470E+08         0.00000E+00
    0.00000E+00         0.00000E+00        -0.36636E+08
 
   -0.47274E+08        -0.59010E+06         0.00000E+00
   -0.59010E+06        -0.58253E+08         0.00000E+00
    0.00000E+00         0.00000E+00        -0.36282E+08
 
   -0.45776E+08        -0.32330E+06         0.00000E+00
   -0.32330E+06        -0.58123E+08         0.00000E+00
    0.00000E+00         0.00000E+00        -0.35956E+08
 
   -0.44278E+08        -0.18349E+05         0.00000E+00
   -0.18349E+05        -0.58096E+08         0.00000E+00
    0.00000E+00         0.00000E+00        -0.35652E+08
 
   -0.42736E+08         0.33795E+06         0.00000E+00
    0.33795E+06        -0.58193E+08         0.00000E+00
    0.00000E+00         0.00000E+00        -0.35364E+08
 
   -0.41098E+08         0.77016E+06         0.00000E+00
    0.77016E+06        -0.58438E+08         0.00000E+00
    0.00000E+00         0.00000E+00        -0.35087E+08
 
   -0.39308E+08         0.13259E+07         0.00000E+00
    0.13259E+07        -0.58864E+08         0.00000E+00
    0.00000E+00         0.00000E+00        -0.34816E+08
 
   -0.37337E+08         0.21063E+07         0.00000E+00
    0.21063E+07        -0.59507E+08         0.00000E+00
    0.00000E+00         0.00000E+00        -0.34553E+08
 
   -0.35245E+08         0.32700E+07         0.00000E+00
    0.32700E+07        -0.60340E+08         0.00000E+00
    0.00000E+00         0.00000E+00        -0.34305E+08
 
   -0.63419E+08        -0.53745E+06         0.00000E+00
   -0.53745E+06        -0.59979E+08         0.00000E+00
    0.00000E+00         0.00000E+00        -0.38697E+08
 
   -0.59667E+08        -0.93829E+06         0.00000E+00
   -0.93829E+06        -0.59761E+08         0.00000E+00
    0.00000E+00         0.00000E+00        -0.37885E+08
 
   -0.56656E+08        -0.96259E+06         0.00000E+00
   -0.96259E+06        -0.59313E+08         0.00000E+00
    0.00000E+00         0.00000E+00        -0.37180E+08
 
   -0.54213E+08        -0.89386E+06         0.00000E+00
   -0.89386E+06        -0.58807E+08         0.00000E+00
    0.00000E+00         0.00000E+00        -0.36581E+08
 
   -0.52137E+08        -0.79067E+06         0.00000E+00
   -0.79067E+06        -0.58318E+08         0.00000E+00
    0.00000E+00         0.00000E+00        -0.36061E+08
 
   -0.50307E+08        -0.66884E+06         0.00000E+00
   -0.66884E+06        -0.57882E+08         0.00000E+00
    0.00000E+00         0.00000E+00        -0.35604E+08
 
   -0.48639E+08        -0.53298E+06         0.00000E+00
   -0.53298E+06        -0.57517E+08         0.00000E+00
    0.00000E+00         0.00000E+00        -0.35195E+08
 
   -0.47070E+08        -0.38326E+06         0.00000E+00
   -0.38326E+06        -0.57239E+08         0.00000E+00
    0.00000E+00         0.00000E+00        -0.34825E+08
 
   -0.45545E+08        -0.21729E+06         0.00000E+00
   -0.21729E+06        -0.57060E+08         0.00000E+00
    0.00000E+00         0.00000E+00        -0.34484E+08
 
   -0.44014E+08        -0.30228E+05         0.00000E+00
   -0.30228E+05        -0.56994E+08         0.00000E+00
    0.00000E+00         0.00000E+00        -0.34165E+08
 
   -0.42422E+08         0.18657E+06         0.00000E+00
    0.18657E+06        -0.57060E+08         0.00000E+00
    0.00000E+00         0.00000E+00        -0.33862E+08
 
   -0.40706E+08         0.44909E+06         0.00000E+00
    0.44909E+06        -0.57284E+08         0.00000E+00
    0.00000E+00         0.00000E+00        -0.33565E+08
 
   -0.38782E+08         0.79002E+06         0.00000E+00
    0.79002E+06        -0.57706E+08         0.00000E+00
    0.00000E+00         0.00000E+00        -0.33266E+08
 
   -0.36518E+08         0.12920E+07         0.00000E+00
    0.12920E+07        -0.58393E+08         0.00000E+00
    0.00000E+00         0.00000E+00        -0.32953E+08
 
   -0.33883E+08         0.22287E+07         0.00000E+00
    0.22287E+07        -0.59443E+08         0.00000E+00
    0.00000E+00         0.00000E+00        -0.32639E+08
 
   -0.64058E+08        -0.33867E+06         0.00000E+00
   -0.33867E+06        -0.59758E+08         0.00000E+00
    0.00000E+00         0.00000E+00        -0.37568E+08
 
   -0.59706E+08        -0.38790E+06         0.00000E+00
   -0.38790E+06        -0.59137E+08         0.00000E+00
    0.00000E+00         0.00000E+00        -0.36553E+08
 
   -0.56618E+08        -0.35575E+06         0.00000E+00
   -0.35575E+06        -0.58442E+08         0.00000E+00
    0.00000E+00         0.00000E+00        -0.35784E+08
 
   -0.54147E+08        -0.31853E+06         0.00000E+00
   -0.31853E+06        -0.57790E+08         0.00000E+00
    0.00000E+00         0.00000E+00        -0.35150E+08
 
   -0.52058E+08        -0.27688E+06         0.00000E+00
   -0.27688E+06        -0.57208E+08         0.00000E+00
    0.00000E+00         0.00000E+00        -0.34610E+08
 
   -0.50219E+08        -0.23222E+06         0.00000E+00
   -0.23222E+06        -0.56707E+08         0.00000E+00
    0.00000E+00         0.00000E+00        -0.34139E+08
 
   -0.48543E+08        -0.18446E+06         0.00000E+00
   -0.18446E+06        -0.56296E+08         0.00000E+00
    0.00000E+00         0.00000E+00        -0.33719E+08
 
   -0.46964E+08        -0.13297E+06         0.00000E+00
   -0.13297E+06        -0.55983E+08         0.00000E+00
    0.00000E+00         0.00000E+00        -0.33340E+08
 
   -0.45427E+08        -0.76609E+05         0.00000E+00
   -0.76609E+05        -0.55777E+08         0.00000E+00
    0.00000E+00         0.00000E+00        -0.32992E+08
 
   -0.43880E+08        -0.13611E+05         0.00000E+00
   -0.13611E+05        -0.55689E+08         0.00000E+00
    0.00000E+00         0.00000E+00        -0.32666E+08
 
   -0.42264E+08         0.58989E+05         0.00000E+00
    0.58989E+05        -0.55736E+08         0.00000E+00
    0.00000E+00         0.00000E+00        -0.32354E+08
 
   -0.40510E+08         0.14650E+06         0.00000E+00
    0.14650E+06        -0.55943E+08         0.00000E+00
    0.00000E+00         0.00000E+00        -0.32046E+08
 
   -0.38512E+08         0.26042E+06         0.00000E+00
    0.26042E+06        -0.56351E+08         0.00000E+00
    0.00000E+00         0.00000E+00        -0.31730E+08
 
   -0.36088E+08         0.42683E+06         0.00000E+00
    0.42683E+06        -0.57038E+08         0.00000E+00
    0.00000E+00         0.00000E+00        -0.31384E+08
 
   -0.32717E+08         0.81748E+06         0.00000E+00
    0.81748E+06        -0.58223E+08         0.00000E+00
    0.00000E+00         0.00000E+00        -0.30947E+08
 
SCALARS stressS double 
LOOKUP_TABLE default
  -57704707.2599612     
  -57445933.7253104     
  -57631100.5627040     
  -58351206.9396584     
  -59672027.4267626     
  -61262737.4505886     
  -62819566.1079962     
  -64143912.9886288     
  -65147444.1196495     
  -65985123.5111241     
  -66727693.9309540     
  -67417582.4274901     
  -68091710.0552697     
  -68796948.1493015     
  -69655424.0039106     
  -58147353.4673828     
  -58480655.1251286     
  -58871615.5165849     
  -59514419.0542393     
  -60427802.4242429     
  -61440321.7308895     
  -62451237.7878750     
  -63387163.6181599     
  -64276911.8135552     
  -65058587.0577111     
  -65764417.9510029     
  -66421838.6601235     
  -67056002.6904325     
  -67695656.4994910     
  -68316019.8592888     
  -58457309.9431705     
  -59236984.3329158     
  -59851105.8844479     
  -60299190.9618343     
  -60755550.2915964     
  -61308170.9558532     
  -62008784.5427767     
  -62774083.9362034     
  -63511539.4067914     
  -64205862.0402816     
  -64848520.0215138     
  -65449389.6283744     
  -66019114.1879176     
  -66557277.0421199     
  -67049704.7512359     
  -58733847.0007379     
  -59270992.2939905     
  -59665623.7095747     
  -60035702.1415274     
  -60468550.9063741     
  -60985441.7343644     
  -61564568.2360878     
  -62183315.1483360     
  -62806444.6969679     
  -63406488.2895632     
  -63974307.0927332     
  -64506905.1839501     
  -65003252.8000533     
  -65458087.9574055     
  -65857547.6357530     
  -58406691.1829715     
  -58840632.9388210     
  -59279072.3939783     
  -59686967.5778059     
  -60113208.6531267     
  -60577013.4017325     
  -61077623.0427963     
  -61600348.9975944     
  -62127617.5505353     
  -62643193.2721348     
  -63135634.4967475     
  -63598290.1268107     
  -64025512.0616869     
  -64409865.6898360     
  -64740490.7404594     
  -58086753.1539142     
  -58508898.7185071     
  -58909841.4532161     
  -59307927.7405537     
  -59710363.9631797     
  -60129105.6497882     
  -60565635.6336099     
  -61013892.6212295     
  -61463696.5854576     
  -61904490.6663763     
  -62327136.4935595     
  -62724152.0309813     
  -63088813.6802037     
  -63413821.5834001     
  -63690656.3305253     
  -57802402.7333455     
  -58184485.7186719     
  -58554969.1654913     
  -58919784.9444897     
  -59286683.1007932     
  -59659830.5414148     
  -60040534.6453743     
  -60425727.2683728     
  -60809500.6431521     
  -61184756.6627742     
  -61544442.7423057     
  -61881977.8857778     
  -62191080.6504835     
  -62465414.5809564     
  -62698459.4651681     
  -57535355.0431177     
  -57873902.1119883     
  -58203916.5426951     
  -58529569.8804190     
  -58854403.7934043     
  -59180984.1332581     
  -59509639.7906256     
  -59838519.6996592     
  -60163862.3081656     
  -60480788.9057363     
  -60783988.9052295     
  -61068120.6741022     
  -61327934.0179032     
  -61558287.1451648     
  -61754265.8275874     
  -57280460.3916139     
  -57571496.6384638     
  -57857198.6637757     
  -58139216.7656903     
  -58419386.3826182     
  -58698843.5479041     
  -58977607.3510406     
  -59254327.3905471     
  -59526446.6246544     
  -59790523.8685622     
  -60042619.3111353     
  -60278593.6590439     
  -60494303.1434744     
  -60685748.8186748     
  -60849268.2998120     
  -57031956.6608493     
  -57274552.2042800     
  -57513857.6236520     
  -57750235.7638175     
  -57984359.1510995     
  -58216671.5773440     
  -58446983.5136250     
  -58674302.7637435     
  -58896838.0494046     
  -59112152.7226627     
  -59317374.0980695     
  -59509403.0929062     
  -59685096.3493974     
  -59841435.4421482     
  -59975713.8848651     
  -56786390.8166139     
  -56980934.2351423     
  -57173276.7915742     
  -57363147.3450749     
  -57550684.0269160     
  -57736006.5172955     
  -57918918.0359477     
  -58098735.8840523     
  -58274253.1435018     
  -58443796.0475759     
  -58605341.6458245     
  -58756658.2947928     
  -58895450.4372865     
  -59019504.2390085     
  -59126840.0231870     
  -56542006.9431916     
  -56689522.2220654     
  -56835020.0177047     
  -56978135.0708580     
  -57118896.3093385     
  -57257413.7391321     
  -57393642.8274596     
  -57527240.2760772     
  -57657505.9158287     
  -57783396.8717178     
  -57903591.3027016     
  -58016580.7435379     
  -58120775.7629709     
  -58214616.6356197     
  -58296685.0220729     
  -56298543.3948905     
  -56400062.9766539     
  -56498996.1818898     
  -56595262.4994228     
  -56689105.8276725     
  -56780863.8211040     
  -56870788.1345340     
  -56958925.3278616     
  -57045058.8573251     
  -57128703.6246752     
  -57209140.3081671     
  -57285474.9352342     
  -57356712.1248688     
  -57421832.5809240     
  -57479867.8774499     
  -56056904.2544088     
  -56113051.1662328     
  -56165461.5574465     
  -56214610.3175815     
  -56261193.2068508     
  -56305958.5659660     
  -56349572.2942052     
  -56392525.1583985     
  -56435083.7487515     
  -56477280.3332341     
  -56518932.7426203     
  -56559683.9855267     
  -56599051.8793498     
  -56636479.6578314     
  -56671380.6839887     
  -55818865.7342963     
  -55829562.8689613     
  -55834969.7614201     
  -55836309.2675717     
  -55834902.5384036     
  -55832045.7456466     
  -55828911.1920631     
  -55826479.9462375     
  -55825507.3337045     
  -55826517.5791325     
  -55829820.4099879     
  -55835541.5013934     
  -55843657.0835992     
  -55854025.4342348     
  -55866408.1485737     
  -55586813.6099835     
  -55551082.0517969     
  -55508277.3136694     
  -55460511.3431712     
  -55409858.1725827     
  -55358262.1008548     
  -55307467.8723142     
  -55258977.8857496     
  -55214036.3375243     
  -55173636.5409368     
  -55138543.8113346     
  -55109326.0796337     
  -55086382.7614326     
  -55069964.2373016     
  -55060175.3878208     
  -55363514.8821293     
  -55279326.7883292     
  -55186223.6220121     
  -55087316.8922611     
  -54985529.4754385     
  -54883524.3078037     
  -54783658.5818250     
  -54687966.1375755     
  -54598165.4146548     
  -54515687.3659262     
  -54441714.9069704     
  -54377223.3696350     
  -54323012.7973727     
  -54279722.5307953     
  -54247821.1704451     
  -55151916.9768513     
  -55016077.9954337     
  -54869592.5324783     
  -54716669.0633685     
  -54561155.8779984     
  -54406480.6362847     
  -54255625.7320082     
  -54111138.7730761     
  -53975172.7533513     
  -53849545.4119546     
  -53735806.6087533     
  -53635300.9878836     
  -53549213.4418493     
  -53478585.5253576     
  -53424294.6118216     
  -54954967.7095815     
  -54763007.7056200     
  -54558955.8242449     
  -54348218.5781178     
  -54135637.6208939     
  -53925430.1733276     
  -53721184.9641827     
  -53525908.6587953     
  -53342111.2113608     
  -53171912.8503479     
  -53017155.5839251     
  -52879503.1044647     
  -52760510.5499488     
  -52661649.2477595     
  -52584276.2148224     
  -54775448.5808176     
  -54521499.9629819     
  -54254492.3220401     
  -53981154.4260371     
  -53707390.4434724     
  -53438210.6252174     
  -53177750.6620252     
  -52929369.4952952     
  -52695801.1490496     
  -52479333.3254513     
  -52281987.4971490     
  -52105674.1552907     
  -51952299.6248039     
  -51823805.3073589     
  -51722127.5392958     
  -54615816.2863941     
  -54292451.1657053     
  -53955767.3658946     
  -53613987.4263427     
  -53274156.2356251     
  -52942051.9974711     
  -52622241.1393026     
  -52318252.9047992     
  -52032832.5816503     
  -51768229.3895235     
  -51526476.7304384     
  -51309625.4890988     
  -51119902.1730657     
  -50959769.8543631     
  -50831877.7773112     
  -54478040.8090159     
  -54076029.0295191     
  -53661445.5877981     
  -53244260.8548587     
  -52832751.1752965     
  -52433389.4442217     
  -52050965.1011062     
  -51688885.5381191     
  -51349585.6050859     
  -51034975.5422754     
  -50746857.7016729     
  -50487264.8556919     
  -50258688.4479280     
  -50064173.2817846     
  -49907258.6826976     
  -54363430.7543611     
  -53871349.2839882     
  -53368887.6707694     
  -52868143.6499769     
  -52378724.8326899     
  -51907623.5983322     
  -51459488.8059870     
  -51037152.3292095     
  -50642279.3214963     
  -50276023.2005156     
  -49939610.9397130     
  -49634816.7782954     
  -49364295.2351772     
  -49131735.7501042     
  -48941802.2704358     
  -54272431.0688907     
  -53676003.1963669     
  -53073536.0076130     
  -52479838.0200099     
  -51905891.3267972     
  -51358816.4777965     
  -50842485.8723977     
  -50358477.2414505     
  -49907065.2547014     
  -49488098.9452465     
  -49101752.8104667     
  -48749173.9545775     
  -48432983.6286765     
  -48157564.5603588     
  -47929020.9532128     
  -54204301.0270978     
  -53485271.1452029     
  -52767936.4793270     
  -52070688.7670117     
  -51405696.4396120     
  -50779325.2715253     
  -50193586.5917807     
  -49647839.7820636     
  -49140184.3049309     
  -48668492.5304965     
  -48231261.2503117     
  -47828431.1000769     
  -47462211.5047528     
  -47137639.2568995     
  -46862705.3826079     
  -54156507.4503129     
  -53290621.6100821     
  -52440048.4693286     
  -51627850.8600128     
  -50866414.4670055     
  -50159429.5855595     
  -49505290.8889941     
  -48899861.9479495     
  -48338188.5036008     
  -47815438.7417982     
  -47327643.3724654     
  -46872693.1558330     
  -46451538.8660089     
  -46069640.2298691     
  -45737382.8860281     
  -54123465.3724799     
  -53076616.1276153     
  -52070162.5124354     
  -51132348.6272816     
  -50272317.9210602     
  -49487199.4175975     
  -48769079.5495145     
  -48109004.5124971     
  -47498185.1922157     
  -46928469.4952918     
  -46392667.0202287     
  -45885162.2100902     
  -45404248.7271461     
  -44954329.5361969     
  -44549156.8177871     
  -54092536.3652750     
  -52813754.9268071     
  -51625251.4947031     
  -50556747.4928677     
  -49603750.0931902     
  -48748977.5535676     
  -47975918.9426256     
  -47269901.1288050     
  -46618003.3861150     
  -46008554.4981420     
  -45430654.0950017     
  -44874060.0730567     
  -44329603.1418853     
  -43799047.1700526     
  -43296848.9000281     
  -54031550.9583094     
  -52437629.8862650     
  -51049730.3614103     
  -49867043.7327282     
  -48838953.1325614     
  -47930939.9183028     
  -47117223.6307938     
  -46377822.9142254     
  -45696220.1420141     
  -45057718.3681312     
  -44448050.5213734     
  -43851858.5185590     
  -43251368.3040951     
  -42621440.3939809     
  -41988346.9462743     
  -53794716.9303911     
  -51798735.0949892     
  -50281347.6561982     
  -49029057.0071802     
  -47958584.6805238     
  -47021546.2235167     
  -46186163.6118060     
  -45429203.1459958     
  -44732042.0847858     
  -44078216.0057149     
  -43451391.5442079     
  -42832948.7236524     
  -42197474.5345582     
  -41503358.7047675     
  -40629210.2176093     
SCALARS 2waySource double 
LOOKUP_TABLE default
  2.888244675278150E-006
  3.152880456100236E-006
  3.215586749300863E-006
  3.186324993346678E-006
  2.894332060369724E-006
  2.473624001516901E-006
  2.810412745199968E-006
  3.600299077374613E-006
  4.563488622715651E-006
  5.016029008534208E-006
  5.330107378127655E-006
  5.567148628868904E-006
  5.754575632250433E-006
  5.904882245228997E-006
  6.023762638531982E-006
  3.014671324385765E-006
  2.995725722101455E-006
  2.967926337654673E-006
  2.678740517580593E-006
  2.481613194367630E-006
  3.864979937569213E-006
  4.687147034296230E-006
  4.473784281516204E-006
  4.752989209072134E-006
  5.105767841890832E-006
  5.373737351584532E-006
  5.589627652151307E-006
  5.766169914982573E-006
  5.911434724891680E-006
  6.029324171775179E-006
  3.005859185787428E-006
  2.524590315335256E-006
  2.763995095423368E-006
  4.027214610393255E-006
  5.063359808526241E-006
  5.214176161685349E-006
  4.791578217848734E-006
  4.891564031894969E-006
  5.004116442564621E-006
  5.217233737285709E-006
  5.430554401020969E-006
  5.617055550570925E-006
  5.778188087503752E-006
  5.916333509519659E-006
  6.033418533440891E-006
  3.645719349764256E-006
  4.345731999042250E-006
  5.517688645066744E-006
  5.424829496510588E-006
  5.027331012051670E-006
  5.160587377563773E-006
  5.090596121097907E-006
  5.082567789785513E-006
  5.182712117436261E-006
  5.321742053450066E-006
  5.482703721968908E-006
  5.639619135574987E-006
  5.783818458149882E-006
  5.913844136432854E-006
  6.029955655502290E-006
  5.645871639708980E-006
  5.297207727717940E-006
  5.237098716156601E-006
  5.314264627239546E-006
  5.214067904126938E-006
  5.176774096511344E-006
  5.189821301815818E-006
  5.214241333617633E-006
  5.283157238041570E-006
  5.390930601330780E-006
  5.516668801613069E-006
  5.648047568391427E-006
  5.776276730754850E-006
  5.897919618002443E-006
  6.012375173504010E-006
  5.356477600626488E-006
  5.280738040698799E-006
  5.223649729480613E-006
  5.225570965328763E-006
  5.219941001427101E-006
  5.212154755932098E-006
  5.227373446510462E-006
  5.267289660704956E-006
  5.331069131355539E-006
  5.418712789659361E-006
  5.523002259615480E-006
  5.635244380837321E-006
  5.749681832156728E-006
  5.863136409825472E-006
  5.974842660805829E-006
  5.128413180792912E-006
  5.144284357147501E-006
  5.149132332520591E-006
  5.160279270201013E-006
  5.176385344671960E-006
  5.195774172079831E-006
  5.224926257754684E-006
  5.269467430225387E-006
  5.331007454321875E-006
  5.408333049676384E-006
  5.498329692754860E-006
  5.596696482504332E-006
  5.699721407397894E-006
  5.805296049038333E-006
  5.912966017334498E-006
  4.917915186151316E-006
  4.989028421058175E-006
  5.035272870449392E-006
  5.072509616673070E-006
  5.107003803749864E-006
  5.142497095770507E-006
  5.182897863354831E-006
  5.231931485728892E-006
  5.291709481537719E-006
  5.362386132880863E-006
  5.442621874972305E-006
  5.530393327990139E-006
  5.623789593922225E-006
  5.721669259862176E-006
  5.824004460819555E-006
  4.724177834032902E-006
  4.827964866988419E-006
  4.903711244504520E-006
  4.962839029124511E-006
  5.013352762733625E-006
  5.060519404195813E-006
  5.108481959211719E-006
  5.160515280314905E-006
  5.218807848039319E-006
  5.284307054479093E-006
  5.356924192045686E-006
  5.435987964400374E-006
  5.520766504789698E-006
  5.610902250504020E-006
  5.706708593414076E-006
  4.544340617571796E-006
  4.667998504746757E-006
  4.762607934525801E-006
  4.837310323591263E-006
  4.899434895434367E-006
  4.954597769509647E-006
  5.007104683720310E-006
  5.060265794996722E-006
  5.116444063079487E-006
  5.177090891263134E-006
  5.242893771680493E-006
  5.314052049546832E-006
  5.390604844690294E-006
  5.472731309487634E-006
  5.560974349008888E-006
  4.377478180989584E-006
  4.511520052566441E-006
  4.616695158170586E-006
  4.700492024919125E-006
  4.769405963974002E-006
  4.828780553520057E-006
  4.882904402477837E-006
  4.935141621515267E-006
  4.988030183795955E-006
  5.043365577579635E-006
  5.102329369659386E-006
  5.165673773625025E-006
  5.233936263202023E-006
  5.307642288790093E-006
  5.387462911663959E-006
  4.222759231749406E-006
  4.359780320342263E-006
  4.468658249898260E-006
  4.555713640637989E-006
  4.626666549238194E-006
  4.686459559421437E-006
  4.739222327980750E-006
  4.788312887513801E-006
  4.836381252910960E-006
  4.885448697674223E-006
  4.937011018731266E-006
  4.992169299831032E-006
  5.051774698961678E-006
  5.116564842770008E-006
  5.187269569485133E-006
  4.079519134496756E-006
  4.213445394263184E-006
  4.320222729629307E-006
  4.405329404668692E-006
  4.473860894948789E-006
  4.530363936696181E-006
  4.578763548995392E-006
  4.622354907112918E-006
  4.663834522534795E-006
  4.705356392146773E-006
  4.748608915860002E-006
  4.794907878484031E-006
  4.845295832217937E-006
  4.900633589468624E-006
  4.961668743279931E-006
  3.947295196908787E-006
  4.072945269939091E-006
  4.172566042283851E-006
  4.251044067298851E-006
  4.312998579819942E-006
  4.362640260544358E-006
  4.403690770241027E-006
  4.439353419410190E-006
  4.472321390401862E-006
  4.504812683259032E-006
  4.538623949773936E-006
  4.575196126014490E-006
  4.615683117403224E-006
  4.661013082766432E-006
  4.711931464911866E-006
  3.825855240697939E-006
  3.938624032292083E-006
  4.026547309645223E-006
  4.094112692645637E-006
  4.145595954127731E-006
  4.184944450924737E-006
  4.215701751224381E-006
  4.240971047869456E-006
  4.263410789966397E-006
  4.285254823444741E-006
  4.308349583337951E-006
  4.334200854811897E-006
  4.364022113317950E-006
  4.398775958758363E-006
  4.439200353832414E-006
  3.715181955155735E-006
  3.810809112374216E-006
  3.882824045856671E-006
  3.935465944885483E-006
  3.972780023612586E-006
  3.998521895408629E-006
  4.016091058125988E-006
  4.028494567198678E-006
  4.038337868416065E-006
  4.047837360088851E-006
  4.058848067152508E-006
  4.072899262896377E-006
  4.091230622286781E-006
  4.114821573984220E-006
  4.144407102740948E-006
  3.615434275322867E-006
  3.689828762671229E-006
  3.741906606118313E-006
  3.775778598976788E-006
  3.795354614640048E-006
  3.804263402654388E-006
  3.805795007694875E-006
  3.802868664842000E-006
  3.798024886296088E-006
  3.793437330572582E-006
  3.790938166967456E-006
  3.792049832015220E-006
  3.798016013233825E-006
  3.809825140609195E-006
  3.828220529940025E-006
  3.526896947878829E-006
  3.575998778395389E-006
  3.604171250371183E-006
  3.615496987446355E-006
  3.613832337147425E-006
  3.602736072962242E-006
  3.585418999641914E-006
  3.564718550776626E-006
  3.543097552810215E-006
  3.522662390402494E-006
  3.505193513485416E-006
  3.492180519934220E-006
  3.484854423067498E-006
  3.484210615004310E-006
  3.491017142980672E-006
  3.449924903088659E-006
  3.469588785581587E-006
  3.469843234247813E-006
  3.454833467536414E-006
  3.428436321349903E-006
  3.394189928368615E-006
  3.355247856935660E-006
  3.314362945294408E-006
  3.273899056899416E-006
  3.235863721442505E-006
  3.201952170957798E-006
  3.173593297992097E-006
  3.151989467273479E-006
  3.138143778373951E-006
  3.132869711503772E-006
  3.384885406698849E-006
  3.370772614987518E-006
  3.338954045851568E-006
  3.293730590523963E-006
  3.239072718737811E-006
  3.178540597783297E-006
  3.115239866640686E-006
  3.051819193402764E-006
  2.990504368140114E-006
  2.933156460632860E-006
  2.881339653924038E-006
  2.836386369088382E-006
  2.799450792918568E-006
  2.771544897722341E-006
  2.753552443229059E-006
  3.332099261523698E-006
  3.279562473175701E-006
  3.211270675980244E-006
  3.131791735431019E-006
  3.045270923449392E-006
  2.955326409425228E-006
  2.865004933475594E-006
  2.776802889119939E-006
  2.692738565131916E-006
  2.614451987442882E-006
  2.543309644902113E-006
  2.480497802021324E-006
  2.427095496472438E-006
  2.384123174547128E-006
  2.352564105788327E-006
  3.291781300340084E-006
  3.195721304263500E-006
  3.086187033873985E-006
  2.968167396213667E-006
  2.846083165144816E-006
  2.723635927540540E-006
  2.603767327186075E-006
  2.488725826013305E-006
  2.380204947515906E-006
  2.279508679262065E-006
  2.187709142594368E-006
  2.105777062545106E-006
  2.034678357838510E-006
  1.975438165342749E-006
  1.929173052203261E-006
  3.263979008457911E-006
  3.118639048007483E-006
  2.962555103300896E-006
  2.801374908381607E-006
  2.639928469149728E-006
  2.482000475816662E-006
  2.330315301932947E-006
  2.186698976582219E-006
  2.052331572886332E-006
  1.928010447624335E-006
  1.814377751861658E-006
  1.712094166672128E-006
  1.621960561050257E-006
  1.544996983041630E-006
  1.482491075536671E-006
  3.248504470031395E-006
  3.047140929851698E-006
  2.838409523091614E-006
  2.629010991121260E-006
  2.424359075714232E-006
  2.228248825880061E-006
  2.042946020239538E-006
  1.869552330784941E-006
  1.708447805198685E-006
  1.559684925556503E-006
  1.423293669786227E-006
  1.299500907679087E-006
  1.188871558789805E-006
  1.092402136549939E-006
  1.011587179522824E-006
  3.244846422226589E-006
  2.979153729575607E-006
  2.710489775638729E-006
  2.447286758089250E-006
  2.195726896477804E-006
  1.959337127138674E-006
  1.739429235717514E-006
  1.535890175861953E-006
  1.347903153975037E-006
  1.174471461565960E-006
  1.014783079412105E-006
  8.684632417742631E-007
  7.357504329163996E-007
  6.175737127806186E-007
  5.156623604656455E-007
  3.252017140608675E-006
  2.911050445422570E-006
  2.573349450612315E-006
  2.250278152426140E-006
  1.948760616907491E-006
  1.671214764846835E-006
  1.417043229181203E-006
  1.184203674700713E-006
  9.702283724272104E-007
  7.727429518300519E-007
  5.898010339795765E-007
  4.202075208619056E-007
  2.636991844177734E-007
  1.211060092238649E-007
 -5.678793267991759E-009
  3.268227801861733E-006
  2.836127878727422E-006
  2.417606259277905E-006
  2.028799658942657E-006
  1.676206468547046E-006
  1.358907837050874E-006
  1.072756746988147E-006
  8.130539657186885E-007
  5.753125343623571E-007
  3.555262437449808E-007
  1.503171000056707E-007
 -4.281592652581357E-008
 -2.247930245851608E-007
 -3.952050920253038E-007
 -5.519130280186728E-007
  3.289550430768019E-006
  2.740674613847194E-006
  2.226380529182395E-006
  1.769225903752397E-006
  1.369240736341880E-006
  1.017022349549943E-006
  7.036219877958564E-007
  4.213089946514427E-007
  1.635269125883761E-007
 -7.539037529119487E-008
 -3.004403367948581E-007
 -5.159532621544491E-007
 -7.251565837194011E-007
 -9.269736135842635E-007
 -1.120807687411810E-006
  3.305194819778446E-006
  2.590411505813399E-006
  1.969984313660612E-006
  1.455776116599745E-006
  1.019042227738523E-006
  6.407967683700493E-007
  3.073340544124466E-007
  8.378597048166408E-009
 -2.642798113682144E-007
 -5.176508128895499E-007
 -7.581791311510328E-007
 -9.922701848776609E-007
 -1.226563074252957E-006
 -1.467577042398798E-006
 -1.704248636556297E-006
  3.238039487140111E-006
  2.299794229817346E-006
  1.620504504613585E-006
  1.075590506208391E-006
  6.195695684614006E-007
  2.273401061601465E-007
 -1.172113601954039E-007
 -4.256299776720103E-007
 -7.069419389422455E-007
 -9.688525761826377E-007
 -1.218634406949250E-006
 -1.464039222408240E-006
 -1.714594557963161E-006
 -1.984350084431026E-006
 -2.293696305137960E-006
SCALARS poroP double 
LOOKUP_TABLE default
  7.095930925885669E-005
  6.281992834645578E-005
  5.077121977526863E-005
  3.883059152410307E-005
  2.984301251844371E-005
  2.325077715616966E-005
  1.843017527320311E-005
  1.732776960246050E-005
  1.731076520151842E-005
  1.729230094343645E-005
  1.727243843280273E-005
  1.725124919852403E-005
  1.722881523673263E-005
  1.720522945397869E-005
  1.718059601473932E-005
  5.110957743475865E-005
  4.112518198248517E-005
  3.272488962639733E-005
  2.655486985772110E-005
  2.157502947289093E-005
  1.802441198979677E-005
  1.734293383106699E-005
  1.732748157700446E-005
  1.731052767776488E-005
  1.729212489095388E-005
  1.727233505544657E-005
  1.725122963149731E-005
  1.722889030169529E-005
  1.720540943930458E-005
  1.718089042027284E-005
  3.148902012062398E-005
  2.374280030146535E-005
  1.977349240091430E-005
  1.775047383723107E-005
  1.736839314528279E-005
  1.735611643306814E-005
  1.734227395957648E-005
  1.732690440112980E-005
  1.731005372312399E-005
  1.729177574520774E-005
  1.727213268821695E-005
  1.725119578615411E-005
  1.722904608082969E-005
  1.720577490468536E-005
  1.718148399693912E-005
  1.937261414818248E-005
  1.739423066658598E-005
  1.738685032032934E-005
  1.737783617481989E-005
  1.736721431748692E-005
  1.735501534927856E-005
  1.734127523926923E-005
  1.732603588279506E-005
  1.730934555401326E-005
  1.729125939015199E-005
  1.727183998592458E-005
  1.725115815638489E-005
  1.722929387658806E-005
  1.720633668022162E-005
  1.718238614149260E-005
  1.739810717356002E-005
  1.739241740497457E-005
  1.738508438953668E-005
  1.737613536115954E-005
  1.736560147618644E-005
  1.735351850842425E-005
  1.733992708899483E-005
  1.732487282874761E-005
  1.730840652386567E-005
  1.729058458461625E-005
  1.727146972970051E-005
  1.725113213278351E-005
  1.722965000971658E-005
  1.720711052179841E-005
  1.718361088667933E-005
  1.739566429150086E-005
  1.739003031793998E-005
  1.738277268227056E-005
  1.737392336013022E-005
  1.736351910606596E-005
  1.735160130526014E-005
  1.733821550077313E-005
  1.732341102462407E-005
  1.730724097827472E-005
  1.728976266035305E-005
  1.727103843161973E-005
  1.725113711602510E-005
  1.723013510956856E-005
  1.720811697307640E-005
  1.718517674260472E-005
  1.739253150736392E-005
  1.738698546266049E-005
  1.737984325743164E-005
  1.737114147780310E-005
  1.736092242803901E-005
  1.734923289564565E-005
  1.733612293586830E-005
  1.732164501275364E-005
  1.730585381761524E-005
  1.728880681409097E-005
  1.727056539837374E-005
  1.725119655426382E-005
  1.723077431963157E-005
  1.720938058739597E-005
  1.718710629390272E-005
  1.738859183465296E-005
  1.738317909346732E-005
  1.737620777523983E-005
  1.736771812479004E-005
  1.735775711640697E-005
  1.734637592579379E-005
  1.733362793085369E-005
  1.731956749007381E-005
  1.730424970682053E-005
  1.728773116695745E-005
  1.727007174704505E-005
  1.725133620906568E-005
  1.723159559853593E-005
  1.721092941341478E-005
  1.718942614279908E-005
  1.738370416376670E-005
  1.737848679525585E-005
  1.737176089997776E-005
  1.736356838193474E-005
  1.735395887585315E-005
  1.734298593174287E-005
  1.733070421041164E-005
  1.731716807727079E-005
  1.730243151378266E-005
  1.728654914926533E-005
  1.726957851136757E-005
  1.725158204156885E-005
  1.723262826414433E-005
  1.721279435162610E-005
  1.719216682491422E-005
  1.737770274181692E-005
  1.737276316598100E-005
  1.736638004438702E-005
  1.735859358561748E-005
  1.734945272653299E-005
  1.733901018879522E-005
  1.732731903754462E-005
  1.731443122578340E-005
  1.730039785276501E-005
  1.728527073198782E-005
  1.726910460840699E-005
  1.725195937052054E-005
  1.723390199060544E-005
  1.721500811932958E-005
  1.719536249883226E-005
  1.737039793922833E-005
  1.736584239310107E-005
  1.735992555223736E-005
  1.735268090406919E-005
  1.734415180926875E-005
  1.733438571855855E-005
  1.732343047835686E-005
  1.731133294792597E-005
  1.729813966200811E-005
  1.728389888578906E-005
  1.726866290573426E-005
  1.725248979649902E-005
  1.723544556383765E-005
  1.721760474600484E-005
  1.719905067898157E-005
  1.736157902680354E-005
  1.735754016514210E-005
  1.735224143946899E-005
  1.734570276020955E-005
  1.733795544543402E-005
  1.732903614042570E-005
  1.731898330823410E-005
  1.730783613346019E-005
  1.729563535684918E-005
  1.728242566695687E-005
  1.726825777575319E-005
  1.725318906653033E-005
  1.723728459175793E-005
  1.722061797085499E-005
  1.720327172284238E-005
  1.735101985623758E-005
  1.734765740745982E-005
  1.734315682240494E-005
  1.733751595389222E-005
  1.733074621263878E-005
  1.732286711740478E-005
  1.731390342945790E-005
  1.730388450824033E-005
  1.729284505533331E-005
  1.728082708471688E-005
  1.726788080724852E-005
  1.725406331194145E-005
  1.723943913975010E-005
  1.722408082744865E-005
  1.720806879361573E-005
  1.733848845948339E-005
  1.733598638919421E-005
  1.733248821140336E-005
  1.732796039392116E-005
  1.732238581854782E-005
  1.731576026030154E-005
  1.730809077587803E-005
  1.729939542532891E-005
  1.728970372926881E-005
  1.727905687797633E-005
  1.726750528891594E-005
  1.725510614319598E-005
  1.724192305119879E-005
  1.722802499634423E-005
  1.721348696343012E-005
  1.732376152204332E-005
  1.732231983011874E-005
  1.732004300501121E-005
  1.731685765711132E-005
  1.731270992477240E-005
  1.730756560919268E-005
  1.730141074536148E-005
  1.729425152476632E-005
  1.728611395811050E-005
  1.727704055215563E-005
  1.726708247769207E-005
  1.725629635342372E-005
  1.724474183032624E-005
  1.723247905559347E-005
  1.721957153574087E-005
  1.730664393418530E-005
  1.730646354853400E-005
  1.730562493781221E-005
  1.730401012956256E-005
  1.730152267521235E-005
  1.729809345677925E-005
  1.729368499062549E-005
  1.728829203129872E-005
  1.728193917337963E-005
  1.727467055248101E-005
  1.726653795081467E-005
  1.725759487636657E-005
  1.724789004878138E-005
  1.723746597789375E-005
  1.722636548078570E-005
  1.728699331790635E-005
  1.728825278438864E-005
  1.728904257869270E-005
  1.728920238418957E-005
  1.728859249151698E-005
  1.728710685272959E-005
  1.728468293150018E-005
  1.728130489851572E-005
  1.727699628519267E-005
  1.727180102251241E-005
  1.726576849937006E-005
  1.725894183288068E-005
  1.725134785462248E-005
  1.724299900963846E-005
  1.723390547173691E-005
  1.726474762640838E-005
  1.726757269789337E-005
  1.727012240463243E-005
  1.727220718330306E-005
  1.727365179624874E-005
  1.727431677726259E-005
  1.727411552590252E-005
  1.727302123668090E-005
  1.727105183299821E-005
  1.726824493598149E-005
  1.726463883635044E-005
  1.726025226187554E-005
  1.725507506847645E-005
  1.724907503526106E-005
  1.724221656271211E-005
  1.723995136543586E-005
  1.724438139742583E-005
  1.724872848306982E-005
  1.725279957923738E-005
  1.725640450263209E-005
  1.725938390125483E-005
  1.726163385187393E-005
  1.726311236628066E-005
  1.726381937068795E-005
  1.726377176982647E-005
  1.726297702199311E-005
  1.726140849689962E-005
  1.725900146597942E-005
  1.725566509846401E-005
  1.725130591563584E-005
  1.721277359932170E-005
  1.721873201058591E-005
  1.722478733171113E-005
  1.723078136819235E-005
  1.723654661953018E-005
  1.724193408286036E-005
  1.724683770865615E-005
  1.725119298158547E-005
  1.725495985239342E-005
  1.725810342282151E-005
  1.726056511767107E-005
  1.726224666800557E-005
  1.726301229250554E-005
  1.726270257294116E-005
  1.726115655398609E-005
  1.718350859997149E-005
  1.719078476302158E-005
  1.719831230247559E-005
  1.720601559066136E-005
  1.721380494397005E-005
  1.722159386189125E-005
  1.722930216624355E-005
  1.723683765453051E-005
  1.724408565921720E-005
  1.725090432475937E-005
  1.725712016594031E-005
  1.726253437428417E-005
  1.726692844607365E-005
  1.727006956368623E-005
  1.727172179016128E-005
  1.715255558233270E-005
  1.716080178831689E-005
  1.716941660830321E-005
  1.717846325271182E-005
  1.718799431443370E-005
  1.719805484949620E-005
  1.720863496243378E-005
  1.721961645969157E-005
  1.723076440437494E-005
  1.724176040284388E-005
  1.725226112085197E-005
  1.726193810428864E-005
  1.727048114980826E-005
  1.727758200936562E-005
  1.728292168564959E-005
  1.712038002681878E-005
  1.712911821232637E-005
  1.713831296330068E-005
  1.714821216644052E-005
  1.715908394934473E-005
  1.717117140840328E-005
  1.718457613932150E-005
  1.719915641649877E-005
  1.721452557347499E-005
  1.723014643202012E-005
  1.724546237926939E-005
  1.725998114462852E-005
  1.727328270138626E-005
  1.728497401161329E-005
  1.729463806252437E-005
  1.708744580053931E-005
  1.709609277521292E-005
  1.710527954021495E-005
  1.711548964057580E-005
  1.712727057666875E-005
  1.714108720056950E-005
  1.715713164195934E-005
  1.717522953266388E-005
  1.719488536647234E-005
  1.721539801228547E-005
  1.723600162819218E-005
  1.725599389544813E-005
  1.727478945550723E-005
  1.729187376773096E-005
  1.730670768866605E-005
  1.705411849115876E-005
  1.706201426338181E-005
  1.707060195934730E-005
  1.708066506047922E-005
  1.709304843883160E-005
  1.710834054028697E-005
  1.712668131233196E-005
  1.714786408690284E-005
  1.717143959159955E-005
  1.719674601292714E-005
  1.722292996273373E-005
  1.724904971271474E-005
  1.727423768646163E-005
  1.729775870936966E-005
  1.731891040122419E-005
  1.702072339474908E-005
  1.702704920324463E-005
  1.703452761919421E-005
  1.704428537307813E-005
  1.705726732143084E-005
  1.707384150982248E-005
  1.709395394598570E-005
  1.711743391102763E-005
  1.714407024380477E-005
  1.717351455991876E-005
  1.720512482330097E-005
  1.723788082354788E-005
  1.727052576573480E-005
  1.730188221420620E-005
  1.733094141451588E-005
  1.698745492074543E-005
  1.699128752052816E-005
  1.699743825168418E-005
  1.700724847495146E-005
  1.702104074728062E-005
  1.703862241174149E-005
  1.705983508735480E-005
  1.708465867654222E-005
  1.711319183106302E-005
  1.714553868178465E-005
  1.718161400037801E-005
  1.722086976515006E-005
  1.726199828563126E-005
  1.730306504012750E-005
  1.734236884165617E-005
  1.695427316682586E-005
  1.695488341577014E-005
  1.696041014996091E-005
  1.697083586014260E-005
  1.698534280162420E-005
  1.700346993461176E-005
  1.702512988351912E-005
  1.705047199124639E-005
  1.707980085267472E-005
  1.711357457564990E-005
  1.715235651536939E-005
  1.719659563362879E-005
  1.724615622860970E-005
  1.729927417470965E-005
  1.735241980307616E-005
  1.692066980466462E-005
  1.691946825451033E-005
  1.692532346222258E-005
  1.693594522482945E-005
  1.695057223510006E-005
  1.696877412645089E-005
  1.699045936377241E-005
  1.701580263670243E-005
  1.704518236893278E-005
  1.707921871799554E-005
  1.711886540278149E-005
  1.716545385194188E-005
  1.722062620705448E-005
  1.728604597144151E-005
  1.735927201708890E-005
  1.689180333519977E-005
  1.688859004719328E-005
  1.689270765048072E-005
  1.690252519054997E-005
  1.691675257394180E-005
  1.693475347960539E-005
  1.695627530417548E-005
  1.698138976581903E-005
  1.701047420662652E-005
  1.704421369290617E-005
  1.708364972913402E-005
  1.713042903416215E-005
  1.718729816800675E-005
  1.725903281179834E-005
  1.735612347373390E-005
SCALARS elementIsPlast double 
LOOKUP_TABLE default
   1.00000000000000     
   1.00000000000000     
   1.00000000000000     
   1.00000000000000     
   1.00000000000000     
   1.00000000000000     
   1.00000000000000     
  0.000000000000000E+000
  0.000000000000000E+000
  0.000000000000000E+000
  0.000000000000000E+000
  0.000000000000000E+000
  0.000000000000000E+000
  0.000000000000000E+000
  0.000000000000000E+000
   1.00000000000000     
   1.00000000000000     
   1.00000000000000     
   1.00000000000000     
   1.00000000000000     
   1.00000000000000     
  0.000000000000000E+000
  0.000000000000000E+000
  0.000000000000000E+000
  0.000000000000000E+000
  0.000000000000000E+000
  0.000000000000000E+000
  0.000000000000000E+000
  0.000000000000000E+000
  0.000000000000000E+000
   1.00000000000000     
   1.00000000000000     
   1.00000000000000     
   1.00000000000000     
  0.000000000000000E+000
  0.000000000000000E+000
  0.000000000000000E+000
  0.000000000000000E+000
  0.000000000000000E+000
  0.000000000000000E+000
  0.000000000000000E+000
  0.000000000000000E+000
  0.000000000000000E+000
  0.000000000000000E+000
  0.000000000000000E+000
   1.00000000000000     
  0.000000000000000E+000
  0.000000000000000E+000
  0.000000000000000E+000
  0.000000000000000E+000
  0.000000000000000E+000
  0.000000000000000E+000
  0.000000000000000E+000
  0.000000000000000E+000
  0.000000000000000E+000
  0.000000000000000E+000
  0.000000000000000E+000
  0.000000000000000E+000
  0.000000000000000E+000
  0.000000000000000E+000
  0.000000000000000E+000
  0.000000000000000E+000
  0.000000000000000E+000
  0.000000000000000E+000
  0.000000000000000E+000
  0.000000000000000E+000
  0.000000000000000E+000
  0.000000000000000E+000
  0.000000000000000E+000
  0.000000000000000E+000
  0.000000000000000E+000
  0.000000000000000E+000
  0.000000000000000E+000
  0.000000000000000E+000
  0.000000000000000E+000
  0.000000000000000E+000
  0.000000000000000E+000
  0.000000000000000E+000
  0.000000000000000E+000
  0.000000000000000E+000
  0.000000000000000E+000
  0.000000000000000E+000
  0.000000000000000E+000
  0.000000000000000E+000
  0.000000000000000E+000
  0.000000000000000E+000
  0.000000000000000E+000
  0.000000000000000E+000
  0.000000000000000E+000
  0.000000000000000E+000
  0.000000000000000E+000
  0.000000000000000E+000
  0.000000000000000E+000
  0.000000000000000E+000
  0.000000000000000E+000
  0.000000000000000E+000
  0.000000000000000E+000
  0.000000000000000E+000
  0.000000000000000E+000
  0.000000000000000E+000
  0.000000000000000E+000
  0.000000000000000E+000
  0.000000000000000E+000
  0.000000000000000E+000
  0.000000000000000E+000
  0.000000000000000E+000
  0.000000000000000E+000
  0.000000000000000E+000
  0.000000000000000E+000
  0.000000000000000E+000
  0.000000000000000E+000
  0.000000000000000E+000
  0.000000000000000E+000
  0.000000000000000E+000
  0.000000000000000E+000
  0.000000000000000E+000
  0.000000000000000E+000
  0.000000000000000E+000
  0.000000000000000E+000
  0.000000000000000E+000
  0.000000000000000E+000
  0.000000000000000E+000
  0.000000000000000E+000
  0.000000000000000E+000
  0.000000000000000E+000
  0.000000000000000E+000
  0.000000000000000E+000
  0.000000000000000E+000
  0.000000000000000E+000
  0.000000000000000E+000
  0.000000000000000E+000
  0.000000000000000E+000
  0.000000000000000E+000
  0.000000000000000E+000
  0.000000000000000E+000
  0.000000000000000E+000
  0.000000000000000E+000
  0.000000000000000E+000
  0.000000000000000E+000
  0.000000000000000E+000
  0.000000000000000E+000
  0.000000000000000E+000
  0.000000000000000E+000
  0.000000000000000E+000
  0.000000000000000E+000
  0.000000000000000E+000
  0.000000000000000E+000
  0.000000000000000E+000
  0.000000000000000E+000
  0.000000000000000E+000
  0.000000000000000E+000
  0.000000000000000E+000
  0.000000000000000E+000
  0.000000000000000E+000
  0.000000000000000E+000
  0.000000000000000E+000
  0.000000000000000E+000
  0.000000000000000E+000
  0.000000000000000E+000
  0.000000000000000E+000
  0.000000000000000E+000
  0.000000000000000E+000
  0.000000000000000E+000
  0.000000000000000E+000
  0.000000000000000E+000
  0.000000000000000E+000
  0.000000000000000E+000
  0.000000000000000E+000
  0.000000000000000E+000
  0.000000000000000E+000
  0.000000000000000E+000
  0.000000000000000E+000
  0.000000000000000E+000
  0.000000000000000E+000
  0.000000000000000E+000
  0.000000000000000E+000
  0.000000000000000E+000
  0.000000000000000E+000
  0.000000000000000E+000
  0.000000000000000E+000
  0.000000000000000E+000
  0.000000000000000E+000
  0.000000000000000E+000
  0.000000000000000E+000
  0.000000000000000E+000
  0.000000000000000E+000
  0.000000000000000E+000
  0.000000000000000E+000
  0.000000000000000E+000
  0.000000000000000E+000
  0.000000000000000E+000
  0.000000000000000E+000
  0.000000000000000E+000
  0.000000000000000E+000
  0.000000000000000E+000
  0.000000000000000E+000
  0.000000000000000E+000
  0.000000000000000E+000
  0.000000000000000E+000
  0.000000000000000E+000
  0.000000000000000E+000
  0.000000000000000E+000
  0.000000000000000E+000
  0.000000000000000E+000
  0.000000000000000E+000
  0.000000000000000E+000
  0.000000000000000E+000
  0.000000000000000E+000
  0.000000000000000E+000
  0.000000000000000E+000
  0.000000000000000E+000
  0.000000000000000E+000
  0.000000000000000E+000
  0.000000000000000E+000
  0.000000000000000E+000
  0.000000000000000E+000
  0.000000000000000E+000
  0.000000000000000E+000
  0.000000000000000E+000
  0.000000000000000E+000
  0.000000000000000E+000
  0.000000000000000E+000
  0.000000000000000E+000
  0.000000000000000E+000
  0.000000000000000E+000
  0.000000000000000E+000
  0.000000000000000E+000
  0.000000000000000E+000
  0.000000000000000E+000
  0.000000000000000E+000
  0.000000000000000E+000
  0.000000000000000E+000
  0.000000000000000E+000
  0.000000000000000E+000
  0.000000000000000E+000
  0.000000000000000E+000
  0.000000000000000E+000
  0.000000000000000E+000
  0.000000000000000E+000
  0.000000000000000E+000
  0.000000000000000E+000
  0.000000000000000E+000
  0.000000000000000E+000
  0.000000000000000E+000
  0.000000000000000E+000
  0.000000000000000E+000
  0.000000000000000E+000
  0.000000000000000E+000
  0.000000000000000E+000
  0.000000000000000E+000
  0.000000000000000E+000
  0.000000000000000E+000
  0.000000000000000E+000
  0.000000000000000E+000
  0.000000000000000E+000
  0.000000000000000E+000
  0.000000000000000E+000
  0.000000000000000E+000
  0.000000000000000E+000
  0.000000000000000E+000
  0.000000000000000E+000
  0.000000000000000E+000
  0.000000000000000E+000
  0.000000000000000E+000
  0.000000000000000E+000
  0.000000000000000E+000
  0.000000000000000E+000
  0.000000000000000E+000
  0.000000000000000E+000
  0.000000000000000E+000
  0.000000000000000E+000
  0.000000000000000E+000
  0.000000000000000E+000
  0.000000000000000E+000
  0.000000000000000E+000
  0.000000000000000E+000
  0.000000000000000E+000
  0.000000000000000E+000
  0.000000000000000E+000
  0.000000000000000E+000
  0.000000000000000E+000
  0.000000000000000E+000
  0.000000000000000E+000
  0.000000000000000E+000
  0.000000000000000E+000
  0.000000000000000E+000
  0.000000000000000E+000
  0.000000000000000E+000
  0.000000000000000E+000
  0.000000000000000E+000
  0.000000000000000E+000
  0.000000000000000E+000
  0.000000000000000E+000
  0.000000000000000E+000
  0.000000000000000E+000
  0.000000000000000E+000
  0.000000000000000E+000
  0.000000000000000E+000
  0.000000000000000E+000
  0.000000000000000E+000
  0.000000000000000E+000
  0.000000000000000E+000
  0.000000000000000E+000
  0.000000000000000E+000
  0.000000000000000E+000
  0.000000000000000E+000
  0.000000000000000E+000
  0.000000000000000E+000
  0.000000000000000E+000
  0.000000000000000E+000
  0.000000000000000E+000
  0.000000000000000E+000
  0.000000000000000E+000
  0.000000000000000E+000
  0.000000000000000E+000
  0.000000000000000E+000
  0.000000000000000E+000
  0.000000000000000E+000
  0.000000000000000E+000
  0.000000000000000E+000
  0.000000000000000E+000
  0.000000000000000E+000
  0.000000000000000E+000
  0.000000000000000E+000
  0.000000000000000E+000
  0.000000000000000E+000
  0.000000000000000E+000
  0.000000000000000E+000
  0.000000000000000E+000
  0.000000000000000E+000
  0.000000000000000E+000
  0.000000000000000E+000
  0.000000000000000E+000
  0.000000000000000E+000
  0.000000000000000E+000
  0.000000000000000E+000
  0.000000000000000E+000
  0.000000000000000E+000
  0.000000000000000E+000
  0.000000000000000E+000
  0.000000000000000E+000
  0.000000000000000E+000
  0.000000000000000E+000
  0.000000000000000E+000
  0.000000000000000E+000
  0.000000000000000E+000
  0.000000000000000E+000
  0.000000000000000E+000
  0.000000000000000E+000
  0.000000000000000E+000
  0.000000000000000E+000
  0.000000000000000E+000
  0.000000000000000E+000
  0.000000000000000E+000
  0.000000000000000E+000
  0.000000000000000E+000
  0.000000000000000E+000
  0.000000000000000E+000
  0.000000000000000E+000
  0.000000000000000E+000
  0.000000000000000E+000
  0.000000000000000E+000
  0.000000000000000E+000
  0.000000000000000E+000
  0.000000000000000E+000
  0.000000000000000E+000
  0.000000000000000E+000
  0.000000000000000E+000
  0.000000000000000E+000
  0.000000000000000E+000
  0.000000000000000E+000
  0.000000000000000E+000
  0.000000000000000E+000
  0.000000000000000E+000
  0.000000000000000E+000
  0.000000000000000E+000
  0.000000000000000E+000
  0.000000000000000E+000
  0.000000000000000E+000
  0.000000000000000E+000
  0.000000000000000E+000
  0.000000000000000E+000
  0.000000000000000E+000
  0.000000000000000E+000
  0.000000000000000E+000
  0.000000000000000E+000
  0.000000000000000E+000
  0.000000000000000E+000
  0.000000000000000E+000
  0.000000000000000E+000
  0.000000000000000E+000
  0.000000000000000E+000
  0.000000000000000E+000
  0.000000000000000E+000
  0.000000000000000E+000
  0.000000000000000E+000
  0.000000000000000E+000
  0.000000000000000E+000
  0.000000000000000E+000
  0.000000000000000E+000
  0.000000000000000E+000
  0.000000000000000E+000
  0.000000000000000E+000
  0.000000000000000E+000
  0.000000000000000E+000
  0.000000000000000E+000
  0.000000000000000E+000
  0.000000000000000E+000
  0.000000000000000E+000
  0.000000000000000E+000
  0.000000000000000E+000
  0.000000000000000E+000
  0.000000000000000E+000
  0.000000000000000E+000
  0.000000000000000E+000
  0.000000000000000E+000
  0.000000000000000E+000
  0.000000000000000E+000
  0.000000000000000E+000
  0.000000000000000E+000
  0.000000000000000E+000
  0.000000000000000E+000
  0.000000000000000E+000
  0.000000000000000E+000
  0.000000000000000E+000
  0.000000000000000E+000
  0.000000000000000E+000
  0.000000000000000E+000
  0.000000000000000E+000
  0.000000000000000E+000
  0.000000000000000E+000
  0.000000000000000E+000
  0.000000000000000E+000
  0.000000000000000E+000
  0.000000000000000E+000
  0.000000000000000E+000
  0.000000000000000E+000
  0.000000000000000E+000
  0.000000000000000E+000
  0.000000000000000E+000
  0.000000000000000E+000
  0.000000000000000E+000
  0.000000000000000E+000
  0.000000000000000E+000
  0.000000000000000E+000
  0.000000000000000E+000
  0.000000000000000E+000
  0.000000000000000E+000
  0.000000000000000E+000
  0.000000000000000E+000
SCALARS poroL double 
LOOKUP_TABLE default
  0.156167512464202     
  0.156161366550157     
  0.156147898500359     
  0.156130424925009     
  0.156111284306733     
  0.156092463310625     
  0.156075674517646     
  0.156064391858180     
  0.156056661863532     
  0.156050205616305     
  0.156044478984577     
  0.156039155623264     
  0.156033951514287     
  0.156028506039882     
  0.156021879490768     
  0.156128679246004     
  0.156116132596255     
  0.156104727469190     
  0.156093615882851     
  0.156081613540657     
  0.156070278265691     
  0.156061824821081     
  0.156054614463044     
  0.156047757806384     
  0.156041730796305     
  0.156036285428803     
  0.156031210621983     
  0.156026312838634     
  0.156021370877340     
  0.156016575317154     
  0.156091086011203     
  0.156077342712921     
  0.156068650286722     
  0.156063181848063     
  0.156059291141806     
  0.156055030187625     
  0.156049629645948     
  0.156043730244618     
  0.156038043621855     
  0.156032687276555     
  0.156027726753880     
  0.156023086021292     
  0.156018683166965     
  0.156014521389506     
  0.156010709785698     
  0.156061246597821     
  0.156055136258599     
  0.156052093477195     
  0.156049238415593     
  0.156045899307009     
  0.156041912428418     
  0.156037445469354     
  0.156032672375894     
  0.156027864181025     
  0.156023232140792     
  0.156018846512531     
  0.156014730313183     
  0.156010891460551     
  0.156007370471368     
  0.156004274087733     
  0.156046188755956     
  0.156042845023411     
  0.156039465197427     
  0.156036318947197     
  0.156033030196554     
  0.156029451101205     
  0.156025587490302     
  0.156021552362588     
  0.156017480913472     
  0.156013498038144     
  0.156009691752955     
  0.156006113231384     
  0.156002805953135     
  0.155999827176074     
  0.155997260556009     
  0.156033045098608     
  0.156029792131672     
  0.156026700650128     
  0.156023629621406     
  0.156020523659443     
  0.156017290822440     
  0.156013919730755     
  0.156010457044517     
  0.156006981110341     
  0.156003573172450     
  0.156000303563365     
  0.155997229881311     
  0.155994403907212     
  0.155991881880843     
  0.155989729455217     
  0.156019624675010     
  0.156016679891018     
  0.156013822652215     
  0.156011007416353     
  0.156008174636019     
  0.156005292313970     
  0.156002350446601     
  0.155999372691165     
  0.155996404550498     
  0.155993500684615     
  0.155990715405097     
  0.155988099402359     
  0.155985701075503     
  0.155983569265305     
  0.155981754247740     
  0.156006068014269     
  0.156003458177887     
  0.156000912251560     
  0.155998398240532     
  0.155995888985578     
  0.155993364826829     
  0.155990823308708     
  0.155988278744005     
  0.155985760141907     
  0.155983305105744     
  0.155980954563493     
  0.155978749687570     
  0.155976730956561     
  0.155974938029103     
  0.155973408828313     
  0.155992414605064     
  0.155990170364460     
  0.155987965413955     
  0.155985787159583     
  0.155983621579618     
  0.155981460028419     
  0.155979302448886     
  0.155977159316170     
  0.155975050385943     
  0.155973002214883     
  0.155971045197577     
  0.155969211268096     
  0.155967532402130     
  0.155966039471856     
  0.155964760771450     
  0.155978708618469     
  0.155976837220118     
  0.155974989397746     
  0.155973162464006     
  0.155971351350495     
  0.155969552746520     
  0.155967768209842     
  0.155966005469350     
  0.155964278398518     
  0.155962605834807     
  0.155961009971720     
  0.155959514748552     
  0.155958144451601     
  0.155956922414114     
  0.155955869577559     
  0.155964976430757     
  0.155963475000936     
  0.155961988804150     
  0.155960520027284     
  0.155959067714385     
  0.155957631051813     
  0.155956211657814     
  0.155954814885369     
  0.155953450117857     
  0.155952130329868     
  0.155950871184294     
  0.155949689953240     
  0.155948604406240     
  0.155947631690137     
  0.155946787155998     
  0.155951231331496     
  0.155950092132477     
  0.155948966817582     
  0.155947858287844     
  0.155946766421690     
  0.155945690477038     
  0.155944630900216     
  0.155943590434370     
  0.155942574567235     
  0.155941591424417     
  0.155940651280891     
  0.155939765850966     
  0.155938947476054     
  0.155938208273624     
  0.155937559277646     
  0.155937475089366     
  0.155936690342861     
  0.155935923942897     
  0.155935176581884     
  0.155934446470647     
  0.155933731105976     
  0.155933028649758     
  0.155932338843967     
  0.155931663457258     
  0.155931006328492     
  0.155930373103123     
  0.155929770773138     
  0.155929207113647     
  0.155928690086620     
  0.155928227264691     
  0.155923700489333     
  0.155923265588466     
  0.155922857990529     
  0.155922474088571     
  0.155922108594897     
  0.155921755830125     
  0.155921410758873     
  0.155921069701588     
  0.155920730711610     
  0.155920393652885     
  0.155920060044060     
  0.155919732750746     
  0.155919415602775     
  0.155919113003135     
  0.155918829583841     
  0.155909893606124     
  0.155909809344023     
  0.155909764465754     
  0.155909749576190     
  0.155909754546370     
  0.155909769459394     
  0.155909785369920     
  0.155909794821070     
  0.155909792108708     
  0.155909773318721     
  0.155909736190943     
  0.155909679881218     
  0.155909604692157     
  0.155909511827633     
  0.155909403231200     
  0.155896035844127     
  0.155896309950653     
  0.155896637301228     
  0.155897001623494     
  0.155897386961275     
  0.155897778383774     
  0.155898162524896     
  0.155898527911629     
  0.155898865082732     
  0.155899166521545     
  0.155899426467617     
  0.155899640674852     
  0.155899806182375     
  0.155899921162556     
  0.155899984899471     
  0.155882105718939     
  0.155882753969537     
  0.155883469789214     
  0.155884229182349     
  0.155885009627509     
  0.155885790635822     
  0.155886554110928     
  0.155887284486206     
  0.155887968655463     
  0.155888595738826     
  0.155889156764102     
  0.155889644343604     
  0.155890052415282     
  0.155890376131753     
  0.155890611948690     
  0.155868080430096     
  0.155869127520317     
  0.155870255660115     
  0.155871432396138     
  0.155872628061385     
  0.155873816258189     
  0.155874974062546     
  0.155876081949149     
  0.155877123466758     
  0.155878084756477     
  0.155878954014553     
  0.155879720990143     
  0.155880376626046     
  0.155880912938618     
  0.155881323195758     
  0.155853937272636     
  0.155855417625536     
  0.155856990306461     
  0.155858613654505     
  0.155860250356018     
  0.155861867927262     
  0.155863438768063     
  0.155864939810220     
  0.155866351840852     
  0.155867658654959     
  0.155868846171881     
  0.155869901642620     
  0.155870813109246     
  0.155871569226012     
  0.155872159516240     
  0.155839654937823     
  0.155841613610801     
  0.155843672199589     
  0.155845778920583     
  0.155847888320229     
  0.155849961832372     
  0.155851967651920     
  0.155853879980643     
  0.155855677842842     
  0.155857343693468     
  0.155858862005324     
  0.155860218059883     
  0.155861397128246     
  0.155862384182728     
  0.155863164226378     
  0.155825214733255     
  0.155827708653000     
  0.155830304610777     
  0.155832939430880     
  0.155835558974398     
  0.155838118837639     
  0.155840583931541     
  0.155842927120817     
  0.155845127267373     
  0.155847167013384     
  0.155849030623402     
  0.155850702197886     
  0.155852164463316     
  0.155853398308580     
  0.155854383182229     
  0.155810601808281     
  0.155813701629515     
  0.155816897834069     
  0.155820113958543     
  0.155823286545975     
  0.155826365987078     
  0.155829315549381     
  0.155832109007273     
  0.155834727486772     
  0.155837156056887     
  0.155839380586105     
  0.155841385182655     
  0.155843150443779     
  0.155844652711172     
  0.155845864509111     
  0.155795806459078     
  0.155799599576516     
  0.155803472288258     
  0.155807331972243     
  0.155811105159353     
  0.155814738447452     
  0.155818196296097     
  0.155821456878477     
  0.155824507082977     
  0.155827337574600     
  0.155829938428675     
  0.155832295574692     
  0.155834388245222     
  0.155836187741811     
  0.155837657846879     
  0.155780825616882     
  0.155785421274315     
  0.155790063209313     
  0.155794638207156     
  0.155799062517509     
  0.155803281976351     
  0.155807267101810     
  0.155811005673054     
  0.155814495155528     
  0.155817736074049     
  0.155820726382163     
  0.155823456617644     
  0.155825906101952     
  0.155828040685675     
  0.155829812959204     
  0.155765665228371     
  0.155771203203692     
  0.155776728118556     
  0.155782099521480     
  0.155787224843806     
  0.155792055848248     
  0.155796577306493     
  0.155800794016496     
  0.155804720208729     
  0.155808371639617     
  0.155811759069371     
  0.155814882068469     
  0.155817722840336     
  0.155820241986802     
  0.155822377432151     
  0.155750344981205     
  0.155757011040790     
  0.155763559779777     
  0.155769815186289     
  0.155775683124114     
  0.155781135704693     
  0.155786185309032     
  0.155790863644424     
  0.155795208653546     
  0.155799257193021     
  0.155803039190849     
  0.155806569895800     
  0.155809840796909     
  0.155812808801721     
  0.155815393121181     
  0.155734907900668     
  0.155742963513277     
  0.155750710088687     
  0.155757931998024     
  0.155764559412295     
  0.155770614328878     
  0.155776157525129     
  0.155781257895809     
  0.155785983175861     
  0.155790396200503     
  0.155794552218245     
  0.155798493907209     
  0.155802233132212     
  0.155805734168858     
  0.155808889652603     
  0.155719451029325     
  0.155729287581936     
  0.155738434101214     
  0.155746662240419     
  0.155754005885264     
  0.155760597577949     
  0.155766564273820     
  0.155772019013391     
  0.155777061505270     
  0.155781781996902     
  0.155786264911425     
  0.155790589498003     
  0.155794826180773     
  0.155798959690150     
  0.155802875422283     
  0.155704221179680     
  0.155716480241290     
  0.155727161263053     
  0.155736268414462     
  0.155744190364536     
  0.155751192239650     
  0.155757472273782     
  0.155763184352219     
  0.155768455916816     
  0.155773400644482     
  0.155778129238654     
  0.155782761174057     
  0.155787434824783     
  0.155792345259927     
  0.155797288055239     
  0.155690344919833     
  0.155705695138756     
  0.155717371092560     
  0.155727013532963     
  0.155735261786208     
  0.155742487410712     
  0.155748934603173     
  0.155754782157640     
  0.155760173704144     
  0.155765236577594     
  0.155770097461014     
  0.155774901231922     
  0.155779846122579     
  0.155785256987547     
  0.155792078137788     
