# vtk DataFile Version 3.0
vtk output
ASCII
DATASET UNSTRUCTURED_GRID
POINTS       496 double 
  0.00000000E+00  3.00000000E+02  0.00000000E+00
  0.00000000E+00  2.80000000E+02  0.00000000E+00
  0.00000000E+00  2.60000000E+02  0.00000000E+00
  0.00000000E+00  2.40000000E+02  0.00000000E+00
  0.00000000E+00  2.20000000E+02  0.00000000E+00
  0.00000000E+00  2.00000000E+02  0.00000000E+00
  0.00000000E+00  1.80000000E+02  0.00000000E+00
  0.00000000E+00  1.60000000E+02  0.00000000E+00
  0.00000000E+00  1.40000000E+02  0.00000000E+00
  0.00000000E+00  1.20000000E+02  0.00000000E+00
  0.00000000E+00  1.00000000E+02  0.00000000E+00
  0.00000000E+00  8.00000000E+01  0.00000000E+00
  0.00000000E+00  6.00000000E+01  0.00000000E+00
  0.00000000E+00  4.00000000E+01  0.00000000E+00
  0.00000000E+00  2.00000000E+01  0.00000000E+00
  0.00000000E+00  4.99600361E-14  0.00000000E+00
  2.00000000E+01  3.00000000E+02  0.00000000E+00
  2.00000000E+01  2.80000000E+02  0.00000000E+00
  2.00000000E+01  2.60000000E+02  0.00000000E+00
  2.00000000E+01  2.40000000E+02  0.00000000E+00
  2.00000000E+01  2.20000000E+02  0.00000000E+00
  2.00000000E+01  2.00000000E+02  0.00000000E+00
  2.00000000E+01  1.80000000E+02  0.00000000E+00
  2.00000000E+01  1.60000000E+02  0.00000000E+00
  2.00000000E+01  1.40000000E+02  0.00000000E+00
  2.00000000E+01  1.20000000E+02  0.00000000E+00
  2.00000000E+01  1.00000000E+02  0.00000000E+00
  2.00000000E+01  8.00000000E+01  0.00000000E+00
  2.00000000E+01  6.00000000E+01  0.00000000E+00
  2.00000000E+01  4.00000000E+01  0.00000000E+00
  2.00000000E+01  2.00000000E+01  0.00000000E+00
  2.00000000E+01  4.99600361E-14  0.00000000E+00
  4.00000000E+01  3.00000000E+02  0.00000000E+00
  4.00000000E+01  2.80000000E+02  0.00000000E+00
  4.00000000E+01  2.60000000E+02  0.00000000E+00
  4.00000000E+01  2.40000000E+02  0.00000000E+00
  4.00000000E+01  2.20000000E+02  0.00000000E+00
  4.00000000E+01  2.00000000E+02  0.00000000E+00
  4.00000000E+01  1.80000000E+02  0.00000000E+00
  4.00000000E+01  1.60000000E+02  0.00000000E+00
  4.00000000E+01  1.40000000E+02  0.00000000E+00
  4.00000000E+01  1.20000000E+02  0.00000000E+00
  4.00000000E+01  1.00000000E+02  0.00000000E+00
  4.00000000E+01  8.00000000E+01  0.00000000E+00
  4.00000000E+01  6.00000000E+01  0.00000000E+00
  4.00000000E+01  4.00000000E+01  0.00000000E+00
  4.00000000E+01  2.00000000E+01  0.00000000E+00
  4.00000000E+01  4.99600361E-14  0.00000000E+00
  6.00000000E+01  3.00000000E+02  0.00000000E+00
  6.00000000E+01  2.80000000E+02  0.00000000E+00
  6.00000000E+01  2.60000000E+02  0.00000000E+00
  6.00000000E+01  2.40000000E+02  0.00000000E+00
  6.00000000E+01  2.20000000E+02  0.00000000E+00
  6.00000000E+01  2.00000000E+02  0.00000000E+00
  6.00000000E+01  1.80000000E+02  0.00000000E+00
  6.00000000E+01  1.60000000E+02  0.00000000E+00
  6.00000000E+01  1.40000000E+02  0.00000000E+00
  6.00000000E+01  1.20000000E+02  0.00000000E+00
  6.00000000E+01  1.00000000E+02  0.00000000E+00
  6.00000000E+01  8.00000000E+01  0.00000000E+00
  6.00000000E+01  6.00000000E+01  0.00000000E+00
  6.00000000E+01  4.00000000E+01  0.00000000E+00
  6.00000000E+01  2.00000000E+01  0.00000000E+00
  6.00000000E+01  4.99600361E-14  0.00000000E+00
  8.00000000E+01  3.00000000E+02  0.00000000E+00
  8.00000000E+01  2.80000000E+02  0.00000000E+00
  8.00000000E+01  2.60000000E+02  0.00000000E+00
  8.00000000E+01  2.40000000E+02  0.00000000E+00
  8.00000000E+01  2.20000000E+02  0.00000000E+00
  8.00000000E+01  2.00000000E+02  0.00000000E+00
  8.00000000E+01  1.80000000E+02  0.00000000E+00
  8.00000000E+01  1.60000000E+02  0.00000000E+00
  8.00000000E+01  1.40000000E+02  0.00000000E+00
  8.00000000E+01  1.20000000E+02  0.00000000E+00
  8.00000000E+01  1.00000000E+02  0.00000000E+00
  8.00000000E+01  8.00000000E+01  0.00000000E+00
  8.00000000E+01  6.00000000E+01  0.00000000E+00
  8.00000000E+01  4.00000000E+01  0.00000000E+00
  8.00000000E+01  2.00000000E+01  0.00000000E+00
  8.00000000E+01  4.99600361E-14  0.00000000E+00
  1.00000000E+02  3.00000000E+02  0.00000000E+00
  1.00000000E+02  2.80000000E+02  0.00000000E+00
  1.00000000E+02  2.60000000E+02  0.00000000E+00
  1.00000000E+02  2.40000000E+02  0.00000000E+00
  1.00000000E+02  2.20000000E+02  0.00000000E+00
  1.00000000E+02  2.00000000E+02  0.00000000E+00
  1.00000000E+02  1.80000000E+02  0.00000000E+00
  1.00000000E+02  1.60000000E+02  0.00000000E+00
  1.00000000E+02  1.40000000E+02  0.00000000E+00
  1.00000000E+02  1.20000000E+02  0.00000000E+00
  1.00000000E+02  1.00000000E+02  0.00000000E+00
  1.00000000E+02  8.00000000E+01  0.00000000E+00
  1.00000000E+02  6.00000000E+01  0.00000000E+00
  1.00000000E+02  4.00000000E+01  0.00000000E+00
  1.00000000E+02  2.00000000E+01  0.00000000E+00
  1.00000000E+02  4.99600361E-14  0.00000000E+00
  1.20000000E+02  3.00000000E+02  0.00000000E+00
  1.20000000E+02  2.80000000E+02  0.00000000E+00
  1.20000000E+02  2.60000000E+02  0.00000000E+00
  1.20000000E+02  2.40000000E+02  0.00000000E+00
  1.20000000E+02  2.20000000E+02  0.00000000E+00
  1.20000000E+02  2.00000000E+02  0.00000000E+00
  1.20000000E+02  1.80000000E+02  0.00000000E+00
  1.20000000E+02  1.60000000E+02  0.00000000E+00
  1.20000000E+02  1.40000000E+02  0.00000000E+00
  1.20000000E+02  1.20000000E+02  0.00000000E+00
  1.20000000E+02  1.00000000E+02  0.00000000E+00
  1.20000000E+02  8.00000000E+01  0.00000000E+00
  1.20000000E+02  6.00000000E+01  0.00000000E+00
  1.20000000E+02  4.00000000E+01  0.00000000E+00
  1.20000000E+02  2.00000000E+01  0.00000000E+00
  1.20000000E+02  4.99600361E-14  0.00000000E+00
  1.40000000E+02  3.00000000E+02  0.00000000E+00
  1.40000000E+02  2.80000000E+02  0.00000000E+00
  1.40000000E+02  2.60000000E+02  0.00000000E+00
  1.40000000E+02  2.40000000E+02  0.00000000E+00
  1.40000000E+02  2.20000000E+02  0.00000000E+00
  1.40000000E+02  2.00000000E+02  0.00000000E+00
  1.40000000E+02  1.80000000E+02  0.00000000E+00
  1.40000000E+02  1.60000000E+02  0.00000000E+00
  1.40000000E+02  1.40000000E+02  0.00000000E+00
  1.40000000E+02  1.20000000E+02  0.00000000E+00
  1.40000000E+02  1.00000000E+02  0.00000000E+00
  1.40000000E+02  8.00000000E+01  0.00000000E+00
  1.40000000E+02  6.00000000E+01  0.00000000E+00
  1.40000000E+02  4.00000000E+01  0.00000000E+00
  1.40000000E+02  2.00000000E+01  0.00000000E+00
  1.40000000E+02  4.99600361E-14  0.00000000E+00
  1.60000000E+02  3.00000000E+02  0.00000000E+00
  1.60000000E+02  2.80000000E+02  0.00000000E+00
  1.60000000E+02  2.60000000E+02  0.00000000E+00
  1.60000000E+02  2.40000000E+02  0.00000000E+00
  1.60000000E+02  2.20000000E+02  0.00000000E+00
  1.60000000E+02  2.00000000E+02  0.00000000E+00
  1.60000000E+02  1.80000000E+02  0.00000000E+00
  1.60000000E+02  1.60000000E+02  0.00000000E+00
  1.60000000E+02  1.40000000E+02  0.00000000E+00
  1.60000000E+02  1.20000000E+02  0.00000000E+00
  1.60000000E+02  1.00000000E+02  0.00000000E+00
  1.60000000E+02  8.00000000E+01  0.00000000E+00
  1.60000000E+02  6.00000000E+01  0.00000000E+00
  1.60000000E+02  4.00000000E+01  0.00000000E+00
  1.60000000E+02  2.00000000E+01  0.00000000E+00
  1.60000000E+02  4.99600361E-14  0.00000000E+00
  1.80000000E+02  3.00000000E+02  0.00000000E+00
  1.80000000E+02  2.80000000E+02  0.00000000E+00
  1.80000000E+02  2.60000000E+02  0.00000000E+00
  1.80000000E+02  2.40000000E+02  0.00000000E+00
  1.80000000E+02  2.20000000E+02  0.00000000E+00
  1.80000000E+02  2.00000000E+02  0.00000000E+00
  1.80000000E+02  1.80000000E+02  0.00000000E+00
  1.80000000E+02  1.60000000E+02  0.00000000E+00
  1.80000000E+02  1.40000000E+02  0.00000000E+00
  1.80000000E+02  1.20000000E+02  0.00000000E+00
  1.80000000E+02  1.00000000E+02  0.00000000E+00
  1.80000000E+02  8.00000000E+01  0.00000000E+00
  1.80000000E+02  6.00000000E+01  0.00000000E+00
  1.80000000E+02  4.00000000E+01  0.00000000E+00
  1.80000000E+02  2.00000000E+01  0.00000000E+00
  1.80000000E+02  4.99600361E-14  0.00000000E+00
  2.00000000E+02  3.00000000E+02  0.00000000E+00
  2.00000000E+02  2.80000000E+02  0.00000000E+00
  2.00000000E+02  2.60000000E+02  0.00000000E+00
  2.00000000E+02  2.40000000E+02  0.00000000E+00
  2.00000000E+02  2.20000000E+02  0.00000000E+00
  2.00000000E+02  2.00000000E+02  0.00000000E+00
  2.00000000E+02  1.80000000E+02  0.00000000E+00
  2.00000000E+02  1.60000000E+02  0.00000000E+00
  2.00000000E+02  1.40000000E+02  0.00000000E+00
  2.00000000E+02  1.20000000E+02  0.00000000E+00
  2.00000000E+02  1.00000000E+02  0.00000000E+00
  2.00000000E+02  8.00000000E+01  0.00000000E+00
  2.00000000E+02  6.00000000E+01  0.00000000E+00
  2.00000000E+02  4.00000000E+01  0.00000000E+00
  2.00000000E+02  2.00000000E+01  0.00000000E+00
  2.00000000E+02  4.99600361E-14  0.00000000E+00
  2.20000000E+02  3.00000000E+02  0.00000000E+00
  2.20000000E+02  2.80000000E+02  0.00000000E+00
  2.20000000E+02  2.60000000E+02  0.00000000E+00
  2.20000000E+02  2.40000000E+02  0.00000000E+00
  2.20000000E+02  2.20000000E+02  0.00000000E+00
  2.20000000E+02  2.00000000E+02  0.00000000E+00
  2.20000000E+02  1.80000000E+02  0.00000000E+00
  2.20000000E+02  1.60000000E+02  0.00000000E+00
  2.20000000E+02  1.40000000E+02  0.00000000E+00
  2.20000000E+02  1.20000000E+02  0.00000000E+00
  2.20000000E+02  1.00000000E+02  0.00000000E+00
  2.20000000E+02  8.00000000E+01  0.00000000E+00
  2.20000000E+02  6.00000000E+01  0.00000000E+00
  2.20000000E+02  4.00000000E+01  0.00000000E+00
  2.20000000E+02  2.00000000E+01  0.00000000E+00
  2.20000000E+02  4.99600361E-14  0.00000000E+00
  2.40000000E+02  3.00000000E+02  0.00000000E+00
  2.40000000E+02  2.80000000E+02  0.00000000E+00
  2.40000000E+02  2.60000000E+02  0.00000000E+00
  2.40000000E+02  2.40000000E+02  0.00000000E+00
  2.40000000E+02  2.20000000E+02  0.00000000E+00
  2.40000000E+02  2.00000000E+02  0.00000000E+00
  2.40000000E+02  1.80000000E+02  0.00000000E+00
  2.40000000E+02  1.60000000E+02  0.00000000E+00
  2.40000000E+02  1.40000000E+02  0.00000000E+00
  2.40000000E+02  1.20000000E+02  0.00000000E+00
  2.40000000E+02  1.00000000E+02  0.00000000E+00
  2.40000000E+02  8.00000000E+01  0.00000000E+00
  2.40000000E+02  6.00000000E+01  0.00000000E+00
  2.40000000E+02  4.00000000E+01  0.00000000E+00
  2.40000000E+02  2.00000000E+01  0.00000000E+00
  2.40000000E+02  4.99600361E-14  0.00000000E+00
  2.60000000E+02  3.00000000E+02  0.00000000E+00
  2.60000000E+02  2.80000000E+02  0.00000000E+00
  2.60000000E+02  2.60000000E+02  0.00000000E+00
  2.60000000E+02  2.40000000E+02  0.00000000E+00
  2.60000000E+02  2.20000000E+02  0.00000000E+00
  2.60000000E+02  2.00000000E+02  0.00000000E+00
  2.60000000E+02  1.80000000E+02  0.00000000E+00
  2.60000000E+02  1.60000000E+02  0.00000000E+00
  2.60000000E+02  1.40000000E+02  0.00000000E+00
  2.60000000E+02  1.20000000E+02  0.00000000E+00
  2.60000000E+02  1.00000000E+02  0.00000000E+00
  2.60000000E+02  8.00000000E+01  0.00000000E+00
  2.60000000E+02  6.00000000E+01  0.00000000E+00
  2.60000000E+02  4.00000000E+01  0.00000000E+00
  2.60000000E+02  2.00000000E+01  0.00000000E+00
  2.60000000E+02  4.99600361E-14  0.00000000E+00
  2.80000000E+02  3.00000000E+02  0.00000000E+00
  2.80000000E+02  2.80000000E+02  0.00000000E+00
  2.80000000E+02  2.60000000E+02  0.00000000E+00
  2.80000000E+02  2.40000000E+02  0.00000000E+00
  2.80000000E+02  2.20000000E+02  0.00000000E+00
  2.80000000E+02  2.00000000E+02  0.00000000E+00
  2.80000000E+02  1.80000000E+02  0.00000000E+00
  2.80000000E+02  1.60000000E+02  0.00000000E+00
  2.80000000E+02  1.40000000E+02  0.00000000E+00
  2.80000000E+02  1.20000000E+02  0.00000000E+00
  2.80000000E+02  1.00000000E+02  0.00000000E+00
  2.80000000E+02  8.00000000E+01  0.00000000E+00
  2.80000000E+02  6.00000000E+01  0.00000000E+00
  2.80000000E+02  4.00000000E+01  0.00000000E+00
  2.80000000E+02  2.00000000E+01  0.00000000E+00
  2.80000000E+02  4.99600361E-14  0.00000000E+00
  3.00000000E+02  3.00000000E+02  0.00000000E+00
  3.00000000E+02  2.80000000E+02  0.00000000E+00
  3.00000000E+02  2.60000000E+02  0.00000000E+00
  3.00000000E+02  2.40000000E+02  0.00000000E+00
  3.00000000E+02  2.20000000E+02  0.00000000E+00
  3.00000000E+02  2.00000000E+02  0.00000000E+00
  3.00000000E+02  1.80000000E+02  0.00000000E+00
  3.00000000E+02  1.60000000E+02  0.00000000E+00
  3.00000000E+02  1.40000000E+02  0.00000000E+00
  3.00000000E+02  1.20000000E+02  0.00000000E+00
  3.00000000E+02  1.00000000E+02  0.00000000E+00
  3.00000000E+02  8.00000000E+01  0.00000000E+00
  3.00000000E+02  6.00000000E+01  0.00000000E+00
  3.00000000E+02  4.00000000E+01  0.00000000E+00
  3.00000000E+02  2.00000000E+01  0.00000000E+00
  3.00000000E+02  4.99600361E-14  0.00000000E+00
  3.20000000E+02  3.00000000E+02  0.00000000E+00
  3.20000000E+02  2.80000000E+02  0.00000000E+00
  3.20000000E+02  2.60000000E+02  0.00000000E+00
  3.20000000E+02  2.40000000E+02  0.00000000E+00
  3.20000000E+02  2.20000000E+02  0.00000000E+00
  3.20000000E+02  2.00000000E+02  0.00000000E+00
  3.20000000E+02  1.80000000E+02  0.00000000E+00
  3.20000000E+02  1.60000000E+02  0.00000000E+00
  3.20000000E+02  1.40000000E+02  0.00000000E+00
  3.20000000E+02  1.20000000E+02  0.00000000E+00
  3.20000000E+02  1.00000000E+02  0.00000000E+00
  3.20000000E+02  8.00000000E+01  0.00000000E+00
  3.20000000E+02  6.00000000E+01  0.00000000E+00
  3.20000000E+02  4.00000000E+01  0.00000000E+00
  3.20000000E+02  2.00000000E+01  0.00000000E+00
  3.20000000E+02  4.99600361E-14  0.00000000E+00
  3.40000000E+02  3.00000000E+02  0.00000000E+00
  3.40000000E+02  2.80000000E+02  0.00000000E+00
  3.40000000E+02  2.60000000E+02  0.00000000E+00
  3.40000000E+02  2.40000000E+02  0.00000000E+00
  3.40000000E+02  2.20000000E+02  0.00000000E+00
  3.40000000E+02  2.00000000E+02  0.00000000E+00
  3.40000000E+02  1.80000000E+02  0.00000000E+00
  3.40000000E+02  1.60000000E+02  0.00000000E+00
  3.40000000E+02  1.40000000E+02  0.00000000E+00
  3.40000000E+02  1.20000000E+02  0.00000000E+00
  3.40000000E+02  1.00000000E+02  0.00000000E+00
  3.40000000E+02  8.00000000E+01  0.00000000E+00
  3.40000000E+02  6.00000000E+01  0.00000000E+00
  3.40000000E+02  4.00000000E+01  0.00000000E+00
  3.40000000E+02  2.00000000E+01  0.00000000E+00
  3.40000000E+02  4.99600361E-14  0.00000000E+00
  3.60000000E+02  3.00000000E+02  0.00000000E+00
  3.60000000E+02  2.80000000E+02  0.00000000E+00
  3.60000000E+02  2.60000000E+02  0.00000000E+00
  3.60000000E+02  2.40000000E+02  0.00000000E+00
  3.60000000E+02  2.20000000E+02  0.00000000E+00
  3.60000000E+02  2.00000000E+02  0.00000000E+00
  3.60000000E+02  1.80000000E+02  0.00000000E+00
  3.60000000E+02  1.60000000E+02  0.00000000E+00
  3.60000000E+02  1.40000000E+02  0.00000000E+00
  3.60000000E+02  1.20000000E+02  0.00000000E+00
  3.60000000E+02  1.00000000E+02  0.00000000E+00
  3.60000000E+02  8.00000000E+01  0.00000000E+00
  3.60000000E+02  6.00000000E+01  0.00000000E+00
  3.60000000E+02  4.00000000E+01  0.00000000E+00
  3.60000000E+02  2.00000000E+01  0.00000000E+00
  3.60000000E+02  4.99600361E-14  0.00000000E+00
  3.80000000E+02  3.00000000E+02  0.00000000E+00
  3.80000000E+02  2.80000000E+02  0.00000000E+00
  3.80000000E+02  2.60000000E+02  0.00000000E+00
  3.80000000E+02  2.40000000E+02  0.00000000E+00
  3.80000000E+02  2.20000000E+02  0.00000000E+00
  3.80000000E+02  2.00000000E+02  0.00000000E+00
  3.80000000E+02  1.80000000E+02  0.00000000E+00
  3.80000000E+02  1.60000000E+02  0.00000000E+00
  3.80000000E+02  1.40000000E+02  0.00000000E+00
  3.80000000E+02  1.20000000E+02  0.00000000E+00
  3.80000000E+02  1.00000000E+02  0.00000000E+00
  3.80000000E+02  8.00000000E+01  0.00000000E+00
  3.80000000E+02  6.00000000E+01  0.00000000E+00
  3.80000000E+02  4.00000000E+01  0.00000000E+00
  3.80000000E+02  2.00000000E+01  0.00000000E+00
  3.80000000E+02  4.99600361E-14  0.00000000E+00
  4.00000000E+02  3.00000000E+02  0.00000000E+00
  4.00000000E+02  2.80000000E+02  0.00000000E+00
  4.00000000E+02  2.60000000E+02  0.00000000E+00
  4.00000000E+02  2.40000000E+02  0.00000000E+00
  4.00000000E+02  2.20000000E+02  0.00000000E+00
  4.00000000E+02  2.00000000E+02  0.00000000E+00
  4.00000000E+02  1.80000000E+02  0.00000000E+00
  4.00000000E+02  1.60000000E+02  0.00000000E+00
  4.00000000E+02  1.40000000E+02  0.00000000E+00
  4.00000000E+02  1.20000000E+02  0.00000000E+00
  4.00000000E+02  1.00000000E+02  0.00000000E+00
  4.00000000E+02  8.00000000E+01  0.00000000E+00
  4.00000000E+02  6.00000000E+01  0.00000000E+00
  4.00000000E+02  4.00000000E+01  0.00000000E+00
  4.00000000E+02  2.00000000E+01  0.00000000E+00
  4.00000000E+02  4.99600361E-14  0.00000000E+00
  4.20000000E+02  3.00000000E+02  0.00000000E+00
  4.20000000E+02  2.80000000E+02  0.00000000E+00
  4.20000000E+02  2.60000000E+02  0.00000000E+00
  4.20000000E+02  2.40000000E+02  0.00000000E+00
  4.20000000E+02  2.20000000E+02  0.00000000E+00
  4.20000000E+02  2.00000000E+02  0.00000000E+00
  4.20000000E+02  1.80000000E+02  0.00000000E+00
  4.20000000E+02  1.60000000E+02  0.00000000E+00
  4.20000000E+02  1.40000000E+02  0.00000000E+00
  4.20000000E+02  1.20000000E+02  0.00000000E+00
  4.20000000E+02  1.00000000E+02  0.00000000E+00
  4.20000000E+02  8.00000000E+01  0.00000000E+00
  4.20000000E+02  6.00000000E+01  0.00000000E+00
  4.20000000E+02  4.00000000E+01  0.00000000E+00
  4.20000000E+02  2.00000000E+01  0.00000000E+00
  4.20000000E+02  4.99600361E-14  0.00000000E+00
  4.40000000E+02  3.00000000E+02  0.00000000E+00
  4.40000000E+02  2.80000000E+02  0.00000000E+00
  4.40000000E+02  2.60000000E+02  0.00000000E+00
  4.40000000E+02  2.40000000E+02  0.00000000E+00
  4.40000000E+02  2.20000000E+02  0.00000000E+00
  4.40000000E+02  2.00000000E+02  0.00000000E+00
  4.40000000E+02  1.80000000E+02  0.00000000E+00
  4.40000000E+02  1.60000000E+02  0.00000000E+00
  4.40000000E+02  1.40000000E+02  0.00000000E+00
  4.40000000E+02  1.20000000E+02  0.00000000E+00
  4.40000000E+02  1.00000000E+02  0.00000000E+00
  4.40000000E+02  8.00000000E+01  0.00000000E+00
  4.40000000E+02  6.00000000E+01  0.00000000E+00
  4.40000000E+02  4.00000000E+01  0.00000000E+00
  4.40000000E+02  2.00000000E+01  0.00000000E+00
  4.40000000E+02  4.99600361E-14  0.00000000E+00
  4.60000000E+02  3.00000000E+02  0.00000000E+00
  4.60000000E+02  2.80000000E+02  0.00000000E+00
  4.60000000E+02  2.60000000E+02  0.00000000E+00
  4.60000000E+02  2.40000000E+02  0.00000000E+00
  4.60000000E+02  2.20000000E+02  0.00000000E+00
  4.60000000E+02  2.00000000E+02  0.00000000E+00
  4.60000000E+02  1.80000000E+02  0.00000000E+00
  4.60000000E+02  1.60000000E+02  0.00000000E+00
  4.60000000E+02  1.40000000E+02  0.00000000E+00
  4.60000000E+02  1.20000000E+02  0.00000000E+00
  4.60000000E+02  1.00000000E+02  0.00000000E+00
  4.60000000E+02  8.00000000E+01  0.00000000E+00
  4.60000000E+02  6.00000000E+01  0.00000000E+00
  4.60000000E+02  4.00000000E+01  0.00000000E+00
  4.60000000E+02  2.00000000E+01  0.00000000E+00
  4.60000000E+02  4.99600361E-14  0.00000000E+00
  4.80000000E+02  3.00000000E+02  0.00000000E+00
  4.80000000E+02  2.80000000E+02  0.00000000E+00
  4.80000000E+02  2.60000000E+02  0.00000000E+00
  4.80000000E+02  2.40000000E+02  0.00000000E+00
  4.80000000E+02  2.20000000E+02  0.00000000E+00
  4.80000000E+02  2.00000000E+02  0.00000000E+00
  4.80000000E+02  1.80000000E+02  0.00000000E+00
  4.80000000E+02  1.60000000E+02  0.00000000E+00
  4.80000000E+02  1.40000000E+02  0.00000000E+00
  4.80000000E+02  1.20000000E+02  0.00000000E+00
  4.80000000E+02  1.00000000E+02  0.00000000E+00
  4.80000000E+02  8.00000000E+01  0.00000000E+00
  4.80000000E+02  6.00000000E+01  0.00000000E+00
  4.80000000E+02  4.00000000E+01  0.00000000E+00
  4.80000000E+02  2.00000000E+01  0.00000000E+00
  4.80000000E+02  4.99600361E-14  0.00000000E+00
  5.00000000E+02  3.00000000E+02  0.00000000E+00
  5.00000000E+02  2.80000000E+02  0.00000000E+00
  5.00000000E+02  2.60000000E+02  0.00000000E+00
  5.00000000E+02  2.40000000E+02  0.00000000E+00
  5.00000000E+02  2.20000000E+02  0.00000000E+00
  5.00000000E+02  2.00000000E+02  0.00000000E+00
  5.00000000E+02  1.80000000E+02  0.00000000E+00
  5.00000000E+02  1.60000000E+02  0.00000000E+00
  5.00000000E+02  1.40000000E+02  0.00000000E+00
  5.00000000E+02  1.20000000E+02  0.00000000E+00
  5.00000000E+02  1.00000000E+02  0.00000000E+00
  5.00000000E+02  8.00000000E+01  0.00000000E+00
  5.00000000E+02  6.00000000E+01  0.00000000E+00
  5.00000000E+02  4.00000000E+01  0.00000000E+00
  5.00000000E+02  2.00000000E+01  0.00000000E+00
  5.00000000E+02  4.99600361E-14  0.00000000E+00
  5.20000000E+02  3.00000000E+02  0.00000000E+00
  5.20000000E+02  2.80000000E+02  0.00000000E+00
  5.20000000E+02  2.60000000E+02  0.00000000E+00
  5.20000000E+02  2.40000000E+02  0.00000000E+00
  5.20000000E+02  2.20000000E+02  0.00000000E+00
  5.20000000E+02  2.00000000E+02  0.00000000E+00
  5.20000000E+02  1.80000000E+02  0.00000000E+00
  5.20000000E+02  1.60000000E+02  0.00000000E+00
  5.20000000E+02  1.40000000E+02  0.00000000E+00
  5.20000000E+02  1.20000000E+02  0.00000000E+00
  5.20000000E+02  1.00000000E+02  0.00000000E+00
  5.20000000E+02  8.00000000E+01  0.00000000E+00
  5.20000000E+02  6.00000000E+01  0.00000000E+00
  5.20000000E+02  4.00000000E+01  0.00000000E+00
  5.20000000E+02  2.00000000E+01  0.00000000E+00
  5.20000000E+02  4.99600361E-14  0.00000000E+00
  5.40000000E+02  3.00000000E+02  0.00000000E+00
  5.40000000E+02  2.80000000E+02  0.00000000E+00
  5.40000000E+02  2.60000000E+02  0.00000000E+00
  5.40000000E+02  2.40000000E+02  0.00000000E+00
  5.40000000E+02  2.20000000E+02  0.00000000E+00
  5.40000000E+02  2.00000000E+02  0.00000000E+00
  5.40000000E+02  1.80000000E+02  0.00000000E+00
  5.40000000E+02  1.60000000E+02  0.00000000E+00
  5.40000000E+02  1.40000000E+02  0.00000000E+00
  5.40000000E+02  1.20000000E+02  0.00000000E+00
  5.40000000E+02  1.00000000E+02  0.00000000E+00
  5.40000000E+02  8.00000000E+01  0.00000000E+00
  5.40000000E+02  6.00000000E+01  0.00000000E+00
  5.40000000E+02  4.00000000E+01  0.00000000E+00
  5.40000000E+02  2.00000000E+01  0.00000000E+00
  5.40000000E+02  4.99600361E-14  0.00000000E+00
  5.60000000E+02  3.00000000E+02  0.00000000E+00
  5.60000000E+02  2.80000000E+02  0.00000000E+00
  5.60000000E+02  2.60000000E+02  0.00000000E+00
  5.60000000E+02  2.40000000E+02  0.00000000E+00
  5.60000000E+02  2.20000000E+02  0.00000000E+00
  5.60000000E+02  2.00000000E+02  0.00000000E+00
  5.60000000E+02  1.80000000E+02  0.00000000E+00
  5.60000000E+02  1.60000000E+02  0.00000000E+00
  5.60000000E+02  1.40000000E+02  0.00000000E+00
  5.60000000E+02  1.20000000E+02  0.00000000E+00
  5.60000000E+02  1.00000000E+02  0.00000000E+00
  5.60000000E+02  8.00000000E+01  0.00000000E+00
  5.60000000E+02  6.00000000E+01  0.00000000E+00
  5.60000000E+02  4.00000000E+01  0.00000000E+00
  5.60000000E+02  2.00000000E+01  0.00000000E+00
  5.60000000E+02  4.99600361E-14  0.00000000E+00
  5.80000000E+02  3.00000000E+02  0.00000000E+00
  5.80000000E+02  2.80000000E+02  0.00000000E+00
  5.80000000E+02  2.60000000E+02  0.00000000E+00
  5.80000000E+02  2.40000000E+02  0.00000000E+00
  5.80000000E+02  2.20000000E+02  0.00000000E+00
  5.80000000E+02  2.00000000E+02  0.00000000E+00
  5.80000000E+02  1.80000000E+02  0.00000000E+00
  5.80000000E+02  1.60000000E+02  0.00000000E+00
  5.80000000E+02  1.40000000E+02  0.00000000E+00
  5.80000000E+02  1.20000000E+02  0.00000000E+00
  5.80000000E+02  1.00000000E+02  0.00000000E+00
  5.80000000E+02  8.00000000E+01  0.00000000E+00
  5.80000000E+02  6.00000000E+01  0.00000000E+00
  5.80000000E+02  4.00000000E+01  0.00000000E+00
  5.80000000E+02  2.00000000E+01  0.00000000E+00
  5.80000000E+02  4.99600361E-14  0.00000000E+00
  6.00000000E+02  3.00000000E+02  0.00000000E+00
  6.00000000E+02  2.80000000E+02  0.00000000E+00
  6.00000000E+02  2.60000000E+02  0.00000000E+00
  6.00000000E+02  2.40000000E+02  0.00000000E+00
  6.00000000E+02  2.20000000E+02  0.00000000E+00
  6.00000000E+02  2.00000000E+02  0.00000000E+00
  6.00000000E+02  1.80000000E+02  0.00000000E+00
  6.00000000E+02  1.60000000E+02  0.00000000E+00
  6.00000000E+02  1.40000000E+02  0.00000000E+00
  6.00000000E+02  1.20000000E+02  0.00000000E+00
  6.00000000E+02  1.00000000E+02  0.00000000E+00
  6.00000000E+02  8.00000000E+01  0.00000000E+00
  6.00000000E+02  6.00000000E+01  0.00000000E+00
  6.00000000E+02  4.00000000E+01  0.00000000E+00
  6.00000000E+02  2.00000000E+01  0.00000000E+00
  6.00000000E+02  4.99600361E-14  0.00000000E+00
CELLS       450      2250
         4           0           1          17          16
         4           1           2          18          17
         4           2           3          19          18
         4           3           4          20          19
         4           4           5          21          20
         4           5           6          22          21
         4           6           7          23          22
         4           7           8          24          23
         4           8           9          25          24
         4           9          10          26          25
         4          10          11          27          26
         4          11          12          28          27
         4          12          13          29          28
         4          13          14          30          29
         4          14          15          31          30
         4          16          17          33          32
         4          17          18          34          33
         4          18          19          35          34
         4          19          20          36          35
         4          20          21          37          36
         4          21          22          38          37
         4          22          23          39          38
         4          23          24          40          39
         4          24          25          41          40
         4          25          26          42          41
         4          26          27          43          42
         4          27          28          44          43
         4          28          29          45          44
         4          29          30          46          45
         4          30          31          47          46
         4          32          33          49          48
         4          33          34          50          49
         4          34          35          51          50
         4          35          36          52          51
         4          36          37          53          52
         4          37          38          54          53
         4          38          39          55          54
         4          39          40          56          55
         4          40          41          57          56
         4          41          42          58          57
         4          42          43          59          58
         4          43          44          60          59
         4          44          45          61          60
         4          45          46          62          61
         4          46          47          63          62
         4          48          49          65          64
         4          49          50          66          65
         4          50          51          67          66
         4          51          52          68          67
         4          52          53          69          68
         4          53          54          70          69
         4          54          55          71          70
         4          55          56          72          71
         4          56          57          73          72
         4          57          58          74          73
         4          58          59          75          74
         4          59          60          76          75
         4          60          61          77          76
         4          61          62          78          77
         4          62          63          79          78
         4          64          65          81          80
         4          65          66          82          81
         4          66          67          83          82
         4          67          68          84          83
         4          68          69          85          84
         4          69          70          86          85
         4          70          71          87          86
         4          71          72          88          87
         4          72          73          89          88
         4          73          74          90          89
         4          74          75          91          90
         4          75          76          92          91
         4          76          77          93          92
         4          77          78          94          93
         4          78          79          95          94
         4          80          81          97          96
         4          81          82          98          97
         4          82          83          99          98
         4          83          84         100          99
         4          84          85         101         100
         4          85          86         102         101
         4          86          87         103         102
         4          87          88         104         103
         4          88          89         105         104
         4          89          90         106         105
         4          90          91         107         106
         4          91          92         108         107
         4          92          93         109         108
         4          93          94         110         109
         4          94          95         111         110
         4          96          97         113         112
         4          97          98         114         113
         4          98          99         115         114
         4          99         100         116         115
         4         100         101         117         116
         4         101         102         118         117
         4         102         103         119         118
         4         103         104         120         119
         4         104         105         121         120
         4         105         106         122         121
         4         106         107         123         122
         4         107         108         124         123
         4         108         109         125         124
         4         109         110         126         125
         4         110         111         127         126
         4         112         113         129         128
         4         113         114         130         129
         4         114         115         131         130
         4         115         116         132         131
         4         116         117         133         132
         4         117         118         134         133
         4         118         119         135         134
         4         119         120         136         135
         4         120         121         137         136
         4         121         122         138         137
         4         122         123         139         138
         4         123         124         140         139
         4         124         125         141         140
         4         125         126         142         141
         4         126         127         143         142
         4         128         129         145         144
         4         129         130         146         145
         4         130         131         147         146
         4         131         132         148         147
         4         132         133         149         148
         4         133         134         150         149
         4         134         135         151         150
         4         135         136         152         151
         4         136         137         153         152
         4         137         138         154         153
         4         138         139         155         154
         4         139         140         156         155
         4         140         141         157         156
         4         141         142         158         157
         4         142         143         159         158
         4         144         145         161         160
         4         145         146         162         161
         4         146         147         163         162
         4         147         148         164         163
         4         148         149         165         164
         4         149         150         166         165
         4         150         151         167         166
         4         151         152         168         167
         4         152         153         169         168
         4         153         154         170         169
         4         154         155         171         170
         4         155         156         172         171
         4         156         157         173         172
         4         157         158         174         173
         4         158         159         175         174
         4         160         161         177         176
         4         161         162         178         177
         4         162         163         179         178
         4         163         164         180         179
         4         164         165         181         180
         4         165         166         182         181
         4         166         167         183         182
         4         167         168         184         183
         4         168         169         185         184
         4         169         170         186         185
         4         170         171         187         186
         4         171         172         188         187
         4         172         173         189         188
         4         173         174         190         189
         4         174         175         191         190
         4         176         177         193         192
         4         177         178         194         193
         4         178         179         195         194
         4         179         180         196         195
         4         180         181         197         196
         4         181         182         198         197
         4         182         183         199         198
         4         183         184         200         199
         4         184         185         201         200
         4         185         186         202         201
         4         186         187         203         202
         4         187         188         204         203
         4         188         189         205         204
         4         189         190         206         205
         4         190         191         207         206
         4         192         193         209         208
         4         193         194         210         209
         4         194         195         211         210
         4         195         196         212         211
         4         196         197         213         212
         4         197         198         214         213
         4         198         199         215         214
         4         199         200         216         215
         4         200         201         217         216
         4         201         202         218         217
         4         202         203         219         218
         4         203         204         220         219
         4         204         205         221         220
         4         205         206         222         221
         4         206         207         223         222
         4         208         209         225         224
         4         209         210         226         225
         4         210         211         227         226
         4         211         212         228         227
         4         212         213         229         228
         4         213         214         230         229
         4         214         215         231         230
         4         215         216         232         231
         4         216         217         233         232
         4         217         218         234         233
         4         218         219         235         234
         4         219         220         236         235
         4         220         221         237         236
         4         221         222         238         237
         4         222         223         239         238
         4         224         225         241         240
         4         225         226         242         241
         4         226         227         243         242
         4         227         228         244         243
         4         228         229         245         244
         4         229         230         246         245
         4         230         231         247         246
         4         231         232         248         247
         4         232         233         249         248
         4         233         234         250         249
         4         234         235         251         250
         4         235         236         252         251
         4         236         237         253         252
         4         237         238         254         253
         4         238         239         255         254
         4         240         241         257         256
         4         241         242         258         257
         4         242         243         259         258
         4         243         244         260         259
         4         244         245         261         260
         4         245         246         262         261
         4         246         247         263         262
         4         247         248         264         263
         4         248         249         265         264
         4         249         250         266         265
         4         250         251         267         266
         4         251         252         268         267
         4         252         253         269         268
         4         253         254         270         269
         4         254         255         271         270
         4         256         257         273         272
         4         257         258         274         273
         4         258         259         275         274
         4         259         260         276         275
         4         260         261         277         276
         4         261         262         278         277
         4         262         263         279         278
         4         263         264         280         279
         4         264         265         281         280
         4         265         266         282         281
         4         266         267         283         282
         4         267         268         284         283
         4         268         269         285         284
         4         269         270         286         285
         4         270         271         287         286
         4         272         273         289         288
         4         273         274         290         289
         4         274         275         291         290
         4         275         276         292         291
         4         276         277         293         292
         4         277         278         294         293
         4         278         279         295         294
         4         279         280         296         295
         4         280         281         297         296
         4         281         282         298         297
         4         282         283         299         298
         4         283         284         300         299
         4         284         285         301         300
         4         285         286         302         301
         4         286         287         303         302
         4         288         289         305         304
         4         289         290         306         305
         4         290         291         307         306
         4         291         292         308         307
         4         292         293         309         308
         4         293         294         310         309
         4         294         295         311         310
         4         295         296         312         311
         4         296         297         313         312
         4         297         298         314         313
         4         298         299         315         314
         4         299         300         316         315
         4         300         301         317         316
         4         301         302         318         317
         4         302         303         319         318
         4         304         305         321         320
         4         305         306         322         321
         4         306         307         323         322
         4         307         308         324         323
         4         308         309         325         324
         4         309         310         326         325
         4         310         311         327         326
         4         311         312         328         327
         4         312         313         329         328
         4         313         314         330         329
         4         314         315         331         330
         4         315         316         332         331
         4         316         317         333         332
         4         317         318         334         333
         4         318         319         335         334
         4         320         321         337         336
         4         321         322         338         337
         4         322         323         339         338
         4         323         324         340         339
         4         324         325         341         340
         4         325         326         342         341
         4         326         327         343         342
         4         327         328         344         343
         4         328         329         345         344
         4         329         330         346         345
         4         330         331         347         346
         4         331         332         348         347
         4         332         333         349         348
         4         333         334         350         349
         4         334         335         351         350
         4         336         337         353         352
         4         337         338         354         353
         4         338         339         355         354
         4         339         340         356         355
         4         340         341         357         356
         4         341         342         358         357
         4         342         343         359         358
         4         343         344         360         359
         4         344         345         361         360
         4         345         346         362         361
         4         346         347         363         362
         4         347         348         364         363
         4         348         349         365         364
         4         349         350         366         365
         4         350         351         367         366
         4         352         353         369         368
         4         353         354         370         369
         4         354         355         371         370
         4         355         356         372         371
         4         356         357         373         372
         4         357         358         374         373
         4         358         359         375         374
         4         359         360         376         375
         4         360         361         377         376
         4         361         362         378         377
         4         362         363         379         378
         4         363         364         380         379
         4         364         365         381         380
         4         365         366         382         381
         4         366         367         383         382
         4         368         369         385         384
         4         369         370         386         385
         4         370         371         387         386
         4         371         372         388         387
         4         372         373         389         388
         4         373         374         390         389
         4         374         375         391         390
         4         375         376         392         391
         4         376         377         393         392
         4         377         378         394         393
         4         378         379         395         394
         4         379         380         396         395
         4         380         381         397         396
         4         381         382         398         397
         4         382         383         399         398
         4         384         385         401         400
         4         385         386         402         401
         4         386         387         403         402
         4         387         388         404         403
         4         388         389         405         404
         4         389         390         406         405
         4         390         391         407         406
         4         391         392         408         407
         4         392         393         409         408
         4         393         394         410         409
         4         394         395         411         410
         4         395         396         412         411
         4         396         397         413         412
         4         397         398         414         413
         4         398         399         415         414
         4         400         401         417         416
         4         401         402         418         417
         4         402         403         419         418
         4         403         404         420         419
         4         404         405         421         420
         4         405         406         422         421
         4         406         407         423         422
         4         407         408         424         423
         4         408         409         425         424
         4         409         410         426         425
         4         410         411         427         426
         4         411         412         428         427
         4         412         413         429         428
         4         413         414         430         429
         4         414         415         431         430
         4         416         417         433         432
         4         417         418         434         433
         4         418         419         435         434
         4         419         420         436         435
         4         420         421         437         436
         4         421         422         438         437
         4         422         423         439         438
         4         423         424         440         439
         4         424         425         441         440
         4         425         426         442         441
         4         426         427         443         442
         4         427         428         444         443
         4         428         429         445         444
         4         429         430         446         445
         4         430         431         447         446
         4         432         433         449         448
         4         433         434         450         449
         4         434         435         451         450
         4         435         436         452         451
         4         436         437         453         452
         4         437         438         454         453
         4         438         439         455         454
         4         439         440         456         455
         4         440         441         457         456
         4         441         442         458         457
         4         442         443         459         458
         4         443         444         460         459
         4         444         445         461         460
         4         445         446         462         461
         4         446         447         463         462
         4         448         449         465         464
         4         449         450         466         465
         4         450         451         467         466
         4         451         452         468         467
         4         452         453         469         468
         4         453         454         470         469
         4         454         455         471         470
         4         455         456         472         471
         4         456         457         473         472
         4         457         458         474         473
         4         458         459         475         474
         4         459         460         476         475
         4         460         461         477         476
         4         461         462         478         477
         4         462         463         479         478
         4         464         465         481         480
         4         465         466         482         481
         4         466         467         483         482
         4         467         468         484         483
         4         468         469         485         484
         4         469         470         486         485
         4         470         471         487         486
         4         471         472         488         487
         4         472         473         489         488
         4         473         474         490         489
         4         474         475         491         490
         4         475         476         492         491
         4         476         477         493         492
         4         477         478         494         493
         4         478         479         495         494
CELL_TYPES        450
9
9
9
9
9
9
9
9
9
9
9
9
9
9
9
9
9
9
9
9
9
9
9
9
9
9
9
9
9
9
9
9
9
9
9
9
9
9
9
9
9
9
9
9
9
9
9
9
9
9
9
9
9
9
9
9
9
9
9
9
9
9
9
9
9
9
9
9
9
9
9
9
9
9
9
9
9
9
9
9
9
9
9
9
9
9
9
9
9
9
9
9
9
9
9
9
9
9
9
9
9
9
9
9
9
9
9
9
9
9
9
9
9
9
9
9
9
9
9
9
9
9
9
9
9
9
9
9
9
9
9
9
9
9
9
9
9
9
9
9
9
9
9
9
9
9
9
9
9
9
9
9
9
9
9
9
9
9
9
9
9
9
9
9
9
9
9
9
9
9
9
9
9
9
9
9
9
9
9
9
9
9
9
9
9
9
9
9
9
9
9
9
9
9
9
9
9
9
9
9
9
9
9
9
9
9
9
9
9
9
9
9
9
9
9
9
9
9
9
9
9
9
9
9
9
9
9
9
9
9
9
9
9
9
9
9
9
9
9
9
9
9
9
9
9
9
9
9
9
9
9
9
9
9
9
9
9
9
9
9
9
9
9
9
9
9
9
9
9
9
9
9
9
9
9
9
9
9
9
9
9
9
9
9
9
9
9
9
9
9
9
9
9
9
9
9
9
9
9
9
9
9
9
9
9
9
9
9
9
9
9
9
9
9
9
9
9
9
9
9
9
9
9
9
9
9
9
9
9
9
9
9
9
9
9
9
9
9
9
9
9
9
9
9
9
9
9
9
9
9
9
9
9
9
9
9
9
9
9
9
9
9
9
9
9
9
9
9
9
9
9
9
9
9
9
9
9
9
9
9
9
9
9
9
9
9
9
9
9
9
9
9
9
9
9
9
9
9
9
9
9
9
9
9
9
9
9
9
9
9
9
9
9
9
9
9
9
9
9
9
9
9
9
9
9
9
9
9
9
9
9
9
9
9
9
9
9
9
9
9
9
9
9
9
9
9
9
9
9
9
POINT_DATA       496
SCALARS p double 
LOOKUP_TABLE default
   10086323.2060002     
   10086315.9354217     
   10086296.8371134     
   10086268.5329177     
   10086233.4783073     
   10086193.9546682     
   10086152.0608361     
   10086109.7040627     
   10086068.5905868     
   10086030.2159646     
   10085995.8552851     
   10085966.5533933     
   10085943.1152169     
   10085926.0962628     
   10085915.7933191     
   10085912.2353634     
   10086201.7410342     
   10086194.4828726     
   10086175.4170069     
   10086147.1606935     
   10086112.1651953     
   10086072.7080524     
   10086030.8846046     
   10085988.5989453     
   10085947.5544852     
   10085909.2442824     
   10085874.9412676     
   10085845.6884922     
   10085822.2894936     
   10085805.2988490     
   10085795.0129539     
   10085791.4610276     
   10085837.7046200     
   10085830.4840714     
   10085811.5164893     
   10085783.4052443     
   10085748.5888487     
   10085709.3331917     
   10085667.7230209     
   10085625.6528610     
   10085584.8175547     
   10085546.7025918     
   10085512.5743666     
   10085483.4704956     
   10085460.1903003     
   10085443.2855291     
   10085433.0513631     
   10085429.5177106     
   10085232.1715116     
   10085225.0148590     
   10085206.2142688     
   10085178.3495394     
   10085143.8375272     
   10085104.9243244     
   10085063.6766775     
   10085021.9728493     
   10084981.4931236     
   10084943.7101348     
   10084909.8791758     
   10084881.0286306     
   10084857.9506449     
   10084841.1921231     
   10084831.0461028     
   10084827.5435205     
   10084386.9306427     
   10084379.8659820     
   10084361.3058677     
   10084333.7961895     
   10084299.7226294     
   10084261.3027663     
   10084220.5774135     
   10084179.4014082     
   10084139.4340706     
   10084102.1295344     
   10084068.7271237     
   10084040.2419371     
   10084017.4557710     
   10084000.9084846     
   10083990.8898704     
   10083987.4320589     
   10083304.4816597     
   10083297.5396250     
   10083279.3001422     
   10083252.2639349     
   10083218.7751245     
   10083181.0132560     
   10083140.9845436     
   10083100.5125804     
   10083061.2287451     
   10083024.5625366     
   10082991.7320325     
   10082963.7346541     
   10082941.3383923     
   10082925.0736155     
   10082915.2255435     
   10082911.8274347     
   10081988.0301013     
   10081981.2445830     
   10081963.4144225     
   10081936.9827188     
   10081904.2405192     
   10081867.3187714     
   10081828.1794825     
   10081788.6063468     
   10081750.1951028     
   10081714.3438719     
   10081682.2437064     
   10081654.8695507     
   10081632.9717994     
   10081617.0685984     
   10081607.4390011     
   10081604.1170491     
   10080441.4812622     
   10080434.8901054     
   10080417.5682881     
   10080391.8873379     
   10080360.0723218     
   10080324.1937496     
   10080286.1586638     
   10080247.7012008     
   10080210.3729031     
   10080175.5330634     
   10080144.3393566     
   10080117.7389950     
   10080096.4606213     
   10080081.0071203     
   10080071.6494959     
   10080068.4219187     
   10078669.4327921     
   10078663.0784541     
   10078646.3759968     
   10078621.6096548     
   10078590.9239550     
   10078556.3156189     
   10078519.6246268     
   10078482.5247386     
   10078446.5137743     
   10078412.9039587     
   10078382.8126178     
   10078357.1534993     
   10078336.6289676     
   10078321.7233019     
   10078312.6972862     
   10078309.5842428     
   10076677.1660974     
   10076671.0962286     
   10076655.1375922     
   10076631.4693582     
   10076602.1390518     
   10076569.0545354     
   10076533.9751158     
   10076498.5020703     
   10076464.0689127     
   10076431.9317232     
   10076403.1598698     
   10076378.6274308     
   10076359.0056190     
   10076344.7564893     
   10076336.1281745     
   10076333.1518600     
   10074470.6366323     
   10074464.9045318     
   10074449.8287224     
   10074427.4632492     
   10074399.7400597     
   10074368.4611881     
   10074335.2900066     
   10074301.7418233     
   10074269.1741502     
   10074238.7769938     
   10074211.5635303     
   10074188.3615305     
   10074169.8058900     
   10074156.3326096     
   10074148.1745421     
   10074145.3591785     
   10072056.4631898     
   10072051.1280628     
   10072037.0892100     
   10072016.2530331     
   10071990.4150649     
   10071961.2525250     
   10071930.3158569     
   10071899.0194830     
   10071868.6320955     
   10071840.2668623     
   10071814.8719578     
   10071793.2218448     
   10071775.9097347     
   10071763.3416406     
   10071755.7324134     
   10071753.1041104     
   10069441.9163241     
   10069437.0432453     
   10069424.2104246     
   10069405.1515979     
   10069381.5027454     
   10069354.7952422     
   10069326.4478644     
   10069297.7578108     
   10069269.8910420     
   10069243.8723421     
   10069220.5755759     
   10069200.7146427     
   10069184.8356370     
   10069173.3107017     
   10069166.3340378     
   10069163.9204907     
   10066634.9060617     
   10066630.5655234     
   10066619.1215314     
   10066602.1077749     
   10066580.9753712     
   10066557.0868827     
   10066531.7090196     
   10066506.0040713     
   10066481.0203327     
   10066457.6819618     
   10066436.7788176     
   10066418.9568723     
   10066404.7097911     
   10066394.3722413     
   10066388.1154407     
   10066385.9454276     
   10063643.9690811     
   10063640.2359820     
   10063630.3747197     
   10063615.6896163     
   10063597.4198078     
   10063576.7344261     
   10063554.7262675     
   10063532.4038235     
   10063510.6818770     
   10063490.3711280     
   10063472.1674818     
   10063456.6416983     
   10063444.2300773     
   10063435.2267906     
   10063429.7783953     
   10063427.8810305     
   10060478.2555606     
   10060475.2074849     
   10060467.1295738     
   10060455.0662969     
   10060440.0165573     
   10060422.9303215     
   10060404.7035453     
   10060386.1710647     
   10060368.0975393     
   10060351.1669128     
   10060335.9710975     
   10060322.9986749     
   10060312.6243523     
   10060305.0997904     
   10060300.5463173     
   10060298.9500190     
   10057147.5159091     
   10057145.2305657     
   10057139.1368398     
   10057129.9888758     
   10057118.5170134     
   10057105.4260412     
   10057091.3916589     
   10057077.0545736     
   10057063.0121396     
   10057049.8079222     
   10057037.9198991     
   10057027.7481303     
   10057019.6026426     
   10057013.6921037     
   10057010.1137246     
   10057008.8448608     
   10053662.0876134     
   10053660.6393635     
   10053656.7219657     
   10053650.7703429     
   10053643.2193159     
   10053634.5034266     
   10053625.0550994     
   10053615.3003700     
   10053605.6518274     
   10053596.4989017     
   10053588.1960296     
   10053581.0494055     
   10053575.3029587     
   10053571.1240335     
   10053568.5891553     
   10053567.6703617     
   10050032.8824605     
   10050032.3379629     
   10050030.7689456     
   10050028.2656039     
   10050024.9434715     
   10050020.9443576     
   10050016.4360924     
   10050011.6103097     
   10050006.6776119     
   10050001.8597280     
   10049997.3786142     
   10049993.4427094     
   10049990.2306744     
   10049987.8729833     
   10049986.4318319     
   10049985.8800305     
   10046271.3744504     
   10046271.7875742     
   10046272.7051355     
   10046273.8522874     
   10046275.0066981     
   10046275.9995843     
   10046276.7164137     
   10046277.0969581     
   10046277.1338583     
   10046276.8684382     
   10046276.3824194     
   10046275.7845414     
   10046275.1917543     
   10046274.7053385     
   10046274.3828433     
   10046274.2070580     
   10042389.5888268     
   10042390.9950786     
   10042394.4877828     
   10042399.4133632     
   10042405.2001468     
   10042411.3578226     
   10042417.4777633     
   10042423.2350640     
   10042428.3916582     
   10042432.7980471     
   10042436.3900070     
   10042439.1769741     
   10042441.2205506     
   10042442.6036470     
   10042443.3921313     
   10042443.5912544     
   10038400.0928787     
   10038402.5035864     
   10038408.5929751     
   10038417.3224331     
   10038427.7680468     
   10038439.1162366     
   10038450.6616539     
   10038461.8102112     
   10038472.0872848     
   10038481.1472672     
   10038488.7777460     
   10038494.8916014     
   10038499.5034031     
   10038502.6906216     
   10038504.5429517     
   10038505.1036674     
   10034315.9895235     
   10034319.3858755     
   10034328.0076003     
   10034340.4320669     
   10034355.3896363     
   10034371.7528419     
   10034388.5295792     
   10034404.8655755     
   10034420.0567423     
   10034433.5662330     
   10034445.0369586     
   10034454.2896581     
   10034461.2997325     
   10034466.1517336     
   10034468.9755938     
   10034469.8706882     
   10030150.9152941     
   10030155.2419928     
   10030166.2247947     
   10030182.0647217     
   10030201.1627232     
   10030222.0996761     
   10030243.6232281     
   10030264.6481141     
   10030284.2691163     
   10030301.7804361     
   10030316.6930995     
   10030328.7406526     
   10030337.8625476     
   10030344.1580766     
   10030347.8119016     
   10030348.9991793     
   10025919.0454323     
   10025924.2031416     
   10025937.2433663     
   10025956.0045125     
   10025978.5851518     
   10026003.3124267     
   10026028.7223672     
   10026053.5558145     
   10026076.7641781     
   10026097.5196865     
   10026115.2285160     
   10026129.5428926     
   10026140.3602225     
   10026147.7906940     
   10026152.0815823     
   10026153.5036120     
   10021635.1107647     
   10021640.9455617     
   10021655.5718684     
   10021676.4861191     
   10021701.5264764     
   10021728.8279357     
   10021756.7953905     
   10021784.0876478     
   10021809.6023345     
   10021832.4634041     
   10021852.0184886     
   10021867.8512506     
   10021879.8013669     
   10021887.9668257     
   10021892.6505184     
   10021894.2355212     
   10017314.4350157     
   10017320.7210184     
   10017336.2376908     
   10017358.1728278     
   10017384.1765126     
   10017412.2976569     
   10017440.9370177     
   10017468.7973766     
   10017494.8344504     
   10017518.2155339     
   10017538.2961421     
   10017554.6227938     
   10017566.9662471     
   10017575.3677941     
   10017580.1504210     
   10017581.8147931     
   10012973.0097552     
   10012979.4165654     
   10012994.7975102     
   10013016.1053761     
   10013040.9506575     
   10013067.4884201     
   10013094.2916306     
   10013120.2510169     
   10013144.4921979     
   10013166.3164930     
   10013185.1644509     
   10013200.6043124     
   10013212.3563359     
   10013220.3694892     
   10013224.9070500     
   10013226.5623270     
   10008627.6527268     
   10008633.6624906     
   10008647.3316219     
   10008665.5765013     
   10008686.3369756     
   10008708.1532732     
   10008729.9675569     
   10008750.9851151     
   10008770.5885102     
   10008788.2833561     
   10008803.6638052     
   10008816.3939909     
   10008826.2114891     
   10008832.9800510     
   10008836.8674699     
   10008838.4221064     
   10004296.3224868     
   10004301.0813737     
   10004310.2809636     
   10004321.8911743     
   10004334.6885095     
   10004347.8898499     
   10004360.9484271     
   10004373.4598020     
   10004385.1115320     
   10004395.6526646     
   10004404.8737474     
   10004412.5937611     
   10004418.6546896     
   10004422.9347761     
   10004425.4344603     
   10004426.9512993     
   10000000.0000000     
   10000000.0000000     
   10000000.0000000     
   10000000.0000000     
   10000000.0000000     
   10000000.0000000     
   10000000.0000000     
   10000000.0000000     
   10000000.0000000     
   10000000.0000000     
   10000000.0000000     
   10000000.0000000     
   10000000.0000000     
  10000000.00000000     
   10000000.0000000     
   10000000.0000000     
VECTORS u double 
    0.00000E+00        -0.64058E-01         0.00000E+00
    0.00000E+00        -0.59782E-01         0.00000E+00
    0.00000E+00        -0.55506E-01         0.00000E+00
    0.00000E+00        -0.51230E-01         0.00000E+00
    0.00000E+00        -0.46955E-01         0.00000E+00
    0.00000E+00        -0.42679E-01         0.00000E+00
    0.00000E+00        -0.38405E-01         0.00000E+00
    0.00000E+00        -0.34131E-01         0.00000E+00
    0.00000E+00        -0.29859E-01         0.00000E+00
    0.00000E+00        -0.25588E-01         0.00000E+00
    0.00000E+00        -0.21318E-01         0.00000E+00
    0.00000E+00        -0.17050E-01         0.00000E+00
    0.00000E+00        -0.12784E-01         0.00000E+00
    0.00000E+00        -0.85204E-02         0.00000E+00
    0.00000E+00        -0.42589E-02         0.00000E+00
    0.00000E+00         0.00000E+00         0.00000E+00
    0.20315E-04        -0.64057E-01         0.00000E+00
    0.20766E-04        -0.59782E-01         0.00000E+00
    0.20977E-04        -0.55506E-01         0.00000E+00
    0.20946E-04        -0.51230E-01         0.00000E+00
    0.20668E-04        -0.46954E-01         0.00000E+00
    0.20137E-04        -0.42679E-01         0.00000E+00
    0.19347E-04        -0.38405E-01         0.00000E+00
    0.18291E-04        -0.34131E-01         0.00000E+00
    0.16964E-04        -0.29859E-01         0.00000E+00
    0.15362E-04        -0.25588E-01         0.00000E+00
    0.13482E-04        -0.21318E-01         0.00000E+00
    0.11324E-04        -0.17050E-01         0.00000E+00
    0.88908E-05        -0.12784E-01         0.00000E+00
    0.61865E-05        -0.85204E-02         0.00000E+00
    0.32192E-05        -0.42589E-02         0.00000E+00
    0.00000E+00         0.00000E+00         0.00000E+00
    0.40521E-04        -0.64056E-01         0.00000E+00
    0.41424E-04        -0.59781E-01         0.00000E+00
    0.41847E-04        -0.55505E-01         0.00000E+00
    0.41787E-04        -0.51229E-01         0.00000E+00
    0.41234E-04        -0.46954E-01         0.00000E+00
    0.40176E-04        -0.42679E-01         0.00000E+00
    0.38602E-04        -0.38404E-01         0.00000E+00
    0.36497E-04        -0.34131E-01         0.00000E+00
    0.33850E-04        -0.29859E-01         0.00000E+00
    0.30655E-04        -0.25587E-01         0.00000E+00
    0.26905E-04        -0.21318E-01         0.00000E+00
    0.22600E-04        -0.17050E-01         0.00000E+00
    0.17745E-04        -0.12784E-01         0.00000E+00
    0.12348E-04        -0.85204E-02         0.00000E+00
    0.64255E-05        -0.42589E-02         0.00000E+00
    0.00000E+00         0.00000E+00         0.00000E+00
    0.60508E-04        -0.64055E-01         0.00000E+00
    0.61863E-04        -0.59780E-01         0.00000E+00
    0.62502E-04        -0.55504E-01         0.00000E+00
    0.62417E-04        -0.51228E-01         0.00000E+00
    0.61595E-04        -0.46953E-01         0.00000E+00
    0.60020E-04        -0.42678E-01         0.00000E+00
    0.57671E-04        -0.38404E-01         0.00000E+00
    0.54530E-04        -0.34130E-01         0.00000E+00
    0.50581E-04        -0.29858E-01         0.00000E+00
    0.45809E-04        -0.25587E-01         0.00000E+00
    0.40209E-04        -0.21318E-01         0.00000E+00
    0.33779E-04        -0.17050E-01         0.00000E+00
    0.26524E-04        -0.12784E-01         0.00000E+00
    0.18459E-04        -0.85203E-02         0.00000E+00
    0.96064E-05        -0.42589E-02         0.00000E+00
    0.00000E+00         0.00000E+00         0.00000E+00
    0.80165E-04        -0.64053E-01         0.00000E+00
    0.81972E-04        -0.59778E-01         0.00000E+00
    0.82829E-04        -0.55502E-01         0.00000E+00
    0.82727E-04        -0.51227E-01         0.00000E+00
    0.81647E-04        -0.46952E-01         0.00000E+00
    0.79567E-04        -0.42677E-01         0.00000E+00
    0.76462E-04        -0.38403E-01         0.00000E+00
    0.72305E-04        -0.34130E-01         0.00000E+00
    0.67076E-04        -0.29858E-01         0.00000E+00
    0.60756E-04        -0.25587E-01         0.00000E+00
    0.53335E-04        -0.21317E-01         0.00000E+00
    0.44811E-04        -0.17050E-01         0.00000E+00
    0.35191E-04        -0.12784E-01         0.00000E+00
    0.24494E-04        -0.85203E-02         0.00000E+00
    0.12749E-04        -0.42589E-02         0.00000E+00
    0.00000E+00         0.00000E+00         0.00000E+00
    0.99374E-04        -0.64050E-01         0.00000E+00
    0.10163E-03        -0.59775E-01         0.00000E+00
    0.10271E-03        -0.55500E-01         0.00000E+00
    0.10260E-03        -0.51225E-01         0.00000E+00
    0.10128E-03        -0.46950E-01         0.00000E+00
    0.98714E-04        -0.42675E-01         0.00000E+00
    0.94875E-04        -0.38402E-01         0.00000E+00
    0.89732E-04        -0.34129E-01         0.00000E+00
    0.83255E-04        -0.29857E-01         0.00000E+00
    0.75423E-04        -0.25586E-01         0.00000E+00
    0.66222E-04        -0.21317E-01         0.00000E+00
    0.55648E-04        -0.17050E-01         0.00000E+00
    0.43710E-04        -0.12784E-01         0.00000E+00
    0.30428E-04        -0.85203E-02         0.00000E+00
    0.15840E-04        -0.42590E-02         0.00000E+00
    0.00000E+00         0.00000E+00         0.00000E+00
    0.11801E-03        -0.64047E-01         0.00000E+00
    0.12073E-03        -0.59773E-01         0.00000E+00
    0.12204E-03        -0.55498E-01         0.00000E+00
    0.12193E-03        -0.51223E-01         0.00000E+00
    0.12038E-03        -0.46948E-01         0.00000E+00
    0.11735E-03        -0.42674E-01         0.00000E+00
    0.11281E-03        -0.38400E-01         0.00000E+00
    0.10672E-03        -0.34128E-01         0.00000E+00
    0.99035E-04        -0.29856E-01         0.00000E+00
    0.89738E-04        -0.25586E-01         0.00000E+00
    0.78809E-04        -0.21317E-01         0.00000E+00
    0.66241E-04        -0.17049E-01         0.00000E+00
    0.52042E-04        -0.12784E-01         0.00000E+00
    0.36236E-04        -0.85203E-02         0.00000E+00
    0.18868E-04        -0.42590E-02         0.00000E+00
    0.00000E+00         0.00000E+00         0.00000E+00
    0.13596E-03        -0.64044E-01         0.00000E+00
    0.13912E-03        -0.59769E-01         0.00000E+00
    0.14067E-03        -0.55495E-01         0.00000E+00
    0.14059E-03        -0.51220E-01         0.00000E+00
    0.13883E-03        -0.46946E-01         0.00000E+00
    0.13538E-03        -0.42672E-01         0.00000E+00
    0.13017E-03        -0.38399E-01         0.00000E+00
    0.12317E-03        -0.34126E-01         0.00000E+00
    0.11433E-03        -0.29855E-01         0.00000E+00
    0.10363E-03        -0.25585E-01         0.00000E+00
    0.91033E-04        -0.21316E-01         0.00000E+00
    0.76537E-04        -0.17049E-01         0.00000E+00
    0.60148E-04        -0.12784E-01         0.00000E+00
    0.41893E-04        -0.85204E-02         0.00000E+00
    0.21819E-04        -0.42590E-02         0.00000E+00
    0.00000E+00         0.00000E+00         0.00000E+00
    0.15307E-03        -0.64039E-01         0.00000E+00
    0.15668E-03        -0.59765E-01         0.00000E+00
    0.15848E-03        -0.55491E-01         0.00000E+00
    0.15843E-03        -0.51217E-01         0.00000E+00
    0.15651E-03        -0.46943E-01         0.00000E+00
    0.15266E-03        -0.42670E-01         0.00000E+00
    0.14683E-03        -0.38397E-01         0.00000E+00
    0.13898E-03        -0.34125E-01         0.00000E+00
    0.12906E-03        -0.29854E-01         0.00000E+00
    0.11702E-03        -0.25584E-01         0.00000E+00
    0.10283E-03        -0.21316E-01         0.00000E+00
    0.86487E-04        -0.17049E-01         0.00000E+00
    0.67991E-04        -0.12784E-01         0.00000E+00
    0.47371E-04        -0.85204E-02         0.00000E+00
    0.24680E-04        -0.42591E-02         0.00000E+00
    0.00000E+00         0.00000E+00         0.00000E+00
    0.16919E-03        -0.64035E-01         0.00000E+00
    0.17326E-03        -0.59761E-01         0.00000E+00
    0.17531E-03        -0.55487E-01         0.00000E+00
    0.17534E-03        -0.51214E-01         0.00000E+00
    0.17328E-03        -0.46940E-01         0.00000E+00
    0.16908E-03        -0.42667E-01         0.00000E+00
    0.16270E-03        -0.38395E-01         0.00000E+00
    0.15406E-03        -0.34124E-01         0.00000E+00
    0.14312E-03        -0.29853E-01         0.00000E+00
    0.12982E-03        -0.25584E-01         0.00000E+00
    0.11413E-03        -0.21315E-01         0.00000E+00
    0.96035E-04        -0.17049E-01         0.00000E+00
    0.75529E-04        -0.12784E-01         0.00000E+00
    0.52644E-04        -0.85206E-02         0.00000E+00
    0.27438E-04        -0.42592E-02         0.00000E+00
    0.00000E+00         0.00000E+00         0.00000E+00
    0.18418E-03        -0.64029E-01         0.00000E+00
    0.18869E-03        -0.59756E-01         0.00000E+00
    0.19103E-03        -0.55483E-01         0.00000E+00
    0.19114E-03        -0.51210E-01         0.00000E+00
    0.18899E-03        -0.46937E-01         0.00000E+00
    0.18451E-03        -0.42665E-01         0.00000E+00
    0.17764E-03        -0.38393E-01         0.00000E+00
    0.16829E-03        -0.34122E-01         0.00000E+00
    0.15642E-03        -0.29852E-01         0.00000E+00
    0.14197E-03        -0.25583E-01         0.00000E+00
    0.12488E-03        -0.21315E-01         0.00000E+00
    0.10513E-03        -0.17049E-01         0.00000E+00
    0.82722E-04        -0.12784E-01         0.00000E+00
    0.57685E-04        -0.85208E-02         0.00000E+00
    0.30078E-04        -0.42594E-02         0.00000E+00
    0.00000E+00         0.00000E+00         0.00000E+00
    0.19785E-03        -0.64023E-01         0.00000E+00
    0.20281E-03        -0.59751E-01         0.00000E+00
    0.20544E-03        -0.55479E-01         0.00000E+00
    0.20570E-03        -0.51206E-01         0.00000E+00
    0.20351E-03        -0.46934E-01         0.00000E+00
    0.19881E-03        -0.42662E-01         0.00000E+00
    0.19152E-03        -0.38391E-01         0.00000E+00
    0.18157E-03        -0.34121E-01         0.00000E+00
    0.16887E-03        -0.29851E-01         0.00000E+00
    0.15336E-03        -0.25582E-01         0.00000E+00
    0.13498E-03        -0.21315E-01         0.00000E+00
    0.11371E-03        -0.17049E-01         0.00000E+00
    0.89524E-04        -0.12784E-01         0.00000E+00
    0.62462E-04        -0.85211E-02         0.00000E+00
    0.32586E-04        -0.42596E-02         0.00000E+00
    0.00000E+00         0.00000E+00         0.00000E+00
    0.21003E-03        -0.64017E-01         0.00000E+00
    0.21544E-03        -0.59746E-01         0.00000E+00
    0.21839E-03        -0.55474E-01         0.00000E+00
    0.21882E-03        -0.51202E-01         0.00000E+00
    0.21667E-03        -0.46931E-01         0.00000E+00
    0.21183E-03        -0.42660E-01         0.00000E+00
    0.20423E-03        -0.38389E-01         0.00000E+00
    0.19376E-03        -0.34119E-01         0.00000E+00
    0.18035E-03        -0.29850E-01         0.00000E+00
    0.16391E-03        -0.25582E-01         0.00000E+00
    0.14438E-03        -0.21315E-01         0.00000E+00
    0.12171E-03        -0.17049E-01         0.00000E+00
    0.95887E-04        -0.12785E-01         0.00000E+00
    0.66944E-04        -0.85215E-02         0.00000E+00
    0.34944E-04        -0.42599E-02         0.00000E+00
    0.00000E+00         0.00000E+00         0.00000E+00
    0.22052E-03        -0.64010E-01         0.00000E+00
    0.22637E-03        -0.59740E-01         0.00000E+00
    0.22967E-03        -0.55469E-01         0.00000E+00
    0.23034E-03        -0.51198E-01         0.00000E+00
    0.22829E-03        -0.46927E-01         0.00000E+00
    0.22341E-03        -0.42657E-01         0.00000E+00
    0.21560E-03        -0.38387E-01         0.00000E+00
    0.20475E-03        -0.34118E-01         0.00000E+00
    0.19075E-03        -0.29850E-01         0.00000E+00
    0.17352E-03        -0.25582E-01         0.00000E+00
    0.15297E-03        -0.21315E-01         0.00000E+00
    0.12906E-03        -0.17050E-01         0.00000E+00
    0.10176E-03        -0.12785E-01         0.00000E+00
    0.71095E-04        -0.85221E-02         0.00000E+00
    0.37136E-04        -0.42603E-02         0.00000E+00
    0.00000E+00         0.00000E+00         0.00000E+00
    0.22912E-03        -0.64003E-01         0.00000E+00
    0.23541E-03        -0.59733E-01         0.00000E+00
    0.23910E-03        -0.55463E-01         0.00000E+00
    0.24007E-03        -0.51194E-01         0.00000E+00
    0.23821E-03        -0.46924E-01         0.00000E+00
    0.23339E-03        -0.42655E-01         0.00000E+00
    0.22549E-03        -0.38386E-01         0.00000E+00
    0.21438E-03        -0.34117E-01         0.00000E+00
    0.19995E-03        -0.29849E-01         0.00000E+00
    0.18207E-03        -0.25582E-01         0.00000E+00
    0.16067E-03        -0.21316E-01         0.00000E+00
    0.13568E-03        -0.17050E-01         0.00000E+00
    0.10708E-03        -0.12786E-01         0.00000E+00
    0.74876E-04        -0.85228E-02         0.00000E+00
    0.39141E-04        -0.42608E-02         0.00000E+00
    0.00000E+00         0.00000E+00         0.00000E+00
    0.23560E-03        -0.63995E-01         0.00000E+00
    0.24234E-03        -0.59727E-01         0.00000E+00
    0.24645E-03        -0.55458E-01         0.00000E+00
    0.24779E-03        -0.51189E-01         0.00000E+00
    0.24622E-03        -0.46921E-01         0.00000E+00
    0.24158E-03        -0.42652E-01         0.00000E+00
    0.23373E-03        -0.38384E-01         0.00000E+00
    0.22252E-03        -0.34116E-01         0.00000E+00
    0.20780E-03        -0.29849E-01         0.00000E+00
    0.18945E-03        -0.25582E-01         0.00000E+00
    0.16738E-03        -0.21317E-01         0.00000E+00
    0.14150E-03        -0.17051E-01         0.00000E+00
    0.11178E-03        -0.12787E-01         0.00000E+00
    0.78241E-04        -0.85238E-02         0.00000E+00
    0.40939E-04        -0.42614E-02         0.00000E+00
    0.00000E+00         0.00000E+00         0.00000E+00
    0.23977E-03        -0.63987E-01         0.00000E+00
    0.24696E-03        -0.59720E-01         0.00000E+00
    0.25153E-03        -0.55452E-01         0.00000E+00
    0.25332E-03        -0.51185E-01         0.00000E+00
    0.25213E-03        -0.46917E-01         0.00000E+00
    0.24780E-03        -0.42650E-01         0.00000E+00
    0.24014E-03        -0.38383E-01         0.00000E+00
    0.22897E-03        -0.34116E-01         0.00000E+00
    0.21414E-03        -0.29849E-01         0.00000E+00
    0.19551E-03        -0.25583E-01         0.00000E+00
    0.17295E-03        -0.21318E-01         0.00000E+00
    0.14639E-03        -0.17053E-01         0.00000E+00
    0.11579E-03        -0.12789E-01         0.00000E+00
    0.81141E-04        -0.85249E-02         0.00000E+00
    0.42504E-04        -0.42621E-02         0.00000E+00
    0.00000E+00         0.00000E+00         0.00000E+00
    0.24142E-03        -0.63978E-01         0.00000E+00
    0.24904E-03        -0.59713E-01         0.00000E+00
    0.25412E-03        -0.55446E-01         0.00000E+00
    0.25643E-03        -0.51180E-01         0.00000E+00
    0.25574E-03        -0.46914E-01         0.00000E+00
    0.25184E-03        -0.42648E-01         0.00000E+00
    0.24451E-03        -0.38382E-01         0.00000E+00
    0.23356E-03        -0.34116E-01         0.00000E+00
    0.21880E-03        -0.29850E-01         0.00000E+00
    0.20008E-03        -0.25584E-01         0.00000E+00
    0.17726E-03        -0.21319E-01         0.00000E+00
    0.15026E-03        -0.17055E-01         0.00000E+00
    0.11902E-03        -0.12790E-01         0.00000E+00
    0.83519E-04        -0.85264E-02         0.00000E+00
    0.43812E-04        -0.42629E-02         0.00000E+00
    0.00000E+00         0.00000E+00         0.00000E+00
    0.24036E-03        -0.63969E-01         0.00000E+00
    0.24841E-03        -0.59705E-01         0.00000E+00
    0.25403E-03        -0.55440E-01         0.00000E+00
    0.25692E-03        -0.51176E-01         0.00000E+00
    0.25683E-03        -0.46911E-01         0.00000E+00
    0.25348E-03        -0.42646E-01         0.00000E+00
    0.24663E-03        -0.38381E-01         0.00000E+00
    0.23606E-03        -0.34116E-01         0.00000E+00
    0.22156E-03        -0.29851E-01         0.00000E+00
    0.20297E-03        -0.25586E-01         0.00000E+00
    0.18013E-03        -0.21321E-01         0.00000E+00
    0.15295E-03        -0.17057E-01         0.00000E+00
    0.12136E-03        -0.12792E-01         0.00000E+00
    0.85313E-04        -0.85281E-02         0.00000E+00
    0.44834E-04        -0.42639E-02         0.00000E+00
    0.00000E+00         0.00000E+00         0.00000E+00
    0.23644E-03        -0.63960E-01         0.00000E+00
    0.24490E-03        -0.59697E-01         0.00000E+00
    0.25106E-03        -0.55434E-01         0.00000E+00
    0.25460E-03        -0.51171E-01         0.00000E+00
    0.25517E-03        -0.46907E-01         0.00000E+00
    0.25249E-03        -0.42644E-01         0.00000E+00
    0.24625E-03        -0.38380E-01         0.00000E+00
    0.23623E-03        -0.34116E-01         0.00000E+00
    0.22219E-03        -0.29852E-01         0.00000E+00
    0.20395E-03        -0.25588E-01         0.00000E+00
    0.18137E-03        -0.21324E-01         0.00000E+00
    0.15432E-03        -0.17060E-01         0.00000E+00
    0.12270E-03        -0.12795E-01         0.00000E+00
    0.86451E-04        -0.85302E-02         0.00000E+00
    0.45538E-04        -0.42651E-02         0.00000E+00
    0.00000E+00         0.00000E+00         0.00000E+00
    0.22954E-03        -0.63951E-01         0.00000E+00
    0.23836E-03        -0.59689E-01         0.00000E+00
    0.24507E-03        -0.55428E-01         0.00000E+00
    0.24926E-03        -0.51166E-01         0.00000E+00
    0.25056E-03        -0.46904E-01         0.00000E+00
    0.24861E-03        -0.42642E-01         0.00000E+00
    0.24310E-03        -0.38380E-01         0.00000E+00
    0.23377E-03        -0.34117E-01         0.00000E+00
    0.22039E-03        -0.29854E-01         0.00000E+00
    0.20277E-03        -0.25591E-01         0.00000E+00
    0.18075E-03        -0.21327E-01         0.00000E+00
    0.15417E-03        -0.17063E-01         0.00000E+00
    0.12291E-03        -0.12798E-01         0.00000E+00
    0.86848E-04        -0.85325E-02         0.00000E+00
    0.45887E-04        -0.42665E-02         0.00000E+00
    0.00000E+00         0.00000E+00         0.00000E+00
    0.21959E-03        -0.63941E-01         0.00000E+00
    0.22870E-03        -0.59681E-01         0.00000E+00
    0.23591E-03        -0.55421E-01         0.00000E+00
    0.24075E-03        -0.51161E-01         0.00000E+00
    0.24277E-03        -0.46901E-01         0.00000E+00
    0.24159E-03        -0.42641E-01         0.00000E+00
    0.23688E-03        -0.38380E-01         0.00000E+00
    0.22838E-03        -0.34119E-01         0.00000E+00
    0.21586E-03        -0.29857E-01         0.00000E+00
    0.19913E-03        -0.25594E-01         0.00000E+00
    0.17800E-03        -0.21331E-01         0.00000E+00
    0.15230E-03        -0.17067E-01         0.00000E+00
    0.12183E-03        -0.12801E-01         0.00000E+00
    0.86402E-04        -0.85352E-02         0.00000E+00
    0.45834E-04        -0.42680E-02         0.00000E+00
    0.00000E+00         0.00000E+00         0.00000E+00
    0.20656E-03        -0.63931E-01         0.00000E+00
    0.21587E-03        -0.59673E-01         0.00000E+00
    0.22350E-03        -0.55415E-01         0.00000E+00
    0.22890E-03        -0.51157E-01         0.00000E+00
    0.23159E-03        -0.46898E-01         0.00000E+00
    0.23116E-03        -0.42639E-01         0.00000E+00
    0.22729E-03        -0.38380E-01         0.00000E+00
    0.21972E-03        -0.34120E-01         0.00000E+00
    0.20825E-03        -0.29860E-01         0.00000E+00
    0.19269E-03        -0.25598E-01         0.00000E+00
    0.17284E-03        -0.21335E-01         0.00000E+00
    0.14845E-03        -0.17071E-01         0.00000E+00
    0.11927E-03        -0.12805E-01         0.00000E+00
    0.84988E-04        -0.85381E-02         0.00000E+00
    0.45321E-04        -0.42697E-02         0.00000E+00
    0.00000E+00         0.00000E+00         0.00000E+00
    0.19047E-03        -0.63921E-01         0.00000E+00
    0.19985E-03        -0.59665E-01         0.00000E+00
    0.20776E-03        -0.55408E-01         0.00000E+00
    0.21358E-03        -0.51152E-01         0.00000E+00
    0.21682E-03        -0.46895E-01         0.00000E+00
    0.21704E-03        -0.42638E-01         0.00000E+00
    0.21398E-03        -0.38381E-01         0.00000E+00
    0.20742E-03        -0.34122E-01         0.00000E+00
    0.19719E-03        -0.29863E-01         0.00000E+00
    0.18310E-03        -0.25602E-01         0.00000E+00
    0.16492E-03        -0.21340E-01         0.00000E+00
    0.14233E-03        -0.17075E-01         0.00000E+00
    0.11498E-03        -0.12809E-01         0.00000E+00
    0.82439E-04        -0.85413E-02         0.00000E+00
    0.44263E-04        -0.42715E-02         0.00000E+00
    0.00000E+00         0.00000E+00         0.00000E+00
    0.17138E-03        -0.63911E-01         0.00000E+00
    0.18066E-03        -0.59656E-01         0.00000E+00
    0.18865E-03        -0.55402E-01         0.00000E+00
    0.19470E-03        -0.51147E-01         0.00000E+00
    0.19826E-03        -0.46893E-01         0.00000E+00
    0.19899E-03        -0.42638E-01         0.00000E+00
    0.19667E-03        -0.38382E-01         0.00000E+00
    0.19116E-03        -0.34125E-01         0.00000E+00
    0.18234E-03        -0.29866E-01         0.00000E+00
    0.17000E-03        -0.25606E-01         0.00000E+00
    0.15387E-03        -0.21344E-01         0.00000E+00
    0.13359E-03        -0.17080E-01         0.00000E+00
    0.10867E-03        -0.12814E-01         0.00000E+00
    0.78536E-04        -0.85446E-02         0.00000E+00
    0.42546E-04        -0.42734E-02         0.00000E+00
    0.00000E+00         0.00000E+00         0.00000E+00
    0.14939E-03        -0.63902E-01         0.00000E+00
    0.15834E-03        -0.59649E-01         0.00000E+00
    0.16615E-03        -0.55396E-01         0.00000E+00
    0.17212E-03        -0.51143E-01         0.00000E+00
    0.17574E-03        -0.46890E-01         0.00000E+00
    0.17676E-03        -0.42637E-01         0.00000E+00
    0.17509E-03        -0.38383E-01         0.00000E+00
    0.17065E-03        -0.34127E-01         0.00000E+00
    0.16335E-03        -0.29870E-01         0.00000E+00
    0.15300E-03        -0.25611E-01         0.00000E+00
    0.13929E-03        -0.21349E-01         0.00000E+00
    0.12180E-03        -0.17085E-01         0.00000E+00
    0.99943E-04        -0.12818E-01         0.00000E+00
    0.72978E-04        -0.85481E-02         0.00000E+00
    0.40005E-04        -0.42754E-02         0.00000E+00
    0.00000E+00         0.00000E+00         0.00000E+00
    0.12463E-03        -0.63893E-01         0.00000E+00
    0.13293E-03        -0.59641E-01         0.00000E+00
    0.14020E-03        -0.55390E-01         0.00000E+00
    0.14571E-03        -0.51139E-01         0.00000E+00
    0.14907E-03        -0.46888E-01         0.00000E+00
    0.15019E-03        -0.42637E-01         0.00000E+00
    0.14907E-03        -0.38384E-01         0.00000E+00
    0.14569E-03        -0.34129E-01         0.00000E+00
    0.13998E-03        -0.29873E-01         0.00000E+00
    0.13176E-03        -0.25615E-01         0.00000E+00
    0.12074E-03        -0.21353E-01         0.00000E+00
    0.10648E-03        -0.17089E-01         0.00000E+00
    0.88316E-04        -0.12822E-01         0.00000E+00
    0.65354E-04        -0.85515E-02         0.00000E+00
    0.36402E-04        -0.42774E-02         0.00000E+00
    0.00000E+00         0.00000E+00         0.00000E+00
    0.97241E-04        -0.63885E-01         0.00000E+00
    0.10446E-03        -0.59635E-01         0.00000E+00
    0.11072E-03        -0.55385E-01         0.00000E+00
    0.11534E-03        -0.51136E-01         0.00000E+00
    0.11815E-03        -0.46887E-01         0.00000E+00
    0.11920E-03        -0.42637E-01         0.00000E+00
    0.11854E-03        -0.38385E-01         0.00000E+00
    0.11617E-03        -0.34131E-01         0.00000E+00
    0.11204E-03        -0.29876E-01         0.00000E+00
    0.10600E-03        -0.25618E-01         0.00000E+00
    0.97807E-04        -0.21357E-01         0.00000E+00
    0.87075E-04        -0.17093E-01         0.00000E+00
    0.73168E-04        -0.12826E-01         0.00000E+00
    0.55096E-04        -0.85547E-02         0.00000E+00
    0.31385E-04        -0.42795E-02         0.00000E+00
    0.00000E+00         0.00000E+00         0.00000E+00
    0.67338E-04        -0.63878E-01         0.00000E+00
    0.72885E-04        -0.59630E-01         0.00000E+00
    0.77552E-04        -0.55382E-01         0.00000E+00
    0.80900E-04        -0.51134E-01         0.00000E+00
    0.82957E-04        -0.46886E-01         0.00000E+00
    0.83810E-04        -0.42637E-01         0.00000E+00
    0.83505E-04        -0.38386E-01         0.00000E+00
    0.82049E-04        -0.34133E-01         0.00000E+00
    0.79408E-04        -0.29878E-01         0.00000E+00
    0.75494E-04        -0.25620E-01         0.00000E+00
    0.70142E-04        -0.21360E-01         0.00000E+00
    0.63069E-04        -0.17096E-01         0.00000E+00
    0.53783E-04        -0.12829E-01         0.00000E+00
    0.41433E-04        -0.85576E-02         0.00000E+00
    0.24410E-04        -0.42814E-02         0.00000E+00
    0.00000E+00         0.00000E+00         0.00000E+00
    0.34939E-04        -0.63874E-01         0.00000E+00
    0.38030E-04        -0.59627E-01         0.00000E+00
    0.40631E-04        -0.55380E-01         0.00000E+00
    0.42438E-04        -0.51133E-01         0.00000E+00
    0.43564E-04        -0.46885E-01         0.00000E+00
    0.44069E-04        -0.42636E-01         0.00000E+00
    0.43984E-04        -0.38386E-01         0.00000E+00
    0.43318E-04        -0.34133E-01         0.00000E+00
    0.42057E-04        -0.29879E-01         0.00000E+00
    0.40161E-04        -0.25621E-01         0.00000E+00
    0.37552E-04        -0.21361E-01         0.00000E+00
    0.34087E-04        -0.17098E-01         0.00000E+00
    0.29509E-04        -0.12831E-01         0.00000E+00
    0.23326E-04        -0.85598E-02         0.00000E+00
    0.14543E-04        -0.42833E-02         0.00000E+00
    0.00000E+00         0.00000E+00         0.00000E+00
    0.00000E+00        -0.63873E-01         0.00000E+00
    0.00000E+00        -0.59626E-01         0.00000E+00
    0.00000E+00        -0.55380E-01         0.00000E+00
    0.00000E+00        -0.51133E-01         0.00000E+00
    0.00000E+00        -0.46885E-01         0.00000E+00
    0.00000E+00        -0.42636E-01         0.00000E+00
    0.00000E+00        -0.38386E-01         0.00000E+00
    0.00000E+00        -0.34133E-01         0.00000E+00
    0.00000E+00        -0.29879E-01         0.00000E+00
    0.00000E+00        -0.25622E-01         0.00000E+00
    0.00000E+00        -0.21362E-01         0.00000E+00
    0.00000E+00        -0.17099E-01         0.00000E+00
    0.00000E+00        -0.12832E-01         0.00000E+00
    0.00000E+00        -0.85607E-02         0.00000E+00
    0.00000E+00        -0.42842E-02         0.00000E+00
    0.00000E+00         0.00000E+00         0.00000E+00
CELL_DATA        450
VECTORS vDarcy double 
    0.69162E-10        -0.41365E-11         0.00000E+00
    0.69149E-10        -0.10866E-10         0.00000E+00
    0.69126E-10        -0.16103E-10         0.00000E+00
    0.69096E-10        -0.19944E-10         0.00000E+00
    0.69060E-10        -0.22487E-10         0.00000E+00
    0.69021E-10        -0.23835E-10         0.00000E+00
    0.68980E-10        -0.24099E-10         0.00000E+00
    0.68941E-10        -0.23391E-10         0.00000E+00
    0.68903E-10        -0.21833E-10         0.00000E+00
    0.68868E-10        -0.19549E-10         0.00000E+00
    0.68837E-10        -0.16671E-10         0.00000E+00
    0.68812E-10        -0.13335E-10         0.00000E+00
    0.68793E-10        -0.96829E-11         0.00000E+00
    0.68780E-10        -0.58619E-11         0.00000E+00
    0.68773E-10        -0.20243E-11         0.00000E+00
    0.20728E-09        -0.41223E-11         0.00000E+00
    0.20724E-09        -0.10829E-10         0.00000E+00
    0.20717E-09        -0.16049E-10         0.00000E+00
    0.20708E-09        -0.19876E-10         0.00000E+00
    0.20697E-09        -0.22411E-10         0.00000E+00
    0.20685E-09        -0.23755E-10         0.00000E+00
    0.20673E-09        -0.24017E-10         0.00000E+00
    0.20661E-09        -0.23312E-10         0.00000E+00
    0.20650E-09        -0.21759E-10         0.00000E+00
    0.20639E-09        -0.19483E-10         0.00000E+00
    0.20630E-09        -0.16615E-10         0.00000E+00
    0.20622E-09        -0.13290E-10         0.00000E+00
    0.20616E-09        -0.96504E-11         0.00000E+00
    0.20612E-09        -0.58423E-11         0.00000E+00
    0.20610E-09        -0.20173E-11         0.00000E+00
    0.34479E-09        -0.40934E-11         0.00000E+00
    0.34472E-09        -0.10753E-10         0.00000E+00
    0.34460E-09        -0.15937E-10         0.00000E+00
    0.34445E-09        -0.19739E-10         0.00000E+00
    0.34426E-09        -0.22256E-10         0.00000E+00
    0.34406E-09        -0.23591E-10         0.00000E+00
    0.34385E-09        -0.23851E-10         0.00000E+00
    0.34365E-09        -0.23151E-10         0.00000E+00
    0.34345E-09        -0.21609E-10         0.00000E+00
    0.34327E-09        -0.19349E-10         0.00000E+00
    0.34312E-09        -0.16500E-10         0.00000E+00
    0.34299E-09        -0.13199E-10         0.00000E+00
    0.34289E-09        -0.95843E-11         0.00000E+00
    0.34282E-09        -0.58025E-11         0.00000E+00
    0.34279E-09        -0.20033E-11         0.00000E+00
    0.48127E-09        -0.40490E-11         0.00000E+00
    0.48118E-09        -0.10637E-10         0.00000E+00
    0.48101E-09        -0.15766E-10         0.00000E+00
    0.48078E-09        -0.19527E-10         0.00000E+00
    0.48052E-09        -0.22018E-10         0.00000E+00
    0.48023E-09        -0.23339E-10         0.00000E+00
    0.47993E-09        -0.23597E-10         0.00000E+00
    0.47963E-09        -0.22904E-10         0.00000E+00
    0.47935E-09        -0.21378E-10         0.00000E+00
    0.47909E-09        -0.19142E-10         0.00000E+00
    0.47887E-09        -0.16324E-10         0.00000E+00
    0.47868E-09        -0.13058E-10         0.00000E+00
    0.47854E-09        -0.94826E-11         0.00000E+00
    0.47844E-09        -0.57411E-11         0.00000E+00
    0.47839E-09        -0.19817E-11         0.00000E+00
    0.61634E-09        -0.39879E-11         0.00000E+00
    0.61621E-09        -0.10477E-10         0.00000E+00
    0.61599E-09        -0.15530E-10         0.00000E+00
    0.61568E-09        -0.19236E-10         0.00000E+00
    0.61533E-09        -0.21690E-10         0.00000E+00
    0.61494E-09        -0.22992E-10         0.00000E+00
    0.61455E-09        -0.23246E-10         0.00000E+00
    0.61415E-09        -0.22564E-10         0.00000E+00
    0.61377E-09        -0.21060E-10         0.00000E+00
    0.61343E-09        -0.18857E-10         0.00000E+00
    0.61313E-09        -0.16081E-10         0.00000E+00
    0.61288E-09        -0.12864E-10         0.00000E+00
    0.61269E-09        -0.93420E-11         0.00000E+00
    0.61256E-09        -0.56563E-11         0.00000E+00
    0.61249E-09        -0.19520E-11         0.00000E+00
    0.74957E-09        -0.39084E-11         0.00000E+00
    0.74941E-09        -0.10269E-10         0.00000E+00
    0.74913E-09        -0.15223E-10         0.00000E+00
    0.74874E-09        -0.18857E-10         0.00000E+00
    0.74829E-09        -0.21263E-10         0.00000E+00
    0.74780E-09        -0.22540E-10         0.00000E+00
    0.74729E-09        -0.22790E-10         0.00000E+00
    0.74678E-09        -0.22121E-10         0.00000E+00
    0.74630E-09        -0.20647E-10         0.00000E+00
    0.74586E-09        -0.18487E-10         0.00000E+00
    0.74548E-09        -0.15765E-10         0.00000E+00
    0.74516E-09        -0.12611E-10         0.00000E+00
    0.74491E-09        -0.91586E-11         0.00000E+00
    0.74475E-09        -0.55455E-11         0.00000E+00
    0.74466E-09        -0.19133E-11         0.00000E+00
    0.88059E-09        -0.38085E-11         0.00000E+00
    0.88039E-09        -0.10008E-10         0.00000E+00
    0.88003E-09        -0.14837E-10         0.00000E+00
    0.87955E-09        -0.18380E-10         0.00000E+00
    0.87899E-09        -0.20727E-10         0.00000E+00
    0.87838E-09        -0.21972E-10         0.00000E+00
    0.87775E-09        -0.22216E-10         0.00000E+00
    0.87712E-09        -0.21564E-10         0.00000E+00
    0.87652E-09        -0.20127E-10         0.00000E+00
    0.87598E-09        -0.18021E-10         0.00000E+00
    0.87550E-09        -0.15367E-10         0.00000E+00
    0.87510E-09        -0.12293E-10         0.00000E+00
    0.87480E-09        -0.89276E-11         0.00000E+00
    0.87459E-09        -0.54059E-11         0.00000E+00
    0.87449E-09        -0.18647E-11         0.00000E+00
    0.10090E-08        -0.36857E-11         0.00000E+00
    0.10087E-08        -0.96871E-11         0.00000E+00
    0.10083E-08        -0.14363E-10         0.00000E+00
    0.10077E-08        -0.17795E-10         0.00000E+00
    0.10070E-08        -0.20068E-10         0.00000E+00
    0.10063E-08        -0.21275E-10         0.00000E+00
    0.10055E-08        -0.21512E-10         0.00000E+00
    0.10048E-08        -0.20881E-10         0.00000E+00
    0.10040E-08        -0.19488E-10         0.00000E+00
    0.10034E-08        -0.17449E-10         0.00000E+00
    0.10028E-08        -0.14879E-10         0.00000E+00
    0.10023E-08        -0.11902E-10         0.00000E+00
    0.10019E-08        -0.86436E-11         0.00000E+00
    0.10017E-08        -0.52340E-11         0.00000E+00
    0.10016E-08        -0.18052E-11         0.00000E+00
    0.11344E-08        -0.35373E-11         0.00000E+00
    0.11341E-08        -0.92990E-11         0.00000E+00
    0.11335E-08        -0.13790E-10         0.00000E+00
    0.11328E-08        -0.17087E-10         0.00000E+00
    0.11320E-08        -0.19273E-10         0.00000E+00
    0.11311E-08        -0.20434E-10         0.00000E+00
    0.11302E-08        -0.20662E-10         0.00000E+00
    0.11293E-08        -0.20056E-10         0.00000E+00
    0.11284E-08        -0.18719E-10         0.00000E+00
    0.11276E-08        -0.16759E-10         0.00000E+00
    0.11269E-08        -0.14290E-10         0.00000E+00
    0.11264E-08        -0.11430E-10         0.00000E+00
    0.11259E-08        -0.83007E-11         0.00000E+00
    0.11256E-08        -0.50264E-11         0.00000E+00
    0.11255E-08        -0.17337E-11         0.00000E+00
    0.12564E-08        -0.33602E-11         0.00000E+00
    0.12560E-08        -0.88359E-11         0.00000E+00
    0.12554E-08        -0.13106E-10         0.00000E+00
    0.12546E-08        -0.16244E-10         0.00000E+00
    0.12536E-08        -0.18325E-10         0.00000E+00
    0.12525E-08        -0.19432E-10         0.00000E+00
    0.12514E-08        -0.19651E-10         0.00000E+00
    0.12504E-08        -0.19076E-10         0.00000E+00
    0.12493E-08        -0.17804E-10         0.00000E+00
    0.12484E-08        -0.15940E-10         0.00000E+00
    0.12476E-08        -0.13591E-10         0.00000E+00
    0.12469E-08        -0.10870E-10         0.00000E+00
    0.12464E-08        -0.78929E-11         0.00000E+00
    0.12460E-08        -0.47793E-11         0.00000E+00
    0.12458E-08        -0.16490E-11         0.00000E+00
    0.13746E-08        -0.31510E-11         0.00000E+00
    0.13742E-08        -0.82893E-11         0.00000E+00
    0.13734E-08        -0.12300E-10         0.00000E+00
    0.13725E-08        -0.15249E-10         0.00000E+00
    0.13713E-08        -0.17208E-10         0.00000E+00
    0.13701E-08        -0.18252E-10         0.00000E+00
    0.13688E-08        -0.18462E-10         0.00000E+00
    0.13675E-08        -0.17924E-10         0.00000E+00
    0.13663E-08        -0.16730E-10         0.00000E+00
    0.13653E-08        -0.14978E-10         0.00000E+00
    0.13643E-08        -0.12770E-10         0.00000E+00
    0.13635E-08        -0.10212E-10         0.00000E+00
    0.13629E-08        -0.74143E-11         0.00000E+00
    0.13625E-08        -0.44891E-11         0.00000E+00
    0.13623E-08        -0.15499E-11         0.00000E+00
    0.14887E-08        -0.29064E-11         0.00000E+00
    0.14882E-08        -0.76507E-11         0.00000E+00
    0.14873E-08        -0.11359E-10         0.00000E+00
    0.14862E-08        -0.14089E-10         0.00000E+00
    0.14849E-08        -0.15907E-10         0.00000E+00
    0.14834E-08        -0.16879E-10         0.00000E+00
    0.14820E-08        -0.17079E-10         0.00000E+00
    0.14805E-08        -0.16586E-10         0.00000E+00
    0.14791E-08        -0.15484E-10         0.00000E+00
    0.14779E-08        -0.13863E-10         0.00000E+00
    0.14767E-08        -0.11819E-10         0.00000E+00
    0.14758E-08        -0.94499E-11         0.00000E+00
    0.14751E-08        -0.68596E-11         0.00000E+00
    0.14746E-08        -0.41528E-11         0.00000E+00
    0.14744E-08        -0.14355E-11         0.00000E+00
    0.15982E-08        -0.26232E-11         0.00000E+00
    0.15977E-08        -0.69119E-11         0.00000E+00
    0.15967E-08        -0.10270E-10         0.00000E+00
    0.15954E-08        -0.12750E-10         0.00000E+00
    0.15939E-08        -0.14405E-10         0.00000E+00
    0.15922E-08        -0.15296E-10         0.00000E+00
    0.15905E-08        -0.15487E-10         0.00000E+00
    0.15889E-08        -0.15047E-10         0.00000E+00
    0.15873E-08        -0.14053E-10         0.00000E+00
    0.15858E-08        -0.12584E-10         0.00000E+00
    0.15846E-08        -0.10729E-10         0.00000E+00
    0.15835E-08        -0.85772E-11         0.00000E+00
    0.15827E-08        -0.62245E-11         0.00000E+00
    0.15822E-08        -0.37677E-11         0.00000E+00
    0.15819E-08        -0.13050E-11         0.00000E+00
    0.17029E-08        -0.22987E-11         0.00000E+00
    0.17023E-08        -0.60658E-11         0.00000E+00
    0.17012E-08        -0.90250E-11         0.00000E+00
    0.16997E-08        -0.11218E-10         0.00000E+00
    0.16980E-08        -0.12691E-10         0.00000E+00
    0.16961E-08        -0.13491E-10         0.00000E+00
    0.16942E-08        -0.13674E-10         0.00000E+00
    0.16923E-08        -0.13298E-10         0.00000E+00
    0.16905E-08        -0.12427E-10         0.00000E+00
    0.16889E-08        -0.11134E-10         0.00000E+00
    0.16875E-08        -0.94945E-11         0.00000E+00
    0.16863E-08        -0.75900E-11         0.00000E+00
    0.16854E-08        -0.55066E-11         0.00000E+00
    0.16848E-08        -0.33326E-11         0.00000E+00
    0.16845E-08        -0.11580E-11         0.00000E+00
    0.18024E-08        -0.19307E-11         0.00000E+00
    0.18017E-08        -0.51075E-11         0.00000E+00
    0.18005E-08        -0.76155E-11         0.00000E+00
    0.17988E-08        -0.94864E-11         0.00000E+00
    0.17969E-08        -0.10754E-10         0.00000E+00
    0.17948E-08        -0.11455E-10         0.00000E+00
    0.17926E-08        -0.11632E-10         0.00000E+00
    0.17905E-08        -0.11330E-10         0.00000E+00
    0.17885E-08        -0.10603E-10         0.00000E+00
    0.17867E-08        -0.95092E-11         0.00000E+00
    0.17851E-08        -0.81138E-11         0.00000E+00
    0.17838E-08        -0.64874E-11         0.00000E+00
    0.17828E-08        -0.47057E-11         0.00000E+00
    0.17821E-08        -0.28476E-11         0.00000E+00
    0.17818E-08        -0.99468E-12         0.00000E+00
    0.18964E-08        -0.15185E-11         0.00000E+00
    0.18956E-08        -0.40348E-11         0.00000E+00
    0.18942E-08        -0.60391E-11         0.00000E+00
    0.18924E-08        -0.75510E-11         0.00000E+00
    0.18902E-08        -0.85918E-11         0.00000E+00
    0.18879E-08        -0.91851E-11         0.00000E+00
    0.18855E-08        -0.93583E-11         0.00000E+00
    0.18831E-08        -0.91438E-11         0.00000E+00
    0.18809E-08        -0.85797E-11         0.00000E+00
    0.18789E-08        -0.77111E-11         0.00000E+00
    0.18772E-08        -0.65894E-11         0.00000E+00
    0.18758E-08        -0.52728E-11         0.00000E+00
    0.18747E-08        -0.38251E-11         0.00000E+00
    0.18739E-08        -0.23152E-11         0.00000E+00
    0.18736E-08        -0.81574E-12         0.00000E+00
    0.19844E-08        -0.10630E-11         0.00000E+00
    0.19836E-08        -0.28503E-11         0.00000E+00
    0.19820E-08        -0.42990E-11         0.00000E+00
    0.19800E-08        -0.54160E-11         0.00000E+00
    0.19777E-08        -0.62086E-11         0.00000E+00
    0.19751E-08        -0.66858E-11         0.00000E+00
    0.19725E-08        -0.68592E-11         0.00000E+00
    0.19699E-08        -0.67451E-11         0.00000E+00
    0.19675E-08        -0.63653E-11         0.00000E+00
    0.19654E-08        -0.57486E-11         0.00000E+00
    0.19635E-08        -0.49307E-11         0.00000E+00
    0.19619E-08        -0.39552E-11         0.00000E+00
    0.19608E-08        -0.28726E-11         0.00000E+00
    0.19600E-08        -0.17405E-11         0.00000E+00
    0.19596E-08        -0.62285E-12         0.00000E+00
    0.20663E-08        -0.56735E-12         0.00000E+00
    0.20654E-08        -0.15620E-11         0.00000E+00
    0.20637E-08        -0.24072E-11         0.00000E+00
    0.20615E-08        -0.30957E-11         0.00000E+00
    0.20590E-08        -0.36201E-11         0.00000E+00
    0.20562E-08        -0.39736E-11         0.00000E+00
    0.20534E-08        -0.41512E-11         0.00000E+00
    0.20507E-08        -0.41514E-11         0.00000E+00
    0.20481E-08        -0.39776E-11         0.00000E+00
    0.20458E-08        -0.36397E-11         0.00000E+00
    0.20438E-08        -0.31553E-11         0.00000E+00
    0.20421E-08        -0.25506E-11         0.00000E+00
    0.20409E-08        -0.18610E-11         0.00000E+00
    0.20401E-08        -0.11320E-11         0.00000E+00
    0.20397E-08        -0.41869E-12         0.00000E+00
    0.21416E-08        -0.37403E-13         0.00000E+00
    0.21406E-08        -0.18548E-12         0.00000E+00
    0.21389E-08        -0.38612E-12         0.00000E+00
    0.21366E-08        -0.61717E-12         0.00000E+00
    0.21339E-08        -0.85590E-12         0.00000E+00
    0.21310E-08        -0.10795E-11         0.00000E+00
    0.21280E-08        -0.12656E-11         0.00000E+00
    0.21251E-08        -0.13939E-11         0.00000E+00
    0.21224E-08        -0.14473E-11         0.00000E+00
    0.21199E-08        -0.14142E-11         0.00000E+00
    0.21179E-08        -0.12908E-11         0.00000E+00
    0.21162E-08        -0.10833E-11         0.00000E+00
    0.21149E-08        -0.80975E-12         0.00000E+00
    0.21140E-08        -0.50213E-12         0.00000E+00
    0.21136E-08        -0.20715E-12         0.00000E+00
    0.22101E-08         0.51799E-12         0.00000E+00
    0.22091E-08         0.12556E-11         0.00000E+00
    0.22073E-08         0.17290E-11         0.00000E+00
    0.22049E-08         0.19762E-11         0.00000E+00
    0.22021E-08         0.20358E-11         0.00000E+00
    0.21991E-08         0.19465E-11         0.00000E+00
    0.21960E-08         0.17475E-11         0.00000E+00
    0.21930E-08         0.14786E-11         0.00000E+00
    0.21902E-08         0.11790E-11         0.00000E+00
    0.21877E-08         0.88429E-12         0.00000E+00
    0.21856E-08         0.62326E-12         0.00000E+00
    0.21839E-08         0.41305E-12         0.00000E+00
    0.21826E-08         0.25529E-12         0.00000E+00
    0.21818E-08         0.13267E-12         0.00000E+00
    0.21813E-08         0.66445E-14         0.00000E+00
    0.22714E-08         0.10867E-11         0.00000E+00
    0.22704E-08         0.27281E-11         0.00000E+00
    0.22686E-08         0.38877E-11         0.00000E+00
    0.22661E-08         0.46215E-11         0.00000E+00
    0.22633E-08         0.49841E-11         0.00000E+00
    0.22603E-08         0.50295E-11         0.00000E+00
    0.22572E-08         0.48133E-11         0.00000E+00
    0.22543E-08         0.43941E-11         0.00000E+00
    0.22515E-08         0.38340E-11         0.00000E+00
    0.22490E-08         0.31951E-11         0.00000E+00
    0.22469E-08         0.25341E-11         0.00000E+00
    0.22452E-08         0.18948E-11         0.00000E+00
    0.22440E-08         0.13012E-11         0.00000E+00
    0.22432E-08         0.75186E-12         0.00000E+00
    0.22428E-08         0.21633E-12         0.00000E+00
    0.23253E-08         0.16533E-11         0.00000E+00
    0.23243E-08         0.41884E-11         0.00000E+00
    0.23225E-08         0.60227E-11         0.00000E+00
    0.23202E-08         0.72325E-11         0.00000E+00
    0.23175E-08         0.78897E-11         0.00000E+00
    0.23145E-08         0.80636E-11         0.00000E+00
    0.23116E-08         0.78251E-11         0.00000E+00
    0.23087E-08         0.72510E-11         0.00000E+00
    0.23060E-08         0.64257E-11         0.00000E+00
    0.23037E-08         0.54383E-11         0.00000E+00
    0.23017E-08         0.43750E-11         0.00000E+00
    0.23001E-08         0.33089E-11         0.00000E+00
    0.22990E-08         0.22888E-11         0.00000E+00
    0.22982E-08         0.13314E-11         0.00000E+00
    0.22978E-08         0.41448E-12         0.00000E+00
    0.23714E-08         0.21988E-11         0.00000E+00
    0.23705E-08         0.55816E-11         0.00000E+00
    0.23688E-08         0.80471E-11         0.00000E+00
    0.23667E-08         0.96959E-11         0.00000E+00
    0.23642E-08         0.10620E-10         0.00000E+00
    0.23615E-08         0.10904E-10         0.00000E+00
    0.23588E-08         0.10637E-10         0.00000E+00
    0.23562E-08         0.99113E-11         0.00000E+00
    0.23538E-08         0.88319E-11         0.00000E+00
    0.23517E-08         0.75116E-11         0.00000E+00
    0.23500E-08         0.60644E-11         0.00000E+00
    0.23486E-08         0.45929E-11         0.00000E+00
    0.23475E-08         0.31738E-11         0.00000E+00
    0.23469E-08         0.18443E-11         0.00000E+00
    0.23466E-08         0.59287E-12         0.00000E+00
    0.24095E-08         0.27003E-11         0.00000E+00
    0.24086E-08         0.68395E-11         0.00000E+00
    0.24072E-08         0.98512E-11         0.00000E+00
    0.24054E-08         0.11866E-10         0.00000E+00
    0.24033E-08         0.13001E-10         0.00000E+00
    0.24011E-08         0.13362E-10         0.00000E+00
    0.23989E-08         0.13056E-10         0.00000E+00
    0.23968E-08         0.12194E-10         0.00000E+00
    0.23949E-08         0.10895E-10         0.00000E+00
    0.23932E-08         0.92876E-11         0.00000E+00
    0.23917E-08         0.75054E-11         0.00000E+00
    0.23906E-08         0.56769E-11         0.00000E+00
    0.23898E-08         0.39079E-11         0.00000E+00
    0.23893E-08         0.22619E-11         0.00000E+00
    0.23890E-08         0.74289E-12         0.00000E+00
    0.24391E-08         0.31296E-11         0.00000E+00
    0.24385E-08         0.78769E-11         0.00000E+00
    0.24374E-08         0.11296E-10         0.00000E+00
    0.24361E-08         0.13558E-10         0.00000E+00
    0.24347E-08         0.14813E-10         0.00000E+00
    0.24332E-08         0.15197E-10         0.00000E+00
    0.24318E-08         0.14841E-10         0.00000E+00
    0.24304E-08         0.13872E-10         0.00000E+00
    0.24292E-08         0.12418E-10         0.00000E+00
    0.24281E-08         0.10609E-10         0.00000E+00
    0.24271E-08         0.85831E-11         0.00000E+00
    0.24263E-08         0.64821E-11         0.00000E+00
    0.24258E-08         0.44403E-11         0.00000E+00
    0.24255E-08         0.25551E-11         0.00000E+00
    0.24253E-08         0.85612E-12         0.00000E+00
    0.24601E-08         0.34509E-11         0.00000E+00
    0.24597E-08         0.85819E-11         0.00000E+00
    0.24592E-08         0.12200E-10         0.00000E+00
    0.24586E-08         0.14533E-10         0.00000E+00
    0.24581E-08         0.15779E-10         0.00000E+00
    0.24577E-08         0.16116E-10         0.00000E+00
    0.24573E-08         0.15702E-10         0.00000E+00
    0.24570E-08         0.14677E-10         0.00000E+00
    0.24567E-08         0.13165E-10         0.00000E+00
    0.24564E-08         0.11285E-10         0.00000E+00
    0.24561E-08         0.91560E-11         0.00000E+00
    0.24559E-08         0.69165E-11         0.00000E+00
    0.24557E-08         0.47167E-11         0.00000E+00
    0.24556E-08         0.26951E-11         0.00000E+00
    0.24556E-08         0.92512E-12         0.00000E+00
    0.24720E-08         0.36137E-11         0.00000E+00
    0.24720E-08         0.87968E-11         0.00000E+00
    0.24723E-08         0.12312E-10         0.00000E+00
    0.24728E-08         0.14477E-10         0.00000E+00
    0.24735E-08         0.15562E-10         0.00000E+00
    0.24745E-08         0.15785E-10         0.00000E+00
    0.24756E-08         0.15323E-10         0.00000E+00
    0.24766E-08         0.14314E-10         0.00000E+00
    0.24776E-08         0.12870E-10         0.00000E+00
    0.24784E-08         0.11083E-10         0.00000E+00
    0.24790E-08         0.90441E-11         0.00000E+00
    0.24794E-08         0.68601E-11         0.00000E+00
    0.24797E-08         0.46734E-11         0.00000E+00
    0.24799E-08         0.26535E-11         0.00000E+00
    0.24799E-08         0.94512E-12         0.00000E+00
    0.24744E-08         0.35351E-11         0.00000E+00
    0.24750E-08         0.82707E-11         0.00000E+00
    0.24764E-08         0.11261E-10         0.00000E+00
    0.24784E-08         0.12984E-10         0.00000E+00
    0.24809E-08         0.13767E-10         0.00000E+00
    0.24837E-08         0.13842E-10         0.00000E+00
    0.24865E-08         0.13375E-10         0.00000E+00
    0.24892E-08         0.12483E-10         0.00000E+00
    0.24917E-08         0.11251E-10         0.00000E+00
    0.24939E-08         0.97450E-11         0.00000E+00
    0.24956E-08         0.80201E-11         0.00000E+00
    0.24970E-08         0.61409E-11         0.00000E+00
    0.24979E-08         0.42084E-11         0.00000E+00
    0.24984E-08         0.23986E-11         0.00000E+00
    0.24986E-08         0.91388E-12         0.00000E+00
    0.24667E-08         0.30659E-11         0.00000E+00
    0.24683E-08         0.65109E-11         0.00000E+00
    0.24715E-08         0.84999E-11         0.00000E+00
    0.24756E-08         0.95541E-11         0.00000E+00
    0.24803E-08         0.99697E-11         0.00000E+00
    0.24853E-08         0.99284E-11         0.00000E+00
    0.24902E-08         0.95458E-11         0.00000E+00
    0.24949E-08         0.88984E-11         0.00000E+00
    0.24992E-08         0.80389E-11         0.00000E+00
    0.25029E-08         0.70041E-11         0.00000E+00
    0.25061E-08         0.58222E-11         0.00000E+00
    0.25086E-08         0.45206E-11         0.00000E+00
    0.25104E-08         0.31456E-11         0.00000E+00
    0.25115E-08         0.18184E-11         0.00000E+00
    0.25119E-08         0.87446E-12         0.00000E+00
    0.24477E-08         0.13549E-11         0.00000E+00
    0.24517E-08         0.26192E-11         0.00000E+00
    0.24576E-08         0.33055E-11         0.00000E+00
    0.24646E-08         0.36435E-11         0.00000E+00
    0.24720E-08         0.37585E-11         0.00000E+00
    0.24794E-08         0.37178E-11         0.00000E+00
    0.24867E-08         0.35620E-11         0.00000E+00
    0.24936E-08         0.33173E-11         0.00000E+00
    0.24999E-08         0.30011E-11         0.00000E+00
    0.25055E-08         0.26253E-11         0.00000E+00
    0.25103E-08         0.21979E-11         0.00000E+00
    0.25143E-08         0.17256E-11         0.00000E+00
    0.25172E-08         0.12186E-11         0.00000E+00
    0.25192E-08         0.71167E-12         0.00000E+00
    0.25203E-08         0.43185E-12         0.00000E+00
POINT_DATA        496
VECTORS vDarcyNodal double 
    0.69165E-10        -0.41400E-11         0.00000E+00
    0.69158E-10        -0.75075E-11         0.00000E+00
    0.69140E-10        -0.13496E-10         0.00000E+00
    0.69112E-10        -0.18039E-10         0.00000E+00
    0.69079E-10        -0.21233E-10         0.00000E+00
    0.69041E-10        -0.23181E-10         0.00000E+00
    0.69001E-10        -0.23987E-10         0.00000E+00
    0.68960E-10        -0.23765E-10         0.00000E+00
    0.68921E-10        -0.22631E-10         0.00000E+00
    0.68884E-10        -0.20709E-10         0.00000E+00
    0.68851E-10        -0.18126E-10         0.00000E+00
    0.68823E-10        -0.15016E-10         0.00000E+00
    0.68801E-10        -0.11519E-10         0.00000E+00
    0.68785E-10        -0.77789E-11         0.00000E+00
    0.68775E-10        -0.39464E-11         0.00000E+00
    0.68772E-10        -0.20260E-11         0.00000E+00
    0.13823E-09        -0.41330E-11         0.00000E+00
    0.13821E-09        -0.74948E-11         0.00000E+00
    0.13818E-09        -0.13473E-10         0.00000E+00
    0.13812E-09        -0.18009E-10         0.00000E+00
    0.13805E-09        -0.21198E-10         0.00000E+00
    0.13798E-09        -0.23142E-10         0.00000E+00
    0.13790E-09        -0.23947E-10         0.00000E+00
    0.13782E-09        -0.23725E-10         0.00000E+00
    0.13774E-09        -0.22593E-10         0.00000E+00
    0.13766E-09        -0.20674E-10         0.00000E+00
    0.13760E-09        -0.18095E-10         0.00000E+00
    0.13754E-09        -0.14991E-10         0.00000E+00
    0.13749E-09        -0.11499E-10         0.00000E+00
    0.13746E-09        -0.77660E-11         0.00000E+00
    0.13744E-09        -0.39398E-11         0.00000E+00
    0.13744E-09        -0.20226E-11         0.00000E+00
    0.27605E-09        -0.41116E-11         0.00000E+00
    0.27602E-09        -0.74561E-11         0.00000E+00
    0.27594E-09        -0.13404E-10         0.00000E+00
    0.27583E-09        -0.17916E-10         0.00000E+00
    0.27569E-09        -0.21089E-10         0.00000E+00
    0.27554E-09        -0.23023E-10         0.00000E+00
    0.27538E-09        -0.23825E-10         0.00000E+00
    0.27521E-09        -0.23604E-10         0.00000E+00
    0.27505E-09        -0.22478E-10         0.00000E+00
    0.27490E-09        -0.20569E-10         0.00000E+00
    0.27476E-09        -0.18003E-10         0.00000E+00
    0.27465E-09        -0.14914E-10         0.00000E+00
    0.27456E-09        -0.11441E-10         0.00000E+00
    0.27449E-09        -0.77268E-11         0.00000E+00
    0.27445E-09        -0.39199E-11         0.00000E+00
    0.27444E-09        -0.20121E-11         0.00000E+00
    0.41305E-09        -0.40752E-11         0.00000E+00
    0.41301E-09        -0.73903E-11         0.00000E+00
    0.41289E-09        -0.13286E-10         0.00000E+00
    0.41272E-09        -0.17759E-10         0.00000E+00
    0.41251E-09        -0.20905E-10         0.00000E+00
    0.41227E-09        -0.22823E-10         0.00000E+00
    0.41202E-09        -0.23617E-10         0.00000E+00
    0.41177E-09        -0.23399E-10         0.00000E+00
    0.41152E-09        -0.22282E-10         0.00000E+00
    0.41129E-09        -0.20389E-10         0.00000E+00
    0.41108E-09        -0.17846E-10         0.00000E+00
    0.41090E-09        -0.14785E-10         0.00000E+00
    0.41076E-09        -0.11342E-10         0.00000E+00
    0.41066E-09        -0.76600E-11         0.00000E+00
    0.41060E-09        -0.38859E-11         0.00000E+00
    0.41058E-09        -0.19945E-11         0.00000E+00
    0.54884E-09        -0.40228E-11         0.00000E+00
    0.54878E-09        -0.72957E-11         0.00000E+00
    0.54862E-09        -0.13117E-10         0.00000E+00
    0.54838E-09        -0.17533E-10         0.00000E+00
    0.54809E-09        -0.20640E-10         0.00000E+00
    0.54776E-09        -0.22534E-10         0.00000E+00
    0.54741E-09        -0.23318E-10         0.00000E+00
    0.54706E-09        -0.23103E-10         0.00000E+00
    0.54672E-09        -0.22000E-10         0.00000E+00
    0.54640E-09        -0.20131E-10         0.00000E+00
    0.54612E-09        -0.17620E-10         0.00000E+00
    0.54588E-09        -0.14598E-10         0.00000E+00
    0.54568E-09        -0.11199E-10         0.00000E+00
    0.54554E-09        -0.75636E-11         0.00000E+00
    0.54546E-09        -0.38369E-11         0.00000E+00
    0.54543E-09        -0.19690E-11         0.00000E+00
    0.68300E-09        -0.39530E-11         0.00000E+00
    0.68292E-09        -0.71695E-11         0.00000E+00
    0.68271E-09        -0.12891E-10         0.00000E+00
    0.68240E-09        -0.17232E-10         0.00000E+00
    0.68202E-09        -0.20286E-10         0.00000E+00
    0.68160E-09        -0.22148E-10         0.00000E+00
    0.68114E-09        -0.22920E-10         0.00000E+00
    0.68069E-09        -0.22707E-10         0.00000E+00
    0.68025E-09        -0.21624E-10         0.00000E+00
    0.67983E-09        -0.19787E-10         0.00000E+00
    0.67946E-09        -0.17318E-10         0.00000E+00
    0.67914E-09        -0.14348E-10         0.00000E+00
    0.67889E-09        -0.11007E-10         0.00000E+00
    0.67871E-09        -0.74346E-11         0.00000E+00
    0.67860E-09        -0.37713E-11         0.00000E+00
    0.67856E-09        -0.19350E-11         0.00000E+00
    0.81513E-09        -0.38638E-11         0.00000E+00
    0.81503E-09        -0.70084E-11         0.00000E+00
    0.81477E-09        -0.12602E-10         0.00000E+00
    0.81438E-09        -0.16848E-10         0.00000E+00
    0.81391E-09        -0.19834E-10         0.00000E+00
    0.81337E-09        -0.21656E-10         0.00000E+00
    0.81280E-09        -0.22410E-10         0.00000E+00
    0.81223E-09        -0.22203E-10         0.00000E+00
    0.81167E-09        -0.21143E-10         0.00000E+00
    0.81115E-09        -0.19347E-10         0.00000E+00
    0.81069E-09        -0.16933E-10         0.00000E+00
    0.81029E-09        -0.14028E-10         0.00000E+00
    0.80997E-09        -0.10762E-10         0.00000E+00
    0.80974E-09        -0.72695E-11         0.00000E+00
    0.80960E-09        -0.36875E-11         0.00000E+00
    0.80955E-09        -0.18916E-11         0.00000E+00
    0.94484E-09        -0.37532E-11         0.00000E+00
    0.94472E-09        -0.68083E-11         0.00000E+00
    0.94440E-09        -0.12243E-10         0.00000E+00
    0.94393E-09        -0.16370E-10         0.00000E+00
    0.94334E-09        -0.19273E-10         0.00000E+00
    0.94268E-09        -0.21044E-10         0.00000E+00
    0.94199E-09        -0.21778E-10         0.00000E+00
    0.94128E-09        -0.21577E-10         0.00000E+00
    0.94060E-09        -0.20547E-10         0.00000E+00
    0.93996E-09        -0.18801E-10         0.00000E+00
    0.93939E-09        -0.16455E-10         0.00000E+00
    0.93890E-09        -0.13632E-10         0.00000E+00
    0.93851E-09        -0.10458E-10         0.00000E+00
    0.93822E-09        -0.70640E-11         0.00000E+00
    0.93805E-09        -0.35832E-11         0.00000E+00
    0.93799E-09        -0.18379E-11         0.00000E+00
    0.10717E-08        -0.36183E-11         0.00000E+00
    0.10716E-08        -0.65645E-11         0.00000E+00
    0.10712E-08        -0.11807E-10         0.00000E+00
    0.10706E-08        -0.15788E-10         0.00000E+00
    0.10699E-08        -0.18590E-10         0.00000E+00
    0.10691E-08        -0.20300E-10         0.00000E+00
    0.10683E-08        -0.21009E-10         0.00000E+00
    0.10674E-08        -0.20816E-10         0.00000E+00
    0.10666E-08        -0.19822E-10         0.00000E+00
    0.10658E-08        -0.18136E-10         0.00000E+00
    0.10652E-08        -0.15873E-10         0.00000E+00
    0.10646E-08        -0.13149E-10         0.00000E+00
    0.10641E-08        -0.10087E-10         0.00000E+00
    0.10638E-08        -0.68136E-11         0.00000E+00
    0.10635E-08        -0.34561E-11         0.00000E+00
    0.10635E-08        -0.17726E-11         0.00000E+00
    0.11954E-08        -0.34563E-11         0.00000E+00
    0.11953E-08        -0.62718E-11         0.00000E+00
    0.11948E-08        -0.11282E-10         0.00000E+00
    0.11941E-08        -0.15089E-10         0.00000E+00
    0.11933E-08        -0.17770E-10         0.00000E+00
    0.11923E-08        -0.19407E-10         0.00000E+00
    0.11913E-08        -0.20087E-10         0.00000E+00
    0.11903E-08        -0.19903E-10         0.00000E+00
    0.11893E-08        -0.18953E-10         0.00000E+00
    0.11884E-08        -0.17342E-10         0.00000E+00
    0.11876E-08        -0.15176E-10         0.00000E+00
    0.11869E-08        -0.12571E-10         0.00000E+00
    0.11863E-08        -0.96435E-11         0.00000E+00
    0.11859E-08        -0.65135E-11         0.00000E+00
    0.11857E-08        -0.33040E-11         0.00000E+00
    0.11856E-08        -0.16948E-11         0.00000E+00
    0.13156E-08        -0.32640E-11         0.00000E+00
    0.13154E-08        -0.59243E-11         0.00000E+00
    0.13148E-08        -0.10660E-10         0.00000E+00
    0.13140E-08        -0.14261E-10         0.00000E+00
    0.13130E-08        -0.16799E-10         0.00000E+00
    0.13119E-08        -0.18350E-10         0.00000E+00
    0.13107E-08        -0.18996E-10         0.00000E+00
    0.13095E-08        -0.18824E-10         0.00000E+00
    0.13084E-08        -0.17927E-10         0.00000E+00
    0.13073E-08        -0.16402E-10         0.00000E+00
    0.13063E-08        -0.14354E-10         0.00000E+00
    0.13055E-08        -0.11889E-10         0.00000E+00
    0.13049E-08        -0.91190E-11         0.00000E+00
    0.13044E-08        -0.61587E-11         0.00000E+00
    0.13041E-08        -0.31243E-11         0.00000E+00
    0.13040E-08        -0.16031E-11         0.00000E+00
    0.14317E-08        -0.30379E-11         0.00000E+00
    0.14315E-08        -0.55160E-11         0.00000E+00
    0.14309E-08        -0.99293E-11         0.00000E+00
    0.14299E-08        -0.13289E-10         0.00000E+00
    0.14287E-08        -0.15659E-10         0.00000E+00
    0.14274E-08        -0.17111E-10         0.00000E+00
    0.14261E-08        -0.17718E-10         0.00000E+00
    0.14247E-08        -0.17562E-10         0.00000E+00
    0.14234E-08        -0.16728E-10         0.00000E+00
    0.14221E-08        -0.15306E-10         0.00000E+00
    0.14210E-08        -0.13394E-10         0.00000E+00
    0.14200E-08        -0.11093E-10         0.00000E+00
    0.14193E-08        -0.85072E-11         0.00000E+00
    0.14187E-08        -0.57447E-11         0.00000E+00
    0.14184E-08        -0.29147E-11         0.00000E+00
    0.14183E-08        -0.14966E-11         0.00000E+00
    0.15436E-08        -0.27748E-11         0.00000E+00
    0.15433E-08        -0.50411E-11         0.00000E+00
    0.15426E-08        -0.90799E-11         0.00000E+00
    0.15415E-08        -0.12159E-10         0.00000E+00
    0.15401E-08        -0.14337E-10         0.00000E+00
    0.15386E-08        -0.15675E-10         0.00000E+00
    0.15370E-08        -0.16239E-10         0.00000E+00
    0.15355E-08        -0.16102E-10         0.00000E+00
    0.15339E-08        -0.15342E-10         0.00000E+00
    0.15325E-08        -0.14041E-10         0.00000E+00
    0.15312E-08        -0.12288E-10         0.00000E+00
    0.15301E-08        -0.10176E-10         0.00000E+00
    0.15292E-08        -0.78022E-11         0.00000E+00
    0.15286E-08        -0.52676E-11         0.00000E+00
    0.15282E-08        -0.26735E-11         0.00000E+00
    0.15281E-08        -0.13743E-11         0.00000E+00
    0.16507E-08        -0.24716E-11         0.00000E+00
    0.16504E-08        -0.44940E-11         0.00000E+00
    0.16496E-08        -0.81022E-11         0.00000E+00
    0.16483E-08        -0.10861E-10         0.00000E+00
    0.16468E-08        -0.12818E-10         0.00000E+00
    0.16451E-08        -0.14027E-10         0.00000E+00
    0.16433E-08        -0.14544E-10         0.00000E+00
    0.16415E-08        -0.14432E-10         0.00000E+00
    0.16397E-08        -0.13758E-10         0.00000E+00
    0.16381E-08        -0.12596E-10         0.00000E+00
    0.16366E-08        -0.11025E-10         0.00000E+00
    0.16354E-08        -0.91304E-11         0.00000E+00
    0.16344E-08        -0.69995E-11         0.00000E+00
    0.16337E-08        -0.47246E-11         0.00000E+00
    0.16333E-08        -0.23992E-11         0.00000E+00
    0.16331E-08        -0.12357E-11         0.00000E+00
    0.17529E-08        -0.21257E-11         0.00000E+00
    0.17525E-08        -0.38705E-11         0.00000E+00
    0.17515E-08        -0.69886E-11         0.00000E+00
    0.17501E-08        -0.93826E-11         0.00000E+00
    0.17484E-08        -0.11091E-10         0.00000E+00
    0.17465E-08        -0.12155E-10         0.00000E+00
    0.17444E-08        -0.12621E-10         0.00000E+00
    0.17424E-08        -0.12540E-10         0.00000E+00
    0.17404E-08        -0.11967E-10         0.00000E+00
    0.17386E-08        -0.10965E-10         0.00000E+00
    0.17370E-08        -0.96032E-11         0.00000E+00
    0.17356E-08        -0.79541E-11         0.00000E+00
    0.17345E-08        -0.60971E-11         0.00000E+00
    0.17337E-08        -0.41146E-11         0.00000E+00
    0.17332E-08        -0.20914E-11         0.00000E+00
    0.17330E-08        -0.10804E-11         0.00000E+00
    0.18496E-08        -0.17356E-11         0.00000E+00
    0.18492E-08        -0.31677E-11         0.00000E+00
    0.18481E-08        -0.57344E-11         0.00000E+00
    0.18465E-08        -0.77194E-11         0.00000E+00
    0.18446E-08        -0.91495E-11         0.00000E+00
    0.18425E-08        -0.10054E-10         0.00000E+00
    0.18402E-08        -0.10466E-10         0.00000E+00
    0.18379E-08        -0.10422E-10         0.00000E+00
    0.18357E-08        -0.99661E-11         0.00000E+00
    0.18337E-08        -0.91468E-11         0.00000E+00
    0.18319E-08        -0.80198E-11         0.00000E+00
    0.18304E-08        -0.66471E-11         0.00000E+00
    0.18292E-08        -0.50960E-11         0.00000E+00
    0.18283E-08        -0.34388E-11         0.00000E+00
    0.18277E-08        -0.17509E-11         0.00000E+00
    0.18276E-08        -0.90897E-12         0.00000E+00
    0.19406E-08        -0.13013E-11         0.00000E+00
    0.19402E-08        -0.23856E-11         0.00000E+00
    0.19390E-08        -0.43395E-11         0.00000E+00
    0.19373E-08        -0.58707E-11         0.00000E+00
    0.19351E-08        -0.69933E-11         0.00000E+00
    0.19327E-08        -0.77229E-11         0.00000E+00
    0.19302E-08        -0.80777E-11         0.00000E+00
    0.19277E-08        -0.80800E-11         0.00000E+00
    0.19253E-08        -0.77574E-11         0.00000E+00
    0.19231E-08        -0.71440E-11         0.00000E+00
    0.19212E-08        -0.62807E-11         0.00000E+00
    0.19195E-08        -0.52151E-11         0.00000E+00
    0.19182E-08        -0.40019E-11         0.00000E+00
    0.19172E-08        -0.27016E-11         0.00000E+00
    0.19167E-08        -0.13801E-11         0.00000E+00
    0.19165E-08        -0.72252E-12         0.00000E+00
    0.20256E-08        -0.82466E-12         0.00000E+00
    0.20251E-08        -0.15277E-11         0.00000E+00
    0.20238E-08        -0.28098E-11         0.00000E+00
    0.20219E-08        -0.38443E-11         0.00000E+00
    0.20196E-08        -0.46314E-11         0.00000E+00
    0.20170E-08        -0.51715E-11         0.00000E+00
    0.20143E-08        -0.54673E-11         0.00000E+00
    0.20116E-08        -0.55243E-11         0.00000E+00
    0.20090E-08        -0.53530E-11         0.00000E+00
    0.20066E-08        -0.49699E-11         0.00000E+00
    0.20045E-08        -0.43986E-11         0.00000E+00
    0.20027E-08        -0.36708E-11         0.00000E+00
    0.20013E-08        -0.28259E-11         0.00000E+00
    0.20003E-08        -0.19115E-11         0.00000E+00
    0.19997E-08        -0.98330E-12         0.00000E+00
    0.19995E-08        -0.52318E-12         0.00000E+00
    0.21042E-08        -0.31005E-12         0.00000E+00
    0.21037E-08        -0.60174E-12         0.00000E+00
    0.21023E-08        -0.11594E-11         0.00000E+00
    0.21003E-08        -0.16586E-11         0.00000E+00
    0.20978E-08        -0.20844E-11         0.00000E+00
    0.20950E-08        -0.24221E-11         0.00000E+00
    0.20921E-08        -0.26575E-11         0.00000E+00
    0.20893E-08        -0.27783E-11         0.00000E+00
    0.20865E-08        -0.27761E-11         0.00000E+00
    0.20840E-08        -0.26475E-11         0.00000E+00
    0.20817E-08        -0.23964E-11         0.00000E+00
    0.20799E-08        -0.20351E-11         0.00000E+00
    0.20784E-08        -0.15858E-11         0.00000E+00
    0.20774E-08        -0.10816E-11         0.00000E+00
    0.20767E-08        -0.56741E-12         0.00000E+00
    0.20765E-08        -0.31421E-12         0.00000E+00
    0.21761E-08         0.23524E-12         0.00000E+00
    0.21756E-08         0.37886E-12         0.00000E+00
    0.21741E-08         0.58784E-12         0.00000E+00
    0.21720E-08         0.65528E-12         0.00000E+00
    0.21694E-08         0.61136E-12         0.00000E+00
    0.21665E-08         0.48677E-12         0.00000E+00
    0.21635E-08         0.31243E-12         0.00000E+00
    0.21605E-08         0.11885E-12         0.00000E+00
    0.21576E-08        -0.65062E-13         0.00000E+00
    0.21550E-08        -0.21394E-12         0.00000E+00
    0.21527E-08        -0.30860E-12         0.00000E+00
    0.21508E-08        -0.33899E-12         0.00000E+00
    0.21493E-08        -0.30726E-12         0.00000E+00
    0.21482E-08        -0.23031E-12         0.00000E+00
    0.21476E-08        -0.14187E-12         0.00000E+00
    0.21474E-08        -0.10010E-12         0.00000E+00
    0.22410E-08         0.80074E-12         0.00000E+00
    0.22405E-08         0.13948E-11         0.00000E+00
    0.22390E-08         0.23968E-11         0.00000E+00
    0.22368E-08         0.30499E-11         0.00000E+00
    0.22342E-08         0.34007E-11         0.00000E+00
    0.22312E-08         0.34956E-11         0.00000E+00
    0.22282E-08         0.33816E-11         0.00000E+00
    0.22251E-08         0.31073E-11         0.00000E+00
    0.22222E-08         0.27227E-11         0.00000E+00
    0.22195E-08         0.22772E-11         0.00000E+00
    0.22172E-08         0.18161E-11         0.00000E+00
    0.22153E-08         0.13753E-11         0.00000E+00
    0.22138E-08         0.97561E-12         0.00000E+00
    0.22128E-08         0.61827E-12         0.00000E+00
    0.22121E-08         0.28118E-12         0.00000E+00
    0.22119E-08         0.11338E-12         0.00000E+00
    0.22986E-08         0.13727E-11         0.00000E+00
    0.22981E-08         0.24201E-11         0.00000E+00
    0.22966E-08         0.42191E-11         0.00000E+00
    0.22945E-08         0.54593E-11         0.00000E+00
    0.22919E-08         0.62049E-11         0.00000E+00
    0.22889E-08         0.65180E-11         0.00000E+00
    0.22859E-08         0.64612E-11         0.00000E+00
    0.22829E-08         0.61001E-11         0.00000E+00
    0.22800E-08         0.55054E-11         0.00000E+00
    0.22775E-08         0.47519E-11         0.00000E+00
    0.22752E-08         0.39131E-11         0.00000E+00
    0.22734E-08         0.30537E-11         0.00000E+00
    0.22720E-08         0.22205E-11         0.00000E+00
    0.22710E-08         0.14348E-11         0.00000E+00
    0.22704E-08         0.68702E-12         0.00000E+00
    0.22702E-08         0.31928E-12         0.00000E+00
    0.23486E-08         0.19339E-11         0.00000E+00
    0.23481E-08         0.34216E-11         0.00000E+00
    0.23467E-08         0.59920E-11         0.00000E+00
    0.23446E-08         0.77959E-11         0.00000E+00
    0.23422E-08         0.89173E-11         0.00000E+00
    0.23395E-08         0.94352E-11         0.00000E+00
    0.23366E-08         0.94275E-11         0.00000E+00
    0.23338E-08         0.89761E-11         0.00000E+00
    0.23311E-08         0.81713E-11         0.00000E+00
    0.23287E-08         0.71121E-11         0.00000E+00
    0.23267E-08         0.59001E-11         0.00000E+00
    0.23250E-08         0.46302E-11         0.00000E+00
    0.23237E-08         0.33772E-11         0.00000E+00
    0.23228E-08         0.21854E-11         0.00000E+00
    0.23223E-08         0.10588E-11         0.00000E+00
    0.23221E-08         0.50968E-12         0.00000E+00
    0.23907E-08         0.24637E-11         0.00000E+00
    0.23902E-08         0.43587E-11         0.00000E+00
    0.23889E-08         0.76366E-11         0.00000E+00
    0.23871E-08         0.99471E-11         0.00000E+00
    0.23849E-08         0.11398E-10         0.00000E+00
    0.23826E-08         0.12089E-10         0.00000E+00
    0.23801E-08         0.12114E-10         0.00000E+00
    0.23777E-08         0.11572E-10         0.00000E+00
    0.23754E-08         0.10572E-10         0.00000E+00
    0.23733E-08         0.92314E-11         0.00000E+00
    0.23716E-08         0.76758E-11         0.00000E+00
    0.23701E-08         0.60271E-11         0.00000E+00
    0.23690E-08         0.43895E-11         0.00000E+00
    0.23683E-08         0.28327E-11         0.00000E+00
    0.23679E-08         0.13783E-11         0.00000E+00
    0.23677E-08         0.67606E-12         0.00000E+00
    0.24245E-08         0.29369E-11         0.00000E+00
    0.24241E-08         0.51811E-11         0.00000E+00
    0.24230E-08         0.90541E-11         0.00000E+00
    0.24216E-08         0.11770E-10         0.00000E+00
    0.24199E-08         0.13469E-10         0.00000E+00
    0.24181E-08         0.14274E-10         0.00000E+00
    0.24163E-08         0.14305E-10         0.00000E+00
    0.24145E-08         0.13678E-10         0.00000E+00
    0.24128E-08         0.12517E-10         0.00000E+00
    0.24113E-08         0.10951E-10         0.00000E+00
    0.24100E-08         0.91172E-11         0.00000E+00
    0.24089E-08         0.71552E-11         0.00000E+00
    0.24081E-08         0.51953E-11         0.00000E+00
    0.24075E-08         0.33372E-11         0.00000E+00
    0.24072E-08         0.16265E-11         0.00000E+00
    0.24071E-08         0.80973E-12         0.00000E+00
    0.24498E-08         0.33224E-11         0.00000E+00
    0.24495E-08         0.58254E-11         0.00000E+00
    0.24488E-08         0.10119E-10         0.00000E+00
    0.24479E-08         0.13084E-10         0.00000E+00
    0.24469E-08         0.14902E-10         0.00000E+00
    0.24459E-08         0.15735E-10         0.00000E+00
    0.24450E-08         0.15733E-10         0.00000E+00
    0.24441E-08         0.15034E-10         0.00000E+00
    0.24433E-08         0.13773E-10         0.00000E+00
    0.24426E-08         0.12076E-10         0.00000E+00
    0.24419E-08         0.10075E-10         0.00000E+00
    0.24413E-08         0.79100E-11         0.00000E+00
    0.24409E-08         0.57270E-11         0.00000E+00
    0.24406E-08         0.36582E-11         0.00000E+00
    0.24405E-08         0.17847E-11         0.00000E+00
    0.24404E-08         0.90252E-12         0.00000E+00
    0.24662E-08         0.35793E-11         0.00000E+00
    0.24660E-08         0.62074E-11         0.00000E+00
    0.24658E-08         0.10663E-10         0.00000E+00
    0.24657E-08         0.13648E-10         0.00000E+00
    0.24657E-08         0.15410E-10         0.00000E+00
    0.24659E-08         0.16160E-10         0.00000E+00
    0.24663E-08         0.16086E-10         0.00000E+00
    0.24666E-08         0.15345E-10         0.00000E+00
    0.24670E-08         0.14070E-10         0.00000E+00
    0.24673E-08         0.12374E-10         0.00000E+00
    0.24675E-08         0.10365E-10         0.00000E+00
    0.24676E-08         0.81625E-11         0.00000E+00
    0.24677E-08         0.59062E-11         0.00000E+00
    0.24677E-08         0.37536E-11         0.00000E+00
    0.24678E-08         0.18355E-11         0.00000E+00
    0.24677E-08         0.94772E-12         0.00000E+00
    0.24732E-08         0.36481E-11         0.00000E+00
    0.24733E-08         0.62031E-11         0.00000E+00
    0.24738E-08         0.10446E-10         0.00000E+00
    0.24748E-08         0.13140E-10         0.00000E+00
    0.24763E-08         0.14629E-10         0.00000E+00
    0.24781E-08         0.15186E-10         0.00000E+00
    0.24801E-08         0.15022E-10         0.00000E+00
    0.24820E-08         0.14292E-10         0.00000E+00
    0.24838E-08         0.13115E-10         0.00000E+00
    0.24855E-08         0.11580E-10         0.00000E+00
    0.24868E-08         0.97619E-11         0.00000E+00
    0.24878E-08         0.77417E-11         0.00000E+00
    0.24885E-08         0.56272E-11         0.00000E+00
    0.24890E-08         0.35733E-11         0.00000E+00
    0.24893E-08         0.17631E-11         0.00000E+00
    0.24893E-08         0.94253E-12         0.00000E+00
    0.24703E-08         0.34220E-11         0.00000E+00
    0.24708E-08         0.56027E-11         0.00000E+00
    0.24725E-08         0.90861E-11         0.00000E+00
    0.24753E-08         0.11105E-10         0.00000E+00
    0.24787E-08         0.12122E-10         0.00000E+00
    0.24825E-08         0.12422E-10         0.00000E+00
    0.24864E-08         0.12194E-10         0.00000E+00
    0.24902E-08         0.11565E-10         0.00000E+00
    0.24938E-08         0.10619E-10         0.00000E+00
    0.24970E-08         0.94167E-11         0.00000E+00
    0.24998E-08         0.80032E-11         0.00000E+00
    0.25020E-08         0.64194E-11         0.00000E+00
    0.25036E-08         0.47221E-11         0.00000E+00
    0.25047E-08         0.30338E-11         0.00000E+00
    0.25053E-08         0.15494E-11         0.00000E+00
    0.25053E-08         0.88523E-12         0.00000E+00
    0.24563E-08         0.27098E-11         0.00000E+00
    0.24581E-08         0.39741E-11         0.00000E+00
    0.24619E-08         0.59247E-11         0.00000E+00
    0.24671E-08         0.69489E-11         0.00000E+00
    0.24730E-08         0.74019E-11         0.00000E+00
    0.24792E-08         0.74763E-11         0.00000E+00
    0.24855E-08         0.72798E-11         0.00000E+00
    0.24914E-08         0.68793E-11         0.00000E+00
    0.24970E-08         0.63184E-11         0.00000E+00
    0.25020E-08         0.56264E-11         0.00000E+00
    0.25064E-08         0.48232E-11         0.00000E+00
    0.25100E-08         0.39235E-11         0.00000E+00
    0.25128E-08         0.29441E-11         0.00000E+00
    0.25148E-08         0.19302E-11         0.00000E+00
    0.25159E-08         0.11435E-11         0.00000E+00
    0.25163E-08         0.86370E-12         0.00000E+00
    0.24464E-08         0.00000E+00         0.00000E+00
    0.24491E-08         0.00000E+00         0.00000E+00
    0.24543E-08         0.00000E+00         0.00000E+00
    0.24609E-08         0.00000E+00         0.00000E+00
    0.24682E-08         0.33144E-21         0.00000E+00
    0.24757E-08         0.00000E+00         0.00000E+00
    0.24831E-08         0.00000E+00         0.00000E+00
    0.24903E-08         0.00000E+00         0.00000E+00
    0.24969E-08         0.00000E+00         0.00000E+00
    0.25029E-08         0.00000E+00         0.00000E+00
    0.25082E-08         0.33144E-21         0.00000E+00
    0.25125E-08        -0.33144E-21         0.00000E+00
    0.25160E-08        -0.33144E-21         0.00000E+00
    0.25184E-08         0.33144E-21         0.00000E+00
    0.25199E-08         0.66288E-21         0.00000E+00
    0.25207E-08         0.00000E+00         0.00000E+00
CELL_DATA        450
TENSORS stressef double 
   -0.20202E+08         0.15123E+03         0.00000E+00
    0.15123E+03        -0.49913E+08         0.00000E+00
    0.00000E+00         0.00000E+00        -0.19921E+08
 
   -0.20177E+08         0.43698E+03         0.00000E+00
    0.43698E+03        -0.49913E+08         0.00000E+00
    0.00000E+00         0.00000E+00        -0.19945E+08
 
   -0.20154E+08         0.70134E+03         0.00000E+00
    0.70134E+03        -0.49912E+08         0.00000E+00
    0.00000E+00         0.00000E+00        -0.19966E+08
 
   -0.20133E+08         0.94530E+03         0.00000E+00
    0.94530E+03        -0.49910E+08         0.00000E+00
    0.00000E+00         0.00000E+00        -0.19985E+08
 
   -0.20113E+08         0.11699E+04         0.00000E+00
    0.11699E+04        -0.49908E+08         0.00000E+00
    0.00000E+00         0.00000E+00        -0.20001E+08
 
   -0.20096E+08         0.13761E+04         0.00000E+00
    0.13761E+04        -0.49906E+08         0.00000E+00
    0.00000E+00         0.00000E+00        -0.20015E+08
 
   -0.20081E+08         0.15654E+04         0.00000E+00
    0.15654E+04        -0.49903E+08         0.00000E+00
    0.00000E+00         0.00000E+00        -0.20026E+08
 
   -0.20068E+08         0.17385E+04         0.00000E+00
    0.17385E+04        -0.49899E+08         0.00000E+00
    0.00000E+00         0.00000E+00        -0.20035E+08
 
   -0.20057E+08         0.18965E+04         0.00000E+00
    0.18965E+04        -0.49896E+08         0.00000E+00
    0.00000E+00         0.00000E+00        -0.20041E+08
 
   -0.20047E+08         0.20407E+04         0.00000E+00
    0.20407E+04        -0.49892E+08         0.00000E+00
    0.00000E+00         0.00000E+00        -0.20046E+08
 
   -0.20040E+08         0.21725E+04         0.00000E+00
    0.21725E+04        -0.49888E+08         0.00000E+00
    0.00000E+00         0.00000E+00        -0.20048E+08
 
   -0.20034E+08         0.22933E+04         0.00000E+00
    0.22933E+04        -0.49883E+08         0.00000E+00
    0.00000E+00         0.00000E+00        -0.20047E+08
 
   -0.20031E+08         0.24048E+04         0.00000E+00
    0.24048E+04        -0.49879E+08         0.00000E+00
    0.00000E+00         0.00000E+00        -0.20045E+08
 
   -0.20029E+08         0.25087E+04         0.00000E+00
    0.25087E+04        -0.49874E+08         0.00000E+00
    0.00000E+00         0.00000E+00        -0.20040E+08
 
   -0.20029E+08         0.26071E+04         0.00000E+00
    0.26071E+04        -0.49869E+08         0.00000E+00
    0.00000E+00         0.00000E+00        -0.20033E+08
 
   -0.20201E+08         0.45734E+03         0.00000E+00
    0.45734E+03        -0.49914E+08         0.00000E+00
    0.00000E+00         0.00000E+00        -0.19922E+08
 
   -0.20176E+08         0.13204E+04         0.00000E+00
    0.13204E+04        -0.49913E+08         0.00000E+00
    0.00000E+00         0.00000E+00        -0.19946E+08
 
   -0.20153E+08         0.21175E+04         0.00000E+00
    0.21175E+04        -0.49912E+08         0.00000E+00
    0.00000E+00         0.00000E+00        -0.19967E+08
 
   -0.20132E+08         0.28519E+04         0.00000E+00
    0.28519E+04        -0.49910E+08         0.00000E+00
    0.00000E+00         0.00000E+00        -0.19985E+08
 
   -0.20113E+08         0.35266E+04         0.00000E+00
    0.35266E+04        -0.49908E+08         0.00000E+00
    0.00000E+00         0.00000E+00        -0.20002E+08
 
   -0.20096E+08         0.41450E+04         0.00000E+00
    0.41450E+04        -0.49906E+08         0.00000E+00
    0.00000E+00         0.00000E+00        -0.20015E+08
 
   -0.20081E+08         0.47112E+04         0.00000E+00
    0.47112E+04        -0.49903E+08         0.00000E+00
    0.00000E+00         0.00000E+00        -0.20026E+08
 
   -0.20068E+08         0.52280E+04         0.00000E+00
    0.52280E+04        -0.49899E+08         0.00000E+00
    0.00000E+00         0.00000E+00        -0.20035E+08
 
   -0.20057E+08         0.56989E+04         0.00000E+00
    0.56989E+04        -0.49896E+08         0.00000E+00
    0.00000E+00         0.00000E+00        -0.20042E+08
 
   -0.20047E+08         0.61279E+04         0.00000E+00
    0.61279E+04        -0.49892E+08         0.00000E+00
    0.00000E+00         0.00000E+00        -0.20046E+08
 
   -0.20040E+08         0.65191E+04         0.00000E+00
    0.65191E+04        -0.49888E+08         0.00000E+00
    0.00000E+00         0.00000E+00        -0.20048E+08
 
   -0.20034E+08         0.68772E+04         0.00000E+00
    0.68772E+04        -0.49883E+08         0.00000E+00
    0.00000E+00         0.00000E+00        -0.20047E+08
 
   -0.20031E+08         0.72072E+04         0.00000E+00
    0.72072E+04        -0.49879E+08         0.00000E+00
    0.00000E+00         0.00000E+00        -0.20045E+08
 
   -0.20029E+08         0.75146E+04         0.00000E+00
    0.75146E+04        -0.49874E+08         0.00000E+00
    0.00000E+00         0.00000E+00        -0.20040E+08
 
   -0.20029E+08         0.78055E+04         0.00000E+00
    0.78055E+04        -0.49869E+08         0.00000E+00
    0.00000E+00         0.00000E+00        -0.20033E+08
 
   -0.20201E+08         0.77437E+03         0.00000E+00
    0.77437E+03        -0.49914E+08         0.00000E+00
    0.00000E+00         0.00000E+00        -0.19923E+08
 
   -0.20176E+08         0.22320E+04         0.00000E+00
    0.22320E+04        -0.49914E+08         0.00000E+00
    0.00000E+00         0.00000E+00        -0.19947E+08
 
   -0.20153E+08         0.35740E+04         0.00000E+00
    0.35740E+04        -0.49912E+08         0.00000E+00
    0.00000E+00         0.00000E+00        -0.19968E+08
 
   -0.20132E+08         0.48059E+04         0.00000E+00
    0.48059E+04        -0.49911E+08         0.00000E+00
    0.00000E+00         0.00000E+00        -0.19986E+08
 
   -0.20113E+08         0.59336E+04         0.00000E+00
    0.59336E+04        -0.49908E+08         0.00000E+00
    0.00000E+00         0.00000E+00        -0.20002E+08
 
   -0.20096E+08         0.69631E+04         0.00000E+00
    0.69631E+04        -0.49906E+08         0.00000E+00
    0.00000E+00         0.00000E+00        -0.20016E+08
 
   -0.20081E+08         0.79016E+04         0.00000E+00
    0.79016E+04        -0.49903E+08         0.00000E+00
    0.00000E+00         0.00000E+00        -0.20027E+08
 
   -0.20068E+08         0.87550E+04         0.00000E+00
    0.87550E+04        -0.49900E+08         0.00000E+00
    0.00000E+00         0.00000E+00        -0.20035E+08
 
   -0.20057E+08         0.95293E+04         0.00000E+00
    0.95293E+04        -0.49896E+08         0.00000E+00
    0.00000E+00         0.00000E+00        -0.20042E+08
 
   -0.20047E+08         0.10232E+05         0.00000E+00
    0.10232E+05        -0.49892E+08         0.00000E+00
    0.00000E+00         0.00000E+00        -0.20046E+08
 
   -0.20040E+08         0.10870E+05         0.00000E+00
    0.10870E+05        -0.49888E+08         0.00000E+00
    0.00000E+00         0.00000E+00        -0.20048E+08
 
   -0.20035E+08         0.11453E+05         0.00000E+00
    0.11453E+05        -0.49883E+08         0.00000E+00
    0.00000E+00         0.00000E+00        -0.20047E+08
 
   -0.20031E+08         0.11988E+05         0.00000E+00
    0.11988E+05        -0.49879E+08         0.00000E+00
    0.00000E+00         0.00000E+00        -0.20045E+08
 
   -0.20029E+08         0.12485E+05         0.00000E+00
    0.12485E+05        -0.49874E+08         0.00000E+00
    0.00000E+00         0.00000E+00        -0.20040E+08
 
   -0.20029E+08         0.12956E+05         0.00000E+00
    0.12956E+05        -0.49869E+08         0.00000E+00
    0.00000E+00         0.00000E+00        -0.20034E+08
 
   -0.20200E+08         0.11094E+04         0.00000E+00
    0.11094E+04        -0.49915E+08         0.00000E+00
    0.00000E+00         0.00000E+00        -0.19925E+08
 
   -0.20175E+08         0.31902E+04         0.00000E+00
    0.31902E+04        -0.49914E+08         0.00000E+00
    0.00000E+00         0.00000E+00        -0.19949E+08
 
   -0.20152E+08         0.50968E+04         0.00000E+00
    0.50968E+04        -0.49913E+08         0.00000E+00
    0.00000E+00         0.00000E+00        -0.19969E+08
 
   -0.20131E+08         0.68380E+04         0.00000E+00
    0.68380E+04        -0.49911E+08         0.00000E+00
    0.00000E+00         0.00000E+00        -0.19988E+08
 
   -0.20112E+08         0.84231E+04         0.00000E+00
    0.84231E+04        -0.49909E+08         0.00000E+00
    0.00000E+00         0.00000E+00        -0.20003E+08
 
   -0.20095E+08         0.98616E+04         0.00000E+00
    0.98616E+04        -0.49906E+08         0.00000E+00
    0.00000E+00         0.00000E+00        -0.20017E+08
 
   -0.20080E+08         0.11165E+05         0.00000E+00
    0.11165E+05        -0.49903E+08         0.00000E+00
    0.00000E+00         0.00000E+00        -0.20027E+08
 
   -0.20067E+08         0.12343E+05         0.00000E+00
    0.12343E+05        -0.49900E+08         0.00000E+00
    0.00000E+00         0.00000E+00        -0.20036E+08
 
   -0.20056E+08         0.13405E+05         0.00000E+00
    0.13405E+05        -0.49896E+08         0.00000E+00
    0.00000E+00         0.00000E+00        -0.20042E+08
 
   -0.20047E+08         0.14362E+05         0.00000E+00
    0.14362E+05        -0.49892E+08         0.00000E+00
    0.00000E+00         0.00000E+00        -0.20046E+08
 
   -0.20040E+08         0.15227E+05         0.00000E+00
    0.15227E+05        -0.49888E+08         0.00000E+00
    0.00000E+00         0.00000E+00        -0.20048E+08
 
   -0.20035E+08         0.16012E+05         0.00000E+00
    0.16012E+05        -0.49883E+08         0.00000E+00
    0.00000E+00         0.00000E+00        -0.20047E+08
 
   -0.20031E+08         0.16731E+05         0.00000E+00
    0.16731E+05        -0.49879E+08         0.00000E+00
    0.00000E+00         0.00000E+00        -0.20045E+08
 
   -0.20029E+08         0.17396E+05         0.00000E+00
    0.17396E+05        -0.49874E+08         0.00000E+00
    0.00000E+00         0.00000E+00        -0.20040E+08
 
   -0.20029E+08         0.18024E+05         0.00000E+00
    0.18024E+05        -0.49869E+08         0.00000E+00
    0.00000E+00         0.00000E+00        -0.20034E+08
 
   -0.20198E+08         0.14693E+04         0.00000E+00
    0.14693E+04        -0.49916E+08         0.00000E+00
    0.00000E+00         0.00000E+00        -0.19928E+08
 
   -0.20173E+08         0.42122E+04         0.00000E+00
    0.42122E+04        -0.49915E+08         0.00000E+00
    0.00000E+00         0.00000E+00        -0.19951E+08
 
   -0.20151E+08         0.67105E+04         0.00000E+00
    0.67105E+04        -0.49914E+08         0.00000E+00
    0.00000E+00         0.00000E+00        -0.19972E+08
 
   -0.20130E+08         0.89770E+04         0.00000E+00
    0.89770E+04        -0.49912E+08         0.00000E+00
    0.00000E+00         0.00000E+00        -0.19990E+08
 
   -0.20112E+08         0.11025E+05         0.00000E+00
    0.11025E+05        -0.49909E+08         0.00000E+00
    0.00000E+00         0.00000E+00        -0.20005E+08
 
   -0.20095E+08         0.12870E+05         0.00000E+00
    0.12870E+05        -0.49907E+08         0.00000E+00
    0.00000E+00         0.00000E+00        -0.20018E+08
 
   -0.20080E+08         0.14527E+05         0.00000E+00
    0.14527E+05        -0.49903E+08         0.00000E+00
    0.00000E+00         0.00000E+00        -0.20028E+08
 
   -0.20067E+08         0.16012E+05         0.00000E+00
    0.16012E+05        -0.49900E+08         0.00000E+00
    0.00000E+00         0.00000E+00        -0.20036E+08
 
   -0.20056E+08         0.17339E+05         0.00000E+00
    0.17339E+05        -0.49896E+08         0.00000E+00
    0.00000E+00         0.00000E+00        -0.20042E+08
 
   -0.20047E+08         0.18526E+05         0.00000E+00
    0.18526E+05        -0.49892E+08         0.00000E+00
    0.00000E+00         0.00000E+00        -0.20046E+08
 
   -0.20040E+08         0.19589E+05         0.00000E+00
    0.19589E+05        -0.49888E+08         0.00000E+00
    0.00000E+00         0.00000E+00        -0.20048E+08
 
   -0.20035E+08         0.20547E+05         0.00000E+00
    0.20547E+05        -0.49883E+08         0.00000E+00
    0.00000E+00         0.00000E+00        -0.20047E+08
 
   -0.20031E+08         0.21417E+05         0.00000E+00
    0.21417E+05        -0.49879E+08         0.00000E+00
    0.00000E+00         0.00000E+00        -0.20045E+08
 
   -0.20030E+08         0.22219E+05         0.00000E+00
    0.22219E+05        -0.49874E+08         0.00000E+00
    0.00000E+00         0.00000E+00        -0.20040E+08
 
   -0.20030E+08         0.22974E+05         0.00000E+00
    0.22974E+05        -0.49869E+08         0.00000E+00
    0.00000E+00         0.00000E+00        -0.20034E+08
 
   -0.20196E+08         0.18602E+04         0.00000E+00
    0.18602E+04        -0.49917E+08         0.00000E+00
    0.00000E+00         0.00000E+00        -0.19932E+08
 
   -0.20172E+08         0.53143E+04         0.00000E+00
    0.53143E+04        -0.49916E+08         0.00000E+00
    0.00000E+00         0.00000E+00        -0.19954E+08
 
   -0.20149E+08         0.84379E+04         0.00000E+00
    0.84379E+04        -0.49915E+08         0.00000E+00
    0.00000E+00         0.00000E+00        -0.19974E+08
 
   -0.20129E+08         0.11249E+05         0.00000E+00
    0.11249E+05        -0.49913E+08         0.00000E+00
    0.00000E+00         0.00000E+00        -0.19992E+08
 
   -0.20111E+08         0.13767E+05         0.00000E+00
    0.13767E+05        -0.49910E+08         0.00000E+00
    0.00000E+00         0.00000E+00        -0.20007E+08
 
   -0.20094E+08         0.16013E+05         0.00000E+00
    0.16013E+05        -0.49907E+08         0.00000E+00
    0.00000E+00         0.00000E+00        -0.20019E+08
 
   -0.20079E+08         0.18010E+05         0.00000E+00
    0.18010E+05        -0.49904E+08         0.00000E+00
    0.00000E+00         0.00000E+00        -0.20029E+08
 
   -0.20067E+08         0.19780E+05         0.00000E+00
    0.19780E+05        -0.49900E+08         0.00000E+00
    0.00000E+00         0.00000E+00        -0.20037E+08
 
   -0.20056E+08         0.21345E+05         0.00000E+00
    0.21345E+05        -0.49896E+08         0.00000E+00
    0.00000E+00         0.00000E+00        -0.20043E+08
 
   -0.20047E+08         0.22727E+05         0.00000E+00
    0.22727E+05        -0.49892E+08         0.00000E+00
    0.00000E+00         0.00000E+00        -0.20046E+08
 
   -0.20040E+08         0.23952E+05         0.00000E+00
    0.23952E+05        -0.49888E+08         0.00000E+00
    0.00000E+00         0.00000E+00        -0.20048E+08
 
   -0.20035E+08         0.25043E+05         0.00000E+00
    0.25043E+05        -0.49884E+08         0.00000E+00
    0.00000E+00         0.00000E+00        -0.20047E+08
 
   -0.20032E+08         0.26024E+05         0.00000E+00
    0.26024E+05        -0.49879E+08         0.00000E+00
    0.00000E+00         0.00000E+00        -0.20045E+08
 
   -0.20030E+08         0.26922E+05         0.00000E+00
    0.26922E+05        -0.49875E+08         0.00000E+00
    0.00000E+00         0.00000E+00        -0.20040E+08
 
   -0.20030E+08         0.27766E+05         0.00000E+00
    0.27766E+05        -0.49870E+08         0.00000E+00
    0.00000E+00         0.00000E+00        -0.20034E+08
 
   -0.20193E+08         0.22879E+04         0.00000E+00
    0.22879E+04        -0.49918E+08         0.00000E+00
    0.00000E+00         0.00000E+00        -0.19936E+08
 
   -0.20169E+08         0.65107E+04         0.00000E+00
    0.65107E+04        -0.49918E+08         0.00000E+00
    0.00000E+00         0.00000E+00        -0.19958E+08
 
   -0.20148E+08         0.10299E+05         0.00000E+00
    0.10299E+05        -0.49916E+08         0.00000E+00
    0.00000E+00         0.00000E+00        -0.19978E+08
 
   -0.20127E+08         0.13677E+05         0.00000E+00
    0.13677E+05        -0.49914E+08         0.00000E+00
    0.00000E+00         0.00000E+00        -0.19995E+08
 
   -0.20109E+08         0.16673E+05         0.00000E+00
    0.16673E+05        -0.49911E+08         0.00000E+00
    0.00000E+00         0.00000E+00        -0.20009E+08
 
   -0.20093E+08         0.19314E+05         0.00000E+00
    0.19314E+05        -0.49908E+08         0.00000E+00
    0.00000E+00         0.00000E+00        -0.20021E+08
 
   -0.20079E+08         0.21633E+05         0.00000E+00
    0.21633E+05        -0.49904E+08         0.00000E+00
    0.00000E+00         0.00000E+00        -0.20031E+08
 
   -0.20066E+08         0.23660E+05         0.00000E+00
    0.23660E+05        -0.49901E+08         0.00000E+00
    0.00000E+00         0.00000E+00        -0.20038E+08
 
   -0.20056E+08         0.25428E+05         0.00000E+00
    0.25428E+05        -0.49897E+08         0.00000E+00
    0.00000E+00         0.00000E+00        -0.20043E+08
 
   -0.20047E+08         0.26966E+05         0.00000E+00
    0.26966E+05        -0.49892E+08         0.00000E+00
    0.00000E+00         0.00000E+00        -0.20047E+08
 
   -0.20040E+08         0.28307E+05         0.00000E+00
    0.28307E+05        -0.49888E+08         0.00000E+00
    0.00000E+00         0.00000E+00        -0.20048E+08
 
   -0.20035E+08         0.29483E+05         0.00000E+00
    0.29483E+05        -0.49884E+08         0.00000E+00
    0.00000E+00         0.00000E+00        -0.20047E+08
 
   -0.20032E+08         0.30526E+05         0.00000E+00
    0.30526E+05        -0.49879E+08         0.00000E+00
    0.00000E+00         0.00000E+00        -0.20045E+08
 
   -0.20030E+08         0.31471E+05         0.00000E+00
    0.31471E+05        -0.49875E+08         0.00000E+00
    0.00000E+00         0.00000E+00        -0.20041E+08
 
   -0.20031E+08         0.32354E+05         0.00000E+00
    0.32354E+05        -0.49871E+08         0.00000E+00
    0.00000E+00         0.00000E+00        -0.20035E+08
 
   -0.20190E+08         0.27570E+04         0.00000E+00
    0.27570E+04        -0.49920E+08         0.00000E+00
    0.00000E+00         0.00000E+00        -0.19941E+08
 
   -0.20167E+08         0.78129E+04         0.00000E+00
    0.78129E+04        -0.49919E+08         0.00000E+00
    0.00000E+00         0.00000E+00        -0.19963E+08
 
   -0.20145E+08         0.12309E+05         0.00000E+00
    0.12309E+05        -0.49917E+08         0.00000E+00
    0.00000E+00         0.00000E+00        -0.19982E+08
 
   -0.20126E+08         0.16279E+05         0.00000E+00
    0.16279E+05        -0.49915E+08         0.00000E+00
    0.00000E+00         0.00000E+00        -0.19998E+08
 
   -0.20108E+08         0.19760E+05         0.00000E+00
    0.19760E+05        -0.49912E+08         0.00000E+00
    0.00000E+00         0.00000E+00        -0.20012E+08
 
   -0.20092E+08         0.22789E+05         0.00000E+00
    0.22789E+05        -0.49909E+08         0.00000E+00
    0.00000E+00         0.00000E+00        -0.20023E+08
 
   -0.20078E+08         0.25408E+05         0.00000E+00
    0.25408E+05        -0.49905E+08         0.00000E+00
    0.00000E+00         0.00000E+00        -0.20032E+08
 
   -0.20066E+08         0.27661E+05         0.00000E+00
    0.27661E+05        -0.49901E+08         0.00000E+00
    0.00000E+00         0.00000E+00        -0.20039E+08
 
   -0.20056E+08         0.29591E+05         0.00000E+00
    0.29591E+05        -0.49897E+08         0.00000E+00
    0.00000E+00         0.00000E+00        -0.20044E+08
 
   -0.20047E+08         0.31236E+05         0.00000E+00
    0.31236E+05        -0.49893E+08         0.00000E+00
    0.00000E+00         0.00000E+00        -0.20047E+08
 
   -0.20041E+08         0.32641E+05         0.00000E+00
    0.32641E+05        -0.49889E+08         0.00000E+00
    0.00000E+00         0.00000E+00        -0.20048E+08
 
   -0.20036E+08         0.33845E+05         0.00000E+00
    0.33845E+05        -0.49884E+08         0.00000E+00
    0.00000E+00         0.00000E+00        -0.20047E+08
 
   -0.20033E+08         0.34892E+05         0.00000E+00
    0.34892E+05        -0.49880E+08         0.00000E+00
    0.00000E+00         0.00000E+00        -0.20045E+08
 
   -0.20031E+08         0.35824E+05         0.00000E+00
    0.35824E+05        -0.49876E+08         0.00000E+00
    0.00000E+00         0.00000E+00        -0.20041E+08
 
   -0.20031E+08         0.36688E+05         0.00000E+00
    0.36688E+05        -0.49872E+08         0.00000E+00
    0.00000E+00         0.00000E+00        -0.20035E+08
 
   -0.20186E+08         0.32708E+04         0.00000E+00
    0.32708E+04        -0.49922E+08         0.00000E+00
    0.00000E+00         0.00000E+00        -0.19947E+08
 
   -0.20163E+08         0.92294E+04         0.00000E+00
    0.92294E+04        -0.49921E+08         0.00000E+00
    0.00000E+00         0.00000E+00        -0.19969E+08
 
   -0.20143E+08         0.14481E+05         0.00000E+00
    0.14481E+05        -0.49919E+08         0.00000E+00
    0.00000E+00         0.00000E+00        -0.19987E+08
 
   -0.20124E+08         0.19068E+05         0.00000E+00
    0.19068E+05        -0.49916E+08         0.00000E+00
    0.00000E+00         0.00000E+00        -0.20002E+08
 
   -0.20106E+08         0.23040E+05         0.00000E+00
    0.23040E+05        -0.49913E+08         0.00000E+00
    0.00000E+00         0.00000E+00        -0.20015E+08
 
   -0.20091E+08         0.26447E+05         0.00000E+00
    0.26447E+05        -0.49910E+08         0.00000E+00
    0.00000E+00         0.00000E+00        -0.20026E+08
 
   -0.20078E+08         0.29344E+05         0.00000E+00
    0.29344E+05        -0.49906E+08         0.00000E+00
    0.00000E+00         0.00000E+00        -0.20034E+08
 
   -0.20066E+08         0.31786E+05         0.00000E+00
    0.31786E+05        -0.49902E+08         0.00000E+00
    0.00000E+00         0.00000E+00        -0.20041E+08
 
   -0.20056E+08         0.33830E+05         0.00000E+00
    0.33830E+05        -0.49898E+08         0.00000E+00
    0.00000E+00         0.00000E+00        -0.20045E+08
 
   -0.20048E+08         0.35528E+05         0.00000E+00
    0.35528E+05        -0.49894E+08         0.00000E+00
    0.00000E+00         0.00000E+00        -0.20048E+08
 
   -0.20041E+08         0.36935E+05         0.00000E+00
    0.36935E+05        -0.49889E+08         0.00000E+00
    0.00000E+00         0.00000E+00        -0.20048E+08
 
   -0.20037E+08         0.38102E+05         0.00000E+00
    0.38102E+05        -0.49885E+08         0.00000E+00
    0.00000E+00         0.00000E+00        -0.20048E+08
 
   -0.20034E+08         0.39082E+05         0.00000E+00
    0.39082E+05        -0.49881E+08         0.00000E+00
    0.00000E+00         0.00000E+00        -0.20045E+08
 
   -0.20032E+08         0.39932E+05         0.00000E+00
    0.39932E+05        -0.49877E+08         0.00000E+00
    0.00000E+00         0.00000E+00        -0.20041E+08
 
   -0.20032E+08         0.40709E+05         0.00000E+00
    0.40709E+05        -0.49873E+08         0.00000E+00
    0.00000E+00         0.00000E+00        -0.20036E+08
 
   -0.20181E+08         0.38311E+04         0.00000E+00
    0.38311E+04        -0.49924E+08         0.00000E+00
    0.00000E+00         0.00000E+00        -0.19955E+08
 
   -0.20159E+08         0.10764E+05         0.00000E+00
    0.10764E+05        -0.49923E+08         0.00000E+00
    0.00000E+00         0.00000E+00        -0.19975E+08
 
   -0.20139E+08         0.16818E+05         0.00000E+00
    0.16818E+05        -0.49921E+08         0.00000E+00
    0.00000E+00         0.00000E+00        -0.19992E+08
 
   -0.20121E+08         0.22050E+05         0.00000E+00
    0.22050E+05        -0.49918E+08         0.00000E+00
    0.00000E+00         0.00000E+00        -0.20007E+08
 
   -0.20105E+08         0.26519E+05         0.00000E+00
    0.26519E+05        -0.49915E+08         0.00000E+00
    0.00000E+00         0.00000E+00        -0.20019E+08
 
   -0.20090E+08         0.30292E+05         0.00000E+00
    0.30292E+05        -0.49911E+08         0.00000E+00
    0.00000E+00         0.00000E+00        -0.20029E+08
 
   -0.20077E+08         0.33439E+05         0.00000E+00
    0.33439E+05        -0.49907E+08         0.00000E+00
    0.00000E+00         0.00000E+00        -0.20036E+08
 
   -0.20066E+08         0.36030E+05         0.00000E+00
    0.36030E+05        -0.49903E+08         0.00000E+00
    0.00000E+00         0.00000E+00        -0.20042E+08
 
   -0.20056E+08         0.38136E+05         0.00000E+00
    0.38136E+05        -0.49899E+08         0.00000E+00
    0.00000E+00         0.00000E+00        -0.20046E+08
 
   -0.20048E+08         0.39825E+05         0.00000E+00
    0.39825E+05        -0.49894E+08         0.00000E+00
    0.00000E+00         0.00000E+00        -0.20048E+08
 
   -0.20042E+08         0.41163E+05         0.00000E+00
    0.41163E+05        -0.49890E+08         0.00000E+00
    0.00000E+00         0.00000E+00        -0.20049E+08
 
   -0.20038E+08         0.42217E+05         0.00000E+00
    0.42217E+05        -0.49886E+08         0.00000E+00
    0.00000E+00         0.00000E+00        -0.20048E+08
 
   -0.20035E+08         0.43053E+05         0.00000E+00
    0.43053E+05        -0.49882E+08         0.00000E+00
    0.00000E+00         0.00000E+00        -0.20046E+08
 
   -0.20034E+08         0.43741E+05         0.00000E+00
    0.43741E+05        -0.49878E+08         0.00000E+00
    0.00000E+00         0.00000E+00        -0.20042E+08
 
   -0.20034E+08         0.44354E+05         0.00000E+00
    0.44354E+05        -0.49875E+08         0.00000E+00
    0.00000E+00         0.00000E+00        -0.20037E+08
 
   -0.20176E+08         0.44373E+04         0.00000E+00
    0.44373E+04        -0.49926E+08         0.00000E+00
    0.00000E+00         0.00000E+00        -0.19963E+08
 
   -0.20155E+08         0.12416E+05         0.00000E+00
    0.12416E+05        -0.49925E+08         0.00000E+00
    0.00000E+00         0.00000E+00        -0.19983E+08
 
   -0.20136E+08         0.19320E+05         0.00000E+00
    0.19320E+05        -0.49923E+08         0.00000E+00
    0.00000E+00         0.00000E+00        -0.19999E+08
 
   -0.20118E+08         0.25221E+05         0.00000E+00
    0.25221E+05        -0.49920E+08         0.00000E+00
    0.00000E+00         0.00000E+00        -0.20012E+08
 
   -0.20103E+08         0.30193E+05         0.00000E+00
    0.30193E+05        -0.49917E+08         0.00000E+00
    0.00000E+00         0.00000E+00        -0.20023E+08
 
   -0.20089E+08         0.34320E+05         0.00000E+00
    0.34320E+05        -0.49913E+08         0.00000E+00
    0.00000E+00         0.00000E+00        -0.20032E+08
 
   -0.20076E+08         0.37687E+05         0.00000E+00
    0.37687E+05        -0.49908E+08         0.00000E+00
    0.00000E+00         0.00000E+00        -0.20039E+08
 
   -0.20066E+08         0.40382E+05         0.00000E+00
    0.40382E+05        -0.49904E+08         0.00000E+00
    0.00000E+00         0.00000E+00        -0.20044E+08
 
   -0.20056E+08         0.42492E+05         0.00000E+00
    0.42492E+05        -0.49900E+08         0.00000E+00
    0.00000E+00         0.00000E+00        -0.20047E+08
 
   -0.20049E+08         0.44102E+05         0.00000E+00
    0.44102E+05        -0.49896E+08         0.00000E+00
    0.00000E+00         0.00000E+00        -0.20049E+08
 
   -0.20043E+08         0.45293E+05         0.00000E+00
    0.45293E+05        -0.49891E+08         0.00000E+00
    0.00000E+00         0.00000E+00        -0.20049E+08
 
   -0.20039E+08         0.46148E+05         0.00000E+00
    0.46148E+05        -0.49887E+08         0.00000E+00
    0.00000E+00         0.00000E+00        -0.20048E+08
 
   -0.20036E+08         0.46750E+05         0.00000E+00
    0.46750E+05        -0.49884E+08         0.00000E+00
    0.00000E+00         0.00000E+00        -0.20046E+08
 
   -0.20035E+08         0.47186E+05         0.00000E+00
    0.47186E+05        -0.49880E+08         0.00000E+00
    0.00000E+00         0.00000E+00        -0.20043E+08
 
   -0.20036E+08         0.47546E+05         0.00000E+00
    0.47546E+05        -0.49877E+08         0.00000E+00
    0.00000E+00         0.00000E+00        -0.20039E+08
 
   -0.20169E+08         0.50864E+04         0.00000E+00
    0.50864E+04        -0.49929E+08         0.00000E+00
    0.00000E+00         0.00000E+00        -0.19973E+08
 
   -0.20149E+08         0.14176E+05         0.00000E+00
    0.14176E+05        -0.49928E+08         0.00000E+00
    0.00000E+00         0.00000E+00        -0.19991E+08
 
   -0.20131E+08         0.21976E+05         0.00000E+00
    0.21976E+05        -0.49925E+08         0.00000E+00
    0.00000E+00         0.00000E+00        -0.20006E+08
 
   -0.20115E+08         0.28569E+05         0.00000E+00
    0.28569E+05        -0.49922E+08         0.00000E+00
    0.00000E+00         0.00000E+00        -0.20018E+08
 
   -0.20100E+08         0.34049E+05         0.00000E+00
    0.34049E+05        -0.49919E+08         0.00000E+00
    0.00000E+00         0.00000E+00        -0.20028E+08
 
   -0.20087E+08         0.38515E+05         0.00000E+00
    0.38515E+05        -0.49914E+08         0.00000E+00
    0.00000E+00         0.00000E+00        -0.20036E+08
 
   -0.20076E+08         0.42071E+05         0.00000E+00
    0.42071E+05        -0.49910E+08         0.00000E+00
    0.00000E+00         0.00000E+00        -0.20042E+08
 
   -0.20066E+08         0.44822E+05         0.00000E+00
    0.44822E+05        -0.49906E+08         0.00000E+00
    0.00000E+00         0.00000E+00        -0.20046E+08
 
   -0.20057E+08         0.46873E+05         0.00000E+00
    0.46873E+05        -0.49901E+08         0.00000E+00
    0.00000E+00         0.00000E+00        -0.20048E+08
 
   -0.20050E+08         0.48325E+05         0.00000E+00
    0.48325E+05        -0.49897E+08         0.00000E+00
    0.00000E+00         0.00000E+00        -0.20050E+08
 
   -0.20045E+08         0.49282E+05         0.00000E+00
    0.49282E+05        -0.49893E+08         0.00000E+00
    0.00000E+00         0.00000E+00        -0.20050E+08
 
   -0.20041E+08         0.49843E+05         0.00000E+00
    0.49843E+05        -0.49889E+08         0.00000E+00
    0.00000E+00         0.00000E+00        -0.20049E+08
 
   -0.20039E+08         0.50111E+05         0.00000E+00
    0.50111E+05        -0.49886E+08         0.00000E+00
    0.00000E+00         0.00000E+00        -0.20047E+08
 
   -0.20038E+08         0.50194E+05         0.00000E+00
    0.50194E+05        -0.49883E+08         0.00000E+00
    0.00000E+00         0.00000E+00        -0.20044E+08
 
   -0.20038E+08         0.50202E+05         0.00000E+00
    0.50202E+05        -0.49881E+08         0.00000E+00
    0.00000E+00         0.00000E+00        -0.20040E+08
 
   -0.20161E+08         0.57723E+04         0.00000E+00
    0.57723E+04        -0.49931E+08         0.00000E+00
    0.00000E+00         0.00000E+00        -0.19984E+08
 
   -0.20143E+08         0.16031E+05         0.00000E+00
    0.16031E+05        -0.49930E+08         0.00000E+00
    0.00000E+00         0.00000E+00        -0.20001E+08
 
   -0.20127E+08         0.24765E+05         0.00000E+00
    0.24765E+05        -0.49928E+08         0.00000E+00
    0.00000E+00         0.00000E+00        -0.20014E+08
 
   -0.20111E+08         0.32074E+05         0.00000E+00
    0.32074E+05        -0.49925E+08         0.00000E+00
    0.00000E+00         0.00000E+00        -0.20025E+08
 
   -0.20098E+08         0.38065E+05         0.00000E+00
    0.38065E+05        -0.49921E+08         0.00000E+00
    0.00000E+00         0.00000E+00        -0.20033E+08
 
   -0.20086E+08         0.42855E+05         0.00000E+00
    0.42855E+05        -0.49917E+08         0.00000E+00
    0.00000E+00         0.00000E+00        -0.20040E+08
 
   -0.20075E+08         0.46566E+05         0.00000E+00
    0.46566E+05        -0.49912E+08         0.00000E+00
    0.00000E+00         0.00000E+00        -0.20045E+08
 
   -0.20066E+08         0.49320E+05         0.00000E+00
    0.49320E+05        -0.49908E+08         0.00000E+00
    0.00000E+00         0.00000E+00        -0.20048E+08
 
   -0.20058E+08         0.51241E+05         0.00000E+00
    0.51241E+05        -0.49903E+08         0.00000E+00
    0.00000E+00         0.00000E+00        -0.20050E+08
 
   -0.20052E+08         0.52453E+05         0.00000E+00
    0.52453E+05        -0.49899E+08         0.00000E+00
    0.00000E+00         0.00000E+00        -0.20051E+08
 
   -0.20047E+08         0.53078E+05         0.00000E+00
    0.53078E+05        -0.49895E+08         0.00000E+00
    0.00000E+00         0.00000E+00        -0.20051E+08
 
   -0.20043E+08         0.53238E+05         0.00000E+00
    0.53238E+05        -0.49892E+08         0.00000E+00
    0.00000E+00         0.00000E+00        -0.20050E+08
 
   -0.20041E+08         0.53062E+05         0.00000E+00
    0.53062E+05        -0.49889E+08         0.00000E+00
    0.00000E+00         0.00000E+00        -0.20048E+08
 
   -0.20040E+08         0.52682E+05         0.00000E+00
    0.52682E+05        -0.49886E+08         0.00000E+00
    0.00000E+00         0.00000E+00        -0.20046E+08
 
   -0.20041E+08         0.52231E+05         0.00000E+00
    0.52231E+05        -0.49885E+08         0.00000E+00
    0.00000E+00         0.00000E+00        -0.20043E+08
 
   -0.20153E+08         0.64857E+04         0.00000E+00
    0.64857E+04        -0.49934E+08         0.00000E+00
    0.00000E+00         0.00000E+00        -0.19997E+08
 
   -0.20136E+08         0.17956E+05         0.00000E+00
    0.17956E+05        -0.49933E+08         0.00000E+00
    0.00000E+00         0.00000E+00        -0.20011E+08
 
   -0.20121E+08         0.27658E+05         0.00000E+00
    0.27658E+05        -0.49931E+08         0.00000E+00
    0.00000E+00         0.00000E+00        -0.20023E+08
 
   -0.20107E+08         0.35700E+05         0.00000E+00
    0.35700E+05        -0.49927E+08         0.00000E+00
    0.00000E+00         0.00000E+00        -0.20032E+08
 
   -0.20095E+08         0.42205E+05         0.00000E+00
    0.42205E+05        -0.49923E+08         0.00000E+00
    0.00000E+00         0.00000E+00        -0.20040E+08
 
   -0.20084E+08         0.47303E+05         0.00000E+00
    0.47303E+05        -0.49919E+08         0.00000E+00
    0.00000E+00         0.00000E+00        -0.20045E+08
 
   -0.20075E+08         0.51133E+05         0.00000E+00
    0.51133E+05        -0.49915E+08         0.00000E+00
    0.00000E+00         0.00000E+00        -0.20048E+08
 
   -0.20067E+08         0.53835E+05         0.00000E+00
    0.53835E+05        -0.49910E+08         0.00000E+00
    0.00000E+00         0.00000E+00        -0.20051E+08
 
   -0.20060E+08         0.55552E+05         0.00000E+00
    0.55552E+05        -0.49906E+08         0.00000E+00
    0.00000E+00         0.00000E+00        -0.20052E+08
 
   -0.20054E+08         0.56429E+05         0.00000E+00
    0.56429E+05        -0.49902E+08         0.00000E+00
    0.00000E+00         0.00000E+00        -0.20052E+08
 
   -0.20050E+08         0.56614E+05         0.00000E+00
    0.56614E+05        -0.49898E+08         0.00000E+00
    0.00000E+00         0.00000E+00        -0.20052E+08
 
   -0.20047E+08         0.56259E+05         0.00000E+00
    0.56259E+05        -0.49895E+08         0.00000E+00
    0.00000E+00         0.00000E+00        -0.20051E+08
 
   -0.20045E+08         0.55520E+05         0.00000E+00
    0.55520E+05        -0.49892E+08         0.00000E+00
    0.00000E+00         0.00000E+00        -0.20049E+08
 
   -0.20044E+08         0.54558E+05         0.00000E+00
    0.54558E+05        -0.49891E+08         0.00000E+00
    0.00000E+00         0.00000E+00        -0.20048E+08
 
   -0.20044E+08         0.53535E+05         0.00000E+00
    0.53535E+05        -0.49889E+08         0.00000E+00
    0.00000E+00         0.00000E+00        -0.20046E+08
 
   -0.20143E+08         0.72145E+04         0.00000E+00
    0.72145E+04        -0.49937E+08         0.00000E+00
    0.00000E+00         0.00000E+00        -0.20011E+08
 
   -0.20128E+08         0.19923E+05         0.00000E+00
    0.19923E+05        -0.49936E+08         0.00000E+00
    0.00000E+00         0.00000E+00        -0.20023E+08
 
   -0.20115E+08         0.30614E+05         0.00000E+00
    0.30614E+05        -0.49934E+08         0.00000E+00
    0.00000E+00         0.00000E+00        -0.20033E+08
 
   -0.20103E+08         0.39403E+05         0.00000E+00
    0.39403E+05        -0.49930E+08         0.00000E+00
    0.00000E+00         0.00000E+00        -0.20041E+08
 
   -0.20092E+08         0.46423E+05         0.00000E+00
    0.46423E+05        -0.49926E+08         0.00000E+00
    0.00000E+00         0.00000E+00        -0.20046E+08
 
   -0.20083E+08         0.51813E+05         0.00000E+00
    0.51813E+05        -0.49922E+08         0.00000E+00
    0.00000E+00         0.00000E+00        -0.20050E+08
 
   -0.20075E+08         0.55723E+05         0.00000E+00
    0.55723E+05        -0.49917E+08         0.00000E+00
    0.00000E+00         0.00000E+00        -0.20052E+08
 
   -0.20068E+08         0.58311E+05         0.00000E+00
    0.58311E+05        -0.49913E+08         0.00000E+00
    0.00000E+00         0.00000E+00        -0.20053E+08
 
   -0.20062E+08         0.59739E+05         0.00000E+00
    0.59739E+05        -0.49909E+08         0.00000E+00
    0.00000E+00         0.00000E+00        -0.20054E+08
 
   -0.20057E+08         0.60179E+05         0.00000E+00
    0.60179E+05        -0.49905E+08         0.00000E+00
    0.00000E+00         0.00000E+00        -0.20054E+08
 
   -0.20053E+08         0.59810E+05         0.00000E+00
    0.59810E+05        -0.49902E+08         0.00000E+00
    0.00000E+00         0.00000E+00        -0.20053E+08
 
   -0.20051E+08         0.58816E+05         0.00000E+00
    0.58816E+05        -0.49899E+08         0.00000E+00
    0.00000E+00         0.00000E+00        -0.20052E+08
 
   -0.20049E+08         0.57390E+05         0.00000E+00
    0.57390E+05        -0.49897E+08         0.00000E+00
    0.00000E+00         0.00000E+00        -0.20051E+08
 
   -0.20048E+08         0.55726E+05         0.00000E+00
    0.55726E+05        -0.49896E+08         0.00000E+00
    0.00000E+00         0.00000E+00        -0.20050E+08
 
   -0.20049E+08         0.54014E+05         0.00000E+00
    0.54014E+05        -0.49896E+08         0.00000E+00
    0.00000E+00         0.00000E+00        -0.20049E+08
 
   -0.20131E+08         0.79439E+04         0.00000E+00
    0.79439E+04        -0.49941E+08         0.00000E+00
    0.00000E+00         0.00000E+00        -0.20026E+08
 
   -0.20119E+08         0.21894E+05         0.00000E+00
    0.21894E+05        -0.49939E+08         0.00000E+00
    0.00000E+00         0.00000E+00        -0.20037E+08
 
   -0.20108E+08         0.33582E+05         0.00000E+00
    0.33582E+05        -0.49937E+08         0.00000E+00
    0.00000E+00         0.00000E+00        -0.20045E+08
 
   -0.20098E+08         0.43126E+05         0.00000E+00
    0.43126E+05        -0.49934E+08         0.00000E+00
    0.00000E+00         0.00000E+00        -0.20050E+08
 
   -0.20089E+08         0.50657E+05         0.00000E+00
    0.50657E+05        -0.49930E+08         0.00000E+00
    0.00000E+00         0.00000E+00        -0.20054E+08
 
   -0.20081E+08         0.56319E+05         0.00000E+00
    0.56319E+05        -0.49925E+08         0.00000E+00
    0.00000E+00         0.00000E+00        -0.20056E+08
 
   -0.20075E+08         0.60268E+05         0.00000E+00
    0.60268E+05        -0.49921E+08         0.00000E+00
    0.00000E+00         0.00000E+00        -0.20057E+08
 
   -0.20069E+08         0.62674E+05         0.00000E+00
    0.62674E+05        -0.49916E+08         0.00000E+00
    0.00000E+00         0.00000E+00        -0.20057E+08
 
   -0.20064E+08         0.63723E+05         0.00000E+00
    0.63723E+05        -0.49912E+08         0.00000E+00
    0.00000E+00         0.00000E+00        -0.20056E+08
 
   -0.20060E+08         0.63615E+05         0.00000E+00
    0.63615E+05        -0.49909E+08         0.00000E+00
    0.00000E+00         0.00000E+00        -0.20055E+08
 
   -0.20057E+08         0.62567E+05         0.00000E+00
    0.62567E+05        -0.49906E+08         0.00000E+00
    0.00000E+00         0.00000E+00        -0.20055E+08
 
   -0.20055E+08         0.60808E+05         0.00000E+00
    0.60808E+05        -0.49904E+08         0.00000E+00
    0.00000E+00         0.00000E+00        -0.20054E+08
 
   -0.20054E+08         0.58570E+05         0.00000E+00
    0.58570E+05        -0.49903E+08         0.00000E+00
    0.00000E+00         0.00000E+00        -0.20054E+08
 
   -0.20054E+08         0.56085E+05         0.00000E+00
    0.56085E+05        -0.49902E+08         0.00000E+00
    0.00000E+00         0.00000E+00        -0.20054E+08
 
   -0.20054E+08         0.53571E+05         0.00000E+00
    0.53571E+05        -0.49903E+08         0.00000E+00
    0.00000E+00         0.00000E+00        -0.20054E+08
 
   -0.20119E+08         0.86577E+04         0.00000E+00
    0.86577E+04        -0.49944E+08         0.00000E+00
    0.00000E+00         0.00000E+00        -0.20043E+08
 
   -0.20109E+08         0.23829E+05         0.00000E+00
    0.23829E+05        -0.49943E+08         0.00000E+00
    0.00000E+00         0.00000E+00        -0.20051E+08
 
   -0.20100E+08         0.36505E+05         0.00000E+00
    0.36505E+05        -0.49940E+08         0.00000E+00
    0.00000E+00         0.00000E+00        -0.20057E+08
 
   -0.20092E+08         0.46799E+05         0.00000E+00
    0.46799E+05        -0.49937E+08         0.00000E+00
    0.00000E+00         0.00000E+00        -0.20060E+08
 
   -0.20086E+08         0.54832E+05         0.00000E+00
    0.54832E+05        -0.49933E+08         0.00000E+00
    0.00000E+00         0.00000E+00        -0.20062E+08
 
   -0.20080E+08         0.60740E+05         0.00000E+00
    0.60740E+05        -0.49929E+08         0.00000E+00
    0.00000E+00         0.00000E+00        -0.20062E+08
 
   -0.20075E+08         0.64679E+05         0.00000E+00
    0.64679E+05        -0.49925E+08         0.00000E+00
    0.00000E+00         0.00000E+00        -0.20062E+08
 
   -0.20071E+08         0.66828E+05         0.00000E+00
    0.66828E+05        -0.49921E+08         0.00000E+00
    0.00000E+00         0.00000E+00        -0.20060E+08
 
   -0.20067E+08         0.67396E+05         0.00000E+00
    0.67396E+05        -0.49917E+08         0.00000E+00
    0.00000E+00         0.00000E+00        -0.20059E+08
 
   -0.20065E+08         0.66622E+05         0.00000E+00
    0.66622E+05        -0.49914E+08         0.00000E+00
    0.00000E+00         0.00000E+00        -0.20058E+08
 
   -0.20063E+08         0.64769E+05         0.00000E+00
    0.64769E+05        -0.49911E+08         0.00000E+00
    0.00000E+00         0.00000E+00        -0.20057E+08
 
   -0.20061E+08         0.62118E+05         0.00000E+00
    0.62118E+05        -0.49910E+08         0.00000E+00
    0.00000E+00         0.00000E+00        -0.20056E+08
 
   -0.20060E+08         0.58954E+05         0.00000E+00
    0.58954E+05        -0.49910E+08         0.00000E+00
    0.00000E+00         0.00000E+00        -0.20056E+08
 
   -0.20060E+08         0.55542E+05         0.00000E+00
    0.55542E+05        -0.49910E+08         0.00000E+00
    0.00000E+00         0.00000E+00        -0.20058E+08
 
   -0.20060E+08         0.52128E+05         0.00000E+00
    0.52128E+05        -0.49912E+08         0.00000E+00
    0.00000E+00         0.00000E+00        -0.20059E+08
 
   -0.20105E+08         0.93403E+04         0.00000E+00
    0.93403E+04        -0.49948E+08         0.00000E+00
    0.00000E+00         0.00000E+00        -0.20061E+08
 
   -0.20098E+08         0.25683E+05         0.00000E+00
    0.25683E+05        -0.49946E+08         0.00000E+00
    0.00000E+00         0.00000E+00        -0.20067E+08
 
   -0.20092E+08         0.39318E+05         0.00000E+00
    0.39318E+05        -0.49944E+08         0.00000E+00
    0.00000E+00         0.00000E+00        -0.20070E+08
 
   -0.20087E+08         0.50340E+05         0.00000E+00
    0.50340E+05        -0.49941E+08         0.00000E+00
    0.00000E+00         0.00000E+00        -0.20071E+08
 
   -0.20082E+08         0.58851E+05         0.00000E+00
    0.58851E+05        -0.49937E+08         0.00000E+00
    0.00000E+00         0.00000E+00        -0.20071E+08
 
   -0.20078E+08         0.64968E+05         0.00000E+00
    0.64968E+05        -0.49933E+08         0.00000E+00
    0.00000E+00         0.00000E+00        -0.20070E+08
 
   -0.20075E+08         0.68837E+05         0.00000E+00
    0.68837E+05        -0.49929E+08         0.00000E+00
    0.00000E+00         0.00000E+00        -0.20067E+08
 
   -0.20073E+08         0.70643E+05         0.00000E+00
    0.70643E+05        -0.49926E+08         0.00000E+00
    0.00000E+00         0.00000E+00        -0.20065E+08
 
   -0.20071E+08         0.70623E+05         0.00000E+00
    0.70623E+05        -0.49922E+08         0.00000E+00
    0.00000E+00         0.00000E+00        -0.20062E+08
 
   -0.20070E+08         0.69061E+05         0.00000E+00
    0.69061E+05        -0.49920E+08         0.00000E+00
    0.00000E+00         0.00000E+00        -0.20060E+08
 
   -0.20069E+08         0.66282E+05         0.00000E+00
    0.66282E+05        -0.49918E+08         0.00000E+00
    0.00000E+00         0.00000E+00        -0.20059E+08
 
   -0.20068E+08         0.62630E+05         0.00000E+00
    0.62630E+05        -0.49918E+08         0.00000E+00
    0.00000E+00         0.00000E+00        -0.20059E+08
 
   -0.20068E+08         0.58441E+05         0.00000E+00
    0.58441E+05        -0.49918E+08         0.00000E+00
    0.00000E+00         0.00000E+00        -0.20060E+08
 
   -0.20067E+08         0.54023E+05         0.00000E+00
    0.54023E+05        -0.49920E+08         0.00000E+00
    0.00000E+00         0.00000E+00        -0.20062E+08
 
   -0.20067E+08         0.49629E+05         0.00000E+00
    0.49629E+05        -0.49922E+08         0.00000E+00
    0.00000E+00         0.00000E+00        -0.20066E+08
 
   -0.20091E+08         0.99779E+04         0.00000E+00
    0.99779E+04        -0.49951E+08         0.00000E+00
    0.00000E+00         0.00000E+00        -0.20081E+08
 
   -0.20086E+08         0.27419E+05         0.00000E+00
    0.27419E+05        -0.49950E+08         0.00000E+00
    0.00000E+00         0.00000E+00        -0.20084E+08
 
   -0.20083E+08         0.41955E+05         0.00000E+00
    0.41955E+05        -0.49948E+08         0.00000E+00
    0.00000E+00         0.00000E+00        -0.20085E+08
 
   -0.20080E+08         0.53656E+05         0.00000E+00
    0.53656E+05        -0.49945E+08         0.00000E+00
    0.00000E+00         0.00000E+00        -0.20083E+08
 
   -0.20078E+08         0.62595E+05         0.00000E+00
    0.62595E+05        -0.49942E+08         0.00000E+00
    0.00000E+00         0.00000E+00        -0.20081E+08
 
   -0.20077E+08         0.68863E+05         0.00000E+00
    0.68863E+05        -0.49938E+08         0.00000E+00
    0.00000E+00         0.00000E+00        -0.20077E+08
 
   -0.20076E+08         0.72584E+05         0.00000E+00
    0.72584E+05        -0.49935E+08         0.00000E+00
    0.00000E+00         0.00000E+00        -0.20073E+08
 
   -0.20076E+08         0.73951E+05         0.00000E+00
    0.73951E+05        -0.49931E+08         0.00000E+00
    0.00000E+00         0.00000E+00        -0.20069E+08
 
   -0.20076E+08         0.73231E+05         0.00000E+00
    0.73231E+05        -0.49929E+08         0.00000E+00
    0.00000E+00         0.00000E+00        -0.20066E+08
 
   -0.20076E+08         0.70769E+05         0.00000E+00
    0.70769E+05        -0.49927E+08         0.00000E+00
    0.00000E+00         0.00000E+00        -0.20064E+08
 
   -0.20076E+08         0.66963E+05         0.00000E+00
    0.66963E+05        -0.49926E+08         0.00000E+00
    0.00000E+00         0.00000E+00        -0.20063E+08
 
   -0.20076E+08         0.62228E+05         0.00000E+00
    0.62228E+05        -0.49927E+08         0.00000E+00
    0.00000E+00         0.00000E+00        -0.20063E+08
 
   -0.20076E+08         0.56955E+05         0.00000E+00
    0.56955E+05        -0.49928E+08         0.00000E+00
    0.00000E+00         0.00000E+00        -0.20065E+08
 
   -0.20076E+08         0.51480E+05         0.00000E+00
    0.51480E+05        -0.49931E+08         0.00000E+00
    0.00000E+00         0.00000E+00        -0.20069E+08
 
   -0.20076E+08         0.46061E+05         0.00000E+00
    0.46061E+05        -0.49934E+08         0.00000E+00
    0.00000E+00         0.00000E+00        -0.20073E+08
 
   -0.20075E+08         0.10563E+05         0.00000E+00
    0.10563E+05        -0.49955E+08         0.00000E+00
    0.00000E+00         0.00000E+00        -0.20101E+08
 
   -0.20074E+08         0.29001E+05         0.00000E+00
    0.29001E+05        -0.49954E+08         0.00000E+00
    0.00000E+00         0.00000E+00        -0.20102E+08
 
   -0.20073E+08         0.44347E+05         0.00000E+00
    0.44347E+05        -0.49952E+08         0.00000E+00
    0.00000E+00         0.00000E+00        -0.20100E+08
 
   -0.20073E+08         0.56641E+05         0.00000E+00
    0.56641E+05        -0.49950E+08         0.00000E+00
    0.00000E+00         0.00000E+00        -0.20096E+08
 
   -0.20074E+08         0.65920E+05         0.00000E+00
    0.65920E+05        -0.49947E+08         0.00000E+00
    0.00000E+00         0.00000E+00        -0.20091E+08
 
   -0.20076E+08         0.72241E+05         0.00000E+00
    0.72241E+05        -0.49944E+08         0.00000E+00
    0.00000E+00         0.00000E+00        -0.20086E+08
 
   -0.20078E+08         0.75712E+05         0.00000E+00
    0.75712E+05        -0.49941E+08         0.00000E+00
    0.00000E+00         0.00000E+00        -0.20080E+08
 
   -0.20080E+08         0.76530E+05         0.00000E+00
    0.76530E+05        -0.49938E+08         0.00000E+00
    0.00000E+00         0.00000E+00        -0.20075E+08
 
   -0.20082E+08         0.75008E+05         0.00000E+00
    0.75008E+05        -0.49937E+08         0.00000E+00
    0.00000E+00         0.00000E+00        -0.20071E+08
 
   -0.20084E+08         0.71561E+05         0.00000E+00
    0.71561E+05        -0.49936E+08         0.00000E+00
    0.00000E+00         0.00000E+00        -0.20068E+08
 
   -0.20085E+08         0.66669E+05         0.00000E+00
    0.66669E+05        -0.49936E+08         0.00000E+00
    0.00000E+00         0.00000E+00        -0.20067E+08
 
   -0.20086E+08         0.60820E+05         0.00000E+00
    0.60820E+05        -0.49938E+08         0.00000E+00
    0.00000E+00         0.00000E+00        -0.20068E+08
 
   -0.20086E+08         0.54450E+05         0.00000E+00
    0.54450E+05        -0.49940E+08         0.00000E+00
    0.00000E+00         0.00000E+00        -0.20071E+08
 
   -0.20086E+08         0.47913E+05         0.00000E+00
    0.47913E+05        -0.49944E+08         0.00000E+00
    0.00000E+00         0.00000E+00        -0.20076E+08
 
   -0.20086E+08         0.41460E+05         0.00000E+00
    0.41460E+05        -0.49948E+08         0.00000E+00
    0.00000E+00         0.00000E+00        -0.20082E+08
 
   -0.20059E+08         0.11092E+05         0.00000E+00
    0.11092E+05        -0.49959E+08         0.00000E+00
    0.00000E+00         0.00000E+00        -0.20123E+08
 
   -0.20060E+08         0.30401E+05         0.00000E+00
    0.30401E+05        -0.49958E+08         0.00000E+00
    0.00000E+00         0.00000E+00        -0.20120E+08
 
   -0.20063E+08         0.46428E+05         0.00000E+00
    0.46428E+05        -0.49957E+08         0.00000E+00
    0.00000E+00         0.00000E+00        -0.20116E+08
 
   -0.20066E+08         0.59175E+05         0.00000E+00
    0.59175E+05        -0.49955E+08         0.00000E+00
    0.00000E+00         0.00000E+00        -0.20110E+08
 
   -0.20070E+08         0.68644E+05         0.00000E+00
    0.68644E+05        -0.49952E+08         0.00000E+00
    0.00000E+00         0.00000E+00        -0.20102E+08
 
   -0.20075E+08         0.74865E+05         0.00000E+00
    0.74865E+05        -0.49950E+08         0.00000E+00
    0.00000E+00         0.00000E+00        -0.20095E+08
 
   -0.20080E+08         0.77942E+05         0.00000E+00
    0.77942E+05        -0.49948E+08         0.00000E+00
    0.00000E+00         0.00000E+00        -0.20088E+08
 
   -0.20085E+08         0.78098E+05         0.00000E+00
    0.78098E+05        -0.49947E+08         0.00000E+00
    0.00000E+00         0.00000E+00        -0.20081E+08
 
   -0.20089E+08         0.75702E+05         0.00000E+00
    0.75702E+05        -0.49946E+08         0.00000E+00
    0.00000E+00         0.00000E+00        -0.20076E+08
 
   -0.20092E+08         0.71246E+05         0.00000E+00
    0.71246E+05        -0.49947E+08         0.00000E+00
    0.00000E+00         0.00000E+00        -0.20073E+08
 
   -0.20095E+08         0.65283E+05         0.00000E+00
    0.65283E+05        -0.49948E+08         0.00000E+00
    0.00000E+00         0.00000E+00        -0.20073E+08
 
   -0.20096E+08         0.58357E+05         0.00000E+00
    0.58357E+05        -0.49951E+08         0.00000E+00
    0.00000E+00         0.00000E+00        -0.20075E+08
 
   -0.20097E+08         0.50937E+05         0.00000E+00
    0.50937E+05        -0.49954E+08         0.00000E+00
    0.00000E+00         0.00000E+00        -0.20079E+08
 
   -0.20097E+08         0.43381E+05         0.00000E+00
    0.43381E+05        -0.49959E+08         0.00000E+00
    0.00000E+00         0.00000E+00        -0.20084E+08
 
   -0.20096E+08         0.35922E+05         0.00000E+00
    0.35922E+05        -0.49964E+08         0.00000E+00
    0.00000E+00         0.00000E+00        -0.20092E+08
 
   -0.20041E+08         0.11561E+05         0.00000E+00
    0.11561E+05        -0.49963E+08         0.00000E+00
    0.00000E+00         0.00000E+00        -0.20146E+08
 
   -0.20046E+08         0.31601E+05         0.00000E+00
    0.31601E+05        -0.49963E+08         0.00000E+00
    0.00000E+00         0.00000E+00        -0.20140E+08
 
   -0.20052E+08         0.48130E+05         0.00000E+00
    0.48130E+05        -0.49961E+08         0.00000E+00
    0.00000E+00         0.00000E+00        -0.20132E+08
 
   -0.20059E+08         0.61117E+05         0.00000E+00
    0.61117E+05        -0.49960E+08         0.00000E+00
    0.00000E+00         0.00000E+00        -0.20123E+08
 
   -0.20067E+08         0.70540E+05         0.00000E+00
    0.70540E+05        -0.49958E+08         0.00000E+00
    0.00000E+00         0.00000E+00        -0.20114E+08
 
   -0.20075E+08         0.76425E+05         0.00000E+00
    0.76425E+05        -0.49957E+08         0.00000E+00
    0.00000E+00         0.00000E+00        -0.20105E+08
 
   -0.20083E+08         0.78915E+05         0.00000E+00
    0.78915E+05        -0.49956E+08         0.00000E+00
    0.00000E+00         0.00000E+00        -0.20096E+08
 
   -0.20090E+08         0.78306E+05         0.00000E+00
    0.78306E+05        -0.49957E+08         0.00000E+00
    0.00000E+00         0.00000E+00        -0.20089E+08
 
   -0.20097E+08         0.75036E+05         0.00000E+00
    0.75036E+05        -0.49958E+08         0.00000E+00
    0.00000E+00         0.00000E+00        -0.20083E+08
 
   -0.20102E+08         0.69650E+05         0.00000E+00
    0.69650E+05        -0.49960E+08         0.00000E+00
    0.00000E+00         0.00000E+00        -0.20080E+08
 
   -0.20106E+08         0.62735E+05         0.00000E+00
    0.62735E+05        -0.49962E+08         0.00000E+00
    0.00000E+00         0.00000E+00        -0.20080E+08
 
   -0.20108E+08         0.54856E+05         0.00000E+00
    0.54856E+05        -0.49966E+08         0.00000E+00
    0.00000E+00         0.00000E+00        -0.20083E+08
 
   -0.20109E+08         0.46494E+05         0.00000E+00
    0.46494E+05        -0.49970E+08         0.00000E+00
    0.00000E+00         0.00000E+00        -0.20088E+08
 
   -0.20109E+08         0.38005E+05         0.00000E+00
    0.38005E+05        -0.49976E+08         0.00000E+00
    0.00000E+00         0.00000E+00        -0.20095E+08
 
   -0.20108E+08         0.29603E+05         0.00000E+00
    0.29603E+05        -0.49982E+08         0.00000E+00
    0.00000E+00         0.00000E+00        -0.20103E+08
 
   -0.20023E+08         0.11968E+05         0.00000E+00
    0.11968E+05        -0.49968E+08         0.00000E+00
    0.00000E+00         0.00000E+00        -0.20170E+08
 
   -0.20032E+08         0.32566E+05         0.00000E+00
    0.32566E+05        -0.49967E+08         0.00000E+00
    0.00000E+00         0.00000E+00        -0.20160E+08
 
   -0.20042E+08         0.49370E+05         0.00000E+00
    0.49370E+05        -0.49966E+08         0.00000E+00
    0.00000E+00         0.00000E+00        -0.20149E+08
 
   -0.20052E+08         0.62297E+05         0.00000E+00
    0.62297E+05        -0.49965E+08         0.00000E+00
    0.00000E+00         0.00000E+00        -0.20138E+08
 
   -0.20063E+08         0.71316E+05         0.00000E+00
    0.71316E+05        -0.49965E+08         0.00000E+00
    0.00000E+00         0.00000E+00        -0.20126E+08
 
   -0.20075E+08         0.76528E+05         0.00000E+00
    0.76528E+05        -0.49965E+08         0.00000E+00
    0.00000E+00         0.00000E+00        -0.20115E+08
 
   -0.20086E+08         0.78198E+05         0.00000E+00
    0.78198E+05        -0.49966E+08         0.00000E+00
    0.00000E+00         0.00000E+00        -0.20105E+08
 
   -0.20097E+08         0.76762E+05         0.00000E+00
    0.76762E+05        -0.49968E+08         0.00000E+00
    0.00000E+00         0.00000E+00        -0.20098E+08
 
   -0.20106E+08         0.72733E+05         0.00000E+00
    0.72733E+05        -0.49971E+08         0.00000E+00
    0.00000E+00         0.00000E+00        -0.20092E+08
 
   -0.20113E+08         0.66643E+05         0.00000E+00
    0.66643E+05        -0.49975E+08         0.00000E+00
    0.00000E+00         0.00000E+00        -0.20090E+08
 
   -0.20118E+08         0.59028E+05         0.00000E+00
    0.59028E+05        -0.49979E+08         0.00000E+00
    0.00000E+00         0.00000E+00        -0.20090E+08
 
   -0.20120E+08         0.50414E+05         0.00000E+00
    0.50414E+05        -0.49983E+08         0.00000E+00
    0.00000E+00         0.00000E+00        -0.20093E+08
 
   -0.20122E+08         0.41276E+05         0.00000E+00
    0.41276E+05        -0.49988E+08         0.00000E+00
    0.00000E+00         0.00000E+00        -0.20099E+08
 
   -0.20122E+08         0.31975E+05         0.00000E+00
    0.31975E+05        -0.49994E+08         0.00000E+00
    0.00000E+00         0.00000E+00        -0.20106E+08
 
   -0.20121E+08         0.22723E+05         0.00000E+00
    0.22723E+05        -0.50001E+08         0.00000E+00
    0.00000E+00         0.00000E+00        -0.20116E+08
 
   -0.20005E+08         0.12314E+05         0.00000E+00
    0.12314E+05        -0.49972E+08         0.00000E+00
    0.00000E+00         0.00000E+00        -0.20194E+08
 
   -0.20017E+08         0.33257E+05         0.00000E+00
    0.33257E+05        -0.49971E+08         0.00000E+00
    0.00000E+00         0.00000E+00        -0.20181E+08
 
   -0.20031E+08         0.50014E+05         0.00000E+00
    0.50014E+05        -0.49971E+08         0.00000E+00
    0.00000E+00         0.00000E+00        -0.20167E+08
 
   -0.20046E+08         0.62452E+05         0.00000E+00
    0.62452E+05        -0.49971E+08         0.00000E+00
    0.00000E+00         0.00000E+00        -0.20152E+08
 
   -0.20061E+08         0.70585E+05         0.00000E+00
    0.70585E+05        -0.49972E+08         0.00000E+00
    0.00000E+00         0.00000E+00        -0.20138E+08
 
   -0.20076E+08         0.74693E+05         0.00000E+00
    0.74693E+05        -0.49974E+08         0.00000E+00
    0.00000E+00         0.00000E+00        -0.20126E+08
 
   -0.20091E+08         0.75322E+05         0.00000E+00
    0.75322E+05        -0.49978E+08         0.00000E+00
    0.00000E+00         0.00000E+00        -0.20116E+08
 
   -0.20104E+08         0.73096E+05         0.00000E+00
    0.73096E+05        -0.49982E+08         0.00000E+00
    0.00000E+00         0.00000E+00        -0.20109E+08
 
   -0.20115E+08         0.68566E+05         0.00000E+00
    0.68566E+05        -0.49987E+08         0.00000E+00
    0.00000E+00         0.00000E+00        -0.20104E+08
 
   -0.20124E+08         0.62157E+05         0.00000E+00
    0.62157E+05        -0.49992E+08         0.00000E+00
    0.00000E+00         0.00000E+00        -0.20102E+08
 
   -0.20130E+08         0.54236E+05         0.00000E+00
    0.54236E+05        -0.49998E+08         0.00000E+00
    0.00000E+00         0.00000E+00        -0.20102E+08
 
   -0.20134E+08         0.45207E+05         0.00000E+00
    0.45207E+05        -0.50003E+08         0.00000E+00
    0.00000E+00         0.00000E+00        -0.20106E+08
 
   -0.20135E+08         0.35514E+05         0.00000E+00
    0.35514E+05        -0.50009E+08         0.00000E+00
    0.00000E+00         0.00000E+00        -0.20112E+08
 
   -0.20135E+08         0.25548E+05         0.00000E+00
    0.25548E+05        -0.50015E+08         0.00000E+00
    0.00000E+00         0.00000E+00        -0.20120E+08
 
   -0.20135E+08         0.15553E+05         0.00000E+00
    0.15553E+05        -0.50022E+08         0.00000E+00
    0.00000E+00         0.00000E+00        -0.20129E+08
 
   -0.19986E+08         0.12594E+05         0.00000E+00
    0.12594E+05        -0.49976E+08         0.00000E+00
    0.00000E+00         0.00000E+00        -0.20219E+08
 
   -0.20003E+08         0.33598E+05         0.00000E+00
    0.33598E+05        -0.49976E+08         0.00000E+00
    0.00000E+00         0.00000E+00        -0.20202E+08
 
   -0.20021E+08         0.49838E+05         0.00000E+00
    0.49838E+05        -0.49976E+08         0.00000E+00
    0.00000E+00         0.00000E+00        -0.20184E+08
 
   -0.20040E+08         0.61162E+05         0.00000E+00
    0.61162E+05        -0.49978E+08         0.00000E+00
    0.00000E+00         0.00000E+00        -0.20166E+08
 
   -0.20060E+08         0.67788E+05         0.00000E+00
    0.67788E+05        -0.49981E+08         0.00000E+00
    0.00000E+00         0.00000E+00        -0.20151E+08
 
   -0.20079E+08         0.70400E+05         0.00000E+00
    0.70400E+05        -0.49986E+08         0.00000E+00
    0.00000E+00         0.00000E+00        -0.20138E+08
 
   -0.20096E+08         0.69896E+05         0.00000E+00
    0.69896E+05        -0.49992E+08         0.00000E+00
    0.00000E+00         0.00000E+00        -0.20129E+08
 
   -0.20112E+08         0.67067E+05         0.00000E+00
    0.67067E+05        -0.49999E+08         0.00000E+00
    0.00000E+00         0.00000E+00        -0.20123E+08
 
   -0.20125E+08         0.62413E+05         0.00000E+00
    0.62413E+05        -0.50006E+08         0.00000E+00
    0.00000E+00         0.00000E+00        -0.20119E+08
 
   -0.20135E+08         0.56176E+05         0.00000E+00
    0.56176E+05        -0.50013E+08         0.00000E+00
    0.00000E+00         0.00000E+00        -0.20117E+08
 
   -0.20143E+08         0.48471E+05         0.00000E+00
    0.48471E+05        -0.50019E+08         0.00000E+00
    0.00000E+00         0.00000E+00        -0.20118E+08
 
   -0.20147E+08         0.39464E+05         0.00000E+00
    0.39464E+05        -0.50025E+08         0.00000E+00
    0.00000E+00         0.00000E+00        -0.20121E+08
 
   -0.20150E+08         0.29507E+05         0.00000E+00
    0.29507E+05        -0.50031E+08         0.00000E+00
    0.00000E+00         0.00000E+00        -0.20127E+08
 
   -0.20150E+08         0.19048E+05         0.00000E+00
    0.19048E+05        -0.50037E+08         0.00000E+00
    0.00000E+00         0.00000E+00        -0.20135E+08
 
   -0.20149E+08         0.84244E+04         0.00000E+00
    0.84244E+04        -0.50044E+08         0.00000E+00
    0.00000E+00         0.00000E+00        -0.20144E+08
 
   -0.19967E+08         0.12798E+05         0.00000E+00
    0.12798E+05        -0.49980E+08         0.00000E+00
    0.00000E+00         0.00000E+00        -0.20244E+08
 
   -0.19989E+08         0.33435E+05         0.00000E+00
    0.33435E+05        -0.49981E+08         0.00000E+00
    0.00000E+00         0.00000E+00        -0.20222E+08
 
   -0.20012E+08         0.48414E+05         0.00000E+00
    0.48414E+05        -0.49982E+08         0.00000E+00
    0.00000E+00         0.00000E+00        -0.20200E+08
 
   -0.20036E+08         0.57742E+05         0.00000E+00
    0.57742E+05        -0.49985E+08         0.00000E+00
    0.00000E+00         0.00000E+00        -0.20180E+08
 
   -0.20060E+08         0.62229E+05         0.00000E+00
    0.62229E+05        -0.49992E+08         0.00000E+00
    0.00000E+00         0.00000E+00        -0.20164E+08
 
   -0.20083E+08         0.63183E+05         0.00000E+00
    0.63183E+05        -0.50000E+08         0.00000E+00
    0.00000E+00         0.00000E+00        -0.20153E+08
 
   -0.20103E+08         0.61758E+05         0.00000E+00
    0.61758E+05        -0.50009E+08         0.00000E+00
    0.00000E+00         0.00000E+00        -0.20145E+08
 
   -0.20120E+08         0.58678E+05         0.00000E+00
    0.58678E+05        -0.50018E+08         0.00000E+00
    0.00000E+00         0.00000E+00        -0.20140E+08
 
   -0.20134E+08         0.54300E+05         0.00000E+00
    0.54300E+05        -0.50027E+08         0.00000E+00
    0.00000E+00         0.00000E+00        -0.20137E+08
 
   -0.20146E+08         0.48711E+05         0.00000E+00
    0.48711E+05        -0.50036E+08         0.00000E+00
    0.00000E+00         0.00000E+00        -0.20137E+08
 
   -0.20155E+08         0.41796E+05         0.00000E+00
    0.41796E+05        -0.50043E+08         0.00000E+00
    0.00000E+00         0.00000E+00        -0.20138E+08
 
   -0.20161E+08         0.33401E+05         0.00000E+00
    0.33401E+05        -0.50050E+08         0.00000E+00
    0.00000E+00         0.00000E+00        -0.20140E+08
 
   -0.20164E+08         0.23607E+05         0.00000E+00
    0.23607E+05        -0.50056E+08         0.00000E+00
    0.00000E+00         0.00000E+00        -0.20145E+08
 
   -0.20165E+08         0.12877E+05         0.00000E+00
    0.12877E+05        -0.50062E+08         0.00000E+00
    0.00000E+00         0.00000E+00        -0.20152E+08
 
   -0.20165E+08         0.17401E+04         0.00000E+00
    0.17401E+04        -0.50068E+08         0.00000E+00
    0.00000E+00         0.00000E+00        -0.20160E+08
 
   -0.19948E+08         0.12896E+05         0.00000E+00
    0.12896E+05        -0.49985E+08         0.00000E+00
    0.00000E+00         0.00000E+00        -0.20269E+08
 
   -0.19976E+08         0.32401E+05         0.00000E+00
    0.32401E+05        -0.49986E+08         0.00000E+00
    0.00000E+00         0.00000E+00        -0.20242E+08
 
   -0.20006E+08         0.44888E+05         0.00000E+00
    0.44888E+05        -0.49989E+08         0.00000E+00
    0.00000E+00         0.00000E+00        -0.20216E+08
 
   -0.20035E+08         0.51188E+05         0.00000E+00
    0.51188E+05        -0.49996E+08         0.00000E+00
    0.00000E+00         0.00000E+00        -0.20195E+08
 
   -0.20063E+08         0.53284E+05         0.00000E+00
    0.53284E+05        -0.50006E+08         0.00000E+00
    0.00000E+00         0.00000E+00        -0.20180E+08
 
   -0.20088E+08         0.52916E+05         0.00000E+00
    0.52916E+05        -0.50017E+08         0.00000E+00
    0.00000E+00         0.00000E+00        -0.20170E+08
 
   -0.20109E+08         0.51056E+05         0.00000E+00
    0.51056E+05        -0.50029E+08         0.00000E+00
    0.00000E+00         0.00000E+00        -0.20164E+08
 
   -0.20128E+08         0.48166E+05         0.00000E+00
    0.48166E+05        -0.50040E+08         0.00000E+00
    0.00000E+00         0.00000E+00        -0.20161E+08
 
   -0.20143E+08         0.44427E+05         0.00000E+00
    0.44427E+05        -0.50051E+08         0.00000E+00
    0.00000E+00         0.00000E+00        -0.20160E+08
 
   -0.20156E+08         0.39824E+05         0.00000E+00
    0.39824E+05        -0.50061E+08         0.00000E+00
    0.00000E+00         0.00000E+00        -0.20160E+08
 
   -0.20166E+08         0.34168E+05         0.00000E+00
    0.34168E+05        -0.50070E+08         0.00000E+00
    0.00000E+00         0.00000E+00        -0.20161E+08
 
   -0.20174E+08         0.27080E+05         0.00000E+00
    0.27080E+05        -0.50077E+08         0.00000E+00
    0.00000E+00         0.00000E+00        -0.20163E+08
 
   -0.20179E+08         0.18159E+05         0.00000E+00
    0.18159E+05        -0.50083E+08         0.00000E+00
    0.00000E+00         0.00000E+00        -0.20166E+08
 
   -0.20180E+08         0.75409E+04         0.00000E+00
    0.75409E+04        -0.50088E+08         0.00000E+00
    0.00000E+00         0.00000E+00        -0.20171E+08
 
   -0.20180E+08        -0.39920E+04         0.00000E+00
   -0.39920E+04        -0.50093E+08         0.00000E+00
    0.00000E+00         0.00000E+00        -0.20177E+08
 
   -0.19930E+08         0.12769E+05         0.00000E+00
    0.12769E+05        -0.49989E+08         0.00000E+00
    0.00000E+00         0.00000E+00        -0.20294E+08
 
   -0.19966E+08         0.29532E+05         0.00000E+00
    0.29532E+05        -0.49992E+08         0.00000E+00
    0.00000E+00         0.00000E+00        -0.20260E+08
 
   -0.20003E+08         0.37717E+05         0.00000E+00
    0.37717E+05        -0.49999E+08         0.00000E+00
    0.00000E+00         0.00000E+00        -0.20233E+08
 
   -0.20037E+08         0.40561E+05         0.00000E+00
    0.40561E+05        -0.50010E+08         0.00000E+00
    0.00000E+00         0.00000E+00        -0.20213E+08
 
   -0.20067E+08         0.40895E+05         0.00000E+00
    0.40895E+05        -0.50024E+08         0.00000E+00
    0.00000E+00         0.00000E+00        -0.20200E+08
 
   -0.20093E+08         0.39946E+05         0.00000E+00
    0.39946E+05        -0.50038E+08         0.00000E+00
    0.00000E+00         0.00000E+00        -0.20192E+08
 
   -0.20116E+08         0.38214E+05         0.00000E+00
    0.38214E+05        -0.50051E+08         0.00000E+00
    0.00000E+00         0.00000E+00        -0.20187E+08
 
   -0.20135E+08         0.35903E+05         0.00000E+00
    0.35903E+05        -0.50065E+08         0.00000E+00
    0.00000E+00         0.00000E+00        -0.20186E+08
 
   -0.20151E+08         0.33071E+05         0.00000E+00
    0.33071E+05        -0.50077E+08         0.00000E+00
    0.00000E+00         0.00000E+00        -0.20186E+08
 
   -0.20165E+08         0.29666E+05         0.00000E+00
    0.29666E+05        -0.50088E+08         0.00000E+00
    0.00000E+00         0.00000E+00        -0.20187E+08
 
   -0.20176E+08         0.25521E+05         0.00000E+00
    0.25521E+05        -0.50098E+08         0.00000E+00
    0.00000E+00         0.00000E+00        -0.20189E+08
 
   -0.20185E+08         0.20277E+05         0.00000E+00
    0.20277E+05        -0.50106E+08         0.00000E+00
    0.00000E+00         0.00000E+00        -0.20190E+08
 
   -0.20192E+08         0.13264E+05         0.00000E+00
    0.13264E+05        -0.50112E+08         0.00000E+00
    0.00000E+00         0.00000E+00        -0.20191E+08
 
   -0.20195E+08         0.36729E+04         0.00000E+00
    0.36729E+04        -0.50116E+08         0.00000E+00
    0.00000E+00         0.00000E+00        -0.20193E+08
 
   -0.20197E+08        -0.80347E+04         0.00000E+00
   -0.80347E+04        -0.50119E+08         0.00000E+00
    0.00000E+00         0.00000E+00        -0.20195E+08
 
   -0.19914E+08         0.11756E+05         0.00000E+00
    0.11756E+05        -0.49994E+08         0.00000E+00
    0.00000E+00         0.00000E+00        -0.20317E+08
 
   -0.19960E+08         0.22350E+05         0.00000E+00
    0.22350E+05        -0.50002E+08         0.00000E+00
    0.00000E+00         0.00000E+00        -0.20279E+08
 
   -0.20004E+08         0.25354E+05         0.00000E+00
    0.25354E+05        -0.50015E+08         0.00000E+00
    0.00000E+00         0.00000E+00        -0.20252E+08
 
   -0.20041E+08         0.26042E+05         0.00000E+00
    0.26042E+05        -0.50030E+08         0.00000E+00
    0.00000E+00         0.00000E+00        -0.20235E+08
 
   -0.20072E+08         0.25754E+05         0.00000E+00
    0.25754E+05        -0.50046E+08         0.00000E+00
    0.00000E+00         0.00000E+00        -0.20224E+08
 
   -0.20099E+08         0.24926E+05         0.00000E+00
    0.24926E+05        -0.50062E+08         0.00000E+00
    0.00000E+00         0.00000E+00        -0.20218E+08
 
   -0.20122E+08         0.23740E+05         0.00000E+00
    0.23740E+05        -0.50077E+08         0.00000E+00
    0.00000E+00         0.00000E+00        -0.20215E+08
 
   -0.20141E+08         0.22267E+05         0.00000E+00
    0.22267E+05        -0.50092E+08         0.00000E+00
    0.00000E+00         0.00000E+00        -0.20215E+08
 
   -0.20158E+08         0.20515E+05         0.00000E+00
    0.20515E+05        -0.50105E+08         0.00000E+00
    0.00000E+00         0.00000E+00        -0.20216E+08
 
   -0.20172E+08         0.18436E+05         0.00000E+00
    0.18436E+05        -0.50118E+08         0.00000E+00
    0.00000E+00         0.00000E+00        -0.20218E+08
 
   -0.20184E+08         0.15912E+05         0.00000E+00
    0.15912E+05        -0.50128E+08         0.00000E+00
    0.00000E+00         0.00000E+00        -0.20220E+08
 
   -0.20195E+08         0.12715E+05         0.00000E+00
    0.12715E+05        -0.50137E+08         0.00000E+00
    0.00000E+00         0.00000E+00        -0.20222E+08
 
   -0.20203E+08         0.83655E+04         0.00000E+00
    0.83655E+04        -0.50144E+08         0.00000E+00
    0.00000E+00         0.00000E+00        -0.20221E+08
 
   -0.20209E+08         0.17262E+04         0.00000E+00
    0.17262E+04        -0.50147E+08         0.00000E+00
    0.00000E+00         0.00000E+00        -0.20219E+08
 
   -0.20213E+08        -0.92176E+04         0.00000E+00
   -0.92176E+04        -0.50147E+08         0.00000E+00
    0.00000E+00         0.00000E+00        -0.20216E+08
 
   -0.19905E+08         0.58699E+04         0.00000E+00
    0.58699E+04        -0.50006E+08         0.00000E+00
    0.00000E+00         0.00000E+00        -0.20342E+08
 
   -0.19961E+08         0.80513E+04         0.00000E+00
    0.80513E+04        -0.50019E+08         0.00000E+00
    0.00000E+00         0.00000E+00        -0.20302E+08
 
   -0.20007E+08         0.88276E+04         0.00000E+00
    0.88276E+04        -0.50036E+08         0.00000E+00
    0.00000E+00         0.00000E+00        -0.20277E+08
 
   -0.20045E+08         0.89688E+04         0.00000E+00
    0.89688E+04        -0.50054E+08         0.00000E+00
    0.00000E+00         0.00000E+00        -0.20262E+08
 
   -0.20077E+08         0.88097E+04         0.00000E+00
    0.88097E+04        -0.50072E+08         0.00000E+00
    0.00000E+00         0.00000E+00        -0.20253E+08
 
   -0.20104E+08         0.84952E+04         0.00000E+00
    0.84952E+04        -0.50089E+08         0.00000E+00
    0.00000E+00         0.00000E+00        -0.20248E+08
 
   -0.20127E+08         0.80772E+04         0.00000E+00
    0.80772E+04        -0.50105E+08         0.00000E+00
    0.00000E+00         0.00000E+00        -0.20247E+08
 
   -0.20147E+08         0.75738E+04         0.00000E+00
    0.75738E+04        -0.50121E+08         0.00000E+00
    0.00000E+00         0.00000E+00        -0.20248E+08
 
   -0.20164E+08         0.69838E+04         0.00000E+00
    0.69838E+04        -0.50135E+08         0.00000E+00
    0.00000E+00         0.00000E+00        -0.20250E+08
 
   -0.20178E+08         0.62873E+04         0.00000E+00
    0.62873E+04        -0.50149E+08         0.00000E+00
    0.00000E+00         0.00000E+00        -0.20253E+08
 
   -0.20191E+08         0.54404E+04         0.00000E+00
    0.54404E+04        -0.50160E+08         0.00000E+00
    0.00000E+00         0.00000E+00        -0.20256E+08
 
   -0.20201E+08         0.43596E+04         0.00000E+00
    0.43596E+04        -0.50170E+08         0.00000E+00
    0.00000E+00         0.00000E+00        -0.20258E+08
 
   -0.20211E+08         0.28910E+04         0.00000E+00
    0.28910E+04        -0.50177E+08         0.00000E+00
    0.00000E+00         0.00000E+00        -0.20258E+08
 
   -0.20220E+08         0.62221E+03         0.00000E+00
    0.62221E+03        -0.50181E+08         0.00000E+00
    0.00000E+00         0.00000E+00        -0.20254E+08
 
   -0.20227E+08        -0.44037E+04         0.00000E+00
   -0.44037E+04        -0.50176E+08         0.00000E+00
    0.00000E+00         0.00000E+00        -0.20241E+08
 
TENSORS stresstot double 
   -0.30288E+08         0.15123E+03         0.00000E+00
    0.15123E+03        -0.60000E+08         0.00000E+00
    0.00000E+00         0.00000E+00        -0.30007E+08
 
   -0.30263E+08         0.43698E+03         0.00000E+00
    0.43698E+03        -0.59999E+08         0.00000E+00
    0.00000E+00         0.00000E+00        -0.30031E+08
 
   -0.30240E+08         0.70134E+03         0.00000E+00
    0.70134E+03        -0.59998E+08         0.00000E+00
    0.00000E+00         0.00000E+00        -0.30053E+08
 
   -0.30219E+08         0.94530E+03         0.00000E+00
    0.94530E+03        -0.59996E+08         0.00000E+00
    0.00000E+00         0.00000E+00        -0.30071E+08
 
   -0.30200E+08         0.11699E+04         0.00000E+00
    0.11699E+04        -0.59994E+08         0.00000E+00
    0.00000E+00         0.00000E+00        -0.30087E+08
 
   -0.30182E+08         0.13761E+04         0.00000E+00
    0.13761E+04        -0.59992E+08         0.00000E+00
    0.00000E+00         0.00000E+00        -0.30101E+08
 
   -0.30167E+08         0.15654E+04         0.00000E+00
    0.15654E+04        -0.59989E+08         0.00000E+00
    0.00000E+00         0.00000E+00        -0.30112E+08
 
   -0.30154E+08         0.17385E+04         0.00000E+00
    0.17385E+04        -0.59985E+08         0.00000E+00
    0.00000E+00         0.00000E+00        -0.30121E+08
 
   -0.30143E+08         0.18965E+04         0.00000E+00
    0.18965E+04        -0.59982E+08         0.00000E+00
    0.00000E+00         0.00000E+00        -0.30127E+08
 
   -0.30133E+08         0.20407E+04         0.00000E+00
    0.20407E+04        -0.59978E+08         0.00000E+00
    0.00000E+00         0.00000E+00        -0.30132E+08
 
   -0.30126E+08         0.21725E+04         0.00000E+00
    0.21725E+04        -0.59974E+08         0.00000E+00
    0.00000E+00         0.00000E+00        -0.30133E+08
 
   -0.30120E+08         0.22933E+04         0.00000E+00
    0.22933E+04        -0.59969E+08         0.00000E+00
    0.00000E+00         0.00000E+00        -0.30133E+08
 
   -0.30117E+08         0.24048E+04         0.00000E+00
    0.24048E+04        -0.59964E+08         0.00000E+00
    0.00000E+00         0.00000E+00        -0.30131E+08
 
   -0.30115E+08         0.25087E+04         0.00000E+00
    0.25087E+04        -0.59960E+08         0.00000E+00
    0.00000E+00         0.00000E+00        -0.30126E+08
 
   -0.30115E+08         0.26071E+04         0.00000E+00
    0.26071E+04        -0.59954E+08         0.00000E+00
    0.00000E+00         0.00000E+00        -0.30119E+08
 
   -0.30287E+08         0.45734E+03         0.00000E+00
    0.45734E+03        -0.60000E+08         0.00000E+00
    0.00000E+00         0.00000E+00        -0.30008E+08
 
   -0.30262E+08         0.13204E+04         0.00000E+00
    0.13204E+04        -0.59999E+08         0.00000E+00
    0.00000E+00         0.00000E+00        -0.30032E+08
 
   -0.30239E+08         0.21175E+04         0.00000E+00
    0.21175E+04        -0.59998E+08         0.00000E+00
    0.00000E+00         0.00000E+00        -0.30053E+08
 
   -0.30218E+08         0.28519E+04         0.00000E+00
    0.28519E+04        -0.59996E+08         0.00000E+00
    0.00000E+00         0.00000E+00        -0.30071E+08
 
   -0.30199E+08         0.35266E+04         0.00000E+00
    0.35266E+04        -0.59994E+08         0.00000E+00
    0.00000E+00         0.00000E+00        -0.30087E+08
 
   -0.30182E+08         0.41450E+04         0.00000E+00
    0.41450E+04        -0.59991E+08         0.00000E+00
    0.00000E+00         0.00000E+00        -0.30101E+08
 
   -0.30167E+08         0.47112E+04         0.00000E+00
    0.47112E+04        -0.59989E+08         0.00000E+00
    0.00000E+00         0.00000E+00        -0.30112E+08
 
   -0.30154E+08         0.52280E+04         0.00000E+00
    0.52280E+04        -0.59985E+08         0.00000E+00
    0.00000E+00         0.00000E+00        -0.30121E+08
 
   -0.30142E+08         0.56989E+04         0.00000E+00
    0.56989E+04        -0.59982E+08         0.00000E+00
    0.00000E+00         0.00000E+00        -0.30127E+08
 
   -0.30133E+08         0.61279E+04         0.00000E+00
    0.61279E+04        -0.59978E+08         0.00000E+00
    0.00000E+00         0.00000E+00        -0.30131E+08
 
   -0.30126E+08         0.65191E+04         0.00000E+00
    0.65191E+04        -0.59973E+08         0.00000E+00
    0.00000E+00         0.00000E+00        -0.30133E+08
 
   -0.30120E+08         0.68772E+04         0.00000E+00
    0.68772E+04        -0.59969E+08         0.00000E+00
    0.00000E+00         0.00000E+00        -0.30133E+08
 
   -0.30116E+08         0.72072E+04         0.00000E+00
    0.72072E+04        -0.59964E+08         0.00000E+00
    0.00000E+00         0.00000E+00        -0.30130E+08
 
   -0.30115E+08         0.75146E+04         0.00000E+00
    0.75146E+04        -0.59959E+08         0.00000E+00
    0.00000E+00         0.00000E+00        -0.30126E+08
 
   -0.30115E+08         0.78055E+04         0.00000E+00
    0.78055E+04        -0.59954E+08         0.00000E+00
    0.00000E+00         0.00000E+00        -0.30119E+08
 
   -0.30286E+08         0.77437E+03         0.00000E+00
    0.77437E+03        -0.60000E+08         0.00000E+00
    0.00000E+00         0.00000E+00        -0.30009E+08
 
   -0.30261E+08         0.22320E+04         0.00000E+00
    0.22320E+04        -0.59999E+08         0.00000E+00
    0.00000E+00         0.00000E+00        -0.30032E+08
 
   -0.30238E+08         0.35740E+04         0.00000E+00
    0.35740E+04        -0.59998E+08         0.00000E+00
    0.00000E+00         0.00000E+00        -0.30053E+08
 
   -0.30217E+08         0.48059E+04         0.00000E+00
    0.48059E+04        -0.59996E+08         0.00000E+00
    0.00000E+00         0.00000E+00        -0.30072E+08
 
   -0.30198E+08         0.59336E+04         0.00000E+00
    0.59336E+04        -0.59994E+08         0.00000E+00
    0.00000E+00         0.00000E+00        -0.30088E+08
 
   -0.30181E+08         0.69631E+04         0.00000E+00
    0.69631E+04        -0.59991E+08         0.00000E+00
    0.00000E+00         0.00000E+00        -0.30101E+08
 
   -0.30166E+08         0.79016E+04         0.00000E+00
    0.79016E+04        -0.59988E+08         0.00000E+00
    0.00000E+00         0.00000E+00        -0.30112E+08
 
   -0.30153E+08         0.87550E+04         0.00000E+00
    0.87550E+04        -0.59985E+08         0.00000E+00
    0.00000E+00         0.00000E+00        -0.30121E+08
 
   -0.30142E+08         0.95293E+04         0.00000E+00
    0.95293E+04        -0.59981E+08         0.00000E+00
    0.00000E+00         0.00000E+00        -0.30127E+08
 
   -0.30133E+08         0.10232E+05         0.00000E+00
    0.10232E+05        -0.59977E+08         0.00000E+00
    0.00000E+00         0.00000E+00        -0.30131E+08
 
   -0.30125E+08         0.10870E+05         0.00000E+00
    0.10870E+05        -0.59973E+08         0.00000E+00
    0.00000E+00         0.00000E+00        -0.30133E+08
 
   -0.30120E+08         0.11453E+05         0.00000E+00
    0.11453E+05        -0.59968E+08         0.00000E+00
    0.00000E+00         0.00000E+00        -0.30132E+08
 
   -0.30116E+08         0.11988E+05         0.00000E+00
    0.11988E+05        -0.59964E+08         0.00000E+00
    0.00000E+00         0.00000E+00        -0.30130E+08
 
   -0.30114E+08         0.12485E+05         0.00000E+00
    0.12485E+05        -0.59959E+08         0.00000E+00
    0.00000E+00         0.00000E+00        -0.30125E+08
 
   -0.30114E+08         0.12956E+05         0.00000E+00
    0.12956E+05        -0.59954E+08         0.00000E+00
    0.00000E+00         0.00000E+00        -0.30119E+08
 
   -0.30284E+08         0.11094E+04         0.00000E+00
    0.11094E+04        -0.60000E+08         0.00000E+00
    0.00000E+00         0.00000E+00        -0.30010E+08
 
   -0.30260E+08         0.31902E+04         0.00000E+00
    0.31902E+04        -0.59999E+08         0.00000E+00
    0.00000E+00         0.00000E+00        -0.30033E+08
 
   -0.30237E+08         0.50968E+04         0.00000E+00
    0.50968E+04        -0.59998E+08         0.00000E+00
    0.00000E+00         0.00000E+00        -0.30054E+08
 
   -0.30216E+08         0.68380E+04         0.00000E+00
    0.68380E+04        -0.59996E+08         0.00000E+00
    0.00000E+00         0.00000E+00        -0.30072E+08
 
   -0.30197E+08         0.84231E+04         0.00000E+00
    0.84231E+04        -0.59994E+08         0.00000E+00
    0.00000E+00         0.00000E+00        -0.30088E+08
 
   -0.30180E+08         0.98616E+04         0.00000E+00
    0.98616E+04        -0.59991E+08         0.00000E+00
    0.00000E+00         0.00000E+00        -0.30101E+08
 
   -0.30165E+08         0.11165E+05         0.00000E+00
    0.11165E+05        -0.59988E+08         0.00000E+00
    0.00000E+00         0.00000E+00        -0.30112E+08
 
   -0.30152E+08         0.12343E+05         0.00000E+00
    0.12343E+05        -0.59984E+08         0.00000E+00
    0.00000E+00         0.00000E+00        -0.30120E+08
 
   -0.30141E+08         0.13405E+05         0.00000E+00
    0.13405E+05        -0.59980E+08         0.00000E+00
    0.00000E+00         0.00000E+00        -0.30127E+08
 
   -0.30132E+08         0.14362E+05         0.00000E+00
    0.14362E+05        -0.59976E+08         0.00000E+00
    0.00000E+00         0.00000E+00        -0.30130E+08
 
   -0.30124E+08         0.15227E+05         0.00000E+00
    0.15227E+05        -0.59972E+08         0.00000E+00
    0.00000E+00         0.00000E+00        -0.30132E+08
 
   -0.30119E+08         0.16012E+05         0.00000E+00
    0.16012E+05        -0.59968E+08         0.00000E+00
    0.00000E+00         0.00000E+00        -0.30132E+08
 
   -0.30115E+08         0.16731E+05         0.00000E+00
    0.16731E+05        -0.59963E+08         0.00000E+00
    0.00000E+00         0.00000E+00        -0.30129E+08
 
   -0.30114E+08         0.17396E+05         0.00000E+00
    0.17396E+05        -0.59958E+08         0.00000E+00
    0.00000E+00         0.00000E+00        -0.30125E+08
 
   -0.30114E+08         0.18024E+05         0.00000E+00
    0.18024E+05        -0.59953E+08         0.00000E+00
    0.00000E+00         0.00000E+00        -0.30118E+08
 
   -0.30282E+08         0.14693E+04         0.00000E+00
    0.14693E+04        -0.60000E+08         0.00000E+00
    0.00000E+00         0.00000E+00        -0.30012E+08
 
   -0.30257E+08         0.42122E+04         0.00000E+00
    0.42122E+04        -0.59999E+08         0.00000E+00
    0.00000E+00         0.00000E+00        -0.30035E+08
 
   -0.30235E+08         0.67105E+04         0.00000E+00
    0.67105E+04        -0.59998E+08         0.00000E+00
    0.00000E+00         0.00000E+00        -0.30055E+08
 
   -0.30214E+08         0.89770E+04         0.00000E+00
    0.89770E+04        -0.59996E+08         0.00000E+00
    0.00000E+00         0.00000E+00        -0.30073E+08
 
   -0.30195E+08         0.11025E+05         0.00000E+00
    0.11025E+05        -0.59993E+08         0.00000E+00
    0.00000E+00         0.00000E+00        -0.30089E+08
 
   -0.30179E+08         0.12870E+05         0.00000E+00
    0.12870E+05        -0.59990E+08         0.00000E+00
    0.00000E+00         0.00000E+00        -0.30101E+08
 
   -0.30164E+08         0.14527E+05         0.00000E+00
    0.14527E+05        -0.59987E+08         0.00000E+00
    0.00000E+00         0.00000E+00        -0.30112E+08
 
   -0.30151E+08         0.16012E+05         0.00000E+00
    0.16012E+05        -0.59984E+08         0.00000E+00
    0.00000E+00         0.00000E+00        -0.30120E+08
 
   -0.30140E+08         0.17339E+05         0.00000E+00
    0.17339E+05        -0.59980E+08         0.00000E+00
    0.00000E+00         0.00000E+00        -0.30126E+08
 
   -0.30131E+08         0.18526E+05         0.00000E+00
    0.18526E+05        -0.59976E+08         0.00000E+00
    0.00000E+00         0.00000E+00        -0.30130E+08
 
   -0.30124E+08         0.19589E+05         0.00000E+00
    0.19589E+05        -0.59971E+08         0.00000E+00
    0.00000E+00         0.00000E+00        -0.30131E+08
 
   -0.30118E+08         0.20547E+05         0.00000E+00
    0.20547E+05        -0.59967E+08         0.00000E+00
    0.00000E+00         0.00000E+00        -0.30131E+08
 
   -0.30115E+08         0.21417E+05         0.00000E+00
    0.21417E+05        -0.59962E+08         0.00000E+00
    0.00000E+00         0.00000E+00        -0.30128E+08
 
   -0.30113E+08         0.22219E+05         0.00000E+00
    0.22219E+05        -0.59958E+08         0.00000E+00
    0.00000E+00         0.00000E+00        -0.30124E+08
 
   -0.30113E+08         0.22974E+05         0.00000E+00
    0.22974E+05        -0.59953E+08         0.00000E+00
    0.00000E+00         0.00000E+00        -0.30117E+08
 
   -0.30279E+08         0.18602E+04         0.00000E+00
    0.18602E+04        -0.60000E+08         0.00000E+00
    0.00000E+00         0.00000E+00        -0.30014E+08
 
   -0.30254E+08         0.53143E+04         0.00000E+00
    0.53143E+04        -0.59999E+08         0.00000E+00
    0.00000E+00         0.00000E+00        -0.30037E+08
 
   -0.30232E+08         0.84379E+04         0.00000E+00
    0.84379E+04        -0.59997E+08         0.00000E+00
    0.00000E+00         0.00000E+00        -0.30057E+08
 
   -0.30212E+08         0.11249E+05         0.00000E+00
    0.11249E+05        -0.59995E+08         0.00000E+00
    0.00000E+00         0.00000E+00        -0.30074E+08
 
   -0.30193E+08         0.13767E+05         0.00000E+00
    0.13767E+05        -0.59993E+08         0.00000E+00
    0.00000E+00         0.00000E+00        -0.30089E+08
 
   -0.30177E+08         0.16013E+05         0.00000E+00
    0.16013E+05        -0.59990E+08         0.00000E+00
    0.00000E+00         0.00000E+00        -0.30102E+08
 
   -0.30162E+08         0.18010E+05         0.00000E+00
    0.18010E+05        -0.59986E+08         0.00000E+00
    0.00000E+00         0.00000E+00        -0.30112E+08
 
   -0.30149E+08         0.19780E+05         0.00000E+00
    0.19780E+05        -0.59983E+08         0.00000E+00
    0.00000E+00         0.00000E+00        -0.30120E+08
 
   -0.30138E+08         0.21345E+05         0.00000E+00
    0.21345E+05        -0.59979E+08         0.00000E+00
    0.00000E+00         0.00000E+00        -0.30125E+08
 
   -0.30130E+08         0.22727E+05         0.00000E+00
    0.22727E+05        -0.59975E+08         0.00000E+00
    0.00000E+00         0.00000E+00        -0.30129E+08
 
   -0.30122E+08         0.23952E+05         0.00000E+00
    0.23952E+05        -0.59970E+08         0.00000E+00
    0.00000E+00         0.00000E+00        -0.30130E+08
 
   -0.30117E+08         0.25043E+05         0.00000E+00
    0.25043E+05        -0.59966E+08         0.00000E+00
    0.00000E+00         0.00000E+00        -0.30130E+08
 
   -0.30114E+08         0.26024E+05         0.00000E+00
    0.26024E+05        -0.59961E+08         0.00000E+00
    0.00000E+00         0.00000E+00        -0.30127E+08
 
   -0.30112E+08         0.26922E+05         0.00000E+00
    0.26922E+05        -0.59957E+08         0.00000E+00
    0.00000E+00         0.00000E+00        -0.30123E+08
 
   -0.30112E+08         0.27766E+05         0.00000E+00
    0.27766E+05        -0.59952E+08         0.00000E+00
    0.00000E+00         0.00000E+00        -0.30116E+08
 
   -0.30275E+08         0.22879E+04         0.00000E+00
    0.22879E+04        -0.60000E+08         0.00000E+00
    0.00000E+00         0.00000E+00        -0.30017E+08
 
   -0.30251E+08         0.65107E+04         0.00000E+00
    0.65107E+04        -0.59999E+08         0.00000E+00
    0.00000E+00         0.00000E+00        -0.30039E+08
 
   -0.30229E+08         0.10299E+05         0.00000E+00
    0.10299E+05        -0.59997E+08         0.00000E+00
    0.00000E+00         0.00000E+00        -0.30059E+08
 
   -0.30209E+08         0.13677E+05         0.00000E+00
    0.13677E+05        -0.59995E+08         0.00000E+00
    0.00000E+00         0.00000E+00        -0.30076E+08
 
   -0.30191E+08         0.16673E+05         0.00000E+00
    0.16673E+05        -0.59992E+08         0.00000E+00
    0.00000E+00         0.00000E+00        -0.30090E+08
 
   -0.30174E+08         0.19314E+05         0.00000E+00
    0.19314E+05        -0.59989E+08         0.00000E+00
    0.00000E+00         0.00000E+00        -0.30102E+08
 
   -0.30160E+08         0.21633E+05         0.00000E+00
    0.21633E+05        -0.59985E+08         0.00000E+00
    0.00000E+00         0.00000E+00        -0.30112E+08
 
   -0.30147E+08         0.23660E+05         0.00000E+00
    0.23660E+05        -0.59982E+08         0.00000E+00
    0.00000E+00         0.00000E+00        -0.30119E+08
 
   -0.30137E+08         0.25428E+05         0.00000E+00
    0.25428E+05        -0.59978E+08         0.00000E+00
    0.00000E+00         0.00000E+00        -0.30124E+08
 
   -0.30128E+08         0.26966E+05         0.00000E+00
    0.26966E+05        -0.59973E+08         0.00000E+00
    0.00000E+00         0.00000E+00        -0.30128E+08
 
   -0.30121E+08         0.28307E+05         0.00000E+00
    0.28307E+05        -0.59969E+08         0.00000E+00
    0.00000E+00         0.00000E+00        -0.30129E+08
 
   -0.30116E+08         0.29483E+05         0.00000E+00
    0.29483E+05        -0.59965E+08         0.00000E+00
    0.00000E+00         0.00000E+00        -0.30128E+08
 
   -0.30113E+08         0.30526E+05         0.00000E+00
    0.30526E+05        -0.59960E+08         0.00000E+00
    0.00000E+00         0.00000E+00        -0.30126E+08
 
   -0.30111E+08         0.31471E+05         0.00000E+00
    0.31471E+05        -0.59956E+08         0.00000E+00
    0.00000E+00         0.00000E+00        -0.30121E+08
 
   -0.30111E+08         0.32354E+05         0.00000E+00
    0.32354E+05        -0.59951E+08         0.00000E+00
    0.00000E+00         0.00000E+00        -0.30115E+08
 
   -0.30270E+08         0.27570E+04         0.00000E+00
    0.27570E+04        -0.60000E+08         0.00000E+00
    0.00000E+00         0.00000E+00        -0.30021E+08
 
   -0.30246E+08         0.78129E+04         0.00000E+00
    0.78129E+04        -0.59999E+08         0.00000E+00
    0.00000E+00         0.00000E+00        -0.30043E+08
 
   -0.30225E+08         0.12309E+05         0.00000E+00
    0.12309E+05        -0.59997E+08         0.00000E+00
    0.00000E+00         0.00000E+00        -0.30061E+08
 
   -0.30205E+08         0.16279E+05         0.00000E+00
    0.16279E+05        -0.59995E+08         0.00000E+00
    0.00000E+00         0.00000E+00        -0.30078E+08
 
   -0.30187E+08         0.19760E+05         0.00000E+00
    0.19760E+05        -0.59992E+08         0.00000E+00
    0.00000E+00         0.00000E+00        -0.30091E+08
 
   -0.30172E+08         0.22789E+05         0.00000E+00
    0.22789E+05        -0.59988E+08         0.00000E+00
    0.00000E+00         0.00000E+00        -0.30103E+08
 
   -0.30158E+08         0.25408E+05         0.00000E+00
    0.25408E+05        -0.59985E+08         0.00000E+00
    0.00000E+00         0.00000E+00        -0.30112E+08
 
   -0.30145E+08         0.27661E+05         0.00000E+00
    0.27661E+05        -0.59981E+08         0.00000E+00
    0.00000E+00         0.00000E+00        -0.30119E+08
 
   -0.30135E+08         0.29591E+05         0.00000E+00
    0.29591E+05        -0.59976E+08         0.00000E+00
    0.00000E+00         0.00000E+00        -0.30124E+08
 
   -0.30127E+08         0.31236E+05         0.00000E+00
    0.31236E+05        -0.59972E+08         0.00000E+00
    0.00000E+00         0.00000E+00        -0.30126E+08
 
   -0.30120E+08         0.32641E+05         0.00000E+00
    0.32641E+05        -0.59968E+08         0.00000E+00
    0.00000E+00         0.00000E+00        -0.30127E+08
 
   -0.30115E+08         0.33845E+05         0.00000E+00
    0.33845E+05        -0.59964E+08         0.00000E+00
    0.00000E+00         0.00000E+00        -0.30127E+08
 
   -0.30112E+08         0.34892E+05         0.00000E+00
    0.34892E+05        -0.59959E+08         0.00000E+00
    0.00000E+00         0.00000E+00        -0.30124E+08
 
   -0.30110E+08         0.35824E+05         0.00000E+00
    0.35824E+05        -0.59955E+08         0.00000E+00
    0.00000E+00         0.00000E+00        -0.30120E+08
 
   -0.30111E+08         0.36688E+05         0.00000E+00
    0.36688E+05        -0.59951E+08         0.00000E+00
    0.00000E+00         0.00000E+00        -0.30114E+08
 
   -0.30264E+08         0.32708E+04         0.00000E+00
    0.32708E+04        -0.60000E+08         0.00000E+00
    0.00000E+00         0.00000E+00        -0.30025E+08
 
   -0.30241E+08         0.92294E+04         0.00000E+00
    0.92294E+04        -0.59999E+08         0.00000E+00
    0.00000E+00         0.00000E+00        -0.30046E+08
 
   -0.30220E+08         0.14481E+05         0.00000E+00
    0.14481E+05        -0.59997E+08         0.00000E+00
    0.00000E+00         0.00000E+00        -0.30064E+08
 
   -0.30201E+08         0.19068E+05         0.00000E+00
    0.19068E+05        -0.59994E+08         0.00000E+00
    0.00000E+00         0.00000E+00        -0.30080E+08
 
   -0.30184E+08         0.23040E+05         0.00000E+00
    0.23040E+05        -0.59991E+08         0.00000E+00
    0.00000E+00         0.00000E+00        -0.30093E+08
 
   -0.30169E+08         0.26447E+05         0.00000E+00
    0.26447E+05        -0.59987E+08         0.00000E+00
    0.00000E+00         0.00000E+00        -0.30103E+08
 
   -0.30155E+08         0.29344E+05         0.00000E+00
    0.29344E+05        -0.59984E+08         0.00000E+00
    0.00000E+00         0.00000E+00        -0.30112E+08
 
   -0.30143E+08         0.31786E+05         0.00000E+00
    0.31786E+05        -0.59979E+08         0.00000E+00
    0.00000E+00         0.00000E+00        -0.30118E+08
 
   -0.30133E+08         0.33830E+05         0.00000E+00
    0.33830E+05        -0.59975E+08         0.00000E+00
    0.00000E+00         0.00000E+00        -0.30122E+08
 
   -0.30125E+08         0.35528E+05         0.00000E+00
    0.35528E+05        -0.59971E+08         0.00000E+00
    0.00000E+00         0.00000E+00        -0.30125E+08
 
   -0.30119E+08         0.36935E+05         0.00000E+00
    0.36935E+05        -0.59967E+08         0.00000E+00
    0.00000E+00         0.00000E+00        -0.30126E+08
 
   -0.30114E+08         0.38102E+05         0.00000E+00
    0.38102E+05        -0.59962E+08         0.00000E+00
    0.00000E+00         0.00000E+00        -0.30125E+08
 
   -0.30111E+08         0.39082E+05         0.00000E+00
    0.39082E+05        -0.59958E+08         0.00000E+00
    0.00000E+00         0.00000E+00        -0.30123E+08
 
   -0.30110E+08         0.39932E+05         0.00000E+00
    0.39932E+05        -0.59954E+08         0.00000E+00
    0.00000E+00         0.00000E+00        -0.30119E+08
 
   -0.30110E+08         0.40709E+05         0.00000E+00
    0.40709E+05        -0.59950E+08         0.00000E+00
    0.00000E+00         0.00000E+00        -0.30113E+08
 
   -0.30257E+08         0.38311E+04         0.00000E+00
    0.38311E+04        -0.60000E+08         0.00000E+00
    0.00000E+00         0.00000E+00        -0.30030E+08
 
   -0.30235E+08         0.10764E+05         0.00000E+00
    0.10764E+05        -0.59998E+08         0.00000E+00
    0.00000E+00         0.00000E+00        -0.30051E+08
 
   -0.30215E+08         0.16818E+05         0.00000E+00
    0.16818E+05        -0.59996E+08         0.00000E+00
    0.00000E+00         0.00000E+00        -0.30068E+08
 
   -0.30197E+08         0.22050E+05         0.00000E+00
    0.22050E+05        -0.59994E+08         0.00000E+00
    0.00000E+00         0.00000E+00        -0.30082E+08
 
   -0.30180E+08         0.26519E+05         0.00000E+00
    0.26519E+05        -0.59990E+08         0.00000E+00
    0.00000E+00         0.00000E+00        -0.30094E+08
 
   -0.30165E+08         0.30292E+05         0.00000E+00
    0.30292E+05        -0.59987E+08         0.00000E+00
    0.00000E+00         0.00000E+00        -0.30104E+08
 
   -0.30152E+08         0.33439E+05         0.00000E+00
    0.33439E+05        -0.59983E+08         0.00000E+00
    0.00000E+00         0.00000E+00        -0.30112E+08
 
   -0.30141E+08         0.36030E+05         0.00000E+00
    0.36030E+05        -0.59978E+08         0.00000E+00
    0.00000E+00         0.00000E+00        -0.30117E+08
 
   -0.30131E+08         0.38136E+05         0.00000E+00
    0.38136E+05        -0.59974E+08         0.00000E+00
    0.00000E+00         0.00000E+00        -0.30121E+08
 
   -0.30124E+08         0.39825E+05         0.00000E+00
    0.39825E+05        -0.59970E+08         0.00000E+00
    0.00000E+00         0.00000E+00        -0.30124E+08
 
   -0.30117E+08         0.41163E+05         0.00000E+00
    0.41163E+05        -0.59965E+08         0.00000E+00
    0.00000E+00         0.00000E+00        -0.30124E+08
 
   -0.30113E+08         0.42217E+05         0.00000E+00
    0.42217E+05        -0.59961E+08         0.00000E+00
    0.00000E+00         0.00000E+00        -0.30123E+08
 
   -0.30110E+08         0.43053E+05         0.00000E+00
    0.43053E+05        -0.59957E+08         0.00000E+00
    0.00000E+00         0.00000E+00        -0.30121E+08
 
   -0.30109E+08         0.43741E+05         0.00000E+00
    0.43741E+05        -0.59954E+08         0.00000E+00
    0.00000E+00         0.00000E+00        -0.30117E+08
 
   -0.30109E+08         0.44354E+05         0.00000E+00
    0.44354E+05        -0.59950E+08         0.00000E+00
    0.00000E+00         0.00000E+00        -0.30112E+08
 
   -0.30249E+08         0.44373E+04         0.00000E+00
    0.44373E+04        -0.60000E+08         0.00000E+00
    0.00000E+00         0.00000E+00        -0.30037E+08
 
   -0.30228E+08         0.12416E+05         0.00000E+00
    0.12416E+05        -0.59998E+08         0.00000E+00
    0.00000E+00         0.00000E+00        -0.30056E+08
 
   -0.30209E+08         0.19320E+05         0.00000E+00
    0.19320E+05        -0.59996E+08         0.00000E+00
    0.00000E+00         0.00000E+00        -0.30072E+08
 
   -0.30191E+08         0.25221E+05         0.00000E+00
    0.25221E+05        -0.59993E+08         0.00000E+00
    0.00000E+00         0.00000E+00        -0.30085E+08
 
   -0.30176E+08         0.30193E+05         0.00000E+00
    0.30193E+05        -0.59990E+08         0.00000E+00
    0.00000E+00         0.00000E+00        -0.30096E+08
 
   -0.30162E+08         0.34320E+05         0.00000E+00
    0.34320E+05        -0.59986E+08         0.00000E+00
    0.00000E+00         0.00000E+00        -0.30105E+08
 
   -0.30149E+08         0.37687E+05         0.00000E+00
    0.37687E+05        -0.59982E+08         0.00000E+00
    0.00000E+00         0.00000E+00        -0.30112E+08
 
   -0.30139E+08         0.40382E+05         0.00000E+00
    0.40382E+05        -0.59977E+08         0.00000E+00
    0.00000E+00         0.00000E+00        -0.30117E+08
 
   -0.30130E+08         0.42492E+05         0.00000E+00
    0.42492E+05        -0.59973E+08         0.00000E+00
    0.00000E+00         0.00000E+00        -0.30120E+08
 
   -0.30122E+08         0.44102E+05         0.00000E+00
    0.44102E+05        -0.59969E+08         0.00000E+00
    0.00000E+00         0.00000E+00        -0.30122E+08
 
   -0.30116E+08         0.45293E+05         0.00000E+00
    0.45293E+05        -0.59964E+08         0.00000E+00
    0.00000E+00         0.00000E+00        -0.30122E+08
 
   -0.30112E+08         0.46148E+05         0.00000E+00
    0.46148E+05        -0.59960E+08         0.00000E+00
    0.00000E+00         0.00000E+00        -0.30121E+08
 
   -0.30109E+08         0.46750E+05         0.00000E+00
    0.46750E+05        -0.59957E+08         0.00000E+00
    0.00000E+00         0.00000E+00        -0.30119E+08
 
   -0.30108E+08         0.47186E+05         0.00000E+00
    0.47186E+05        -0.59953E+08         0.00000E+00
    0.00000E+00         0.00000E+00        -0.30116E+08
 
   -0.30109E+08         0.47546E+05         0.00000E+00
    0.47546E+05        -0.59950E+08         0.00000E+00
    0.00000E+00         0.00000E+00        -0.30112E+08
 
   -0.30240E+08         0.50864E+04         0.00000E+00
    0.50864E+04        -0.59999E+08         0.00000E+00
    0.00000E+00         0.00000E+00        -0.30044E+08
 
   -0.30220E+08         0.14176E+05         0.00000E+00
    0.14176E+05        -0.59998E+08         0.00000E+00
    0.00000E+00         0.00000E+00        -0.30062E+08
 
   -0.30202E+08         0.21976E+05         0.00000E+00
    0.21976E+05        -0.59996E+08         0.00000E+00
    0.00000E+00         0.00000E+00        -0.30077E+08
 
   -0.30186E+08         0.28569E+05         0.00000E+00
    0.28569E+05        -0.59993E+08         0.00000E+00
    0.00000E+00         0.00000E+00        -0.30089E+08
 
   -0.30171E+08         0.34049E+05         0.00000E+00
    0.34049E+05        -0.59989E+08         0.00000E+00
    0.00000E+00         0.00000E+00        -0.30099E+08
 
   -0.30158E+08         0.38515E+05         0.00000E+00
    0.38515E+05        -0.59985E+08         0.00000E+00
    0.00000E+00         0.00000E+00        -0.30106E+08
 
   -0.30146E+08         0.42071E+05         0.00000E+00
    0.42071E+05        -0.59981E+08         0.00000E+00
    0.00000E+00         0.00000E+00        -0.30112E+08
 
   -0.30136E+08         0.44822E+05         0.00000E+00
    0.44822E+05        -0.59976E+08         0.00000E+00
    0.00000E+00         0.00000E+00        -0.30116E+08
 
   -0.30128E+08         0.46873E+05         0.00000E+00
    0.46873E+05        -0.59972E+08         0.00000E+00
    0.00000E+00         0.00000E+00        -0.30119E+08
 
   -0.30121E+08         0.48325E+05         0.00000E+00
    0.48325E+05        -0.59968E+08         0.00000E+00
    0.00000E+00         0.00000E+00        -0.30120E+08
 
   -0.30115E+08         0.49282E+05         0.00000E+00
    0.49282E+05        -0.59964E+08         0.00000E+00
    0.00000E+00         0.00000E+00        -0.30120E+08
 
   -0.30111E+08         0.49843E+05         0.00000E+00
    0.49843E+05        -0.59960E+08         0.00000E+00
    0.00000E+00         0.00000E+00        -0.30119E+08
 
   -0.30109E+08         0.50111E+05         0.00000E+00
    0.50111E+05        -0.59956E+08         0.00000E+00
    0.00000E+00         0.00000E+00        -0.30117E+08
 
   -0.30108E+08         0.50194E+05         0.00000E+00
    0.50194E+05        -0.59954E+08         0.00000E+00
    0.00000E+00         0.00000E+00        -0.30115E+08
 
   -0.30108E+08         0.50202E+05         0.00000E+00
    0.50202E+05        -0.59951E+08         0.00000E+00
    0.00000E+00         0.00000E+00        -0.30111E+08
 
   -0.30229E+08         0.57723E+04         0.00000E+00
    0.57723E+04        -0.59999E+08         0.00000E+00
    0.00000E+00         0.00000E+00        -0.30052E+08
 
   -0.30211E+08         0.16031E+05         0.00000E+00
    0.16031E+05        -0.59998E+08         0.00000E+00
    0.00000E+00         0.00000E+00        -0.30069E+08
 
   -0.30195E+08         0.24765E+05         0.00000E+00
    0.24765E+05        -0.59996E+08         0.00000E+00
    0.00000E+00         0.00000E+00        -0.30082E+08
 
   -0.30179E+08         0.32074E+05         0.00000E+00
    0.32074E+05        -0.59993E+08         0.00000E+00
    0.00000E+00         0.00000E+00        -0.30093E+08
 
   -0.30166E+08         0.38065E+05         0.00000E+00
    0.38065E+05        -0.59989E+08         0.00000E+00
    0.00000E+00         0.00000E+00        -0.30101E+08
 
   -0.30154E+08         0.42855E+05         0.00000E+00
    0.42855E+05        -0.59985E+08         0.00000E+00
    0.00000E+00         0.00000E+00        -0.30108E+08
 
   -0.30143E+08         0.46566E+05         0.00000E+00
    0.46566E+05        -0.59980E+08         0.00000E+00
    0.00000E+00         0.00000E+00        -0.30113E+08
 
   -0.30134E+08         0.49320E+05         0.00000E+00
    0.49320E+05        -0.59976E+08         0.00000E+00
    0.00000E+00         0.00000E+00        -0.30116E+08
 
   -0.30126E+08         0.51241E+05         0.00000E+00
    0.51241E+05        -0.59971E+08         0.00000E+00
    0.00000E+00         0.00000E+00        -0.30118E+08
 
   -0.30120E+08         0.52453E+05         0.00000E+00
    0.52453E+05        -0.59967E+08         0.00000E+00
    0.00000E+00         0.00000E+00        -0.30119E+08
 
   -0.30115E+08         0.53078E+05         0.00000E+00
    0.53078E+05        -0.59963E+08         0.00000E+00
    0.00000E+00         0.00000E+00        -0.30119E+08
 
   -0.30111E+08         0.53238E+05         0.00000E+00
    0.53238E+05        -0.59960E+08         0.00000E+00
    0.00000E+00         0.00000E+00        -0.30118E+08
 
   -0.30109E+08         0.53062E+05         0.00000E+00
    0.53062E+05        -0.59957E+08         0.00000E+00
    0.00000E+00         0.00000E+00        -0.30116E+08
 
   -0.30108E+08         0.52682E+05         0.00000E+00
    0.52682E+05        -0.59954E+08         0.00000E+00
    0.00000E+00         0.00000E+00        -0.30113E+08
 
   -0.30109E+08         0.52231E+05         0.00000E+00
    0.52231E+05        -0.59952E+08         0.00000E+00
    0.00000E+00         0.00000E+00        -0.30111E+08
 
   -0.30218E+08         0.64857E+04         0.00000E+00
    0.64857E+04        -0.59999E+08         0.00000E+00
    0.00000E+00         0.00000E+00        -0.30062E+08
 
   -0.30201E+08         0.17956E+05         0.00000E+00
    0.17956E+05        -0.59998E+08         0.00000E+00
    0.00000E+00         0.00000E+00        -0.30077E+08
 
   -0.30186E+08         0.27658E+05         0.00000E+00
    0.27658E+05        -0.59996E+08         0.00000E+00
    0.00000E+00         0.00000E+00        -0.30088E+08
 
   -0.30172E+08         0.35700E+05         0.00000E+00
    0.35700E+05        -0.59992E+08         0.00000E+00
    0.00000E+00         0.00000E+00        -0.30098E+08
 
   -0.30160E+08         0.42205E+05         0.00000E+00
    0.42205E+05        -0.59988E+08         0.00000E+00
    0.00000E+00         0.00000E+00        -0.30105E+08
 
   -0.30149E+08         0.47303E+05         0.00000E+00
    0.47303E+05        -0.59984E+08         0.00000E+00
    0.00000E+00         0.00000E+00        -0.30110E+08
 
   -0.30140E+08         0.51133E+05         0.00000E+00
    0.51133E+05        -0.59980E+08         0.00000E+00
    0.00000E+00         0.00000E+00        -0.30113E+08
 
   -0.30132E+08         0.53835E+05         0.00000E+00
    0.53835E+05        -0.59975E+08         0.00000E+00
    0.00000E+00         0.00000E+00        -0.30116E+08
 
   -0.30125E+08         0.55552E+05         0.00000E+00
    0.55552E+05        -0.59971E+08         0.00000E+00
    0.00000E+00         0.00000E+00        -0.30117E+08
 
   -0.30119E+08         0.56429E+05         0.00000E+00
    0.56429E+05        -0.59967E+08         0.00000E+00
    0.00000E+00         0.00000E+00        -0.30117E+08
 
   -0.30115E+08         0.56614E+05         0.00000E+00
    0.56614E+05        -0.59963E+08         0.00000E+00
    0.00000E+00         0.00000E+00        -0.30117E+08
 
   -0.30112E+08         0.56259E+05         0.00000E+00
    0.56259E+05        -0.59960E+08         0.00000E+00
    0.00000E+00         0.00000E+00        -0.30116E+08
 
   -0.30110E+08         0.55520E+05         0.00000E+00
    0.55520E+05        -0.59957E+08         0.00000E+00
    0.00000E+00         0.00000E+00        -0.30114E+08
 
   -0.30109E+08         0.54558E+05         0.00000E+00
    0.54558E+05        -0.59956E+08         0.00000E+00
    0.00000E+00         0.00000E+00        -0.30113E+08
 
   -0.30109E+08         0.53535E+05         0.00000E+00
    0.53535E+05        -0.59954E+08         0.00000E+00
    0.00000E+00         0.00000E+00        -0.30111E+08
 
   -0.30205E+08         0.72145E+04         0.00000E+00
    0.72145E+04        -0.59999E+08         0.00000E+00
    0.00000E+00         0.00000E+00        -0.30073E+08
 
   -0.30190E+08         0.19923E+05         0.00000E+00
    0.19923E+05        -0.59998E+08         0.00000E+00
    0.00000E+00         0.00000E+00        -0.30086E+08
 
   -0.30177E+08         0.30614E+05         0.00000E+00
    0.30614E+05        -0.59996E+08         0.00000E+00
    0.00000E+00         0.00000E+00        -0.30095E+08
 
   -0.30165E+08         0.39403E+05         0.00000E+00
    0.39403E+05        -0.59992E+08         0.00000E+00
    0.00000E+00         0.00000E+00        -0.30103E+08
 
   -0.30154E+08         0.46423E+05         0.00000E+00
    0.46423E+05        -0.59988E+08         0.00000E+00
    0.00000E+00         0.00000E+00        -0.30108E+08
 
   -0.30145E+08         0.51813E+05         0.00000E+00
    0.51813E+05        -0.59984E+08         0.00000E+00
    0.00000E+00         0.00000E+00        -0.30112E+08
 
   -0.30137E+08         0.55723E+05         0.00000E+00
    0.55723E+05        -0.59979E+08         0.00000E+00
    0.00000E+00         0.00000E+00        -0.30114E+08
 
   -0.30129E+08         0.58311E+05         0.00000E+00
    0.58311E+05        -0.59975E+08         0.00000E+00
    0.00000E+00         0.00000E+00        -0.30115E+08
 
   -0.30124E+08         0.59739E+05         0.00000E+00
    0.59739E+05        -0.59971E+08         0.00000E+00
    0.00000E+00         0.00000E+00        -0.30116E+08
 
   -0.30119E+08         0.60179E+05         0.00000E+00
    0.60179E+05        -0.59967E+08         0.00000E+00
    0.00000E+00         0.00000E+00        -0.30115E+08
 
   -0.30115E+08         0.59810E+05         0.00000E+00
    0.59810E+05        -0.59963E+08         0.00000E+00
    0.00000E+00         0.00000E+00        -0.30115E+08
 
   -0.30112E+08         0.58816E+05         0.00000E+00
    0.58816E+05        -0.59961E+08         0.00000E+00
    0.00000E+00         0.00000E+00        -0.30114E+08
 
   -0.30111E+08         0.57390E+05         0.00000E+00
    0.57390E+05        -0.59959E+08         0.00000E+00
    0.00000E+00         0.00000E+00        -0.30113E+08
 
   -0.30110E+08         0.55726E+05         0.00000E+00
    0.55726E+05        -0.59958E+08         0.00000E+00
    0.00000E+00         0.00000E+00        -0.30112E+08
 
   -0.30111E+08         0.54014E+05         0.00000E+00
    0.54014E+05        -0.59957E+08         0.00000E+00
    0.00000E+00         0.00000E+00        -0.30111E+08
 
   -0.30190E+08         0.79439E+04         0.00000E+00
    0.79439E+04        -0.59999E+08         0.00000E+00
    0.00000E+00         0.00000E+00        -0.30085E+08
 
   -0.30178E+08         0.21894E+05         0.00000E+00
    0.21894E+05        -0.59998E+08         0.00000E+00
    0.00000E+00         0.00000E+00        -0.30096E+08
 
   -0.30167E+08         0.33582E+05         0.00000E+00
    0.33582E+05        -0.59996E+08         0.00000E+00
    0.00000E+00         0.00000E+00        -0.30103E+08
 
   -0.30157E+08         0.43126E+05         0.00000E+00
    0.43126E+05        -0.59992E+08         0.00000E+00
    0.00000E+00         0.00000E+00        -0.30109E+08
 
   -0.30148E+08         0.50657E+05         0.00000E+00
    0.50657E+05        -0.59988E+08         0.00000E+00
    0.00000E+00         0.00000E+00        -0.30113E+08
 
   -0.30140E+08         0.56319E+05         0.00000E+00
    0.56319E+05        -0.59984E+08         0.00000E+00
    0.00000E+00         0.00000E+00        -0.30115E+08
 
   -0.30133E+08         0.60268E+05         0.00000E+00
    0.60268E+05        -0.59980E+08         0.00000E+00
    0.00000E+00         0.00000E+00        -0.30115E+08
 
   -0.30128E+08         0.62674E+05         0.00000E+00
    0.62674E+05        -0.59975E+08         0.00000E+00
    0.00000E+00         0.00000E+00        -0.30115E+08
 
   -0.30123E+08         0.63723E+05         0.00000E+00
    0.63723E+05        -0.59971E+08         0.00000E+00
    0.00000E+00         0.00000E+00        -0.30115E+08
 
   -0.30119E+08         0.63615E+05         0.00000E+00
    0.63615E+05        -0.59968E+08         0.00000E+00
    0.00000E+00         0.00000E+00        -0.30114E+08
 
   -0.30116E+08         0.62567E+05         0.00000E+00
    0.62567E+05        -0.59965E+08         0.00000E+00
    0.00000E+00         0.00000E+00        -0.30113E+08
 
   -0.30114E+08         0.60808E+05         0.00000E+00
    0.60808E+05        -0.59963E+08         0.00000E+00
    0.00000E+00         0.00000E+00        -0.30113E+08
 
   -0.30113E+08         0.58570E+05         0.00000E+00
    0.58570E+05        -0.59961E+08         0.00000E+00
    0.00000E+00         0.00000E+00        -0.30112E+08
 
   -0.30112E+08         0.56085E+05         0.00000E+00
    0.56085E+05        -0.59961E+08         0.00000E+00
    0.00000E+00         0.00000E+00        -0.30112E+08
 
   -0.30113E+08         0.53571E+05         0.00000E+00
    0.53571E+05        -0.59962E+08         0.00000E+00
    0.00000E+00         0.00000E+00        -0.30113E+08
 
   -0.30174E+08         0.86577E+04         0.00000E+00
    0.86577E+04        -0.60000E+08         0.00000E+00
    0.00000E+00         0.00000E+00        -0.30098E+08
 
   -0.30164E+08         0.23829E+05         0.00000E+00
    0.23829E+05        -0.59998E+08         0.00000E+00
    0.00000E+00         0.00000E+00        -0.30107E+08
 
   -0.30156E+08         0.36505E+05         0.00000E+00
    0.36505E+05        -0.59996E+08         0.00000E+00
    0.00000E+00         0.00000E+00        -0.30112E+08
 
   -0.30148E+08         0.46799E+05         0.00000E+00
    0.46799E+05        -0.59993E+08         0.00000E+00
    0.00000E+00         0.00000E+00        -0.30116E+08
 
   -0.30141E+08         0.54832E+05         0.00000E+00
    0.54832E+05        -0.59989E+08         0.00000E+00
    0.00000E+00         0.00000E+00        -0.30117E+08
 
   -0.30135E+08         0.60740E+05         0.00000E+00
    0.60740E+05        -0.59984E+08         0.00000E+00
    0.00000E+00         0.00000E+00        -0.30118E+08
 
   -0.30130E+08         0.64679E+05         0.00000E+00
    0.64679E+05        -0.59980E+08         0.00000E+00
    0.00000E+00         0.00000E+00        -0.30117E+08
 
   -0.30126E+08         0.66828E+05         0.00000E+00
    0.66828E+05        -0.59976E+08         0.00000E+00
    0.00000E+00         0.00000E+00        -0.30116E+08
 
   -0.30123E+08         0.67396E+05         0.00000E+00
    0.67396E+05        -0.59972E+08         0.00000E+00
    0.00000E+00         0.00000E+00        -0.30114E+08
 
   -0.30120E+08         0.66622E+05         0.00000E+00
    0.66622E+05        -0.59969E+08         0.00000E+00
    0.00000E+00         0.00000E+00        -0.30113E+08
 
   -0.30118E+08         0.64769E+05         0.00000E+00
    0.64769E+05        -0.59967E+08         0.00000E+00
    0.00000E+00         0.00000E+00        -0.30112E+08
 
   -0.30116E+08         0.62118E+05         0.00000E+00
    0.62118E+05        -0.59965E+08         0.00000E+00
    0.00000E+00         0.00000E+00        -0.30111E+08
 
   -0.30116E+08         0.58954E+05         0.00000E+00
    0.58954E+05        -0.59965E+08         0.00000E+00
    0.00000E+00         0.00000E+00        -0.30112E+08
 
   -0.30115E+08         0.55542E+05         0.00000E+00
    0.55542E+05        -0.59966E+08         0.00000E+00
    0.00000E+00         0.00000E+00        -0.30113E+08
 
   -0.30115E+08         0.52128E+05         0.00000E+00
    0.52128E+05        -0.59967E+08         0.00000E+00
    0.00000E+00         0.00000E+00        -0.30115E+08
 
   -0.30157E+08         0.93403E+04         0.00000E+00
    0.93403E+04        -0.60000E+08         0.00000E+00
    0.00000E+00         0.00000E+00        -0.30113E+08
 
   -0.30150E+08         0.25683E+05         0.00000E+00
    0.25683E+05        -0.59998E+08         0.00000E+00
    0.00000E+00         0.00000E+00        -0.30119E+08
 
   -0.30144E+08         0.39318E+05         0.00000E+00
    0.39318E+05        -0.59996E+08         0.00000E+00
    0.00000E+00         0.00000E+00        -0.30122E+08
 
   -0.30138E+08         0.50340E+05         0.00000E+00
    0.50340E+05        -0.59993E+08         0.00000E+00
    0.00000E+00         0.00000E+00        -0.30123E+08
 
   -0.30134E+08         0.58851E+05         0.00000E+00
    0.58851E+05        -0.59989E+08         0.00000E+00
    0.00000E+00         0.00000E+00        -0.30123E+08
 
   -0.30130E+08         0.64968E+05         0.00000E+00
    0.64968E+05        -0.59985E+08         0.00000E+00
    0.00000E+00         0.00000E+00        -0.30121E+08
 
   -0.30127E+08         0.68837E+05         0.00000E+00
    0.68837E+05        -0.59981E+08         0.00000E+00
    0.00000E+00         0.00000E+00        -0.30119E+08
 
   -0.30125E+08         0.70643E+05         0.00000E+00
    0.70643E+05        -0.59977E+08         0.00000E+00
    0.00000E+00         0.00000E+00        -0.30116E+08
 
   -0.30123E+08         0.70623E+05         0.00000E+00
    0.70623E+05        -0.59974E+08         0.00000E+00
    0.00000E+00         0.00000E+00        -0.30114E+08
 
   -0.30122E+08         0.69061E+05         0.00000E+00
    0.69061E+05        -0.59972E+08         0.00000E+00
    0.00000E+00         0.00000E+00        -0.30112E+08
 
   -0.30121E+08         0.66282E+05         0.00000E+00
    0.66282E+05        -0.59970E+08         0.00000E+00
    0.00000E+00         0.00000E+00        -0.30111E+08
 
   -0.30120E+08         0.62630E+05         0.00000E+00
    0.62630E+05        -0.59969E+08         0.00000E+00
    0.00000E+00         0.00000E+00        -0.30111E+08
 
   -0.30119E+08         0.58441E+05         0.00000E+00
    0.58441E+05        -0.59970E+08         0.00000E+00
    0.00000E+00         0.00000E+00        -0.30112E+08
 
   -0.30119E+08         0.54023E+05         0.00000E+00
    0.54023E+05        -0.59971E+08         0.00000E+00
    0.00000E+00         0.00000E+00        -0.30114E+08
 
   -0.30119E+08         0.49629E+05         0.00000E+00
    0.49629E+05        -0.59974E+08         0.00000E+00
    0.00000E+00         0.00000E+00        -0.30118E+08
 
   -0.30139E+08         0.99779E+04         0.00000E+00
    0.99779E+04        -0.60000E+08         0.00000E+00
    0.00000E+00         0.00000E+00        -0.30129E+08
 
   -0.30134E+08         0.27419E+05         0.00000E+00
    0.27419E+05        -0.59998E+08         0.00000E+00
    0.00000E+00         0.00000E+00        -0.30132E+08
 
   -0.30131E+08         0.41955E+05         0.00000E+00
    0.41955E+05        -0.59996E+08         0.00000E+00
    0.00000E+00         0.00000E+00        -0.30133E+08
 
   -0.30128E+08         0.53656E+05         0.00000E+00
    0.53656E+05        -0.59993E+08         0.00000E+00
    0.00000E+00         0.00000E+00        -0.30132E+08
 
   -0.30126E+08         0.62595E+05         0.00000E+00
    0.62595E+05        -0.59990E+08         0.00000E+00
    0.00000E+00         0.00000E+00        -0.30129E+08
 
   -0.30125E+08         0.68863E+05         0.00000E+00
    0.68863E+05        -0.59986E+08         0.00000E+00
    0.00000E+00         0.00000E+00        -0.30126E+08
 
   -0.30125E+08         0.72584E+05         0.00000E+00
    0.72584E+05        -0.59983E+08         0.00000E+00
    0.00000E+00         0.00000E+00        -0.30122E+08
 
   -0.30124E+08         0.73951E+05         0.00000E+00
    0.73951E+05        -0.59980E+08         0.00000E+00
    0.00000E+00         0.00000E+00        -0.30118E+08
 
   -0.30124E+08         0.73231E+05         0.00000E+00
    0.73231E+05        -0.59977E+08         0.00000E+00
    0.00000E+00         0.00000E+00        -0.30114E+08
 
   -0.30124E+08         0.70769E+05         0.00000E+00
    0.70769E+05        -0.59975E+08         0.00000E+00
    0.00000E+00         0.00000E+00        -0.30112E+08
 
   -0.30124E+08         0.66963E+05         0.00000E+00
    0.66963E+05        -0.59975E+08         0.00000E+00
    0.00000E+00         0.00000E+00        -0.30111E+08
 
   -0.30124E+08         0.62228E+05         0.00000E+00
    0.62228E+05        -0.59975E+08         0.00000E+00
    0.00000E+00         0.00000E+00        -0.30111E+08
 
   -0.30124E+08         0.56955E+05         0.00000E+00
    0.56955E+05        -0.59976E+08         0.00000E+00
    0.00000E+00         0.00000E+00        -0.30113E+08
 
   -0.30124E+08         0.51480E+05         0.00000E+00
    0.51480E+05        -0.59979E+08         0.00000E+00
    0.00000E+00         0.00000E+00        -0.30117E+08
 
   -0.30124E+08         0.46061E+05         0.00000E+00
    0.46061E+05        -0.59983E+08         0.00000E+00
    0.00000E+00         0.00000E+00        -0.30121E+08
 
   -0.30119E+08         0.10563E+05         0.00000E+00
    0.10563E+05        -0.60000E+08         0.00000E+00
    0.00000E+00         0.00000E+00        -0.30146E+08
 
   -0.30118E+08         0.29001E+05         0.00000E+00
    0.29001E+05        -0.59999E+08         0.00000E+00
    0.00000E+00         0.00000E+00        -0.30146E+08
 
   -0.30117E+08         0.44347E+05         0.00000E+00
    0.44347E+05        -0.59997E+08         0.00000E+00
    0.00000E+00         0.00000E+00        -0.30144E+08
 
   -0.30118E+08         0.56641E+05         0.00000E+00
    0.56641E+05        -0.59994E+08         0.00000E+00
    0.00000E+00         0.00000E+00        -0.30141E+08
 
   -0.30119E+08         0.65920E+05         0.00000E+00
    0.65920E+05        -0.59991E+08         0.00000E+00
    0.00000E+00         0.00000E+00        -0.30136E+08
 
   -0.30120E+08         0.72241E+05         0.00000E+00
    0.72241E+05        -0.59988E+08         0.00000E+00
    0.00000E+00         0.00000E+00        -0.30130E+08
 
   -0.30122E+08         0.75712E+05         0.00000E+00
    0.75712E+05        -0.59985E+08         0.00000E+00
    0.00000E+00         0.00000E+00        -0.30124E+08
 
   -0.30124E+08         0.76530E+05         0.00000E+00
    0.76530E+05        -0.59983E+08         0.00000E+00
    0.00000E+00         0.00000E+00        -0.30119E+08
 
   -0.30126E+08         0.75008E+05         0.00000E+00
    0.75008E+05        -0.59981E+08         0.00000E+00
    0.00000E+00         0.00000E+00        -0.30115E+08
 
   -0.30128E+08         0.71561E+05         0.00000E+00
    0.71561E+05        -0.59980E+08         0.00000E+00
    0.00000E+00         0.00000E+00        -0.30112E+08
 
   -0.30129E+08         0.66669E+05         0.00000E+00
    0.66669E+05        -0.59981E+08         0.00000E+00
    0.00000E+00         0.00000E+00        -0.30111E+08
 
   -0.30130E+08         0.60820E+05         0.00000E+00
    0.60820E+05        -0.59982E+08         0.00000E+00
    0.00000E+00         0.00000E+00        -0.30112E+08
 
   -0.30130E+08         0.54450E+05         0.00000E+00
    0.54450E+05        -0.59985E+08         0.00000E+00
    0.00000E+00         0.00000E+00        -0.30115E+08
 
   -0.30130E+08         0.47913E+05         0.00000E+00
    0.47913E+05        -0.59988E+08         0.00000E+00
    0.00000E+00         0.00000E+00        -0.30120E+08
 
   -0.30130E+08         0.41460E+05         0.00000E+00
    0.41460E+05        -0.59993E+08         0.00000E+00
    0.00000E+00         0.00000E+00        -0.30126E+08
 
   -0.30099E+08         0.11092E+05         0.00000E+00
    0.11092E+05        -0.60000E+08         0.00000E+00
    0.00000E+00         0.00000E+00        -0.30164E+08
 
   -0.30101E+08         0.30401E+05         0.00000E+00
    0.30401E+05        -0.59999E+08         0.00000E+00
    0.00000E+00         0.00000E+00        -0.30161E+08
 
   -0.30103E+08         0.46428E+05         0.00000E+00
    0.46428E+05        -0.59997E+08         0.00000E+00
    0.00000E+00         0.00000E+00        -0.30156E+08
 
   -0.30107E+08         0.59175E+05         0.00000E+00
    0.59175E+05        -0.59995E+08         0.00000E+00
    0.00000E+00         0.00000E+00        -0.30150E+08
 
   -0.30111E+08         0.68644E+05         0.00000E+00
    0.68644E+05        -0.59993E+08         0.00000E+00
    0.00000E+00         0.00000E+00        -0.30143E+08
 
   -0.30116E+08         0.74865E+05         0.00000E+00
    0.74865E+05        -0.59990E+08         0.00000E+00
    0.00000E+00         0.00000E+00        -0.30135E+08
 
   -0.30120E+08         0.77942E+05         0.00000E+00
    0.77942E+05        -0.59989E+08         0.00000E+00
    0.00000E+00         0.00000E+00        -0.30128E+08
 
   -0.30125E+08         0.78098E+05         0.00000E+00
    0.78098E+05        -0.59987E+08         0.00000E+00
    0.00000E+00         0.00000E+00        -0.30122E+08
 
   -0.30129E+08         0.75702E+05         0.00000E+00
    0.75702E+05        -0.59987E+08         0.00000E+00
    0.00000E+00         0.00000E+00        -0.30117E+08
 
   -0.30133E+08         0.71246E+05         0.00000E+00
    0.71246E+05        -0.59987E+08         0.00000E+00
    0.00000E+00         0.00000E+00        -0.30114E+08
 
   -0.30135E+08         0.65283E+05         0.00000E+00
    0.65283E+05        -0.59989E+08         0.00000E+00
    0.00000E+00         0.00000E+00        -0.30113E+08
 
   -0.30137E+08         0.58357E+05         0.00000E+00
    0.58357E+05        -0.59991E+08         0.00000E+00
    0.00000E+00         0.00000E+00        -0.30115E+08
 
   -0.30137E+08         0.50937E+05         0.00000E+00
    0.50937E+05        -0.59995E+08         0.00000E+00
    0.00000E+00         0.00000E+00        -0.30119E+08
 
   -0.30137E+08         0.43381E+05         0.00000E+00
    0.43381E+05        -0.59999E+08         0.00000E+00
    0.00000E+00         0.00000E+00        -0.30125E+08
 
   -0.30137E+08         0.35922E+05         0.00000E+00
    0.35922E+05        -0.60005E+08         0.00000E+00
    0.00000E+00         0.00000E+00        -0.30132E+08
 
   -0.30078E+08         0.11561E+05         0.00000E+00
    0.11561E+05        -0.60000E+08         0.00000E+00
    0.00000E+00         0.00000E+00        -0.30183E+08
 
   -0.30083E+08         0.31601E+05         0.00000E+00
    0.31601E+05        -0.59999E+08         0.00000E+00
    0.00000E+00         0.00000E+00        -0.30176E+08
 
   -0.30089E+08         0.48130E+05         0.00000E+00
    0.48130E+05        -0.59998E+08         0.00000E+00
    0.00000E+00         0.00000E+00        -0.30169E+08
 
   -0.30096E+08         0.61117E+05         0.00000E+00
    0.61117E+05        -0.59996E+08         0.00000E+00
    0.00000E+00         0.00000E+00        -0.30160E+08
 
   -0.30103E+08         0.70540E+05         0.00000E+00
    0.70540E+05        -0.59995E+08         0.00000E+00
    0.00000E+00         0.00000E+00        -0.30150E+08
 
   -0.30111E+08         0.76425E+05         0.00000E+00
    0.76425E+05        -0.59993E+08         0.00000E+00
    0.00000E+00         0.00000E+00        -0.30141E+08
 
   -0.30119E+08         0.78915E+05         0.00000E+00
    0.78915E+05        -0.59993E+08         0.00000E+00
    0.00000E+00         0.00000E+00        -0.30132E+08
 
   -0.30127E+08         0.78306E+05         0.00000E+00
    0.78306E+05        -0.59993E+08         0.00000E+00
    0.00000E+00         0.00000E+00        -0.30125E+08
 
   -0.30133E+08         0.75036E+05         0.00000E+00
    0.75036E+05        -0.59994E+08         0.00000E+00
    0.00000E+00         0.00000E+00        -0.30120E+08
 
   -0.30138E+08         0.69650E+05         0.00000E+00
    0.69650E+05        -0.59996E+08         0.00000E+00
    0.00000E+00         0.00000E+00        -0.30117E+08
 
   -0.30142E+08         0.62735E+05         0.00000E+00
    0.62735E+05        -0.59999E+08         0.00000E+00
    0.00000E+00         0.00000E+00        -0.30117E+08
 
   -0.30144E+08         0.54856E+05         0.00000E+00
    0.54856E+05        -0.60002E+08         0.00000E+00
    0.00000E+00         0.00000E+00        -0.30119E+08
 
   -0.30145E+08         0.46494E+05         0.00000E+00
    0.46494E+05        -0.60007E+08         0.00000E+00
    0.00000E+00         0.00000E+00        -0.30124E+08
 
   -0.30145E+08         0.38005E+05         0.00000E+00
    0.38005E+05        -0.60012E+08         0.00000E+00
    0.00000E+00         0.00000E+00        -0.30131E+08
 
   -0.30145E+08         0.29603E+05         0.00000E+00
    0.29603E+05        -0.60018E+08         0.00000E+00
    0.00000E+00         0.00000E+00        -0.30140E+08
 
   -0.30055E+08         0.11968E+05         0.00000E+00
    0.11968E+05        -0.60000E+08         0.00000E+00
    0.00000E+00         0.00000E+00        -0.30202E+08
 
   -0.30064E+08         0.32566E+05         0.00000E+00
    0.32566E+05        -0.59999E+08         0.00000E+00
    0.00000E+00         0.00000E+00        -0.30193E+08
 
   -0.30074E+08         0.49370E+05         0.00000E+00
    0.49370E+05        -0.59998E+08         0.00000E+00
    0.00000E+00         0.00000E+00        -0.30182E+08
 
   -0.30084E+08         0.62297E+05         0.00000E+00
    0.62297E+05        -0.59997E+08         0.00000E+00
    0.00000E+00         0.00000E+00        -0.30170E+08
 
   -0.30096E+08         0.71316E+05         0.00000E+00
    0.71316E+05        -0.59997E+08         0.00000E+00
    0.00000E+00         0.00000E+00        -0.30158E+08
 
   -0.30107E+08         0.76528E+05         0.00000E+00
    0.76528E+05        -0.59997E+08         0.00000E+00
    0.00000E+00         0.00000E+00        -0.30147E+08
 
   -0.30118E+08         0.78198E+05         0.00000E+00
    0.78198E+05        -0.59999E+08         0.00000E+00
    0.00000E+00         0.00000E+00        -0.30137E+08
 
   -0.30129E+08         0.76762E+05         0.00000E+00
    0.76762E+05        -0.60001E+08         0.00000E+00
    0.00000E+00         0.00000E+00        -0.30130E+08
 
   -0.30138E+08         0.72733E+05         0.00000E+00
    0.72733E+05        -0.60004E+08         0.00000E+00
    0.00000E+00         0.00000E+00        -0.30125E+08
 
   -0.30145E+08         0.66643E+05         0.00000E+00
    0.66643E+05        -0.60007E+08         0.00000E+00
    0.00000E+00         0.00000E+00        -0.30122E+08
 
   -0.30150E+08         0.59028E+05         0.00000E+00
    0.59028E+05        -0.60011E+08         0.00000E+00
    0.00000E+00         0.00000E+00        -0.30122E+08
 
   -0.30153E+08         0.50414E+05         0.00000E+00
    0.50414E+05        -0.60016E+08         0.00000E+00
    0.00000E+00         0.00000E+00        -0.30125E+08
 
   -0.30154E+08         0.41276E+05         0.00000E+00
    0.41276E+05        -0.60021E+08         0.00000E+00
    0.00000E+00         0.00000E+00        -0.30131E+08
 
   -0.30154E+08         0.31975E+05         0.00000E+00
    0.31975E+05        -0.60027E+08         0.00000E+00
    0.00000E+00         0.00000E+00        -0.30139E+08
 
   -0.30153E+08         0.22723E+05         0.00000E+00
    0.22723E+05        -0.60033E+08         0.00000E+00
    0.00000E+00         0.00000E+00        -0.30148E+08
 
   -0.30033E+08         0.12314E+05         0.00000E+00
    0.12314E+05        -0.60000E+08         0.00000E+00
    0.00000E+00         0.00000E+00        -0.30222E+08
 
   -0.30045E+08         0.33257E+05         0.00000E+00
    0.33257E+05        -0.59999E+08         0.00000E+00
    0.00000E+00         0.00000E+00        -0.30209E+08
 
   -0.30059E+08         0.50014E+05         0.00000E+00
    0.50014E+05        -0.59999E+08         0.00000E+00
    0.00000E+00         0.00000E+00        -0.30195E+08
 
   -0.30074E+08         0.62452E+05         0.00000E+00
    0.62452E+05        -0.59999E+08         0.00000E+00
    0.00000E+00         0.00000E+00        -0.30180E+08
 
   -0.30089E+08         0.70585E+05         0.00000E+00
    0.70585E+05        -0.60000E+08         0.00000E+00
    0.00000E+00         0.00000E+00        -0.30166E+08
 
   -0.30104E+08         0.74693E+05         0.00000E+00
    0.74693E+05        -0.60002E+08         0.00000E+00
    0.00000E+00         0.00000E+00        -0.30154E+08
 
   -0.30119E+08         0.75322E+05         0.00000E+00
    0.75322E+05        -0.60006E+08         0.00000E+00
    0.00000E+00         0.00000E+00        -0.30144E+08
 
   -0.30132E+08         0.73096E+05         0.00000E+00
    0.73096E+05        -0.60011E+08         0.00000E+00
    0.00000E+00         0.00000E+00        -0.30137E+08
 
   -0.30143E+08         0.68566E+05         0.00000E+00
    0.68566E+05        -0.60016E+08         0.00000E+00
    0.00000E+00         0.00000E+00        -0.30132E+08
 
   -0.30152E+08         0.62157E+05         0.00000E+00
    0.62157E+05        -0.60021E+08         0.00000E+00
    0.00000E+00         0.00000E+00        -0.30130E+08
 
   -0.30158E+08         0.54236E+05         0.00000E+00
    0.54236E+05        -0.60026E+08         0.00000E+00
    0.00000E+00         0.00000E+00        -0.30131E+08
 
   -0.30162E+08         0.45207E+05         0.00000E+00
    0.45207E+05        -0.60031E+08         0.00000E+00
    0.00000E+00         0.00000E+00        -0.30134E+08
 
   -0.30164E+08         0.35514E+05         0.00000E+00
    0.35514E+05        -0.60037E+08         0.00000E+00
    0.00000E+00         0.00000E+00        -0.30140E+08
 
   -0.30164E+08         0.25548E+05         0.00000E+00
    0.25548E+05        -0.60043E+08         0.00000E+00
    0.00000E+00         0.00000E+00        -0.30148E+08
 
   -0.30163E+08         0.15553E+05         0.00000E+00
    0.15553E+05        -0.60050E+08         0.00000E+00
    0.00000E+00         0.00000E+00        -0.30158E+08
 
   -0.30010E+08         0.12594E+05         0.00000E+00
    0.12594E+05        -0.60000E+08         0.00000E+00
    0.00000E+00         0.00000E+00        -0.30243E+08
 
   -0.30027E+08         0.33598E+05         0.00000E+00
    0.33598E+05        -0.60000E+08         0.00000E+00
    0.00000E+00         0.00000E+00        -0.30226E+08
 
   -0.30045E+08         0.49838E+05         0.00000E+00
    0.49838E+05        -0.60000E+08         0.00000E+00
    0.00000E+00         0.00000E+00        -0.30207E+08
 
   -0.30064E+08         0.61162E+05         0.00000E+00
    0.61162E+05        -0.60001E+08         0.00000E+00
    0.00000E+00         0.00000E+00        -0.30190E+08
 
   -0.30084E+08         0.67788E+05         0.00000E+00
    0.67788E+05        -0.60005E+08         0.00000E+00
    0.00000E+00         0.00000E+00        -0.30175E+08
 
   -0.30103E+08         0.70400E+05         0.00000E+00
    0.70400E+05        -0.60009E+08         0.00000E+00
    0.00000E+00         0.00000E+00        -0.30162E+08
 
   -0.30120E+08         0.69896E+05         0.00000E+00
    0.69896E+05        -0.60016E+08         0.00000E+00
    0.00000E+00         0.00000E+00        -0.30153E+08
 
   -0.30136E+08         0.67067E+05         0.00000E+00
    0.67067E+05        -0.60023E+08         0.00000E+00
    0.00000E+00         0.00000E+00        -0.30146E+08
 
   -0.30149E+08         0.62413E+05         0.00000E+00
    0.62413E+05        -0.60030E+08         0.00000E+00
    0.00000E+00         0.00000E+00        -0.30143E+08
 
   -0.30159E+08         0.56176E+05         0.00000E+00
    0.56176E+05        -0.60037E+08         0.00000E+00
    0.00000E+00         0.00000E+00        -0.30141E+08
 
   -0.30167E+08         0.48471E+05         0.00000E+00
    0.48471E+05        -0.60043E+08         0.00000E+00
    0.00000E+00         0.00000E+00        -0.30142E+08
 
   -0.30171E+08         0.39464E+05         0.00000E+00
    0.39464E+05        -0.60049E+08         0.00000E+00
    0.00000E+00         0.00000E+00        -0.30145E+08
 
   -0.30174E+08         0.29507E+05         0.00000E+00
    0.29507E+05        -0.60055E+08         0.00000E+00
    0.00000E+00         0.00000E+00        -0.30151E+08
 
   -0.30174E+08         0.19048E+05         0.00000E+00
    0.19048E+05        -0.60061E+08         0.00000E+00
    0.00000E+00         0.00000E+00        -0.30159E+08
 
   -0.30173E+08         0.84244E+04         0.00000E+00
    0.84244E+04        -0.60068E+08         0.00000E+00
    0.00000E+00         0.00000E+00        -0.30168E+08
 
   -0.29986E+08         0.12798E+05         0.00000E+00
    0.12798E+05        -0.60000E+08         0.00000E+00
    0.00000E+00         0.00000E+00        -0.30264E+08
 
   -0.30008E+08         0.33435E+05         0.00000E+00
    0.33435E+05        -0.60000E+08         0.00000E+00
    0.00000E+00         0.00000E+00        -0.30242E+08
 
   -0.30032E+08         0.48414E+05         0.00000E+00
    0.48414E+05        -0.60001E+08         0.00000E+00
    0.00000E+00         0.00000E+00        -0.30220E+08
 
   -0.30056E+08         0.57742E+05         0.00000E+00
    0.57742E+05        -0.60005E+08         0.00000E+00
    0.00000E+00         0.00000E+00        -0.30200E+08
 
   -0.30080E+08         0.62229E+05         0.00000E+00
    0.62229E+05        -0.60011E+08         0.00000E+00
    0.00000E+00         0.00000E+00        -0.30184E+08
 
   -0.30102E+08         0.63183E+05         0.00000E+00
    0.63183E+05        -0.60019E+08         0.00000E+00
    0.00000E+00         0.00000E+00        -0.30172E+08
 
   -0.30122E+08         0.61758E+05         0.00000E+00
    0.61758E+05        -0.60028E+08         0.00000E+00
    0.00000E+00         0.00000E+00        -0.30164E+08
 
   -0.30139E+08         0.58678E+05         0.00000E+00
    0.58678E+05        -0.60038E+08         0.00000E+00
    0.00000E+00         0.00000E+00        -0.30159E+08
 
   -0.30154E+08         0.54300E+05         0.00000E+00
    0.54300E+05        -0.60047E+08         0.00000E+00
    0.00000E+00         0.00000E+00        -0.30157E+08
 
   -0.30166E+08         0.48711E+05         0.00000E+00
    0.48711E+05        -0.60056E+08         0.00000E+00
    0.00000E+00         0.00000E+00        -0.30156E+08
 
   -0.30175E+08         0.41796E+05         0.00000E+00
    0.41796E+05        -0.60063E+08         0.00000E+00
    0.00000E+00         0.00000E+00        -0.30157E+08
 
   -0.30181E+08         0.33401E+05         0.00000E+00
    0.33401E+05        -0.60070E+08         0.00000E+00
    0.00000E+00         0.00000E+00        -0.30160E+08
 
   -0.30184E+08         0.23607E+05         0.00000E+00
    0.23607E+05        -0.60076E+08         0.00000E+00
    0.00000E+00         0.00000E+00        -0.30165E+08
 
   -0.30185E+08         0.12877E+05         0.00000E+00
    0.12877E+05        -0.60081E+08         0.00000E+00
    0.00000E+00         0.00000E+00        -0.30171E+08
 
   -0.30184E+08         0.17401E+04         0.00000E+00
    0.17401E+04        -0.60088E+08         0.00000E+00
    0.00000E+00         0.00000E+00        -0.30180E+08
 
   -0.29963E+08         0.12896E+05         0.00000E+00
    0.12896E+05        -0.60000E+08         0.00000E+00
    0.00000E+00         0.00000E+00        -0.30285E+08
 
   -0.29991E+08         0.32401E+05         0.00000E+00
    0.32401E+05        -0.60001E+08         0.00000E+00
    0.00000E+00         0.00000E+00        -0.30257E+08
 
   -0.30021E+08         0.44888E+05         0.00000E+00
    0.44888E+05        -0.60004E+08         0.00000E+00
    0.00000E+00         0.00000E+00        -0.30231E+08
 
   -0.30050E+08         0.51188E+05         0.00000E+00
    0.51188E+05        -0.60011E+08         0.00000E+00
    0.00000E+00         0.00000E+00        -0.30211E+08
 
   -0.30078E+08         0.53284E+05         0.00000E+00
    0.53284E+05        -0.60021E+08         0.00000E+00
    0.00000E+00         0.00000E+00        -0.30196E+08
 
   -0.30103E+08         0.52916E+05         0.00000E+00
    0.52916E+05        -0.60032E+08         0.00000E+00
    0.00000E+00         0.00000E+00        -0.30185E+08
 
   -0.30125E+08         0.51056E+05         0.00000E+00
    0.51056E+05        -0.60044E+08         0.00000E+00
    0.00000E+00         0.00000E+00        -0.30179E+08
 
   -0.30143E+08         0.48166E+05         0.00000E+00
    0.48166E+05        -0.60055E+08         0.00000E+00
    0.00000E+00         0.00000E+00        -0.30176E+08
 
   -0.30159E+08         0.44427E+05         0.00000E+00
    0.44427E+05        -0.60066E+08         0.00000E+00
    0.00000E+00         0.00000E+00        -0.30175E+08
 
   -0.30171E+08         0.39824E+05         0.00000E+00
    0.39824E+05        -0.60077E+08         0.00000E+00
    0.00000E+00         0.00000E+00        -0.30175E+08
 
   -0.30182E+08         0.34168E+05         0.00000E+00
    0.34168E+05        -0.60085E+08         0.00000E+00
    0.00000E+00         0.00000E+00        -0.30176E+08
 
   -0.30189E+08         0.27080E+05         0.00000E+00
    0.27080E+05        -0.60093E+08         0.00000E+00
    0.00000E+00         0.00000E+00        -0.30178E+08
 
   -0.30194E+08         0.18159E+05         0.00000E+00
    0.18159E+05        -0.60098E+08         0.00000E+00
    0.00000E+00         0.00000E+00        -0.30181E+08
 
   -0.30196E+08         0.75409E+04         0.00000E+00
    0.75409E+04        -0.60103E+08         0.00000E+00
    0.00000E+00         0.00000E+00        -0.30186E+08
 
   -0.30196E+08        -0.39920E+04         0.00000E+00
   -0.39920E+04        -0.60108E+08         0.00000E+00
    0.00000E+00         0.00000E+00        -0.30192E+08
 
   -0.29941E+08         0.12769E+05         0.00000E+00
    0.12769E+05        -0.60000E+08         0.00000E+00
    0.00000E+00         0.00000E+00        -0.30305E+08
 
   -0.29977E+08         0.29532E+05         0.00000E+00
    0.29532E+05        -0.60002E+08         0.00000E+00
    0.00000E+00         0.00000E+00        -0.30271E+08
 
   -0.30013E+08         0.37717E+05         0.00000E+00
    0.37717E+05        -0.60010E+08         0.00000E+00
    0.00000E+00         0.00000E+00        -0.30244E+08
 
   -0.30048E+08         0.40561E+05         0.00000E+00
    0.40561E+05        -0.60021E+08         0.00000E+00
    0.00000E+00         0.00000E+00        -0.30224E+08
 
   -0.30078E+08         0.40895E+05         0.00000E+00
    0.40895E+05        -0.60035E+08         0.00000E+00
    0.00000E+00         0.00000E+00        -0.30211E+08
 
   -0.30104E+08         0.39946E+05         0.00000E+00
    0.39946E+05        -0.60049E+08         0.00000E+00
    0.00000E+00         0.00000E+00        -0.30203E+08
 
   -0.30127E+08         0.38214E+05         0.00000E+00
    0.38214E+05        -0.60062E+08         0.00000E+00
    0.00000E+00         0.00000E+00        -0.30198E+08
 
   -0.30146E+08         0.35903E+05         0.00000E+00
    0.35903E+05        -0.60076E+08         0.00000E+00
    0.00000E+00         0.00000E+00        -0.30197E+08
 
   -0.30162E+08         0.33071E+05         0.00000E+00
    0.33071E+05        -0.60088E+08         0.00000E+00
    0.00000E+00         0.00000E+00        -0.30197E+08
 
   -0.30176E+08         0.29666E+05         0.00000E+00
    0.29666E+05        -0.60099E+08         0.00000E+00
    0.00000E+00         0.00000E+00        -0.30198E+08
 
   -0.30187E+08         0.25521E+05         0.00000E+00
    0.25521E+05        -0.60109E+08         0.00000E+00
    0.00000E+00         0.00000E+00        -0.30200E+08
 
   -0.30196E+08         0.20277E+05         0.00000E+00
    0.20277E+05        -0.60117E+08         0.00000E+00
    0.00000E+00         0.00000E+00        -0.30201E+08
 
   -0.30203E+08         0.13264E+05         0.00000E+00
    0.13264E+05        -0.60123E+08         0.00000E+00
    0.00000E+00         0.00000E+00        -0.30202E+08
 
   -0.30207E+08         0.36729E+04         0.00000E+00
    0.36729E+04        -0.60127E+08         0.00000E+00
    0.00000E+00         0.00000E+00        -0.30204E+08
 
   -0.30208E+08        -0.80347E+04         0.00000E+00
   -0.80347E+04        -0.60130E+08         0.00000E+00
    0.00000E+00         0.00000E+00        -0.30206E+08
 
   -0.29921E+08         0.11756E+05         0.00000E+00
    0.11756E+05        -0.60001E+08         0.00000E+00
    0.00000E+00         0.00000E+00        -0.30323E+08
 
   -0.29967E+08         0.22350E+05         0.00000E+00
    0.22350E+05        -0.60008E+08         0.00000E+00
    0.00000E+00         0.00000E+00        -0.30286E+08
 
   -0.30010E+08         0.25354E+05         0.00000E+00
    0.25354E+05        -0.60021E+08         0.00000E+00
    0.00000E+00         0.00000E+00        -0.30259E+08
 
   -0.30047E+08         0.26042E+05         0.00000E+00
    0.26042E+05        -0.60036E+08         0.00000E+00
    0.00000E+00         0.00000E+00        -0.30241E+08
 
   -0.30079E+08         0.25754E+05         0.00000E+00
    0.25754E+05        -0.60052E+08         0.00000E+00
    0.00000E+00         0.00000E+00        -0.30230E+08
 
   -0.30106E+08         0.24926E+05         0.00000E+00
    0.24926E+05        -0.60068E+08         0.00000E+00
    0.00000E+00         0.00000E+00        -0.30224E+08
 
   -0.30128E+08         0.23740E+05         0.00000E+00
    0.23740E+05        -0.60084E+08         0.00000E+00
    0.00000E+00         0.00000E+00        -0.30222E+08
 
   -0.30148E+08         0.22267E+05         0.00000E+00
    0.22267E+05        -0.60098E+08         0.00000E+00
    0.00000E+00         0.00000E+00        -0.30221E+08
 
   -0.30165E+08         0.20515E+05         0.00000E+00
    0.20515E+05        -0.60112E+08         0.00000E+00
    0.00000E+00         0.00000E+00        -0.30222E+08
 
   -0.30179E+08         0.18436E+05         0.00000E+00
    0.18436E+05        -0.60124E+08         0.00000E+00
    0.00000E+00         0.00000E+00        -0.30224E+08
 
   -0.30191E+08         0.15912E+05         0.00000E+00
    0.15912E+05        -0.60135E+08         0.00000E+00
    0.00000E+00         0.00000E+00        -0.30227E+08
 
   -0.30201E+08         0.12715E+05         0.00000E+00
    0.12715E+05        -0.60144E+08         0.00000E+00
    0.00000E+00         0.00000E+00        -0.30228E+08
 
   -0.30210E+08         0.83655E+04         0.00000E+00
    0.83655E+04        -0.60150E+08         0.00000E+00
    0.00000E+00         0.00000E+00        -0.30228E+08
 
   -0.30216E+08         0.17262E+04         0.00000E+00
    0.17262E+04        -0.60153E+08         0.00000E+00
    0.00000E+00         0.00000E+00        -0.30226E+08
 
   -0.30220E+08        -0.92176E+04         0.00000E+00
   -0.92176E+04        -0.60154E+08         0.00000E+00
    0.00000E+00         0.00000E+00        -0.30223E+08
 
   -0.29908E+08         0.58699E+04         0.00000E+00
    0.58699E+04        -0.60009E+08         0.00000E+00
    0.00000E+00         0.00000E+00        -0.30344E+08
 
   -0.29963E+08         0.80513E+04         0.00000E+00
    0.80513E+04        -0.60022E+08         0.00000E+00
    0.00000E+00         0.00000E+00        -0.30304E+08
 
   -0.30009E+08         0.88276E+04         0.00000E+00
    0.88276E+04        -0.60038E+08         0.00000E+00
    0.00000E+00         0.00000E+00        -0.30280E+08
 
   -0.30047E+08         0.89688E+04         0.00000E+00
    0.89688E+04        -0.60056E+08         0.00000E+00
    0.00000E+00         0.00000E+00        -0.30264E+08
 
   -0.30079E+08         0.88097E+04         0.00000E+00
    0.88097E+04        -0.60074E+08         0.00000E+00
    0.00000E+00         0.00000E+00        -0.30255E+08
 
   -0.30106E+08         0.84952E+04         0.00000E+00
    0.84952E+04        -0.60091E+08         0.00000E+00
    0.00000E+00         0.00000E+00        -0.30251E+08
 
   -0.30129E+08         0.80772E+04         0.00000E+00
    0.80772E+04        -0.60107E+08         0.00000E+00
    0.00000E+00         0.00000E+00        -0.30249E+08
 
   -0.30149E+08         0.75738E+04         0.00000E+00
    0.75738E+04        -0.60123E+08         0.00000E+00
    0.00000E+00         0.00000E+00        -0.30250E+08
 
   -0.30166E+08         0.69838E+04         0.00000E+00
    0.69838E+04        -0.60138E+08         0.00000E+00
    0.00000E+00         0.00000E+00        -0.30252E+08
 
   -0.30180E+08         0.62873E+04         0.00000E+00
    0.62873E+04        -0.60151E+08         0.00000E+00
    0.00000E+00         0.00000E+00        -0.30255E+08
 
   -0.30193E+08         0.54404E+04         0.00000E+00
    0.54404E+04        -0.60162E+08         0.00000E+00
    0.00000E+00         0.00000E+00        -0.30258E+08
 
   -0.30204E+08         0.43596E+04         0.00000E+00
    0.43596E+04        -0.60172E+08         0.00000E+00
    0.00000E+00         0.00000E+00        -0.30260E+08
 
   -0.30213E+08         0.28910E+04         0.00000E+00
    0.28910E+04        -0.60180E+08         0.00000E+00
    0.00000E+00         0.00000E+00        -0.30260E+08
 
   -0.30222E+08         0.62221E+03         0.00000E+00
    0.62221E+03        -0.60183E+08         0.00000E+00
    0.00000E+00         0.00000E+00        -0.30256E+08
 
   -0.30229E+08        -0.44037E+04         0.00000E+00
   -0.44037E+04        -0.60178E+08         0.00000E+00
    0.00000E+00         0.00000E+00        -0.30243E+08
 
SCALARS stressS double 
LOOKUP_TABLE default
  -40098387.3355931     
  -40097766.0939388     
  -40096758.9587436     
  -40095391.1225903     
  -40093687.1718145     
  -40091670.9458045     
  -40089365.1808893     
  -40086791.6420265     
  -40083971.2623897     
  -40080923.8238337     
  -40077667.7301494     
  -40074219.7994437     
  -40070595.0339972     
  -40066806.3517829     
  -40062864.2486055     
  -40098325.3122240     
  -40097694.8175662     
  -40096670.7589010     
  -40095280.9164956     
  -40093552.2587482     
  -40091510.7325232     
  -40089181.0925979     
  -40086586.6220407     
  -40083749.5108884     
  -40080690.6030022     
  -40077429.0370494     
  -40073982.1204317     
  -40070365.1334848     
  -40066591.0889718     
  -40062670.4019842     
  -40098201.3969795     
  -40097552.5996948     
  -40096495.0320470     
  -40095061.6225589     
  -40093284.0991291     
  -40091192.7315864     
  -40088815.9982364     
  -40086180.3173132     
  -40083310.5591322     
  -40080229.4973197     
  -40076957.7498010     
  -40073513.6126050     
  -40069912.9368825     
  -40066168.9290784     
  -40062291.8527661     
  -40098015.8756897     
  -40097340.1417201     
  -40096233.1947982     
  -40094735.6356638     
  -40092886.2283086     
  -40090721.5798795     
  -40088275.9598644     
  -40085580.4976498     
  -40082663.6729169     
  -40079551.2782381     
  -40076266.1248357     
  -40072828.0179199     
  -40069253.6991082     
  -40065556.6816694     
  -40061746.9900763     
  -40097769.2130766     
  -40097058.5804683     
  -40095887.5251890     
  -40094306.7732559     
  -40092364.4117755     
  -40090105.3176469     
  -40087571.0663063     
  -40084799.2062882     
  -40081823.0655029     
  -40078672.3153276     
  -40075372.6883130     
  -40071946.0556466     
  -40068410.3710603     
  -40064779.6007689     
  -40061063.4578827     
  -40097462.0964671     
  -40096709.5685151     
  -40095461.3156242     
  -40093780.4835270     
  -40091726.5376379     
  -40089354.6890233     
  -40086715.0328172     
  -40083852.9657474     
  -40080808.1277302     
  -40077614.7637614     
  -40074302.4281910     
  -40070895.5651585     
  -40067413.7130873     
  -40063871.4615953     
  -40060278.2245135     
  -40097095.5056785     
  -40096295.4161150     
  -40094959.0712177     
  -40093164.1010072     
  -40090983.2382774     
  -40088483.3556846     
  -40085725.3628991     
  -40082763.2590811     
  -40079643.5672285     
  -40076406.8975336     
  -40073087.0449625     
  -40069711.7151654     
  -40066302.4825240     
  -40062874.8104007     
  -40059437.8001745     
  -40096670.9065151     
  -40095819.1517962     
  -40094386.6971615     
  -40092467.2521295     
  -40090148.2645630     
  -40087509.9686614     
  -40084624.4519437     
  -40081556.1133713     
  -40078360.1799740     
  -40075083.4295975     
  -40071765.2358607     
  -40068437.2575771     
  -40065123.7135467     
  -40061841.2251976     
  -40058598.5530487     
  -40096189.7380482     
  -40095284.7221624     
  -40093751.8162184     
  -40091702.1205019     
  -40089238.9569565     
  -40086456.7476149     
  -40083440.4749660     
  -40080264.7353968     
  -40076994.8715493     
  -40073685.8281273     
  -40070382.9411823     
  -40067122.9082724     
  -40063933.1357221     
  -40060831.7229203     
  -40057827.1036226     
  -40095654.6401616     
  -40094697.1030523     
  -40093063.9117916     
  -40090883.6897963     
  -40088276.0830872     
  -40085350.4230349     
  -40082204.8381582     
  -40078926.4417938     
  -40075591.0171935     
  -40072262.2802660     
  -40068993.8331172     
  -40065827.8733935     
  -40062795.7523940     
  -40059917.3958483     
  -40057200.8468745     
  -40095068.6440365     
  -40094062.6140403     
  -40092334.4437422     
  -40090029.7221198     
  -40087284.1063168     
  -40084221.9654337     
  -40080955.6115202     
  -40077584.9844961     
  -40074197.6082266     
  -40070868.5858482     
  -40067659.8310841     
  -40064620.5012159     
  -40061786.6344703     
  -40059180.1382787     
  -40056808.5295470     
  -40094435.4615161     
  -40093388.5750463     
  -40091576.7445306     
  -40089160.6460254     
  -40086290.9044592     
  -40083106.7264212     
  -40079735.0004338     
  -40076289.8223818     
  -40072871.8323424     
  -40069568.2858956     
  -40066451.6064887     
  -40063579.2422848     
  -40060991.8797533     
  -40058713.4817870     
  -40056750.6519726     
  -40093759.6373179     
  -40092683.2494643     
  -40090805.5349142     
  -40088298.9738398     
  -40085327.1331980     
  -40082043.3192181     
  -40078589.4295777     
  -40075094.8115805     
  -40071675.6844525     
  -40068432.6637753     
  -40065449.9595459     
  -40062793.6562103     
  -40060509.7081795     
  -40058623.2968717     
  -40057139.4141113     
  -40093046.4199424     
  -40091955.5897863     
  -40090036.2244544     
  -40087468.1514978     
  -40084424.9313917     
  -40081072.8283035     
  -40077569.1480742     
  -40074060.2623684     
  -40070679.0261219     
  -40067542.3255765     
  -40064746.5245058     
  -40062365.9238578     
  -40060451.4551672     
  -40059027.9949974     
  -40058097.7758533     
  -40092301.6025367     
  -40091214.5335983     
  -40089283.7856037     
  -40086691.0918126     
  -40083616.4847284     
  -40080237.5931841     
  -40076727.5470720     
  -40073251.1425759     
  -40069960.0757640     
  -40066987.9836916     
  -40064445.1482288     
  -40062412.5144612     
  -40060942.0688092     
  -40060057.8774942     
  -40059757.1426398     
  -40091531.2049695     
  -40090468.1180539     
  -40088561.1259615     
  -40085988.2040527     
  -40082932.1002855     
  -40079580.0404964     
  -40076120.7622006     
  -40072738.7853148     
  -40069606.3615473     
  -40066874.3029435     
  -40064664.4021803     
  -40063063.6208982     
  -40062120.5741692     
  -40061852.6609268     
  -40062253.1209083     
  -40090741.0313651     
  -40089722.4754786     
  -40087877.2775246     
  -40085375.2010675     
  -40082398.3664711     
  -40079141.4653962     
  -40075808.2168557     
  -40072602.9943166     
  -40069718.3862542     
  -40067321.4464208     
  -40065541.7623106     
  -40064465.5282281     
  -40064135.6580024     
  -40064557.9820571     
  -40065718.0345139     
  -40089936.3272826     
  -40088980.7602115     
  -40087235.9146073     
  -40084861.4024562     
  -40082036.7600635     
  -40078962.0322419     
  -40075853.9609477     
  -40072934.7389213     
  -40070414.2673573     
  -40068470.3874770     
  -40067233.6902557     
  -40066781.6515502     
  -40067144.3441845     
  -40068316.1421734     
  -40070273.7181464     
  -40089120.5862192     
  -40088242.8614534     
  -40086634.9791422     
  -40084449.4638276     
  -40081863.7840054     
  -40079082.1526402     
  -40076330.5754807     
  -40073842.4039972     
  -40071835.3244474     
  -40070486.5714012     
  -40069916.2316078     
  -40070184.8956993     
  -40071304.5451019     
  -40073258.4620052     
  -40076019.6142377     
  -40088297.2956506     
  -40087505.0410030     
  -40086068.3967827     
  -40084137.6387279     
  -40081894.0309072     
  -40079547.2987256     
  -40077326.1765832     
  -40075460.3209024     
  -40074154.2261254     
  -40073563.6574041     
  -40073783.3478994     
  -40074850.7292285     
  -40076762.1983499     
  -40079494.2986653     
  -40083023.1584410     
  -40087466.8498193     
  -40086766.0847545     
  -40085529.5909091     
  -40083925.4987107     
  -40082149.0360907     
  -40080418.7756594     
  -40078956.6363302     
  -40077959.4390874     
  -40077580.6933659     
  -40077922.3248593     
  -40079038.7899481     
  -40080946.9342227     
  -40083639.1872125     
  -40087098.6641871     
  -40091314.1018050     
  -40086636.7819100     
  -40086028.8862772     
  -40085023.5292031     
  -40083826.9915876     
  -40082673.7610883     
  -40081796.0345824     
  -40081384.1114569     
  -40081556.6745173     
  -40082358.7471335     
  -40083798.7322763     
  -40085881.5784128     
  -40088619.1808774     
  -40092024.4510308     
  -40096107.0961637     
  -40100879.3941645     
  -40085807.3704356     
  -40085297.9451521     
  -40084569.8096914     
  -40083896.1389476     
  -40083574.3866485     
  -40083851.0900584     
  -40084842.1769468     
  -40086514.0442134     
  -40088745.2923959     
  -40091417.6294255     
  -40094485.4957841     
  -40097980.4261413     
  -40101969.7458235     
  -40106516.5918530     
  -40111668.0616677     
  -40084982.1230896     
  -40084579.3193549     
  -40084205.5035043     
  -40084247.5613150     
  -40085071.8073343     
  -40086886.9826965     
  -40089651.7674061     
  -40093115.7076853     
  -40096963.1944827     
  -40100949.2948041     
  -40104976.8612361     
  -40109107.9652480     
  -40113496.4272829     
  -40118293.6105261     
  -40123600.3680671     
  -40084163.4909667     
  -40083894.0552054     
  -40084024.5886320     
  -40085114.6211375     
  -40087557.3688368     
  -40091367.3065519     
  -40096209.6433127     
  -40101614.7643717     
  -40107140.9938725     
  -40112459.6039239     
  -40117411.3043771     
  -40122049.4852410     
  -40126616.2776284     
  -40131395.7068908     
  -40136583.1627119     
  -40083354.0246217     
  -40083291.7652022     
  -40084254.1539224     
  -40086982.7536966     
  -40091664.6615942     
  -40097853.7463294     
  -40104885.2388822     
  -40112174.8620925     
  -40119282.3020632     
  -40125878.4949487     
  -40131741.3603461     
  -40136827.4842101     
  -40141363.8908343     
  -40145807.6272314     
  -40150530.3121477     
  -40082555.7454775     
  -40082935.6915257     
  -40085451.4309687     
  -40090745.3881807     
  -40098199.4586609     
  -40106832.7526068     
  -40115877.3830924     
  -40124817.2665316     
  -40133294.2788183     
  -40141034.6274043     
  -40147797.6946362     
  -40153387.2568188     
  -40157838.4665936     
  -40161590.9533966     
  -40165408.9507968     
  -40081843.2968158     
  -40083386.5929903     
  -40088941.6763693     
  -40097583.7428370     
  -40107775.0967668     
  -40118495.8562265     
  -40129167.8171254     
  -40139431.4539459     
  -40149030.8145298     
  -40157745.6337721     
  -40165346.8043972     
  -40171559.3313357     
  -40176067.5215465     
  -40179043.6293504     
  -40181261.9399574     
  -40081566.4560684     
  -40086871.4495584     
  -40096565.1078003     
  -40108222.3707343     
  -40120476.6722003     
  -40132713.6368059     
  -40144583.1842456     
  -40155854.8404955     
  -40166344.7175504     
  -40175873.1278417     
  -40184226.1253091     
  -40191103.6838143     
  -40196047.2714780     
  -40198242.4214725     
  -40198738.5855881     
  -40086822.9754169     
  -40096401.6974962     
  -40109044.3876390     
  -40122491.2565155     
  -40136012.1910014     
  -40149231.0142043     
  -40161925.5874541     
  -40173935.9598886     
  -40185121.9988884     
  -40195332.5489114     
  -40204371.7591117     
  -40211947.5460073     
  -40217558.4142697     
  -40220236.0378213     
  -40216889.1200179     
SCALARS 2waySource double 
LOOKUP_TABLE default
 -1.459973388256344E-005
 -1.462238464714694E-005
 -1.463375094717540E-005
 -1.463201999368654E-005
 -1.461551867458976E-005
 -1.458269411553370E-005
 -1.453209041476596E-005
 -1.446233624238988E-005
 -1.437211854668685E-005
 -1.426017413164509E-005
 -1.412528658580400E-005
 -1.396629131452954E-005
 -1.378208997535282E-005
 -1.357167447508549E-005
 -1.333416029568404E-005
 -1.454421735267529E-005
 -1.456811705712295E-005
 -1.458128718313833E-005
 -1.458181690996366E-005
 -1.456793897905723E-005
 -1.453801088688477E-005
 -1.449049242595422E-005
 -1.442393414448340E-005
 -1.433695301715131E-005
 -1.422822479924630E-005
 -1.409648197567837E-005
 -1.394051953017119E-005
 -1.375920969401193E-005
 -1.355152579775389E-005
 -1.331657503312651E-005
 -1.444963266435488E-005
 -1.447525181094057E-005
 -1.449115914215030E-005
 -1.449526427419641E-005
 -1.448562711299492E-005
 -1.446044063617975E-005
 -1.441801054000013E-005
 -1.435674518930753E-005
 -1.427513593442840E-005
 -1.417175015825698E-005
 -1.404523153939124E-005
 -1.389430696727346E-005
 -1.371780163799365E-005
 -1.351466243323237E-005
 -1.328398945809326E-005
 -1.431613040947524E-005
 -1.434396019572516E-005
 -1.436356266509707E-005
 -1.437258220545482E-005
 -1.436882294072593E-005
 -1.435023440469124E-005
 -1.431489530519289E-005
 -1.426100521565709E-005
 -1.418687243987568E-005
 -1.409090792254989E-005
 -1.397162874350691E-005
 -1.382766637847402E-005
 -1.365778190721405E-005
 -1.346088833609553E-005
 -1.323608011987127E-005
 -1.414397314530084E-005
 -1.417452489945278E-005
 -1.419880452926273E-005
 -1.421410011084921E-005
 -1.421787161330890E-005
 -1.420774118988307E-005
 -1.418148339322436E-005
 -1.413701970033533E-005
 -1.407241597674878E-005
 -1.398587790958040E-005
 -1.387575814393159E-005
 -1.374056583115118E-005
 -1.357898134585310E-005
 -1.338987678059573E-005
 -1.317234244788409E-005
 -1.393353337938263E-005
 -1.396733587729590E-005
 -1.399729407682985E-005
 -1.402024265000749E-005
 -1.403320302101052E-005
 -1.403338082619850E-005
 -1.401816470197223E-005
 -1.398512629465850E-005
 -1.393202773948695E-005
 -1.385681993562170E-005
 -1.375765336223955E-005
 -1.363288810521579E-005
 -1.348110748005843E-005
 -1.330113568335771E-005
 -1.309206013946689E-005
 -1.368529124383477E-005
 -1.372288465391961E-005
 -1.375953124363304E-005
 -1.379150975033312E-005
 -1.381530316287740E-005
 -1.382760668421849E-005
 -1.382533758304332E-005
 -1.380564468831360E-005
 -1.376592271549798E-005
 -1.370381862333441E-005
 -1.361724246085963E-005
 -1.350437830037830E-005
 -1.336369569424166E-005
 -1.319396339742840E-005
 -1.299426636611451E-005
 -1.339983170442422E-005
 -1.344175658281565E-005
 -1.348609004512608E-005
 -1.352844933127280E-005
 -1.356467565296614E-005
 -1.359085705101263E-005
 -1.360335224899800E-005
 -1.359881256796857E-005
 -1.357420288398351E-005
 -1.352681548277159E-005
 -1.345428128578559E-005
 -1.335458034014319E-005
 -1.322605034291797E-005
 -1.306739560706390E-005
 -1.287769774236603E-005
 -1.307784138695747E-005
 -1.312462037108470E-005
 -1.317759637442971E-005
 -1.323162123286644E-005
 -1.328179190742852E-005
 -1.332349322505006E-005
 -1.335243940836916E-005
 -1.336470997448514E-005
 -1.335677752089614E-005
 -1.332552900882424E-005
 -1.326827563239478E-005
 -1.318276308029983E-005
 -1.306717640865388E-005
 -1.292014424100971E-005
 -1.274074220660588E-005
 -1.272010488674434E-005
 -1.277221430565493E-005
 -1.283469889785797E-005
 -1.290155111730634E-005
 -1.296702919948550E-005
 -1.302572485524443E-005
 -1.307262619886296E-005
 -1.310316878115250E-005
 -1.311327214037095E-005
 -1.309936403555180E-005
 -1.305839324343879E-005
 -1.298783656786143E-005
 -1.288570216685654E-005
 -1.275052911791885E-005
 -1.258138265164751E-005
 -1.232749968148813E-005
 -1.238532898840319E-005
 -1.245803259782626E-005
 -1.253867416504836E-005
 -1.262059705944260E-005
 -1.269752348418021E-005
 -1.276364198938923E-005
 -1.281367544762122E-005
 -1.284292775719990E-005
 -1.284731226959731E-005
 -1.282336627892349E-005
 -1.276825875345451E-005
 -1.267979322863704E-005
 -1.255640343945661E-005
 -1.239713898593344E-005
 -1.190099086237432E-005
 -1.196478618076046E-005
 -1.204817657300640E-005
 -1.214327069842872E-005
 -1.224245483923976E-005
 -1.233852732478433E-005
 -1.242481532761398E-005
 -1.249526357781412E-005
 -1.254449440431010E-005
 -1.256784437063374E-005
 -1.256138456145608E-005
 -1.252193280540024E-005
 -1.244705839936008E-005
 -1.233507520827186E-005
 -1.218501337684018E-005
 -1.144162514156443E-005
 -1.151141709532629E-005
 -1.160561005604340E-005
 -1.171540044771844E-005
 -1.183222739124055E-005
 -1.194794406002358E-005
 -1.205496899447562E-005
 -1.214640393830752E-005
 -1.221611634848095E-005
 -1.225879388612720E-005
 -1.226997949501032E-005
 -1.224609442248382E-005
 -1.218444874983771E-005
 -1.208322884263731E-005
 -1.194144669383565E-005
 -1.095052498929377E-005
 -1.102604476264836E-005
 -1.113067752519937E-005
 -1.125484793899851E-005
 -1.138913223750726E-005
 -1.152446261532958E-005
 -1.165231969567104E-005
 -1.176489466176310E-005
 -1.185521418547732E-005
 -1.191723204943056E-005
 -1.194589556814453E-005
 -1.193718942432378E-005
 -1.188815354179125E-005
 -1.179685517139999E-005
 -1.166229892425417E-005
 -1.042888430583611E-005
 -1.050947960805714E-005
 -1.062357947114939E-005
 -1.076110090989957E-005
 -1.091193881649487E-005
 -1.106618960451274E-005
 -1.121439083725647E-005
 -1.134775203555953E-005
 -1.145835667984644E-005
 -1.153932658508806E-005
 -1.158494654230865E-005
 -1.159074279877816E-005
 -1.155350078936611E-005
 -1.147120413554122E-005
 -1.134287178772859E-005
 -9.877967674574511E-006
 -9.962540479293037E-006
 -1.008441189197259E-005
 -1.023339067510767E-005
 -1.039898828004618E-005
 -1.057063177478423E-005
 -1.073794972869552E-005
 -1.089110290785774E-005
 -1.102111695098004E-005
 -1.112017699033914E-005
 -1.118185229101734E-005
 -1.120122254545449E-005
 -1.117487821353556E-005
 -1.110078192262727E-005
 -1.097799596284170E-005
 -9.299115426883680E-006
 -9.386112613168073E-006
 -9.513277677254053E-006
 -9.670826918967823E-006
 -9.848307930531200E-006
 -1.003475108309995E-005
 -1.021898135500169E-005
 -1.039007647544491E-005
 -1.053790080781538E-005
 -1.065361399107213E-005
 -1.073005348514586E-005
 -1.076191489363634E-005
 -1.074569623600324E-005
 -1.067942097183437E-005
 -1.056220399380473E-005
 -8.693756140058954E-006
 -8.781245476201645E-006
 -8.910480817096154E-006
 -9.072649859562119E-006
 -9.257852218830476E-006
 -9.455122292152055E-006
 -9.652714744665612E-006
 -9.838693106733407E-006
 -1.000173537405367E-005
 -1.013195638261929E-005
 -1.022151313859339E-005
 -1.026483165533397E-005
 -1.025843139591866E-005
 -1.020044741109626E-005
 -1.008999973202088E-005
 -8.063424963977733E-006
 -8.149277561276957E-006
 -8.276784248788731E-006
 -8.438591467789115E-006
 -8.625882076181936E-006
 -8.828217315037392E-006
 -9.033721757895344E-006
 -9.229756878716554E-006
 -9.404018905235769E-006
 -9.545736935167411E-006
 -9.646537234112222E-006
 -9.700692811151144E-006
 -9.704777163407129E-006
 -9.656959828016274E-006
 -9.556207256990861E-006
 -7.409791313754422E-006
 -7.491954014298693E-006
 -7.613669200847633E-006
 -7.769279173967026E-006
 -7.951439844570646E-006
 -8.150809022063731E-006
 -8.356106560852921E-006
 -8.554783294744299E-006
 -8.734278301978232E-006
 -8.883463112270979E-006
 -8.993685160207877E-006
 -9.059038011976919E-006
 -9.075915791220388E-006
 -9.042191367264177E-006
 -8.956350594988252E-006
 -6.734687786396569E-006
 -6.811501128958763E-006
 -6.923499263534853E-006
 -7.066537752850254E-006
 -7.234769942556095E-006
 -7.420396283163736E-006
 -7.613781760551522E-006
 -7.804057524337939E-006
 -7.980094838336594E-006
 -8.131578531263578E-006
 -8.249882397204042E-006
 -8.328492571527358E-006
 -8.362870574049233E-006
 -8.349872064641656E-006
 -8.286983909190506E-006
 -6.040155240019388E-006
 -6.110627707191659E-006
 -6.209499745033214E-006
 -6.333379576363947E-006
 -6.477373050385973E-006
 -6.635365534686389E-006
 -6.800757464191868E-006
 -6.967041126101433E-006
 -7.127581539423086E-006
 -7.274948067059199E-006
 -7.400861814665482E-006
 -7.497139163897005E-006
 -7.556804350091750E-006
 -7.574466633334354E-006
 -7.545882603624348E-006
 -5.328508550696109E-006
 -5.392479346401132E-006
 -5.475486154158213E-006
 -5.573443479703663E-006
 -5.681213207781173E-006
 -5.794351042757806E-006
 -5.911260160035530E-006
 -6.033506728362194E-006
 -6.163085829084464E-006
 -6.298354584756988E-006
 -6.432030482619376E-006
 -6.552831463706584E-006
 -6.649048774585458E-006
 -6.711127514447364E-006
 -6.732033808652227E-006
 -4.602460186680033E-006
 -4.660603155432063E-006
 -4.725332715686919E-006
 -4.789567710839758E-006
 -4.846479880573642E-006
 -4.894227122935521E-006
 -4.939513200520357E-006
 -4.995795537422594E-006
 -5.076819038580374E-006
 -5.189574577803741E-006
 -5.329912193033472E-006
 -5.483263865326524E-006
 -5.630604718020997E-006
 -5.755206862464842E-006
 -5.845395103167295E-006
 -3.865340350435038E-006
 -3.918961686656914E-006
 -3.961939956993152E-006
 -3.980917049672922E-006
 -3.967430163934054E-006
 -3.926946712493429E-006
 -3.879626424249366E-006
 -3.851971526012781E-006
 -3.868088162717972E-006
 -3.944446502423531E-006
 -4.084845384033368E-006
 -4.275969455061059E-006
 -4.490891479594158E-006
 -4.701107537369186E-006
 -4.886411389724812E-006
 -3.121547913004351E-006
 -3.171802412394812E-006
 -3.184615729651108E-006
 -3.137237584475092E-006
 -3.026848957407242E-006
 -2.877831423830918E-006
 -2.727083441891340E-006
 -2.608188287497872E-006
 -2.549200958821040E-006
 -2.573368659250239E-006
 -2.696807651072355E-006
 -2.919847093032198E-006
 -3.215726212210434E-006
 -3.540036509563834E-006
 -3.855156438729695E-006
 -2.377343532515458E-006
 -2.422295614301063E-006
 -2.381131090861343E-006
 -2.228838562801462E-006
 -1.993501885249704E-006
 -1.730617889963425E-006
 -1.482002645335918E-006
 -1.277928883616013E-006
 -1.143770620994914E-006
 -1.104523611250099E-006
 -1.186485940542989E-006
 -1.413092154416809E-006
 -1.786397683655018E-006
 -2.255242858218511E-006
 -2.749797062414514E-006
 -1.642839656680364E-006
 -1.663020410548346E-006
 -1.507326829035446E-006
 -1.197281481250099E-006
 -8.362131541541329E-007
 -4.774886881710921E-007
 -1.508721346396751E-007
  1.219945369194672E-007
  3.208170098205521E-007
  4.227913817119071E-007
  3.990356225508475E-007
  2.110203801311690E-007
 -1.874743901358760E-007
 -8.148392866118170E-007
 -1.561166177946536E-006
 -9.247236059236188E-007
 -8.407552476121969E-007
 -4.450841950079056E-007
  6.804435111903709E-009
  4.553785048674822E-007
  8.771350735465521E-007
  1.255729443448107E-006
  1.575910642856515E-006
  1.821239612165965E-006
  1.972001410785088E-006
  2.002055072673851E-006
  1.873004843927551E-006
  1.522645818444562E-006
  8.468982711962278E-007
 -2.666388287055794E-007
 -2.275606835218844E-007
  3.404748744100231E-007
  8.742840220665691E-007
  1.385258387085076E-006
  1.871466013563085E-006
  2.322720915170026E-006
  2.727135643542227E-006
  3.071662465217278E-006
  3.341479861630806E-006
  3.518623709942313E-006
  3.579514526651546E-006
  3.490164738169469E-006
  3.195220150999482E-006
  2.585568785277120E-006
  1.337872925320525E-006
SCALARS poroP double 
LOOKUP_TABLE default
  1.810576597348617E-005
  1.810849326919401E-005
  1.810697075959016E-005
  1.810112510052294E-005
  1.809085605674229E-005
  1.807605110863306E-005
  1.805659331827045E-005
  1.803237496162187E-005
  1.800331377587463E-005
  1.796935582058212E-005
  1.793048134199806E-005
  1.788671095139182E-005
  1.783811128524243E-005
  1.778479989988539E-005
  1.772694852828779E-005
  1.810403456057300E-005
  1.810677656478504E-005
  1.810527631076368E-005
  1.809946309972217E-005
  1.808923963597838E-005
  1.807449673879164E-005
  1.805512215969340E-005
  1.803100999540139E-005
  1.800207787060732E-005
  1.796827260458388E-005
  1.792957414459168E-005
  1.788600203370563E-005
  1.783762135213855E-005
  1.778454783859642E-005
  1.772695145581574E-005
  1.810054856652497E-005
  1.810332007749671E-005
  1.810186547542366E-005
  1.809611921355340E-005
  1.808599005173574E-005
  1.807137517518680E-005
  1.805217027475386E-005
  1.802827344344762E-005
  1.799960290649456E-005
  1.796610644941182E-005
  1.792776296708402E-005
  1.788458977461180E-005
  1.783664889705260E-005
  1.778405257240685E-005
  1.772696709581219E-005
  1.809526115255861E-005
  1.809807741356422E-005
  1.809669448882598E-005
  1.809105412798024E-005
  1.808107399594217E-005
  1.806666082289034E-005
  1.804771863963540E-005
  1.802415250966273E-005
  1.799588335915020E-005
  1.796285831711963E-005
  1.792505435130783E-005
  1.788248527831547E-005
  1.783520859803290E-005
  1.778333142012005E-005
  1.772701480082419E-005
  1.808810101430020E-005
  1.809097840331662E-005
  1.808969769410292E-005
  1.808420952517040E-005
  1.807444224109818E-005
  1.806031295048510E-005
  1.804173741980921E-005
  1.801862982469921E-005
  1.799091209732634E-005
  1.795853019773210E-005
  1.792145811604891E-005
  1.787970488547599E-005
  1.783332204058397E-005
  1.778241006818626E-005
  1.772712360857147E-005
  1.807897150581783E-005
  1.808192864266935E-005
  1.808078742080060E-005
  1.807550788030750E-005
  1.806603011996207E-005
  1.805228167798415E-005
  1.803419108808848E-005
  1.801168352183231E-005
  1.798468054321377E-005
  1.795312498123794E-005
  1.791698705872653E-005
  1.787626972132986E-005
  1.783101716552772E-005
  1.778132226625482E-005
  1.772733231365397E-005
  1.806775001201133E-005
  1.807080938516878E-005
  1.806985447566701E-005
  1.806485369735496E-005
  1.805575864036343E-005
  1.804250898941331E-005
  1.802504041394894E-005
  1.800328867086495E-005
  1.797717868060450E-005
  1.794664618541530E-005
  1.791165653796283E-005
  1.787220501435179E-005
  1.782832759692266E-005
  1.778010911608385E-005
  1.772768916098528E-005
  1.805428914999731E-005
  1.805747850549014E-005
  1.805676959397391E-005
  1.805213572303924E-005
  1.804353783201215E-005
  1.803092511196639E-005
  1.801423880744963E-005
  1.799341904153680E-005
  1.796839520174816E-005
  1.793909802396008E-005
  1.790548351778852E-005
  1.786753877774006E-005
  1.782529143699673E-005
  1.777881840110317E-005
  1.772825198793780E-005
  1.803841968483990E-005
  1.804177359005804E-005
  1.804138594277275E-005
  1.803722913693203E-005
  1.802926732422703E-005
  1.801745447170076E-005
  1.800173184849690E-005
  1.798204159016626E-005
  1.795831784087410E-005
  1.793048350409020E-005
  1.789848427041979E-005
  1.786229973500655E-005
  1.782194978519761E-005
  1.777750403326936E-005
  1.772908855703310E-005
  1.801994991085960E-005
  1.802351605345443E-005
  1.802354403473623E-005
  1.801999829328579E-005
  1.801283828874938E-005
  1.800201445652984E-005
  1.798746525330458E-005
  1.796912468945772E-005
  1.794692919708662E-005
  1.792080016000569E-005
  1.789067091020236E-005
  1.785651487887806E-005
  1.781834518538284E-005
  1.777622549355868E-005
  1.773027677938715E-005
  1.799867716932055E-005
  1.800251562949507E-005
  1.800307678773329E-005
  1.800030182584696E-005
  1.799413603891398E-005
  1.798451722599977E-005
  1.797137361532375E-005
  1.795462593027193E-005
  1.793420409530863E-005
  1.791003556921642E-005
  1.788204811363935E-005
  1.785020644297160E-005
  1.781451988589919E-005
  1.777504741265535E-005
  1.773190519157236E-005
  1.797440235470986E-005
  1.797858339700860E-005
  1.797981584283014E-005
  1.797799729694219E-005
  1.797304236863129E-005
  1.796486645909018E-005
  1.795337888930107E-005
  1.793848461168222E-005
  1.792010067124518E-005
  1.789816381086358E-005
  1.787260735643697E-005
  1.784338836715505E-005
  1.781051432113944E-005
  1.777403944882321E-005
  1.773407326549734E-005
  1.794694744726720E-005
  1.795154849524531E-005
  1.795360368475620E-005
  1.795294488519389E-005
  1.794943532345173E-005
  1.794295371257996E-005
  1.793338443597137E-005
  1.792061765109933E-005
  1.790455667358000E-005
  1.788513886939969E-005
  1.786232062245169E-005
  1.783606295119326E-005
  1.780636584724863E-005
  1.777327656070384E-005
  1.773689143861725E-005
  1.791617963186664E-005
  1.792127663736314E-005
  1.792430788455153E-005
  1.792501429394160E-005
  1.792318772669320E-005
  1.791865445019461E-005
  1.791126768574291E-005
  1.790090406804105E-005
  1.788746476738664E-005
  1.787088434933699E-005
  1.785113975800933E-005
  1.782821740497431E-005
  1.780210834327608E-005
  1.777283936541397E-005
  1.774048034723333E-005
  1.788204062462609E-005
  1.788769299430378E-005
  1.789183536601711E-005
  1.789409276284384E-005
  1.789416663488430E-005
  1.789181972500189E-005
  1.788686879110262E-005
  1.787918054927838E-005
  1.786866643799284E-005
  1.785527518293174E-005
  1.783899142905556E-005
  1.781982557488351E-005
  1.779777161276175E-005
  1.777281382054647E-005
  1.774496857220485E-005
  1.784457870238946E-005
  1.785080738074962E-005
  1.785614851702423E-005
  1.786009191941123E-005
  1.786223437534795E-005
  1.786226894792581E-005
  1.785997865784810E-005
  1.785522842723342E-005
  1.784795128752999E-005
  1.783812771593167E-005
  1.782575969729873E-005
  1.781085040727346E-005
  1.779338305612420E-005
  1.777328940845190E-005
  1.775048760965441E-005
  1.780397907878052E-005
  1.781073891933862E-005
  1.781728193098626E-005
  1.782295580992815E-005
  1.782724914880697E-005
  1.782978804772945E-005
  1.783033223821164E-005
  1.782876141844574E-005
  1.782504737733845E-005
  1.781921226213797E-005
  1.781127918938888E-005
  1.780122705833205E-005
  1.778897087262785E-005
  1.777435488178301E-005
  1.775716332874448E-005
  1.776058689950472E-005
  1.776773557093688E-005
  1.777535811613022E-005
  1.778267163838983E-005
  1.778906989642475E-005
  1.779412915061571E-005
  1.779760833186482E-005
  1.779942768991562E-005
  1.779961871161045E-005
  1.779825134311184E-005
  1.779535491163974E-005
  1.779085432241787E-005
  1.778453949830704E-005
  1.777608942944745E-005
  1.776510179771661E-005
  1.771491136121656E-005
  1.772218352112337E-005
  1.773060021422112E-005
  1.773928330966910E-005
  1.774756816798233E-005
  1.775501966107037E-005
  1.776143769335765E-005
  1.776682051359599E-005
  1.777128053107006E-005
  1.777492950677124E-005
  1.777776732921873E-005
  1.777960658488884E-005
  1.778005056306086E-005
  1.777852964163580E-005
  1.777437542190487E-005
  1.766762572855458E-005
  1.767460054020313E-005
  1.768333575267250E-005
  1.769290592825622E-005
  1.770264744562725E-005
  1.771218578735136E-005
  1.772143132976632E-005
  1.773051084778417E-005
  1.773963050304098E-005
  1.774891348626398E-005
  1.775826718139033E-005
  1.776731599069708E-005
  1.777540180226348E-005
  1.778163551757049E-005
  1.778499592742375E-005
  1.761953281556807E-005
  1.762562449810790E-005
  1.763399081720505E-005
  1.764373302120581E-005
  1.765426978996390E-005
  1.766539644372435E-005
  1.767724102169791E-005
  1.769011478426274E-005
  1.770430465275370E-005
  1.771987838329878E-005
  1.773656543216772E-005
  1.775372565977494E-005
  1.777037679331259E-005
  1.778525134374901E-005
  1.779688991714185E-005
  1.757141853708118E-005
  1.757594010693822E-005
  1.758307505194477E-005
  1.759203929517870E-005
  1.760248575446099E-005
  1.761453930879139E-005
  1.762866869514748E-005
  1.764540571383928E-005
  1.766505572148223E-005
  1.768752996197920E-005
  1.771230210215666E-005
  1.773842717501589E-005
  1.776457368833635E-005
  1.778905376265562E-005
  1.780987939695696E-005
  1.752405154937215E-005
  1.752616319481309E-005
  1.753106542876410E-005
  1.753815454805871E-005
  1.754748976321586E-005
  1.755974558486800E-005
  1.757583936241322E-005
  1.759646911401488E-005
  1.762183702369989E-005
  1.765161011611312E-005
  1.768499537600180E-005
  1.772078330483852E-005
  1.775732601032953E-005
  1.779249203302755E-005
  1.782366103191541E-005
  1.747812863217089E-005
  1.747680764980301E-005
  1.747831060852151E-005
  1.748236443416635E-005
  1.748967079161012E-005
  1.750159132311480E-005
  1.751942590338703E-005
  1.754385794259556E-005
  1.757486319432061E-005
  1.761188789189215E-005
  1.765399544457549E-005
  1.769986076342245E-005
  1.774762769372899E-005
  1.779473133275329E-005
  1.783779302009905E-005
  1.743417197954104E-005
  1.742817102563297E-005
  1.742496991728736E-005
  1.742494543554940E-005
  1.742974332988781E-005
  1.744129096881103E-005
  1.746081195168480E-005
  1.748866293533269E-005
  1.752463015476434E-005
  1.756817720305748E-005
  1.761850047796405E-005
  1.767441629511937E-005
  1.773408169602629E-005
  1.779458807955583E-005
  1.785166933440855E-005
  1.739243820621168E-005
  1.738018005335759E-005
  1.737097596129773E-005
  1.736641432057687E-005
  1.736910704128569E-005
  1.738078920612389E-005
  1.740192296836950E-005
  1.743237212144946E-005
  1.747193920734830E-005
  1.752047061704532E-005
  1.757770544907517E-005
  1.764299436331062E-005
  1.771488057123158E-005
  1.779044809543568E-005
  1.786448486383139E-005
  1.735276435428054E-005
  1.733230829398489E-005
  1.731636291146862E-005
  1.730817694199153E-005
  1.731009039067320E-005
  1.732242914160016E-005
  1.734469212654600E-005
  1.737650580980275E-005
  1.741789936196629E-005
  1.746926848397759E-005
  1.753120238488395E-005
  1.760417178019842E-005
  1.768788032300043E-005
  1.778010463626122E-005
  1.787515336365813E-005
  1.731440296934295E-005
  1.728392661543362E-005
  1.726265362505964E-005
  1.725311980820678E-005
  1.725527352340244E-005
  1.726799448507597E-005
  1.729043414312267E-005
  1.732231001556035E-005
  1.736387042577076E-005
  1.741589533469220E-005
  1.747973147386564E-005
  1.755725658929611E-005
  1.765065551331023E-005
  1.776063139375472E-005
  1.788207207228218E-005
  1.727568805170089E-005
  1.723735307560964E-005
  1.721398635772456E-005
  1.720406455645984E-005
  1.720587098477684E-005
  1.721797236651477E-005
  1.723963790367038E-005
  1.727065733417691E-005
  1.731130865815824E-005
  1.736244628652406E-005
  1.742572173587158E-005
  1.750398060630154E-005
  1.760180615210999E-005
  1.772681832786637E-005
  1.788285844812009E-005
  1.724435820763202E-005
  1.719956409050834E-005
  1.717274339798553E-005
  1.716099725613242E-005
  1.716129339175038E-005
  1.717204943764328E-005
  1.719245369751947E-005
  1.722222070967192E-005
  1.726153744894212E-005
  1.731115721249480E-005
  1.737266953764190E-005
  1.744908888590382E-005
  1.754618937024542E-005
  1.767558312570554E-005
  1.786993438442663E-005
SCALARS elementIsPlast double 
LOOKUP_TABLE default
   1.00000000000000     
   1.00000000000000     
   1.00000000000000     
   1.00000000000000     
   1.00000000000000     
   1.00000000000000     
   1.00000000000000     
   1.00000000000000     
   1.00000000000000     
   1.00000000000000     
   1.00000000000000     
   1.00000000000000     
   1.00000000000000     
   1.00000000000000     
   1.00000000000000     
   1.00000000000000     
   1.00000000000000     
   1.00000000000000     
   1.00000000000000     
   1.00000000000000     
   1.00000000000000     
   1.00000000000000     
   1.00000000000000     
   1.00000000000000     
   1.00000000000000     
   1.00000000000000     
   1.00000000000000     
   1.00000000000000     
   1.00000000000000     
   1.00000000000000     
   1.00000000000000     
   1.00000000000000     
   1.00000000000000     
   1.00000000000000     
   1.00000000000000     
   1.00000000000000     
   1.00000000000000     
   1.00000000000000     
   1.00000000000000     
   1.00000000000000     
   1.00000000000000     
   1.00000000000000     
   1.00000000000000     
   1.00000000000000     
   1.00000000000000     
   1.00000000000000     
   1.00000000000000     
   1.00000000000000     
   1.00000000000000     
   1.00000000000000     
   1.00000000000000     
   1.00000000000000     
   1.00000000000000     
   1.00000000000000     
   1.00000000000000     
   1.00000000000000     
   1.00000000000000     
   1.00000000000000     
   1.00000000000000     
   1.00000000000000     
   1.00000000000000     
   1.00000000000000     
   1.00000000000000     
   1.00000000000000     
   1.00000000000000     
   1.00000000000000     
   1.00000000000000     
   1.00000000000000     
   1.00000000000000     
   1.00000000000000     
   1.00000000000000     
   1.00000000000000     
   1.00000000000000     
   1.00000000000000     
   1.00000000000000     
   1.00000000000000     
   1.00000000000000     
   1.00000000000000     
   1.00000000000000     
   1.00000000000000     
   1.00000000000000     
   1.00000000000000     
   1.00000000000000     
   1.00000000000000     
   1.00000000000000     
   1.00000000000000     
   1.00000000000000     
   1.00000000000000     
   1.00000000000000     
   1.00000000000000     
   1.00000000000000     
   1.00000000000000     
   1.00000000000000     
   1.00000000000000     
   1.00000000000000     
   1.00000000000000     
   1.00000000000000     
   1.00000000000000     
   1.00000000000000     
   1.00000000000000     
   1.00000000000000     
   1.00000000000000     
   1.00000000000000     
   1.00000000000000     
   1.00000000000000     
   1.00000000000000     
   1.00000000000000     
   1.00000000000000     
   1.00000000000000     
   1.00000000000000     
   1.00000000000000     
   1.00000000000000     
   1.00000000000000     
   1.00000000000000     
   1.00000000000000     
   1.00000000000000     
   1.00000000000000     
   1.00000000000000     
   1.00000000000000     
   1.00000000000000     
   1.00000000000000     
   1.00000000000000     
   1.00000000000000     
   1.00000000000000     
   1.00000000000000     
   1.00000000000000     
   1.00000000000000     
   1.00000000000000     
   1.00000000000000     
   1.00000000000000     
   1.00000000000000     
   1.00000000000000     
   1.00000000000000     
   1.00000000000000     
   1.00000000000000     
   1.00000000000000     
   1.00000000000000     
   1.00000000000000     
   1.00000000000000     
   1.00000000000000     
   1.00000000000000     
   1.00000000000000     
   1.00000000000000     
   1.00000000000000     
   1.00000000000000     
   1.00000000000000     
   1.00000000000000     
   1.00000000000000     
   1.00000000000000     
   1.00000000000000     
   1.00000000000000     
   1.00000000000000     
   1.00000000000000     
   1.00000000000000     
   1.00000000000000     
   1.00000000000000     
   1.00000000000000     
   1.00000000000000     
   1.00000000000000     
   1.00000000000000     
   1.00000000000000     
   1.00000000000000     
   1.00000000000000     
   1.00000000000000     
   1.00000000000000     
   1.00000000000000     
   1.00000000000000     
   1.00000000000000     
   1.00000000000000     
   1.00000000000000     
   1.00000000000000     
   1.00000000000000     
   1.00000000000000     
   1.00000000000000     
   1.00000000000000     
   1.00000000000000     
   1.00000000000000     
   1.00000000000000     
   1.00000000000000     
   1.00000000000000     
   1.00000000000000     
   1.00000000000000     
   1.00000000000000     
   1.00000000000000     
   1.00000000000000     
   1.00000000000000     
   1.00000000000000     
   1.00000000000000     
   1.00000000000000     
   1.00000000000000     
   1.00000000000000     
   1.00000000000000     
   1.00000000000000     
   1.00000000000000     
   1.00000000000000     
   1.00000000000000     
   1.00000000000000     
   1.00000000000000     
   1.00000000000000     
   1.00000000000000     
   1.00000000000000     
   1.00000000000000     
   1.00000000000000     
   1.00000000000000     
   1.00000000000000     
   1.00000000000000     
   1.00000000000000     
   1.00000000000000     
   1.00000000000000     
   1.00000000000000     
   1.00000000000000     
   1.00000000000000     
   1.00000000000000     
   1.00000000000000     
   1.00000000000000     
   1.00000000000000     
   1.00000000000000     
   1.00000000000000     
   1.00000000000000     
   1.00000000000000     
   1.00000000000000     
   1.00000000000000     
   1.00000000000000     
   1.00000000000000     
   1.00000000000000     
   1.00000000000000     
   1.00000000000000     
   1.00000000000000     
   1.00000000000000     
   1.00000000000000     
   1.00000000000000     
   1.00000000000000     
   1.00000000000000     
   1.00000000000000     
   1.00000000000000     
   1.00000000000000     
   1.00000000000000     
   1.00000000000000     
   1.00000000000000     
   1.00000000000000     
   1.00000000000000     
   1.00000000000000     
   1.00000000000000     
   1.00000000000000     
   1.00000000000000     
   1.00000000000000     
   1.00000000000000     
   1.00000000000000     
   1.00000000000000     
   1.00000000000000     
   1.00000000000000     
   1.00000000000000     
   1.00000000000000     
   1.00000000000000     
   1.00000000000000     
   1.00000000000000     
   1.00000000000000     
   1.00000000000000     
   1.00000000000000     
   1.00000000000000     
   1.00000000000000     
   1.00000000000000     
   1.00000000000000     
   1.00000000000000     
   1.00000000000000     
   1.00000000000000     
   1.00000000000000     
   1.00000000000000     
   1.00000000000000     
   1.00000000000000     
   1.00000000000000     
   1.00000000000000     
   1.00000000000000     
   1.00000000000000     
   1.00000000000000     
   1.00000000000000     
   1.00000000000000     
   1.00000000000000     
   1.00000000000000     
   1.00000000000000     
   1.00000000000000     
   1.00000000000000     
   1.00000000000000     
   1.00000000000000     
   1.00000000000000     
   1.00000000000000     
   1.00000000000000     
   1.00000000000000     
   1.00000000000000     
   1.00000000000000     
   1.00000000000000     
   1.00000000000000     
   1.00000000000000     
   1.00000000000000     
   1.00000000000000     
   1.00000000000000     
   1.00000000000000     
   1.00000000000000     
   1.00000000000000     
   1.00000000000000     
   1.00000000000000     
   1.00000000000000     
   1.00000000000000     
   1.00000000000000     
   1.00000000000000     
   1.00000000000000     
   1.00000000000000     
   1.00000000000000     
   1.00000000000000     
   1.00000000000000     
   1.00000000000000     
   1.00000000000000     
   1.00000000000000     
   1.00000000000000     
   1.00000000000000     
   1.00000000000000     
   1.00000000000000     
   1.00000000000000     
   1.00000000000000     
   1.00000000000000     
   1.00000000000000     
   1.00000000000000     
   1.00000000000000     
   1.00000000000000     
   1.00000000000000     
   1.00000000000000     
   1.00000000000000     
   1.00000000000000     
   1.00000000000000     
   1.00000000000000     
   1.00000000000000     
   1.00000000000000     
   1.00000000000000     
   1.00000000000000     
   1.00000000000000     
   1.00000000000000     
   1.00000000000000     
   1.00000000000000     
   1.00000000000000     
   1.00000000000000     
   1.00000000000000     
   1.00000000000000     
   1.00000000000000     
   1.00000000000000     
   1.00000000000000     
   1.00000000000000     
   1.00000000000000     
   1.00000000000000     
   1.00000000000000     
   1.00000000000000     
   1.00000000000000     
   1.00000000000000     
   1.00000000000000     
   1.00000000000000     
   1.00000000000000     
   1.00000000000000     
   1.00000000000000     
   1.00000000000000     
   1.00000000000000     
   1.00000000000000     
   1.00000000000000     
   1.00000000000000     
   1.00000000000000     
   1.00000000000000     
   1.00000000000000     
   1.00000000000000     
   1.00000000000000     
   1.00000000000000     
   1.00000000000000     
   1.00000000000000     
   1.00000000000000     
   1.00000000000000     
   1.00000000000000     
   1.00000000000000     
   1.00000000000000     
   1.00000000000000     
   1.00000000000000     
   1.00000000000000     
   1.00000000000000     
   1.00000000000000     
   1.00000000000000     
   1.00000000000000     
   1.00000000000000     
   1.00000000000000     
   1.00000000000000     
   1.00000000000000     
   1.00000000000000     
   1.00000000000000     
   1.00000000000000     
   1.00000000000000     
   1.00000000000000     
   1.00000000000000     
   1.00000000000000     
   1.00000000000000     
   1.00000000000000     
   1.00000000000000     
   1.00000000000000     
   1.00000000000000     
   1.00000000000000     
   1.00000000000000     
   1.00000000000000     
   1.00000000000000     
   1.00000000000000     
   1.00000000000000     
   1.00000000000000     
   1.00000000000000     
   1.00000000000000     
   1.00000000000000     
   1.00000000000000     
   1.00000000000000     
   1.00000000000000     
   1.00000000000000     
   1.00000000000000     
   1.00000000000000     
   1.00000000000000     
   1.00000000000000     
   1.00000000000000     
   1.00000000000000     
   1.00000000000000     
   1.00000000000000     
   1.00000000000000     
   1.00000000000000     
   1.00000000000000     
   1.00000000000000     
   1.00000000000000     
   1.00000000000000     
   1.00000000000000     
   1.00000000000000     
   1.00000000000000     
   1.00000000000000     
   1.00000000000000     
   1.00000000000000     
   1.00000000000000     
   1.00000000000000     
   1.00000000000000     
   1.00000000000000     
   1.00000000000000     
   1.00000000000000     
   1.00000000000000     
   1.00000000000000     
   1.00000000000000     
   1.00000000000000     
   1.00000000000000     
   1.00000000000000     
   1.00000000000000     
   1.00000000000000     
   1.00000000000000     
   1.00000000000000     
   1.00000000000000     
   1.00000000000000     
SCALARS poroL double 
LOOKUP_TABLE default
  0.155787243239095     
  0.155787250643840     
  0.155787256686361     
  0.155787261119037     
  0.155787263670709     
  0.155787264062310     
  0.155787262017405     
  0.155787257274731     
  0.155787249603306     
  0.155787238807670     
  0.155787224735415     
  0.155787207284891     
  0.155787186412562     
  0.155787162139889     
  0.155787134559121     
  0.155787240117568     
  0.155787247608546     
  0.155787253804126     
  0.155787258439357     
  0.155787261227637     
  0.155787261876967     
  0.155787260100023     
  0.155787255625641     
  0.155787248213016     
  0.155787237659240     
  0.155787223805926     
  0.155787206546566     
  0.155787185833910     
  0.155787161686863     
  0.155787134196523     
  0.155787233855849     
  0.155787241517829     
  0.155787248018086     
  0.155787253057081     
  0.155787256317527     
  0.155787257480427     
  0.155787256237645     
  0.155787252297803     
  0.155787245399997     
  0.155787235327367     
  0.155787221909031     
  0.155787205028601     
  0.155787184631341     
  0.155787160731147     
  0.155787133416610     
  0.155787224415922     
  0.155787232330941     
  0.155787239284655     
  0.155787244925596     
  0.155787248891061     
  0.155787250822672     
  0.155787250375926     
  0.155787247230031     
  0.155787241098888     
  0.155787231741650     
  0.155787218968539     
  0.155787202647981     
  0.155787182713811     
  0.155787159172401     
  0.155787132108938     
  0.155787211739410     
  0.155787219985499     
  0.155787227537243     
  0.155787233973881     
  0.155787238871408     
  0.155787241817965     
  0.155787242424364     
  0.155787240329347     
  0.155787235210353     
  0.155787226795371     
  0.155787214869044     
  0.155787199279017     
  0.155787179943756     
  0.155787156859481     
  0.155787130107346     
  0.155787195746333     
  0.155787204396382     
  0.155787212684918     
  0.155787220104665     
  0.155787226155499     
  0.155787230356178     
  0.155787232264457     
  0.155787231469445     
  0.155787227599427     
  0.155787220343880     
  0.155787209454111     
  0.155787194751748     
  0.155787176135627     
  0.155787153589498     
  0.155787127189450     
  0.155787176333903     
  0.155787185454487     
  0.155787194611337     
  0.155787203193657     
  0.155787210610318     
  0.155787216302120     
  0.155787219750403     
  0.155787220488362     
  0.155787218094404     
  0.155787212201704     
  0.155787202523868     
  0.155787188849592     
  0.155787171053709     
  0.155787149105121     
  0.155787123074597     
  0.155787153376182     
  0.155787163027170     
  0.155787173174695     
  0.155787183088578     
  0.155787192073308     
  0.155787199475916     
  0.155787204696887     
  0.155787207193386     
  0.155787206480978     
  0.155787202140083     
  0.155787193831789     
  0.155787181305993     
  0.155787164408679     
  0.155787143091817     
  0.155787117421489     
  0.155787126730880     
  0.155787136959743     
  0.155787148207727     
  0.155787159609252     
  0.155787170349258     
  0.155787179669817     
  0.155787186871708     
  0.155787191335182     
  0.155787192502326     
  0.155787189882534     
  0.155787183080403     
  0.155787171799317     
  0.155787155852807     
  0.155787135174059     
  0.155787109825378     
  0.155787096229224     
  0.155787107078659     
  0.155787119521442     
  0.155787132548394     
  0.155787145213409     
  0.155787156639627     
  0.155787166023246     
  0.155787172639535     
  0.155787175852049     
  0.155787175100758     
  0.155787169913948     
  0.155787159946238     
  0.155787144973822     
  0.155787124909741     
  0.155787099814138     
  0.155787061693624     
  0.155787073193503     
  0.155787086909209     
  0.155787101676793     
  0.155787116411892     
  0.155787130108491     
  0.155787141842694     
  0.155787150777141     
  0.155787156177975     
  0.155787157403138     
  0.155787153910988     
  0.155787145293547     
  0.155787131286909     
  0.155787111784005     
  0.155787086844138     
  0.155787022949864     
  0.155787035112572     
  0.155787050153778     
  0.155787066748717     
  0.155787083666114     
  0.155787099762432     
  0.155787113981849     
  0.155787125361556     
  0.155787133053235     
  0.155787136330048     
  0.155787134574583     
  0.155787127307045     
  0.155787114225626     
  0.155787095202510     
  0.155787070297272     
  0.155786979843374     
  0.155786992659924     
  0.155787009043015     
  0.155787027509966     
  0.155787046677299     
  0.155787065255178     
  0.155787082046360     
  0.155787095955011     
  0.155787105998458     
  0.155787111347049     
  0.155787111315214     
  0.155787105360244     
  0.155787093131993     
  0.155787074486070     
  0.155787049481167     
  0.155786932264241     
  0.155786945695750     
  0.155786963389415     
  0.155786983713499     
  0.155787005134825     
  0.155787026210111     
  0.155787045591245     
  0.155787062036877     
  0.155787074433327     
  0.155787081822228     
  0.155787083444463     
  0.155787078719026     
  0.155787067248186     
  0.155787048869198     
  0.155787023635380     
  0.155786880177659     
  0.155786894144558     
  0.155786913052900     
  0.155786935138580     
  0.155786958726562     
  0.155786982221113     
  0.155787004114592     
  0.155787023012826     
  0.155787037666466     
  0.155787047001610     
  0.155787050159094     
  0.155787046530261     
  0.155787035711816     
  0.155787017504477     
  0.155786991946621     
  0.155786823658298     
  0.155786838027058     
  0.155786857969320     
  0.155786881612636     
  0.155786907154546     
  0.155786932854120     
  0.155786957048412     
  0.155786978188416     
  0.155786994887130     
  0.155787005969358     
  0.155787010503984     
  0.155787007828273     
  0.155786997553676     
  0.155786979479424     
  0.155786953576016     
  0.155786762923979     
  0.155786777492432     
  0.155786798180985     
  0.155786823035985     
  0.155786850149533     
  0.155786877654422     
  0.155786903747496     
  0.155786926740345     
  0.155786945127042     
  0.155786957648103     
  0.155786963332774     
  0.155786961499347     
  0.155786951734507     
  0.155786933838710     
  0.155786907707713     
  0.155786698361204     
  0.155786712846008     
  0.155786733863632     
  0.155786759405463     
  0.155786787486378     
  0.155786816146093     
  0.155786843478636     
  0.155786867697468     
  0.155786887221824     
  0.155786900755926     
  0.155786907326653     
  0.155786906264745     
  0.155786897130179     
  0.155786879646063     
  0.155786853589680     
  0.155786630538357     
  0.155786644560740     
  0.155786665341898     
  0.155786690829873     
  0.155786718994626     
  0.155786747830211     
  0.155786775398382     
  0.155786799903019     
  0.155786819782919     
  0.155786833787591     
  0.155786840994371     
  0.155786840750944     
  0.155786832569448     
  0.155786816009536     
  0.155786790610893     
  0.155786560192196     
  0.155786573273255     
  0.155786593079736     
  0.155786617526924     
  0.155786644554062     
  0.155786672171089     
  0.155786698527137     
  0.155786721981182     
  0.155786741165671     
  0.155786755005427     
  0.155786762679378     
  0.155786763524562     
  0.155786756911279     
  0.155786742131459     
  0.155786718347734     
  0.155786488217010     
  0.155786499724960     
  0.155786517647457     
  0.155786539786308     
  0.155786564053055     
  0.155786588557041     
  0.155786611715328     
  0.155786632322030     
  0.155786649480904     
  0.155786662474179     
  0.155786670611733     
  0.155786673123844     
  0.155786669086927     
  0.155786657363983     
  0.155786636582653     
  0.155786415439391     
  0.155786424676539     
  0.155786439613972     
  0.155786457871883     
  0.155786477291490     
  0.155786496204543     
  0.155786513609890     
  0.155786529121333     
  0.155786542693931     
  0.155786554171499     
  0.155786562988030     
  0.155786568106523     
  0.155786568096460     
  0.155786561196025     
  0.155786545323467     
  0.155786342728570     
  0.155786348811425     
  0.155786359406756     
  0.155786371797804     
  0.155786383745260     
  0.155786394017979     
  0.155786402633514     
  0.155786410541542     
  0.155786418872606     
  0.155786428199653     
  0.155786438077640     
  0.155786447053474     
  0.155786452961566     
  0.155786453185744     
  0.155786444744514     
  0.155786270861158     
  0.155786272703103     
  0.155786277194307     
  0.155786281071303     
  0.155786282205274     
  0.155786280340990     
  0.155786277086442     
  0.155786275043340     
  0.155786276608493     
  0.155786283107204     
  0.155786294346907     
  0.155786308523543     
  0.155786322597814     
  0.155786332841718     
  0.155786335102489     
  0.155786200451482     
  0.155786196597455     
  0.155786192521747     
  0.155786184280277     
  0.155786170479439     
  0.155786152922569     
  0.155786135397698     
  0.155786121864767     
  0.155786115500105     
  0.155786118290308     
  0.155786130653216     
  0.155786150992477     
  0.155786175602482     
  0.155786199391276     
  0.155786216592066     
  0.155786131851887     
  0.155786120153929     
  0.155786103687217     
  0.155786078316911     
  0.155786045199699     
  0.155786009488961     
  0.155785976749241     
  0.155785951329570     
  0.155785936412106     
  0.155785934368720     
  0.155785946642655     
  0.155785972916103     
  0.155786009985454     
  0.155786051420454     
  0.155786089153330     
  0.155786065003971     
  0.155786041709076     
  0.155786006554430     
  0.155785957826659     
  0.155785902604003     
  0.155785848744534     
  0.155785801643559     
  0.155785764889096     
  0.155785741258484     
  0.155785733248259     
  0.155785743294518     
  0.155785773374708     
  0.155785822921080     
  0.155785886329600     
  0.155785952033424     
  0.155785998711728     
  0.155785956443608     
  0.155785892571136     
  0.155785816723651     
  0.155785740663028     
  0.155785671103093     
  0.155785611634579     
  0.155785564734056     
  0.155785532613546     
  0.155785517743206     
  0.155785523228799     
  0.155785553060899     
  0.155785611851343     
  0.155785698978714     
  0.155785803377840     
  0.155785928751311     
  0.155785849673380     
  0.155785751841452     
  0.155785652370345     
  0.155785560044792     
  0.155785478150082     
  0.155785408642950     
  0.155785353081917     
  0.155785313156285     
  0.155785291100060     
  0.155785290208321     
  0.155785315632758     
  0.155785375482489     
  0.155785483642426     
  0.155785635884088     
  0.155785823791866     
  0.155785705342114     
  0.155785581309978     
  0.155785466173321     
  0.155785362512265     
  0.155785271635556     
  0.155785194438425     
  0.155785131864425     
  0.155785085177389     
  0.155785056292464     
  0.155785048304982     
  0.155785066475548     
  0.155785120435394     
  0.155785229245083     
  0.155785449349588     
