# vtk DataFile Version 3.0
vtk output
ASCII
DATASET UNSTRUCTURED_GRID
POINTS       496 double 
  0.00000000E+00  3.00000000E+02  0.00000000E+00
  0.00000000E+00  2.80000000E+02  0.00000000E+00
  0.00000000E+00  2.60000000E+02  0.00000000E+00
  0.00000000E+00  2.40000000E+02  0.00000000E+00
  0.00000000E+00  2.20000000E+02  0.00000000E+00
  0.00000000E+00  2.00000000E+02  0.00000000E+00
  0.00000000E+00  1.80000000E+02  0.00000000E+00
  0.00000000E+00  1.60000000E+02  0.00000000E+00
  0.00000000E+00  1.40000000E+02  0.00000000E+00
  0.00000000E+00  1.20000000E+02  0.00000000E+00
  0.00000000E+00  1.00000000E+02  0.00000000E+00
  0.00000000E+00  8.00000000E+01  0.00000000E+00
  0.00000000E+00  6.00000000E+01  0.00000000E+00
  0.00000000E+00  4.00000000E+01  0.00000000E+00
  0.00000000E+00  2.00000000E+01  0.00000000E+00
  0.00000000E+00  4.99600361E-14  0.00000000E+00
  2.00000000E+01  3.00000000E+02  0.00000000E+00
  2.00000000E+01  2.80000000E+02  0.00000000E+00
  2.00000000E+01  2.60000000E+02  0.00000000E+00
  2.00000000E+01  2.40000000E+02  0.00000000E+00
  2.00000000E+01  2.20000000E+02  0.00000000E+00
  2.00000000E+01  2.00000000E+02  0.00000000E+00
  2.00000000E+01  1.80000000E+02  0.00000000E+00
  2.00000000E+01  1.60000000E+02  0.00000000E+00
  2.00000000E+01  1.40000000E+02  0.00000000E+00
  2.00000000E+01  1.20000000E+02  0.00000000E+00
  2.00000000E+01  1.00000000E+02  0.00000000E+00
  2.00000000E+01  8.00000000E+01  0.00000000E+00
  2.00000000E+01  6.00000000E+01  0.00000000E+00
  2.00000000E+01  4.00000000E+01  0.00000000E+00
  2.00000000E+01  2.00000000E+01  0.00000000E+00
  2.00000000E+01  4.99600361E-14  0.00000000E+00
  4.00000000E+01  3.00000000E+02  0.00000000E+00
  4.00000000E+01  2.80000000E+02  0.00000000E+00
  4.00000000E+01  2.60000000E+02  0.00000000E+00
  4.00000000E+01  2.40000000E+02  0.00000000E+00
  4.00000000E+01  2.20000000E+02  0.00000000E+00
  4.00000000E+01  2.00000000E+02  0.00000000E+00
  4.00000000E+01  1.80000000E+02  0.00000000E+00
  4.00000000E+01  1.60000000E+02  0.00000000E+00
  4.00000000E+01  1.40000000E+02  0.00000000E+00
  4.00000000E+01  1.20000000E+02  0.00000000E+00
  4.00000000E+01  1.00000000E+02  0.00000000E+00
  4.00000000E+01  8.00000000E+01  0.00000000E+00
  4.00000000E+01  6.00000000E+01  0.00000000E+00
  4.00000000E+01  4.00000000E+01  0.00000000E+00
  4.00000000E+01  2.00000000E+01  0.00000000E+00
  4.00000000E+01  4.99600361E-14  0.00000000E+00
  6.00000000E+01  3.00000000E+02  0.00000000E+00
  6.00000000E+01  2.80000000E+02  0.00000000E+00
  6.00000000E+01  2.60000000E+02  0.00000000E+00
  6.00000000E+01  2.40000000E+02  0.00000000E+00
  6.00000000E+01  2.20000000E+02  0.00000000E+00
  6.00000000E+01  2.00000000E+02  0.00000000E+00
  6.00000000E+01  1.80000000E+02  0.00000000E+00
  6.00000000E+01  1.60000000E+02  0.00000000E+00
  6.00000000E+01  1.40000000E+02  0.00000000E+00
  6.00000000E+01  1.20000000E+02  0.00000000E+00
  6.00000000E+01  1.00000000E+02  0.00000000E+00
  6.00000000E+01  8.00000000E+01  0.00000000E+00
  6.00000000E+01  6.00000000E+01  0.00000000E+00
  6.00000000E+01  4.00000000E+01  0.00000000E+00
  6.00000000E+01  2.00000000E+01  0.00000000E+00
  6.00000000E+01  4.99600361E-14  0.00000000E+00
  8.00000000E+01  3.00000000E+02  0.00000000E+00
  8.00000000E+01  2.80000000E+02  0.00000000E+00
  8.00000000E+01  2.60000000E+02  0.00000000E+00
  8.00000000E+01  2.40000000E+02  0.00000000E+00
  8.00000000E+01  2.20000000E+02  0.00000000E+00
  8.00000000E+01  2.00000000E+02  0.00000000E+00
  8.00000000E+01  1.80000000E+02  0.00000000E+00
  8.00000000E+01  1.60000000E+02  0.00000000E+00
  8.00000000E+01  1.40000000E+02  0.00000000E+00
  8.00000000E+01  1.20000000E+02  0.00000000E+00
  8.00000000E+01  1.00000000E+02  0.00000000E+00
  8.00000000E+01  8.00000000E+01  0.00000000E+00
  8.00000000E+01  6.00000000E+01  0.00000000E+00
  8.00000000E+01  4.00000000E+01  0.00000000E+00
  8.00000000E+01  2.00000000E+01  0.00000000E+00
  8.00000000E+01  4.99600361E-14  0.00000000E+00
  1.00000000E+02  3.00000000E+02  0.00000000E+00
  1.00000000E+02  2.80000000E+02  0.00000000E+00
  1.00000000E+02  2.60000000E+02  0.00000000E+00
  1.00000000E+02  2.40000000E+02  0.00000000E+00
  1.00000000E+02  2.20000000E+02  0.00000000E+00
  1.00000000E+02  2.00000000E+02  0.00000000E+00
  1.00000000E+02  1.80000000E+02  0.00000000E+00
  1.00000000E+02  1.60000000E+02  0.00000000E+00
  1.00000000E+02  1.40000000E+02  0.00000000E+00
  1.00000000E+02  1.20000000E+02  0.00000000E+00
  1.00000000E+02  1.00000000E+02  0.00000000E+00
  1.00000000E+02  8.00000000E+01  0.00000000E+00
  1.00000000E+02  6.00000000E+01  0.00000000E+00
  1.00000000E+02  4.00000000E+01  0.00000000E+00
  1.00000000E+02  2.00000000E+01  0.00000000E+00
  1.00000000E+02  4.99600361E-14  0.00000000E+00
  1.20000000E+02  3.00000000E+02  0.00000000E+00
  1.20000000E+02  2.80000000E+02  0.00000000E+00
  1.20000000E+02  2.60000000E+02  0.00000000E+00
  1.20000000E+02  2.40000000E+02  0.00000000E+00
  1.20000000E+02  2.20000000E+02  0.00000000E+00
  1.20000000E+02  2.00000000E+02  0.00000000E+00
  1.20000000E+02  1.80000000E+02  0.00000000E+00
  1.20000000E+02  1.60000000E+02  0.00000000E+00
  1.20000000E+02  1.40000000E+02  0.00000000E+00
  1.20000000E+02  1.20000000E+02  0.00000000E+00
  1.20000000E+02  1.00000000E+02  0.00000000E+00
  1.20000000E+02  8.00000000E+01  0.00000000E+00
  1.20000000E+02  6.00000000E+01  0.00000000E+00
  1.20000000E+02  4.00000000E+01  0.00000000E+00
  1.20000000E+02  2.00000000E+01  0.00000000E+00
  1.20000000E+02  4.99600361E-14  0.00000000E+00
  1.40000000E+02  3.00000000E+02  0.00000000E+00
  1.40000000E+02  2.80000000E+02  0.00000000E+00
  1.40000000E+02  2.60000000E+02  0.00000000E+00
  1.40000000E+02  2.40000000E+02  0.00000000E+00
  1.40000000E+02  2.20000000E+02  0.00000000E+00
  1.40000000E+02  2.00000000E+02  0.00000000E+00
  1.40000000E+02  1.80000000E+02  0.00000000E+00
  1.40000000E+02  1.60000000E+02  0.00000000E+00
  1.40000000E+02  1.40000000E+02  0.00000000E+00
  1.40000000E+02  1.20000000E+02  0.00000000E+00
  1.40000000E+02  1.00000000E+02  0.00000000E+00
  1.40000000E+02  8.00000000E+01  0.00000000E+00
  1.40000000E+02  6.00000000E+01  0.00000000E+00
  1.40000000E+02  4.00000000E+01  0.00000000E+00
  1.40000000E+02  2.00000000E+01  0.00000000E+00
  1.40000000E+02  4.99600361E-14  0.00000000E+00
  1.60000000E+02  3.00000000E+02  0.00000000E+00
  1.60000000E+02  2.80000000E+02  0.00000000E+00
  1.60000000E+02  2.60000000E+02  0.00000000E+00
  1.60000000E+02  2.40000000E+02  0.00000000E+00
  1.60000000E+02  2.20000000E+02  0.00000000E+00
  1.60000000E+02  2.00000000E+02  0.00000000E+00
  1.60000000E+02  1.80000000E+02  0.00000000E+00
  1.60000000E+02  1.60000000E+02  0.00000000E+00
  1.60000000E+02  1.40000000E+02  0.00000000E+00
  1.60000000E+02  1.20000000E+02  0.00000000E+00
  1.60000000E+02  1.00000000E+02  0.00000000E+00
  1.60000000E+02  8.00000000E+01  0.00000000E+00
  1.60000000E+02  6.00000000E+01  0.00000000E+00
  1.60000000E+02  4.00000000E+01  0.00000000E+00
  1.60000000E+02  2.00000000E+01  0.00000000E+00
  1.60000000E+02  4.99600361E-14  0.00000000E+00
  1.80000000E+02  3.00000000E+02  0.00000000E+00
  1.80000000E+02  2.80000000E+02  0.00000000E+00
  1.80000000E+02  2.60000000E+02  0.00000000E+00
  1.80000000E+02  2.40000000E+02  0.00000000E+00
  1.80000000E+02  2.20000000E+02  0.00000000E+00
  1.80000000E+02  2.00000000E+02  0.00000000E+00
  1.80000000E+02  1.80000000E+02  0.00000000E+00
  1.80000000E+02  1.60000000E+02  0.00000000E+00
  1.80000000E+02  1.40000000E+02  0.00000000E+00
  1.80000000E+02  1.20000000E+02  0.00000000E+00
  1.80000000E+02  1.00000000E+02  0.00000000E+00
  1.80000000E+02  8.00000000E+01  0.00000000E+00
  1.80000000E+02  6.00000000E+01  0.00000000E+00
  1.80000000E+02  4.00000000E+01  0.00000000E+00
  1.80000000E+02  2.00000000E+01  0.00000000E+00
  1.80000000E+02  4.99600361E-14  0.00000000E+00
  2.00000000E+02  3.00000000E+02  0.00000000E+00
  2.00000000E+02  2.80000000E+02  0.00000000E+00
  2.00000000E+02  2.60000000E+02  0.00000000E+00
  2.00000000E+02  2.40000000E+02  0.00000000E+00
  2.00000000E+02  2.20000000E+02  0.00000000E+00
  2.00000000E+02  2.00000000E+02  0.00000000E+00
  2.00000000E+02  1.80000000E+02  0.00000000E+00
  2.00000000E+02  1.60000000E+02  0.00000000E+00
  2.00000000E+02  1.40000000E+02  0.00000000E+00
  2.00000000E+02  1.20000000E+02  0.00000000E+00
  2.00000000E+02  1.00000000E+02  0.00000000E+00
  2.00000000E+02  8.00000000E+01  0.00000000E+00
  2.00000000E+02  6.00000000E+01  0.00000000E+00
  2.00000000E+02  4.00000000E+01  0.00000000E+00
  2.00000000E+02  2.00000000E+01  0.00000000E+00
  2.00000000E+02  4.99600361E-14  0.00000000E+00
  2.20000000E+02  3.00000000E+02  0.00000000E+00
  2.20000000E+02  2.80000000E+02  0.00000000E+00
  2.20000000E+02  2.60000000E+02  0.00000000E+00
  2.20000000E+02  2.40000000E+02  0.00000000E+00
  2.20000000E+02  2.20000000E+02  0.00000000E+00
  2.20000000E+02  2.00000000E+02  0.00000000E+00
  2.20000000E+02  1.80000000E+02  0.00000000E+00
  2.20000000E+02  1.60000000E+02  0.00000000E+00
  2.20000000E+02  1.40000000E+02  0.00000000E+00
  2.20000000E+02  1.20000000E+02  0.00000000E+00
  2.20000000E+02  1.00000000E+02  0.00000000E+00
  2.20000000E+02  8.00000000E+01  0.00000000E+00
  2.20000000E+02  6.00000000E+01  0.00000000E+00
  2.20000000E+02  4.00000000E+01  0.00000000E+00
  2.20000000E+02  2.00000000E+01  0.00000000E+00
  2.20000000E+02  4.99600361E-14  0.00000000E+00
  2.40000000E+02  3.00000000E+02  0.00000000E+00
  2.40000000E+02  2.80000000E+02  0.00000000E+00
  2.40000000E+02  2.60000000E+02  0.00000000E+00
  2.40000000E+02  2.40000000E+02  0.00000000E+00
  2.40000000E+02  2.20000000E+02  0.00000000E+00
  2.40000000E+02  2.00000000E+02  0.00000000E+00
  2.40000000E+02  1.80000000E+02  0.00000000E+00
  2.40000000E+02  1.60000000E+02  0.00000000E+00
  2.40000000E+02  1.40000000E+02  0.00000000E+00
  2.40000000E+02  1.20000000E+02  0.00000000E+00
  2.40000000E+02  1.00000000E+02  0.00000000E+00
  2.40000000E+02  8.00000000E+01  0.00000000E+00
  2.40000000E+02  6.00000000E+01  0.00000000E+00
  2.40000000E+02  4.00000000E+01  0.00000000E+00
  2.40000000E+02  2.00000000E+01  0.00000000E+00
  2.40000000E+02  4.99600361E-14  0.00000000E+00
  2.60000000E+02  3.00000000E+02  0.00000000E+00
  2.60000000E+02  2.80000000E+02  0.00000000E+00
  2.60000000E+02  2.60000000E+02  0.00000000E+00
  2.60000000E+02  2.40000000E+02  0.00000000E+00
  2.60000000E+02  2.20000000E+02  0.00000000E+00
  2.60000000E+02  2.00000000E+02  0.00000000E+00
  2.60000000E+02  1.80000000E+02  0.00000000E+00
  2.60000000E+02  1.60000000E+02  0.00000000E+00
  2.60000000E+02  1.40000000E+02  0.00000000E+00
  2.60000000E+02  1.20000000E+02  0.00000000E+00
  2.60000000E+02  1.00000000E+02  0.00000000E+00
  2.60000000E+02  8.00000000E+01  0.00000000E+00
  2.60000000E+02  6.00000000E+01  0.00000000E+00
  2.60000000E+02  4.00000000E+01  0.00000000E+00
  2.60000000E+02  2.00000000E+01  0.00000000E+00
  2.60000000E+02  4.99600361E-14  0.00000000E+00
  2.80000000E+02  3.00000000E+02  0.00000000E+00
  2.80000000E+02  2.80000000E+02  0.00000000E+00
  2.80000000E+02  2.60000000E+02  0.00000000E+00
  2.80000000E+02  2.40000000E+02  0.00000000E+00
  2.80000000E+02  2.20000000E+02  0.00000000E+00
  2.80000000E+02  2.00000000E+02  0.00000000E+00
  2.80000000E+02  1.80000000E+02  0.00000000E+00
  2.80000000E+02  1.60000000E+02  0.00000000E+00
  2.80000000E+02  1.40000000E+02  0.00000000E+00
  2.80000000E+02  1.20000000E+02  0.00000000E+00
  2.80000000E+02  1.00000000E+02  0.00000000E+00
  2.80000000E+02  8.00000000E+01  0.00000000E+00
  2.80000000E+02  6.00000000E+01  0.00000000E+00
  2.80000000E+02  4.00000000E+01  0.00000000E+00
  2.80000000E+02  2.00000000E+01  0.00000000E+00
  2.80000000E+02  4.99600361E-14  0.00000000E+00
  3.00000000E+02  3.00000000E+02  0.00000000E+00
  3.00000000E+02  2.80000000E+02  0.00000000E+00
  3.00000000E+02  2.60000000E+02  0.00000000E+00
  3.00000000E+02  2.40000000E+02  0.00000000E+00
  3.00000000E+02  2.20000000E+02  0.00000000E+00
  3.00000000E+02  2.00000000E+02  0.00000000E+00
  3.00000000E+02  1.80000000E+02  0.00000000E+00
  3.00000000E+02  1.60000000E+02  0.00000000E+00
  3.00000000E+02  1.40000000E+02  0.00000000E+00
  3.00000000E+02  1.20000000E+02  0.00000000E+00
  3.00000000E+02  1.00000000E+02  0.00000000E+00
  3.00000000E+02  8.00000000E+01  0.00000000E+00
  3.00000000E+02  6.00000000E+01  0.00000000E+00
  3.00000000E+02  4.00000000E+01  0.00000000E+00
  3.00000000E+02  2.00000000E+01  0.00000000E+00
  3.00000000E+02  4.99600361E-14  0.00000000E+00
  3.20000000E+02  3.00000000E+02  0.00000000E+00
  3.20000000E+02  2.80000000E+02  0.00000000E+00
  3.20000000E+02  2.60000000E+02  0.00000000E+00
  3.20000000E+02  2.40000000E+02  0.00000000E+00
  3.20000000E+02  2.20000000E+02  0.00000000E+00
  3.20000000E+02  2.00000000E+02  0.00000000E+00
  3.20000000E+02  1.80000000E+02  0.00000000E+00
  3.20000000E+02  1.60000000E+02  0.00000000E+00
  3.20000000E+02  1.40000000E+02  0.00000000E+00
  3.20000000E+02  1.20000000E+02  0.00000000E+00
  3.20000000E+02  1.00000000E+02  0.00000000E+00
  3.20000000E+02  8.00000000E+01  0.00000000E+00
  3.20000000E+02  6.00000000E+01  0.00000000E+00
  3.20000000E+02  4.00000000E+01  0.00000000E+00
  3.20000000E+02  2.00000000E+01  0.00000000E+00
  3.20000000E+02  4.99600361E-14  0.00000000E+00
  3.40000000E+02  3.00000000E+02  0.00000000E+00
  3.40000000E+02  2.80000000E+02  0.00000000E+00
  3.40000000E+02  2.60000000E+02  0.00000000E+00
  3.40000000E+02  2.40000000E+02  0.00000000E+00
  3.40000000E+02  2.20000000E+02  0.00000000E+00
  3.40000000E+02  2.00000000E+02  0.00000000E+00
  3.40000000E+02  1.80000000E+02  0.00000000E+00
  3.40000000E+02  1.60000000E+02  0.00000000E+00
  3.40000000E+02  1.40000000E+02  0.00000000E+00
  3.40000000E+02  1.20000000E+02  0.00000000E+00
  3.40000000E+02  1.00000000E+02  0.00000000E+00
  3.40000000E+02  8.00000000E+01  0.00000000E+00
  3.40000000E+02  6.00000000E+01  0.00000000E+00
  3.40000000E+02  4.00000000E+01  0.00000000E+00
  3.40000000E+02  2.00000000E+01  0.00000000E+00
  3.40000000E+02  4.99600361E-14  0.00000000E+00
  3.60000000E+02  3.00000000E+02  0.00000000E+00
  3.60000000E+02  2.80000000E+02  0.00000000E+00
  3.60000000E+02  2.60000000E+02  0.00000000E+00
  3.60000000E+02  2.40000000E+02  0.00000000E+00
  3.60000000E+02  2.20000000E+02  0.00000000E+00
  3.60000000E+02  2.00000000E+02  0.00000000E+00
  3.60000000E+02  1.80000000E+02  0.00000000E+00
  3.60000000E+02  1.60000000E+02  0.00000000E+00
  3.60000000E+02  1.40000000E+02  0.00000000E+00
  3.60000000E+02  1.20000000E+02  0.00000000E+00
  3.60000000E+02  1.00000000E+02  0.00000000E+00
  3.60000000E+02  8.00000000E+01  0.00000000E+00
  3.60000000E+02  6.00000000E+01  0.00000000E+00
  3.60000000E+02  4.00000000E+01  0.00000000E+00
  3.60000000E+02  2.00000000E+01  0.00000000E+00
  3.60000000E+02  4.99600361E-14  0.00000000E+00
  3.80000000E+02  3.00000000E+02  0.00000000E+00
  3.80000000E+02  2.80000000E+02  0.00000000E+00
  3.80000000E+02  2.60000000E+02  0.00000000E+00
  3.80000000E+02  2.40000000E+02  0.00000000E+00
  3.80000000E+02  2.20000000E+02  0.00000000E+00
  3.80000000E+02  2.00000000E+02  0.00000000E+00
  3.80000000E+02  1.80000000E+02  0.00000000E+00
  3.80000000E+02  1.60000000E+02  0.00000000E+00
  3.80000000E+02  1.40000000E+02  0.00000000E+00
  3.80000000E+02  1.20000000E+02  0.00000000E+00
  3.80000000E+02  1.00000000E+02  0.00000000E+00
  3.80000000E+02  8.00000000E+01  0.00000000E+00
  3.80000000E+02  6.00000000E+01  0.00000000E+00
  3.80000000E+02  4.00000000E+01  0.00000000E+00
  3.80000000E+02  2.00000000E+01  0.00000000E+00
  3.80000000E+02  4.99600361E-14  0.00000000E+00
  4.00000000E+02  3.00000000E+02  0.00000000E+00
  4.00000000E+02  2.80000000E+02  0.00000000E+00
  4.00000000E+02  2.60000000E+02  0.00000000E+00
  4.00000000E+02  2.40000000E+02  0.00000000E+00
  4.00000000E+02  2.20000000E+02  0.00000000E+00
  4.00000000E+02  2.00000000E+02  0.00000000E+00
  4.00000000E+02  1.80000000E+02  0.00000000E+00
  4.00000000E+02  1.60000000E+02  0.00000000E+00
  4.00000000E+02  1.40000000E+02  0.00000000E+00
  4.00000000E+02  1.20000000E+02  0.00000000E+00
  4.00000000E+02  1.00000000E+02  0.00000000E+00
  4.00000000E+02  8.00000000E+01  0.00000000E+00
  4.00000000E+02  6.00000000E+01  0.00000000E+00
  4.00000000E+02  4.00000000E+01  0.00000000E+00
  4.00000000E+02  2.00000000E+01  0.00000000E+00
  4.00000000E+02  4.99600361E-14  0.00000000E+00
  4.20000000E+02  3.00000000E+02  0.00000000E+00
  4.20000000E+02  2.80000000E+02  0.00000000E+00
  4.20000000E+02  2.60000000E+02  0.00000000E+00
  4.20000000E+02  2.40000000E+02  0.00000000E+00
  4.20000000E+02  2.20000000E+02  0.00000000E+00
  4.20000000E+02  2.00000000E+02  0.00000000E+00
  4.20000000E+02  1.80000000E+02  0.00000000E+00
  4.20000000E+02  1.60000000E+02  0.00000000E+00
  4.20000000E+02  1.40000000E+02  0.00000000E+00
  4.20000000E+02  1.20000000E+02  0.00000000E+00
  4.20000000E+02  1.00000000E+02  0.00000000E+00
  4.20000000E+02  8.00000000E+01  0.00000000E+00
  4.20000000E+02  6.00000000E+01  0.00000000E+00
  4.20000000E+02  4.00000000E+01  0.00000000E+00
  4.20000000E+02  2.00000000E+01  0.00000000E+00
  4.20000000E+02  4.99600361E-14  0.00000000E+00
  4.40000000E+02  3.00000000E+02  0.00000000E+00
  4.40000000E+02  2.80000000E+02  0.00000000E+00
  4.40000000E+02  2.60000000E+02  0.00000000E+00
  4.40000000E+02  2.40000000E+02  0.00000000E+00
  4.40000000E+02  2.20000000E+02  0.00000000E+00
  4.40000000E+02  2.00000000E+02  0.00000000E+00
  4.40000000E+02  1.80000000E+02  0.00000000E+00
  4.40000000E+02  1.60000000E+02  0.00000000E+00
  4.40000000E+02  1.40000000E+02  0.00000000E+00
  4.40000000E+02  1.20000000E+02  0.00000000E+00
  4.40000000E+02  1.00000000E+02  0.00000000E+00
  4.40000000E+02  8.00000000E+01  0.00000000E+00
  4.40000000E+02  6.00000000E+01  0.00000000E+00
  4.40000000E+02  4.00000000E+01  0.00000000E+00
  4.40000000E+02  2.00000000E+01  0.00000000E+00
  4.40000000E+02  4.99600361E-14  0.00000000E+00
  4.60000000E+02  3.00000000E+02  0.00000000E+00
  4.60000000E+02  2.80000000E+02  0.00000000E+00
  4.60000000E+02  2.60000000E+02  0.00000000E+00
  4.60000000E+02  2.40000000E+02  0.00000000E+00
  4.60000000E+02  2.20000000E+02  0.00000000E+00
  4.60000000E+02  2.00000000E+02  0.00000000E+00
  4.60000000E+02  1.80000000E+02  0.00000000E+00
  4.60000000E+02  1.60000000E+02  0.00000000E+00
  4.60000000E+02  1.40000000E+02  0.00000000E+00
  4.60000000E+02  1.20000000E+02  0.00000000E+00
  4.60000000E+02  1.00000000E+02  0.00000000E+00
  4.60000000E+02  8.00000000E+01  0.00000000E+00
  4.60000000E+02  6.00000000E+01  0.00000000E+00
  4.60000000E+02  4.00000000E+01  0.00000000E+00
  4.60000000E+02  2.00000000E+01  0.00000000E+00
  4.60000000E+02  4.99600361E-14  0.00000000E+00
  4.80000000E+02  3.00000000E+02  0.00000000E+00
  4.80000000E+02  2.80000000E+02  0.00000000E+00
  4.80000000E+02  2.60000000E+02  0.00000000E+00
  4.80000000E+02  2.40000000E+02  0.00000000E+00
  4.80000000E+02  2.20000000E+02  0.00000000E+00
  4.80000000E+02  2.00000000E+02  0.00000000E+00
  4.80000000E+02  1.80000000E+02  0.00000000E+00
  4.80000000E+02  1.60000000E+02  0.00000000E+00
  4.80000000E+02  1.40000000E+02  0.00000000E+00
  4.80000000E+02  1.20000000E+02  0.00000000E+00
  4.80000000E+02  1.00000000E+02  0.00000000E+00
  4.80000000E+02  8.00000000E+01  0.00000000E+00
  4.80000000E+02  6.00000000E+01  0.00000000E+00
  4.80000000E+02  4.00000000E+01  0.00000000E+00
  4.80000000E+02  2.00000000E+01  0.00000000E+00
  4.80000000E+02  4.99600361E-14  0.00000000E+00
  5.00000000E+02  3.00000000E+02  0.00000000E+00
  5.00000000E+02  2.80000000E+02  0.00000000E+00
  5.00000000E+02  2.60000000E+02  0.00000000E+00
  5.00000000E+02  2.40000000E+02  0.00000000E+00
  5.00000000E+02  2.20000000E+02  0.00000000E+00
  5.00000000E+02  2.00000000E+02  0.00000000E+00
  5.00000000E+02  1.80000000E+02  0.00000000E+00
  5.00000000E+02  1.60000000E+02  0.00000000E+00
  5.00000000E+02  1.40000000E+02  0.00000000E+00
  5.00000000E+02  1.20000000E+02  0.00000000E+00
  5.00000000E+02  1.00000000E+02  0.00000000E+00
  5.00000000E+02  8.00000000E+01  0.00000000E+00
  5.00000000E+02  6.00000000E+01  0.00000000E+00
  5.00000000E+02  4.00000000E+01  0.00000000E+00
  5.00000000E+02  2.00000000E+01  0.00000000E+00
  5.00000000E+02  4.99600361E-14  0.00000000E+00
  5.20000000E+02  3.00000000E+02  0.00000000E+00
  5.20000000E+02  2.80000000E+02  0.00000000E+00
  5.20000000E+02  2.60000000E+02  0.00000000E+00
  5.20000000E+02  2.40000000E+02  0.00000000E+00
  5.20000000E+02  2.20000000E+02  0.00000000E+00
  5.20000000E+02  2.00000000E+02  0.00000000E+00
  5.20000000E+02  1.80000000E+02  0.00000000E+00
  5.20000000E+02  1.60000000E+02  0.00000000E+00
  5.20000000E+02  1.40000000E+02  0.00000000E+00
  5.20000000E+02  1.20000000E+02  0.00000000E+00
  5.20000000E+02  1.00000000E+02  0.00000000E+00
  5.20000000E+02  8.00000000E+01  0.00000000E+00
  5.20000000E+02  6.00000000E+01  0.00000000E+00
  5.20000000E+02  4.00000000E+01  0.00000000E+00
  5.20000000E+02  2.00000000E+01  0.00000000E+00
  5.20000000E+02  4.99600361E-14  0.00000000E+00
  5.40000000E+02  3.00000000E+02  0.00000000E+00
  5.40000000E+02  2.80000000E+02  0.00000000E+00
  5.40000000E+02  2.60000000E+02  0.00000000E+00
  5.40000000E+02  2.40000000E+02  0.00000000E+00
  5.40000000E+02  2.20000000E+02  0.00000000E+00
  5.40000000E+02  2.00000000E+02  0.00000000E+00
  5.40000000E+02  1.80000000E+02  0.00000000E+00
  5.40000000E+02  1.60000000E+02  0.00000000E+00
  5.40000000E+02  1.40000000E+02  0.00000000E+00
  5.40000000E+02  1.20000000E+02  0.00000000E+00
  5.40000000E+02  1.00000000E+02  0.00000000E+00
  5.40000000E+02  8.00000000E+01  0.00000000E+00
  5.40000000E+02  6.00000000E+01  0.00000000E+00
  5.40000000E+02  4.00000000E+01  0.00000000E+00
  5.40000000E+02  2.00000000E+01  0.00000000E+00
  5.40000000E+02  4.99600361E-14  0.00000000E+00
  5.60000000E+02  3.00000000E+02  0.00000000E+00
  5.60000000E+02  2.80000000E+02  0.00000000E+00
  5.60000000E+02  2.60000000E+02  0.00000000E+00
  5.60000000E+02  2.40000000E+02  0.00000000E+00
  5.60000000E+02  2.20000000E+02  0.00000000E+00
  5.60000000E+02  2.00000000E+02  0.00000000E+00
  5.60000000E+02  1.80000000E+02  0.00000000E+00
  5.60000000E+02  1.60000000E+02  0.00000000E+00
  5.60000000E+02  1.40000000E+02  0.00000000E+00
  5.60000000E+02  1.20000000E+02  0.00000000E+00
  5.60000000E+02  1.00000000E+02  0.00000000E+00
  5.60000000E+02  8.00000000E+01  0.00000000E+00
  5.60000000E+02  6.00000000E+01  0.00000000E+00
  5.60000000E+02  4.00000000E+01  0.00000000E+00
  5.60000000E+02  2.00000000E+01  0.00000000E+00
  5.60000000E+02  4.99600361E-14  0.00000000E+00
  5.80000000E+02  3.00000000E+02  0.00000000E+00
  5.80000000E+02  2.80000000E+02  0.00000000E+00
  5.80000000E+02  2.60000000E+02  0.00000000E+00
  5.80000000E+02  2.40000000E+02  0.00000000E+00
  5.80000000E+02  2.20000000E+02  0.00000000E+00
  5.80000000E+02  2.00000000E+02  0.00000000E+00
  5.80000000E+02  1.80000000E+02  0.00000000E+00
  5.80000000E+02  1.60000000E+02  0.00000000E+00
  5.80000000E+02  1.40000000E+02  0.00000000E+00
  5.80000000E+02  1.20000000E+02  0.00000000E+00
  5.80000000E+02  1.00000000E+02  0.00000000E+00
  5.80000000E+02  8.00000000E+01  0.00000000E+00
  5.80000000E+02  6.00000000E+01  0.00000000E+00
  5.80000000E+02  4.00000000E+01  0.00000000E+00
  5.80000000E+02  2.00000000E+01  0.00000000E+00
  5.80000000E+02  4.99600361E-14  0.00000000E+00
  6.00000000E+02  3.00000000E+02  0.00000000E+00
  6.00000000E+02  2.80000000E+02  0.00000000E+00
  6.00000000E+02  2.60000000E+02  0.00000000E+00
  6.00000000E+02  2.40000000E+02  0.00000000E+00
  6.00000000E+02  2.20000000E+02  0.00000000E+00
  6.00000000E+02  2.00000000E+02  0.00000000E+00
  6.00000000E+02  1.80000000E+02  0.00000000E+00
  6.00000000E+02  1.60000000E+02  0.00000000E+00
  6.00000000E+02  1.40000000E+02  0.00000000E+00
  6.00000000E+02  1.20000000E+02  0.00000000E+00
  6.00000000E+02  1.00000000E+02  0.00000000E+00
  6.00000000E+02  8.00000000E+01  0.00000000E+00
  6.00000000E+02  6.00000000E+01  0.00000000E+00
  6.00000000E+02  4.00000000E+01  0.00000000E+00
  6.00000000E+02  2.00000000E+01  0.00000000E+00
  6.00000000E+02  4.99600361E-14  0.00000000E+00
CELLS       450      2250
         4           0           1          17          16
         4           1           2          18          17
         4           2           3          19          18
         4           3           4          20          19
         4           4           5          21          20
         4           5           6          22          21
         4           6           7          23          22
         4           7           8          24          23
         4           8           9          25          24
         4           9          10          26          25
         4          10          11          27          26
         4          11          12          28          27
         4          12          13          29          28
         4          13          14          30          29
         4          14          15          31          30
         4          16          17          33          32
         4          17          18          34          33
         4          18          19          35          34
         4          19          20          36          35
         4          20          21          37          36
         4          21          22          38          37
         4          22          23          39          38
         4          23          24          40          39
         4          24          25          41          40
         4          25          26          42          41
         4          26          27          43          42
         4          27          28          44          43
         4          28          29          45          44
         4          29          30          46          45
         4          30          31          47          46
         4          32          33          49          48
         4          33          34          50          49
         4          34          35          51          50
         4          35          36          52          51
         4          36          37          53          52
         4          37          38          54          53
         4          38          39          55          54
         4          39          40          56          55
         4          40          41          57          56
         4          41          42          58          57
         4          42          43          59          58
         4          43          44          60          59
         4          44          45          61          60
         4          45          46          62          61
         4          46          47          63          62
         4          48          49          65          64
         4          49          50          66          65
         4          50          51          67          66
         4          51          52          68          67
         4          52          53          69          68
         4          53          54          70          69
         4          54          55          71          70
         4          55          56          72          71
         4          56          57          73          72
         4          57          58          74          73
         4          58          59          75          74
         4          59          60          76          75
         4          60          61          77          76
         4          61          62          78          77
         4          62          63          79          78
         4          64          65          81          80
         4          65          66          82          81
         4          66          67          83          82
         4          67          68          84          83
         4          68          69          85          84
         4          69          70          86          85
         4          70          71          87          86
         4          71          72          88          87
         4          72          73          89          88
         4          73          74          90          89
         4          74          75          91          90
         4          75          76          92          91
         4          76          77          93          92
         4          77          78          94          93
         4          78          79          95          94
         4          80          81          97          96
         4          81          82          98          97
         4          82          83          99          98
         4          83          84         100          99
         4          84          85         101         100
         4          85          86         102         101
         4          86          87         103         102
         4          87          88         104         103
         4          88          89         105         104
         4          89          90         106         105
         4          90          91         107         106
         4          91          92         108         107
         4          92          93         109         108
         4          93          94         110         109
         4          94          95         111         110
         4          96          97         113         112
         4          97          98         114         113
         4          98          99         115         114
         4          99         100         116         115
         4         100         101         117         116
         4         101         102         118         117
         4         102         103         119         118
         4         103         104         120         119
         4         104         105         121         120
         4         105         106         122         121
         4         106         107         123         122
         4         107         108         124         123
         4         108         109         125         124
         4         109         110         126         125
         4         110         111         127         126
         4         112         113         129         128
         4         113         114         130         129
         4         114         115         131         130
         4         115         116         132         131
         4         116         117         133         132
         4         117         118         134         133
         4         118         119         135         134
         4         119         120         136         135
         4         120         121         137         136
         4         121         122         138         137
         4         122         123         139         138
         4         123         124         140         139
         4         124         125         141         140
         4         125         126         142         141
         4         126         127         143         142
         4         128         129         145         144
         4         129         130         146         145
         4         130         131         147         146
         4         131         132         148         147
         4         132         133         149         148
         4         133         134         150         149
         4         134         135         151         150
         4         135         136         152         151
         4         136         137         153         152
         4         137         138         154         153
         4         138         139         155         154
         4         139         140         156         155
         4         140         141         157         156
         4         141         142         158         157
         4         142         143         159         158
         4         144         145         161         160
         4         145         146         162         161
         4         146         147         163         162
         4         147         148         164         163
         4         148         149         165         164
         4         149         150         166         165
         4         150         151         167         166
         4         151         152         168         167
         4         152         153         169         168
         4         153         154         170         169
         4         154         155         171         170
         4         155         156         172         171
         4         156         157         173         172
         4         157         158         174         173
         4         158         159         175         174
         4         160         161         177         176
         4         161         162         178         177
         4         162         163         179         178
         4         163         164         180         179
         4         164         165         181         180
         4         165         166         182         181
         4         166         167         183         182
         4         167         168         184         183
         4         168         169         185         184
         4         169         170         186         185
         4         170         171         187         186
         4         171         172         188         187
         4         172         173         189         188
         4         173         174         190         189
         4         174         175         191         190
         4         176         177         193         192
         4         177         178         194         193
         4         178         179         195         194
         4         179         180         196         195
         4         180         181         197         196
         4         181         182         198         197
         4         182         183         199         198
         4         183         184         200         199
         4         184         185         201         200
         4         185         186         202         201
         4         186         187         203         202
         4         187         188         204         203
         4         188         189         205         204
         4         189         190         206         205
         4         190         191         207         206
         4         192         193         209         208
         4         193         194         210         209
         4         194         195         211         210
         4         195         196         212         211
         4         196         197         213         212
         4         197         198         214         213
         4         198         199         215         214
         4         199         200         216         215
         4         200         201         217         216
         4         201         202         218         217
         4         202         203         219         218
         4         203         204         220         219
         4         204         205         221         220
         4         205         206         222         221
         4         206         207         223         222
         4         208         209         225         224
         4         209         210         226         225
         4         210         211         227         226
         4         211         212         228         227
         4         212         213         229         228
         4         213         214         230         229
         4         214         215         231         230
         4         215         216         232         231
         4         216         217         233         232
         4         217         218         234         233
         4         218         219         235         234
         4         219         220         236         235
         4         220         221         237         236
         4         221         222         238         237
         4         222         223         239         238
         4         224         225         241         240
         4         225         226         242         241
         4         226         227         243         242
         4         227         228         244         243
         4         228         229         245         244
         4         229         230         246         245
         4         230         231         247         246
         4         231         232         248         247
         4         232         233         249         248
         4         233         234         250         249
         4         234         235         251         250
         4         235         236         252         251
         4         236         237         253         252
         4         237         238         254         253
         4         238         239         255         254
         4         240         241         257         256
         4         241         242         258         257
         4         242         243         259         258
         4         243         244         260         259
         4         244         245         261         260
         4         245         246         262         261
         4         246         247         263         262
         4         247         248         264         263
         4         248         249         265         264
         4         249         250         266         265
         4         250         251         267         266
         4         251         252         268         267
         4         252         253         269         268
         4         253         254         270         269
         4         254         255         271         270
         4         256         257         273         272
         4         257         258         274         273
         4         258         259         275         274
         4         259         260         276         275
         4         260         261         277         276
         4         261         262         278         277
         4         262         263         279         278
         4         263         264         280         279
         4         264         265         281         280
         4         265         266         282         281
         4         266         267         283         282
         4         267         268         284         283
         4         268         269         285         284
         4         269         270         286         285
         4         270         271         287         286
         4         272         273         289         288
         4         273         274         290         289
         4         274         275         291         290
         4         275         276         292         291
         4         276         277         293         292
         4         277         278         294         293
         4         278         279         295         294
         4         279         280         296         295
         4         280         281         297         296
         4         281         282         298         297
         4         282         283         299         298
         4         283         284         300         299
         4         284         285         301         300
         4         285         286         302         301
         4         286         287         303         302
         4         288         289         305         304
         4         289         290         306         305
         4         290         291         307         306
         4         291         292         308         307
         4         292         293         309         308
         4         293         294         310         309
         4         294         295         311         310
         4         295         296         312         311
         4         296         297         313         312
         4         297         298         314         313
         4         298         299         315         314
         4         299         300         316         315
         4         300         301         317         316
         4         301         302         318         317
         4         302         303         319         318
         4         304         305         321         320
         4         305         306         322         321
         4         306         307         323         322
         4         307         308         324         323
         4         308         309         325         324
         4         309         310         326         325
         4         310         311         327         326
         4         311         312         328         327
         4         312         313         329         328
         4         313         314         330         329
         4         314         315         331         330
         4         315         316         332         331
         4         316         317         333         332
         4         317         318         334         333
         4         318         319         335         334
         4         320         321         337         336
         4         321         322         338         337
         4         322         323         339         338
         4         323         324         340         339
         4         324         325         341         340
         4         325         326         342         341
         4         326         327         343         342
         4         327         328         344         343
         4         328         329         345         344
         4         329         330         346         345
         4         330         331         347         346
         4         331         332         348         347
         4         332         333         349         348
         4         333         334         350         349
         4         334         335         351         350
         4         336         337         353         352
         4         337         338         354         353
         4         338         339         355         354
         4         339         340         356         355
         4         340         341         357         356
         4         341         342         358         357
         4         342         343         359         358
         4         343         344         360         359
         4         344         345         361         360
         4         345         346         362         361
         4         346         347         363         362
         4         347         348         364         363
         4         348         349         365         364
         4         349         350         366         365
         4         350         351         367         366
         4         352         353         369         368
         4         353         354         370         369
         4         354         355         371         370
         4         355         356         372         371
         4         356         357         373         372
         4         357         358         374         373
         4         358         359         375         374
         4         359         360         376         375
         4         360         361         377         376
         4         361         362         378         377
         4         362         363         379         378
         4         363         364         380         379
         4         364         365         381         380
         4         365         366         382         381
         4         366         367         383         382
         4         368         369         385         384
         4         369         370         386         385
         4         370         371         387         386
         4         371         372         388         387
         4         372         373         389         388
         4         373         374         390         389
         4         374         375         391         390
         4         375         376         392         391
         4         376         377         393         392
         4         377         378         394         393
         4         378         379         395         394
         4         379         380         396         395
         4         380         381         397         396
         4         381         382         398         397
         4         382         383         399         398
         4         384         385         401         400
         4         385         386         402         401
         4         386         387         403         402
         4         387         388         404         403
         4         388         389         405         404
         4         389         390         406         405
         4         390         391         407         406
         4         391         392         408         407
         4         392         393         409         408
         4         393         394         410         409
         4         394         395         411         410
         4         395         396         412         411
         4         396         397         413         412
         4         397         398         414         413
         4         398         399         415         414
         4         400         401         417         416
         4         401         402         418         417
         4         402         403         419         418
         4         403         404         420         419
         4         404         405         421         420
         4         405         406         422         421
         4         406         407         423         422
         4         407         408         424         423
         4         408         409         425         424
         4         409         410         426         425
         4         410         411         427         426
         4         411         412         428         427
         4         412         413         429         428
         4         413         414         430         429
         4         414         415         431         430
         4         416         417         433         432
         4         417         418         434         433
         4         418         419         435         434
         4         419         420         436         435
         4         420         421         437         436
         4         421         422         438         437
         4         422         423         439         438
         4         423         424         440         439
         4         424         425         441         440
         4         425         426         442         441
         4         426         427         443         442
         4         427         428         444         443
         4         428         429         445         444
         4         429         430         446         445
         4         430         431         447         446
         4         432         433         449         448
         4         433         434         450         449
         4         434         435         451         450
         4         435         436         452         451
         4         436         437         453         452
         4         437         438         454         453
         4         438         439         455         454
         4         439         440         456         455
         4         440         441         457         456
         4         441         442         458         457
         4         442         443         459         458
         4         443         444         460         459
         4         444         445         461         460
         4         445         446         462         461
         4         446         447         463         462
         4         448         449         465         464
         4         449         450         466         465
         4         450         451         467         466
         4         451         452         468         467
         4         452         453         469         468
         4         453         454         470         469
         4         454         455         471         470
         4         455         456         472         471
         4         456         457         473         472
         4         457         458         474         473
         4         458         459         475         474
         4         459         460         476         475
         4         460         461         477         476
         4         461         462         478         477
         4         462         463         479         478
         4         464         465         481         480
         4         465         466         482         481
         4         466         467         483         482
         4         467         468         484         483
         4         468         469         485         484
         4         469         470         486         485
         4         470         471         487         486
         4         471         472         488         487
         4         472         473         489         488
         4         473         474         490         489
         4         474         475         491         490
         4         475         476         492         491
         4         476         477         493         492
         4         477         478         494         493
         4         478         479         495         494
CELL_TYPES        450
9
9
9
9
9
9
9
9
9
9
9
9
9
9
9
9
9
9
9
9
9
9
9
9
9
9
9
9
9
9
9
9
9
9
9
9
9
9
9
9
9
9
9
9
9
9
9
9
9
9
9
9
9
9
9
9
9
9
9
9
9
9
9
9
9
9
9
9
9
9
9
9
9
9
9
9
9
9
9
9
9
9
9
9
9
9
9
9
9
9
9
9
9
9
9
9
9
9
9
9
9
9
9
9
9
9
9
9
9
9
9
9
9
9
9
9
9
9
9
9
9
9
9
9
9
9
9
9
9
9
9
9
9
9
9
9
9
9
9
9
9
9
9
9
9
9
9
9
9
9
9
9
9
9
9
9
9
9
9
9
9
9
9
9
9
9
9
9
9
9
9
9
9
9
9
9
9
9
9
9
9
9
9
9
9
9
9
9
9
9
9
9
9
9
9
9
9
9
9
9
9
9
9
9
9
9
9
9
9
9
9
9
9
9
9
9
9
9
9
9
9
9
9
9
9
9
9
9
9
9
9
9
9
9
9
9
9
9
9
9
9
9
9
9
9
9
9
9
9
9
9
9
9
9
9
9
9
9
9
9
9
9
9
9
9
9
9
9
9
9
9
9
9
9
9
9
9
9
9
9
9
9
9
9
9
9
9
9
9
9
9
9
9
9
9
9
9
9
9
9
9
9
9
9
9
9
9
9
9
9
9
9
9
9
9
9
9
9
9
9
9
9
9
9
9
9
9
9
9
9
9
9
9
9
9
9
9
9
9
9
9
9
9
9
9
9
9
9
9
9
9
9
9
9
9
9
9
9
9
9
9
9
9
9
9
9
9
9
9
9
9
9
9
9
9
9
9
9
9
9
9
9
9
9
9
9
9
9
9
9
9
9
9
9
9
9
9
9
9
9
9
9
9
9
9
9
9
9
9
9
9
9
9
9
9
9
9
9
9
9
9
9
9
9
9
9
9
9
9
9
9
9
9
9
9
9
9
9
9
9
9
9
9
9
9
9
9
9
9
9
POINT_DATA       496
SCALARS p double 
LOOKUP_TABLE default
   21908740.8543095     
   21907725.1174624     
   21905082.3788771     
   21901202.2076587     
   21896440.6521678     
   21891118.9929114     
   21885523.8852320     
   21879908.7589387     
   21874495.5105941     
   21869475.8256869     
   21865011.4310865     
   21861233.0614234     
   21858238.3353050     
   21856089.0444802     
   21854808.2814549     
   21854377.6862059     
   21891884.8722600     
   21890871.1635814     
   21888233.4481146     
   21884360.2599255     
   21879606.6812343     
   21874293.1748122     
   21868705.8293876     
   21863097.7648294     
   21857690.7439544     
   21852676.4103160     
   21848216.4685527     
   21844441.6212233     
   21841449.4626293     
   21839301.8060948     
   21838021.8537926     
   21837591.4884201     
   21841368.9846827     
   21840361.4011857     
   21837738.8671062     
   21833886.8005980     
   21829157.3865883     
   21823868.6541374     
   21818305.0138557     
   21812718.6406296     
   21807330.8654452     
   21802333.1589835     
   21797887.1110024     
   21794123.2947030     
   21791139.2105555     
   21788996.7256603     
   21787719.3662901     
   21787289.7406294     
   21757349.2366217     
   21756351.9954471     
   21753755.1385828     
   21749938.8607573     
   21745250.5095592     
   21740004.1360649     
   21734481.4050515     
   21728932.8676861     
   21723579.0299648     
   21718610.9173158     
   21714189.7791847     
   21710445.8682942     
   21707476.4634479     
   21705343.4812045     
   21704070.9762588     
   21703642.7521341     
   21640085.2673300     
   21639102.7853479     
   21636542.6649733     
   21632777.7293488     
   21628148.5645110     
   21622963.8006033     
   21617501.3025002     
   21612009.2568201     
   21606706.7750048     
   21601783.9453673     
   21597401.2610214     
   21593688.3228679     
   21590741.9711571     
   21588624.1172586     
   21587359.5129889     
   21586933.6013142     
   21489939.6625234     
   21488976.6329112     
   21486465.1068313     
   21482768.3151162     
   21478218.2570380     
   21473116.7599186     
   21467736.8244107     
   21462323.3990203     
   21457093.3708761     
   21452235.1407346     
   21447907.8067334     
   21444239.8203682     
   21441327.2558912     
   21439231.8999521     
   21437979.3040374     
   21437556.9522595     
   21307377.0417776     
   21306438.5246065     
   21303988.4757038     
   21300378.3018117     
   21295929.6739566     
   21290936.2646967     
   21285665.1045649     
   21280356.7683903     
   21275224.7861228     
   21270454.8508008     
   21266203.7950866     
   21262598.2443154     
   21259733.0536062     
   21257669.6621386     
   21256434.4733023     
   21256017.3512314     
   21092962.9197929     
   21092054.4068316     
   21089679.9783275     
   21086177.0219154     
   21081855.1735686     
   21076998.6422136     
   21071867.1370585     
   21066695.4019105     
   21061692.1979807     
   21057039.2139531     
   21052889.9116556     
   21049368.2264615     
   21046567.2001141     
   21044547.6131021     
   21043336.6926709     
   21042926.9475702     
   20847362.2825753     
   20846489.7813223     
   20844206.6381935     
   20840834.0529225     
   20836668.0402183     
   20831981.8326783     
   20827026.1288163     
   20822028.0909698     
   20817189.9985969     
   20812687.9716068     
   20808670.7687354     
   20805258.5968544     
   20802541.9564454     
   20800580.5564336     
   20799402.3351839     
   20799002.6282705     
   20571337.9441107     
   20570508.0214784     
   20568333.5920145     
   20565117.5889803     
   20561140.7099561     
   20556663.4027666     
   20551925.3395217     
   20547144.0159776     
   20542513.2203608     
   20538201.6871942     
   20534351.9384829     
   20531079.2452479     
   20528470.7085809     
   20526584.4595498     
   20525448.9621777     
   20525062.4807826     
   20265748.5362126     
   20264968.4465087     
   20262922.1838187     
   20259892.3564839     
   20256142.5011684     
   20251918.0876861     
   20247445.3800147     
   20242929.8031908     
   20238554.3644274     
   20234478.3610150     
   20230836.3443939     
   20227737.2968406     
   20225263.9654889     
   20223472.3115328     
   20222391.0900412     
   20222021.5344363     
   19931546.3613573     
   19930824.0066783     
   19928927.5088862     
   19926117.0796433     
   19922636.8658919     
   19918714.7794251     
   19914560.9470171     
   19910365.9970849     
   19906299.6037204     
   19902509.3470688     
   19899119.9189382     
   19896232.5478287     
   19893924.5887873     
   19892249.2151746     
   19891235.1891577     
   19890886.6964158     
   19569774.5396555     
   19569118.5560255     
   19567395.6290501     
   19564841.4333440     
   19561678.0955316     
   19558112.9882526     
   19554336.9897150     
   19550522.9131232     
   19546824.2897353     
   19543374.5467540     
   19540286.5055502     
   19537652.1016855     
   19535542.2302020     
   19534006.6414599     
   19533073.8261433     
   19532750.9081498     
   19181563.7628154     
   19180983.5860387     
   19179460.2598638     
   19177202.5970369     
   19174407.6265187     
   19171258.7922608     
   19167924.2875081     
   19164555.8065694     
   19161287.7568372     
   19158236.8486981     
   19155501.9589081     
   19153164.1791332     
   19151286.8950371     
   19149915.8307375     
   19149078.9701013     
   19148786.3857405     
   18768128.8198204     
   18767634.7017885     
   18766339.1569236     
   18764421.4003012     
   18762049.8471658     
   18759380.2549613     
   18756554.4039013     
   18753699.3929393     
   18750927.4007267     
   18748335.7932592     
   18746007.4436113     
   18744011.0872579     
   18742401.6360589     
   18741220.2848349     
   18740494.3704725     
   18740236.9857047     
   18330765.1566231     
   18330368.1168661     
   18329330.3604016     
   18327798.1862698     
   18325907.4927034     
   18323782.3010850     
   18321534.0775300     
   18319261.7291327     
   18317052.0620362     
   18314980.5083921     
   18313111.9307191     
   18311501.3441689     
   18310194.3759401     
   18309227.3652648     
   18308627.0256613     
   18308409.6297914     
   17870845.5054339     
   17870557.1011590     
   17869808.2586869     
   17868708.4113825     
   17867356.7068613     
   17865841.2206921     
   17864239.1290466     
   17862617.5448976     
   17861034.8062771     
   17859541.9254451     
   17858183.9467885     
   17857001.0038707     
   17856028.8957357     
   17855299.0435971     
   17854837.7604504     
   17854664.7972027     
   17389816.4149369     
   17389648.3736192     
   17389219.6278018     
   17388598.2033083     
   17387842.0243751     
   17386998.9887001     
   17386108.0654983     
   17385201.1140402     
   17384305.1026198     
   17383444.3689015     
   17382642.6056508     
   17381924.2543339     
   17381315.0906375     
   17380841.8842503     
   17380531.0441438     
   17380406.3381939     
   16889195.0246515     
   16889158.7709196     
   16889079.9709972     
   16888980.1721025     
   16888871.4937036     
   16888757.5538330     
   16888635.4877135     
   16888498.7832160     
   16888340.5080995     
   16888156.4958183     
   16887947.9911750     
   16887723.3606040     
   16887498.5936505     
   16887296.4571611     
   16887144.3205951     
   16887070.7848317     
   16370566.4604303     
   16370672.5124952     
   16370970.3874774     
   16371429.6546477     
   16372012.0812136     
   16372673.2521637     
   16373365.4011238     
   16374041.1709270     
   16374657.8832108     
   16375181.6906817     
   16375590.9149779     
   16375878.0243462     
   16376049.9153518     
   16376126.4064574     
   16376137.0286613     
   16376116.2975480     
   15835581.8722159     
   15835839.0994595     
   15836535.0737219     
   15837581.5377030     
   15838885.5362165     
   15840351.4867104     
   15841884.5580558     
   15843395.1822836     
   15844804.2155492     
   15846047.9735088     
   15847082.2234223     
   15847884.3481091     
   15848453.2991900     
   15848807.3073879     
   15848979.4848619     
   15849011.5908766     
   15285957.1824603     
   15286371.9670437     
   15287479.5803627     
   15289127.7700253     
   15291164.8210604     
   15293441.7562647     
   15295815.9259275     
   15298155.9030284     
   15300347.1481703     
   15302297.5501551     
   15303941.7978441     
   15305243.6446720     
   15306195.5463502     
   15306815.5853428     
   15307141.9296799     
   15307225.0622355     
   14723472.8422250     
   14724048.1206182     
   14725569.9507920     
   14727815.5890504     
   14730571.0140696     
   14733632.9359156     
   14736812.1824460     
   14739938.3971717     
   14742865.3837260     
   14745476.2547044     
   14747687.5258006     
   14749451.3406332     
   14750755.0545663     
   14751617.7838779     
   14752083.9703490     
   14752214.2514615     
   14149974.9687226     
   14150709.0543788     
   14152632.8730280     
   14155446.3262971     
   14158870.3528270     
   14162648.3687386     
   14166548.9475326     
   14170369.3630245     
   14173939.1475749     
   14177123.2308546     
   14179824.6074914     
   14181986.2524285     
   14183591.3212912     
   14184660.3134888     
   14185244.5624516     
   14185415.9770493     
   13567378.3013964     
   13568263.3262541     
   13570556.9315610     
   13573874.4592391     
   13577870.6278987     
   13582239.8182313     
   13586717.0269856     
   13591078.4574229     
   13595141.0339605     
   13598761.4022520     
   13601835.6759453     
   13604300.5723938     
   13606135.0424499     
   13607359.8485196     
   13608032.4723909     
   13608236.8033781     
   12977671.9548457     
   12978691.5694420     
   12981295.0097537     
   12985005.9972814     
   12989415.3571998     
   12994178.6320581     
   12999012.4799190     
   13003688.8217088     
   13008027.4935904     
   13011889.4488736     
   13015172.5250193     
   13017811.0566715     
   13019779.0642630     
   13021094.3066735     
   13021817.7912132     
   13022044.9206128     
   12382929.7995775     
   12384055.2579236     
   12386867.6985607     
   12390794.3039718     
   12395373.0023774     
   12400241.7734835     
   12405123.0515311     
   12409806.0565836     
   12414130.8329188     
   12417975.9099737     
   12421250.5679635     
   12423892.3008224     
   12425870.4283755     
   12427194.6433914     
   12427923.4603128     
   12428161.3306160     
   11785329.1406384     
   11786511.6846878     
   11789366.2466158     
   11793228.8471981     
   11797616.8065499     
   11802190.1730680     
   11806709.6976443     
   11811004.7762229     
   11814950.9462007     
   11818455.2209887     
   11821447.0891063     
   11823874.3443349     
   11825704.8058075     
   11826937.3033227     
   11827617.7455506     
   11827853.5223039     
   11187187.4281229     
   11188339.2588276     
   11190949.0595713     
   11194306.6718003     
   11197989.6917832     
   11201737.5599008     
   11205382.7075583     
   11208811.9864092     
   11211945.4855319     
   11214724.3228642     
   11217103.3410671     
   11219047.0260733     
   11220528.9359158     
   11221538.2559393     
   11222107.1798998     
   11222327.6968264     
   10591038.8699676     
   10591983.6487272     
   10593801.7704583     
   10595970.4033126     
   10598249.7675039     
   10600510.1179247     
   10602672.9599808     
   10604687.1671291     
   10606517.3967996     
   10608137.8002282     
   10609528.3303620     
   10610672.4669502     
   10611556.2287456     
   10612169.8054694     
   10612519.8281281     
   10612733.6195817     
   10000000.0000000     
   10000000.0000000     
   10000000.0000000     
   10000000.0000000     
   10000000.0000000     
   10000000.0000000     
   10000000.0000000     
   10000000.0000000     
   10000000.0000000     
   10000000.0000000     
   10000000.0000000     
   10000000.0000000     
   10000000.0000000     
  10000000.00000000     
   10000000.0000000     
   10000000.0000000     
VECTORS u double 
    0.00000E+00        -0.48383E-01         0.00000E+00
    0.00000E+00        -0.44947E-01         0.00000E+00
    0.00000E+00        -0.41536E-01         0.00000E+00
    0.00000E+00        -0.38153E-01         0.00000E+00
    0.00000E+00        -0.34800E-01         0.00000E+00
    0.00000E+00        -0.31480E-01         0.00000E+00
    0.00000E+00        -0.28195E-01         0.00000E+00
    0.00000E+00        -0.24943E-01         0.00000E+00
    0.00000E+00        -0.21726E-01         0.00000E+00
    0.00000E+00        -0.18540E-01         0.00000E+00
    0.00000E+00        -0.15386E-01         0.00000E+00
    0.00000E+00        -0.12259E-01         0.00000E+00
    0.00000E+00        -0.91596E-02         0.00000E+00
    0.00000E+00        -0.60845E-02         0.00000E+00
    0.00000E+00        -0.30319E-02         0.00000E+00
    0.00000E+00         0.00000E+00         0.00000E+00
    0.57971E-03        -0.48403E-01         0.00000E+00
    0.53815E-03        -0.44967E-01         0.00000E+00
    0.49340E-03        -0.41555E-01         0.00000E+00
    0.44626E-03        -0.38171E-01         0.00000E+00
    0.39770E-03        -0.34818E-01         0.00000E+00
    0.34885E-03        -0.31498E-01         0.00000E+00
    0.30086E-03        -0.28211E-01         0.00000E+00
    0.25466E-03        -0.24959E-01         0.00000E+00
    0.21099E-03        -0.21740E-01         0.00000E+00
    0.17033E-03        -0.18553E-01         0.00000E+00
    0.13299E-03        -0.15396E-01         0.00000E+00
    0.99154E-04        -0.12268E-01         0.00000E+00
    0.68903E-04        -0.91662E-02         0.00000E+00
    0.42287E-04        -0.60889E-02         0.00000E+00
    0.19320E-04        -0.30341E-02         0.00000E+00
    0.00000E+00         0.00000E+00         0.00000E+00
    0.11549E-02        -0.48462E-01         0.00000E+00
    0.10720E-02        -0.45025E-01         0.00000E+00
    0.98267E-03        -0.41612E-01         0.00000E+00
    0.88859E-03        -0.38227E-01         0.00000E+00
    0.79178E-03        -0.34873E-01         0.00000E+00
    0.69450E-03        -0.31550E-01         0.00000E+00
    0.59904E-03        -0.28261E-01         0.00000E+00
    0.50719E-03        -0.25005E-01         0.00000E+00
    0.42040E-03        -0.21782E-01         0.00000E+00
    0.33958E-03        -0.18590E-01         0.00000E+00
    0.26532E-03        -0.15428E-01         0.00000E+00
    0.19796E-03        -0.12294E-01         0.00000E+00
    0.13768E-03        -0.91860E-02         0.00000E+00
    0.84575E-04        -0.61022E-02         0.00000E+00
    0.38675E-04        -0.30408E-02         0.00000E+00
    0.00000E+00         0.00000E+00         0.00000E+00
    0.17208E-02        -0.48561E-01         0.00000E+00
    0.15970E-02        -0.45122E-01         0.00000E+00
    0.14636E-02        -0.41708E-01         0.00000E+00
    0.13230E-02        -0.38321E-01         0.00000E+00
    0.11786E-02        -0.34963E-01         0.00000E+00
    0.10338E-02        -0.31637E-01         0.00000E+00
    0.89192E-03        -0.28344E-01         0.00000E+00
    0.75556E-03        -0.25082E-01         0.00000E+00
    0.62674E-03        -0.21852E-01         0.00000E+00
    0.50674E-03        -0.18652E-01         0.00000E+00
    0.39637E-03        -0.15481E-01         0.00000E+00
    0.29610E-03        -0.12337E-01         0.00000E+00
    0.20621E-03        -0.92188E-02         0.00000E+00
    0.12686E-03        -0.61242E-02         0.00000E+00
    0.58096E-04        -0.30518E-02         0.00000E+00
    0.00000E+00         0.00000E+00         0.00000E+00
    0.22725E-02        -0.48699E-01         0.00000E+00
    0.21084E-02        -0.45258E-01         0.00000E+00
    0.19316E-02        -0.41841E-01         0.00000E+00
    0.17454E-02        -0.38451E-01         0.00000E+00
    0.15546E-02        -0.35090E-01         0.00000E+00
    0.13637E-02        -0.31760E-01         0.00000E+00
    0.11770E-02        -0.28460E-01         0.00000E+00
    0.99791E-03        -0.25190E-01         0.00000E+00
    0.82869E-03        -0.21950E-01         0.00000E+00
    0.67091E-03        -0.18739E-01         0.00000E+00
    0.52557E-03        -0.15555E-01         0.00000E+00
    0.39326E-03        -0.12397E-01         0.00000E+00
    0.27437E-03        -0.92643E-02         0.00000E+00
    0.16910E-03        -0.61547E-02         0.00000E+00
    0.77604E-04        -0.30671E-02         0.00000E+00
    0.00000E+00         0.00000E+00         0.00000E+00
    0.28050E-02        -0.48874E-01         0.00000E+00
    0.26013E-02        -0.45432E-01         0.00000E+00
    0.23818E-02        -0.42013E-01         0.00000E+00
    0.21515E-02        -0.38619E-01         0.00000E+00
    0.19161E-02        -0.35254E-01         0.00000E+00
    0.16814E-02        -0.31916E-01         0.00000E+00
    0.14522E-02        -0.28608E-01         0.00000E+00
    0.12326E-02        -0.25328E-01         0.00000E+00
    0.10251E-02        -0.22075E-01         0.00000E+00
    0.83131E-03        -0.18849E-01         0.00000E+00
    0.65244E-03        -0.15649E-01         0.00000E+00
    0.48919E-03        -0.12473E-01         0.00000E+00
    0.34203E-03        -0.93221E-02         0.00000E+00
    0.21129E-03        -0.61936E-02         0.00000E+00
    0.97211E-04        -0.30866E-02         0.00000E+00
    0.00000E+00         0.00000E+00         0.00000E+00
    0.33126E-02        -0.49087E-01         0.00000E+00
    0.30701E-02        -0.45643E-01         0.00000E+00
    0.28096E-02        -0.42221E-01         0.00000E+00
    0.25371E-02        -0.38824E-01         0.00000E+00
    0.22597E-02        -0.35453E-01         0.00000E+00
    0.19841E-02        -0.32108E-01         0.00000E+00
    0.17156E-02        -0.28788E-01         0.00000E+00
    0.14583E-02        -0.25494E-01         0.00000E+00
    0.12149E-02        -0.22226E-01         0.00000E+00
    0.98725E-03        -0.18982E-01         0.00000E+00
    0.77653E-03        -0.15762E-01         0.00000E+00
    0.58360E-03        -0.12565E-01         0.00000E+00
    0.40907E-03        -0.93919E-02         0.00000E+00
    0.25339E-03        -0.62404E-02         0.00000E+00
    0.11692E-03        -0.31101E-02         0.00000E+00
    0.00000E+00         0.00000E+00         0.00000E+00
    0.37897E-02        -0.49337E-01         0.00000E+00
    0.35097E-02        -0.45891E-01         0.00000E+00
    0.32099E-02        -0.42467E-01         0.00000E+00
    0.28981E-02        -0.39065E-01         0.00000E+00
    0.25824E-02        -0.35687E-01         0.00000E+00
    0.22697E-02        -0.32332E-01         0.00000E+00
    0.19655E-02        -0.28999E-01         0.00000E+00
    0.16738E-02        -0.25689E-01         0.00000E+00
    0.13974E-02        -0.22402E-01         0.00000E+00
    0.11381E-02        -0.19136E-01         0.00000E+00
    0.89743E-03        -0.15893E-01         0.00000E+00
    0.67627E-03        -0.12672E-01         0.00000E+00
    0.47538E-03        -0.94731E-02         0.00000E+00
    0.29537E-03        -0.62950E-02         0.00000E+00
    0.13675E-03        -0.31375E-02         0.00000E+00
    0.00000E+00         0.00000E+00         0.00000E+00
    0.42306E-02        -0.49623E-01         0.00000E+00
    0.39145E-02        -0.46175E-01         0.00000E+00
    0.35783E-02        -0.42748E-01         0.00000E+00
    0.32310E-02        -0.39341E-01         0.00000E+00
    0.28814E-02        -0.35955E-01         0.00000E+00
    0.25361E-02        -0.32587E-01         0.00000E+00
    0.22003E-02        -0.29239E-01         0.00000E+00
    0.18778E-02        -0.25910E-01         0.00000E+00
    0.15715E-02        -0.22601E-01         0.00000E+00
    0.12834E-02        -0.19312E-01         0.00000E+00
    0.10148E-02        -0.16043E-01         0.00000E+00
    0.76700E-03        -0.12794E-01         0.00000E+00
    0.54088E-03        -0.95652E-02         0.00000E+00
    0.33722E-03        -0.63568E-02         0.00000E+00
    0.15671E-03        -0.31685E-02         0.00000E+00
    0.00000E+00         0.00000E+00         0.00000E+00
    0.46302E-02        -0.49943E-01         0.00000E+00
    0.42799E-02        -0.46494E-01         0.00000E+00
    0.39108E-02        -0.43064E-01         0.00000E+00
    0.35331E-02        -0.39651E-01         0.00000E+00
    0.31546E-02        -0.36254E-01         0.00000E+00
    0.27814E-02        -0.32872E-01         0.00000E+00
    0.24184E-02        -0.29507E-01         0.00000E+00
    0.20692E-02        -0.26157E-01         0.00000E+00
    0.17365E-02        -0.22824E-01         0.00000E+00
    0.14223E-02        -0.19508E-01         0.00000E+00
    0.11282E-02        -0.16209E-01         0.00000E+00
    0.85560E-03        -0.12929E-01         0.00000E+00
    0.60551E-03        -0.96678E-02         0.00000E+00
    0.37895E-03        -0.64257E-02         0.00000E+00
    0.17682E-03        -0.32031E-02         0.00000E+00
    0.00000E+00         0.00000E+00         0.00000E+00
    0.49833E-02        -0.50297E-01         0.00000E+00
    0.46019E-02        -0.46846E-01         0.00000E+00
    0.42049E-02        -0.43411E-01         0.00000E+00
    0.38018E-02        -0.39990E-01         0.00000E+00
    0.33997E-02        -0.36581E-01         0.00000E+00
    0.30038E-02        -0.33184E-01         0.00000E+00
    0.26184E-02        -0.29799E-01         0.00000E+00
    0.22467E-02        -0.26427E-01         0.00000E+00
    0.18913E-02        -0.23067E-01         0.00000E+00
    0.15543E-02        -0.19722E-01         0.00000E+00
    0.12374E-02        -0.16391E-01         0.00000E+00
    0.94190E-03        -0.13077E-01         0.00000E+00
    0.66925E-03        -0.97801E-02         0.00000E+00
    0.42060E-03        -0.65011E-02         0.00000E+00
    0.19714E-03        -0.32409E-02         0.00000E+00
    0.00000E+00         0.00000E+00         0.00000E+00
    0.52868E-02        -0.50681E-01         0.00000E+00
    0.48783E-02        -0.47228E-01         0.00000E+00
    0.44584E-02        -0.43787E-01         0.00000E+00
    0.40353E-02        -0.40356E-01         0.00000E+00
    0.36148E-02        -0.36935E-01         0.00000E+00
    0.32013E-02        -0.33521E-01         0.00000E+00
    0.27983E-02        -0.30115E-01         0.00000E+00
    0.24087E-02        -0.26718E-01         0.00000E+00
    0.20348E-02        -0.23330E-01         0.00000E+00
    0.16786E-02        -0.19953E-01         0.00000E+00
    0.13417E-02        -0.16588E-01         0.00000E+00
    0.10257E-02        -0.13237E-01         0.00000E+00
    0.73209E-03        -0.99016E-02         0.00000E+00
    0.46226E-03        -0.65827E-02         0.00000E+00
    0.21776E-03        -0.32819E-02         0.00000E+00
    0.00000E+00         0.00000E+00         0.00000E+00
    0.55390E-02        -0.51094E-01         0.00000E+00
    0.51075E-02        -0.47636E-01         0.00000E+00
    0.46695E-02        -0.44188E-01         0.00000E+00
    0.42315E-02        -0.40747E-01         0.00000E+00
    0.37977E-02        -0.37311E-01         0.00000E+00
    0.33718E-02        -0.33879E-01         0.00000E+00
    0.29564E-02        -0.30451E-01         0.00000E+00
    0.25537E-02        -0.27028E-01         0.00000E+00
    0.21659E-02        -0.23610E-01         0.00000E+00
    0.17944E-02        -0.20200E-01         0.00000E+00
    0.14409E-02        -0.16798E-01         0.00000E+00
    0.11069E-02        -0.13408E-01         0.00000E+00
    0.79404E-03        -0.10032E-01         0.00000E+00
    0.50406E-03        -0.66700E-02         0.00000E+00
    0.23878E-03        -0.33257E-02         0.00000E+00
    0.00000E+00         0.00000E+00         0.00000E+00
    0.57390E-02        -0.51531E-01         0.00000E+00
    0.52884E-02        -0.48067E-01         0.00000E+00
    0.48368E-02        -0.44610E-01         0.00000E+00
    0.43885E-02        -0.41158E-01         0.00000E+00
    0.39465E-02        -0.37706E-01         0.00000E+00
    0.35133E-02        -0.34255E-01         0.00000E+00
    0.30906E-02        -0.30804E-01         0.00000E+00
    0.26801E-02        -0.27354E-01         0.00000E+00
    0.22831E-02        -0.23905E-01         0.00000E+00
    0.19007E-02        -0.20460E-01         0.00000E+00
    0.15342E-02        -0.17021E-01         0.00000E+00
    0.11852E-02        -0.13589E-01         0.00000E+00
    0.85513E-03        -0.10169E-01         0.00000E+00
    0.54614E-03        -0.67625E-02         0.00000E+00
    0.26034E-03        -0.33721E-02         0.00000E+00
    0.00000E+00         0.00000E+00         0.00000E+00
    0.58859E-02        -0.51990E-01         0.00000E+00
    0.54200E-02        -0.48518E-01         0.00000E+00
    0.49587E-02        -0.45051E-01         0.00000E+00
    0.45045E-02        -0.41585E-01         0.00000E+00
    0.40592E-02        -0.38118E-01         0.00000E+00
    0.36238E-02        -0.34647E-01         0.00000E+00
    0.31992E-02        -0.31172E-01         0.00000E+00
    0.27861E-02        -0.27694E-01         0.00000E+00
    0.23849E-02        -0.24213E-01         0.00000E+00
    0.19963E-02        -0.20732E-01         0.00000E+00
    0.16210E-02        -0.17253E-01         0.00000E+00
    0.12601E-02        -0.13779E-01         0.00000E+00
    0.91530E-03        -0.10314E-01         0.00000E+00
    0.58863E-03        -0.68597E-02         0.00000E+00
    0.28262E-03        -0.34208E-02         0.00000E+00
    0.00000E+00         0.00000E+00         0.00000E+00
    0.59783E-02        -0.52465E-01         0.00000E+00
    0.55010E-02        -0.48984E-01         0.00000E+00
    0.50339E-02        -0.45506E-01         0.00000E+00
    0.45782E-02        -0.42026E-01         0.00000E+00
    0.41340E-02        -0.38541E-01         0.00000E+00
    0.37014E-02        -0.35050E-01         0.00000E+00
    0.32801E-02        -0.31550E-01         0.00000E+00
    0.28697E-02        -0.28044E-01         0.00000E+00
    0.24698E-02        -0.24531E-01         0.00000E+00
    0.20799E-02        -0.21013E-01         0.00000E+00
    0.17003E-02        -0.17494E-01         0.00000E+00
    0.13313E-02        -0.13976E-01         0.00000E+00
    0.97441E-03        -0.10464E-01         0.00000E+00
    0.63164E-03        -0.69607E-02         0.00000E+00
    0.30576E-03        -0.34715E-02         0.00000E+00
    0.00000E+00         0.00000E+00         0.00000E+00
    0.60148E-02        -0.52953E-01         0.00000E+00
    0.55302E-02        -0.49462E-01         0.00000E+00
    0.50614E-02        -0.45972E-01         0.00000E+00
    0.46082E-02        -0.42476E-01         0.00000E+00
    0.41695E-02        -0.38973E-01         0.00000E+00
    0.37444E-02        -0.35460E-01         0.00000E+00
    0.33315E-02        -0.31936E-01         0.00000E+00
    0.29291E-02        -0.28400E-01         0.00000E+00
    0.25358E-02        -0.24854E-01         0.00000E+00
    0.21500E-02        -0.21300E-01         0.00000E+00
    0.17708E-02        -0.17740E-01         0.00000E+00
    0.13979E-02        -0.14178E-01         0.00000E+00
    0.10321E-02        -0.10618E-01         0.00000E+00
    0.67516E-03        -0.70647E-02         0.00000E+00
    0.32987E-03        -0.35238E-02         0.00000E+00
    0.00000E+00         0.00000E+00         0.00000E+00
    0.59940E-02        -0.53450E-01         0.00000E+00
    0.55064E-02        -0.49948E-01         0.00000E+00
    0.50400E-02        -0.46443E-01         0.00000E+00
    0.45932E-02        -0.42931E-01         0.00000E+00
    0.41642E-02        -0.39408E-01         0.00000E+00
    0.37511E-02        -0.35873E-01         0.00000E+00
    0.33513E-02        -0.32324E-01         0.00000E+00
    0.29622E-02        -0.28759E-01         0.00000E+00
    0.25808E-02        -0.25181E-01         0.00000E+00
    0.22046E-02        -0.21590E-01         0.00000E+00
    0.18310E-02        -0.17990E-01         0.00000E+00
    0.14589E-02        -0.14383E-01         0.00000E+00
    0.10878E-02        -0.10775E-01         0.00000E+00
    0.71892E-03        -0.71709E-02         0.00000E+00
    0.35501E-03        -0.35772E-02         0.00000E+00
    0.00000E+00         0.00000E+00         0.00000E+00
    0.59147E-02        -0.53950E-01         0.00000E+00
    0.54284E-02        -0.50436E-01         0.00000E+00
    0.49683E-02        -0.46916E-01         0.00000E+00
    0.45320E-02        -0.43386E-01         0.00000E+00
    0.41168E-02        -0.39843E-01         0.00000E+00
    0.37199E-02        -0.36285E-01         0.00000E+00
    0.33378E-02        -0.32710E-01         0.00000E+00
    0.29668E-02        -0.29117E-01         0.00000E+00
    0.26027E-02        -0.25507E-01         0.00000E+00
    0.22414E-02        -0.21880E-01         0.00000E+00
    0.18789E-02        -0.18240E-01         0.00000E+00
    0.15124E-02        -0.14589E-01         0.00000E+00
    0.11403E-02        -0.10933E-01         0.00000E+00
    0.76240E-03        -0.72784E-02         0.00000E+00
    0.38103E-03        -0.36314E-02         0.00000E+00
    0.00000E+00         0.00000E+00         0.00000E+00
    0.57753E-02        -0.54450E-01         0.00000E+00
    0.52949E-02        -0.50922E-01         0.00000E+00
    0.48453E-02        -0.47385E-01         0.00000E+00
    0.44235E-02        -0.43837E-01         0.00000E+00
    0.40260E-02        -0.40273E-01         0.00000E+00
    0.36494E-02        -0.36691E-01         0.00000E+00
    0.32893E-02        -0.33090E-01         0.00000E+00
    0.29409E-02        -0.29469E-01         0.00000E+00
    0.25990E-02        -0.25827E-01         0.00000E+00
    0.22577E-02        -0.22166E-01         0.00000E+00
    0.19118E-02        -0.18487E-01         0.00000E+00
    0.15564E-02        -0.14794E-01         0.00000E+00
    0.11879E-02        -0.11092E-01         0.00000E+00
    0.80474E-03        -0.73863E-02         0.00000E+00
    0.40765E-03        -0.36860E-02         0.00000E+00
    0.00000E+00         0.00000E+00         0.00000E+00
    0.55746E-02        -0.54944E-01         0.00000E+00
    0.51045E-02        -0.51401E-01         0.00000E+00
    0.46698E-02        -0.47848E-01         0.00000E+00
    0.42665E-02        -0.44279E-01         0.00000E+00
    0.38908E-02        -0.40693E-01         0.00000E+00
    0.35383E-02        -0.37087E-01         0.00000E+00
    0.32041E-02        -0.33460E-01         0.00000E+00
    0.28825E-02        -0.29810E-01         0.00000E+00
    0.25669E-02        -0.26138E-01         0.00000E+00
    0.22506E-02        -0.22444E-01         0.00000E+00
    0.19264E-02        -0.18728E-01         0.00000E+00
    0.15876E-02        -0.14995E-01         0.00000E+00
    0.12285E-02        -0.11248E-01         0.00000E+00
    0.84458E-03        -0.74936E-02         0.00000E+00
    0.43447E-03        -0.37405E-02         0.00000E+00
    0.00000E+00         0.00000E+00         0.00000E+00
    0.53111E-02        -0.55427E-01         0.00000E+00
    0.48563E-02        -0.51869E-01         0.00000E+00
    0.44408E-02        -0.48297E-01         0.00000E+00
    0.40603E-02        -0.44708E-01         0.00000E+00
    0.37103E-02        -0.41099E-01         0.00000E+00
    0.33857E-02        -0.37468E-01         0.00000E+00
    0.30808E-02        -0.33814E-01         0.00000E+00
    0.27893E-02        -0.30137E-01         0.00000E+00
    0.25038E-02        -0.26435E-01         0.00000E+00
    0.22164E-02        -0.22709E-01         0.00000E+00
    0.19188E-02        -0.18960E-01         0.00000E+00
    0.16023E-02        -0.15189E-01         0.00000E+00
    0.12586E-02        -0.11401E-01         0.00000E+00
    0.87995E-03        -0.75992E-02         0.00000E+00
    0.46086E-03        -0.37946E-02         0.00000E+00
    0.00000E+00         0.00000E+00         0.00000E+00
    0.49840E-02        -0.55895E-01         0.00000E+00
    0.45494E-02        -0.52320E-01         0.00000E+00
    0.41578E-02        -0.48729E-01         0.00000E+00
    0.38043E-02        -0.45117E-01         0.00000E+00
    0.34838E-02        -0.41485E-01         0.00000E+00
    0.31905E-02        -0.37828E-01         0.00000E+00
    0.29181E-02        -0.34148E-01         0.00000E+00
    0.26594E-02        -0.30443E-01         0.00000E+00
    0.24067E-02        -0.26713E-01         0.00000E+00
    0.21513E-02        -0.22958E-01         0.00000E+00
    0.18842E-02        -0.19178E-01         0.00000E+00
    0.15954E-02        -0.15373E-01         0.00000E+00
    0.12739E-02        -0.11547E-01         0.00000E+00
    0.90790E-03        -0.77017E-02         0.00000E+00
    0.48585E-03        -0.38477E-02         0.00000E+00
    0.00000E+00         0.00000E+00         0.00000E+00
    0.45923E-02        -0.56342E-01         0.00000E+00
    0.41832E-02        -0.52749E-01         0.00000E+00
    0.38204E-02        -0.49137E-01         0.00000E+00
    0.34983E-02        -0.45503E-01         0.00000E+00
    0.32110E-02        -0.41845E-01         0.00000E+00
    0.29521E-02        -0.38163E-01         0.00000E+00
    0.27145E-02        -0.34455E-01         0.00000E+00
    0.24906E-02        -0.30724E-01         0.00000E+00
    0.22723E-02        -0.26967E-01         0.00000E+00
    0.20511E-02        -0.23185E-01         0.00000E+00
    0.18175E-02        -0.19378E-01         0.00000E+00
    0.15609E-02        -0.15544E-01         0.00000E+00
    0.12684E-02        -0.11684E-01         0.00000E+00
    0.92401E-03        -0.77996E-02         0.00000E+00
    0.50775E-03        -0.38990E-02         0.00000E+00
    0.00000E+00         0.00000E+00         0.00000E+00
    0.41355E-02        -0.56763E-01         0.00000E+00
    0.37574E-02        -0.53151E-01         0.00000E+00
    0.34286E-02        -0.49517E-01         0.00000E+00
    0.31425E-02        -0.45858E-01         0.00000E+00
    0.28921E-02        -0.42174E-01         0.00000E+00
    0.26700E-02        -0.38465E-01         0.00000E+00
    0.24688E-02        -0.34732E-01         0.00000E+00
    0.22806E-02        -0.30975E-01         0.00000E+00
    0.20975E-02        -0.27193E-01         0.00000E+00
    0.19114E-02        -0.23388E-01         0.00000E+00
    0.17131E-02        -0.19556E-01         0.00000E+00
    0.14923E-02        -0.15697E-01         0.00000E+00
    0.12349E-02        -0.11809E-01         0.00000E+00
    0.92166E-03        -0.78910E-02         0.00000E+00
    0.52323E-03        -0.39487E-02         0.00000E+00
    0.00000E+00         0.00000E+00         0.00000E+00
    0.36129E-02        -0.57151E-01         0.00000E+00
    0.32722E-02        -0.53520E-01         0.00000E+00
    0.29831E-02        -0.49862E-01         0.00000E+00
    0.27375E-02        -0.46178E-01         0.00000E+00
    0.25272E-02        -0.42467E-01         0.00000E+00
    0.23439E-02        -0.38731E-01         0.00000E+00
    0.21797E-02        -0.34972E-01         0.00000E+00
    0.20270E-02        -0.31191E-01         0.00000E+00
    0.18787E-02        -0.27388E-01         0.00000E+00
    0.17275E-02        -0.23561E-01         0.00000E+00
    0.15655E-02        -0.19709E-01         0.00000E+00
    0.13826E-02        -0.15830E-01         0.00000E+00
    0.11652E-02        -0.11919E-01         0.00000E+00
    0.89224E-03        -0.79735E-02         0.00000E+00
    0.52666E-03        -0.39946E-02         0.00000E+00
    0.00000E+00         0.00000E+00         0.00000E+00
    0.30242E-02        -0.57500E-01         0.00000E+00
    0.27279E-02        -0.53848E-01         0.00000E+00
    0.24847E-02        -0.50166E-01         0.00000E+00
    0.22843E-02        -0.46455E-01         0.00000E+00
    0.21168E-02        -0.42716E-01         0.00000E+00
    0.19731E-02        -0.38955E-01         0.00000E+00
    0.18454E-02        -0.35172E-01         0.00000E+00
    0.17271E-02        -0.31369E-01         0.00000E+00
    0.16123E-02        -0.27547E-01         0.00000E+00
    0.14951E-02        -0.23703E-01         0.00000E+00
    0.13688E-02        -0.19835E-01         0.00000E+00
    0.12250E-02        -0.15940E-01         0.00000E+00
    0.10509E-02        -0.12012E-01         0.00000E+00
    0.82589E-03        -0.80462E-02         0.00000E+00
    0.50839E-03        -0.40379E-02         0.00000E+00
    0.00000E+00         0.00000E+00         0.00000E+00
    0.23688E-02        -0.57802E-01         0.00000E+00
    0.21256E-02        -0.54128E-01         0.00000E+00
    0.19353E-02        -0.50420E-01         0.00000E+00
    0.17844E-02        -0.46681E-01         0.00000E+00
    0.16610E-02        -0.42917E-01         0.00000E+00
    0.15562E-02        -0.39132E-01         0.00000E+00
    0.14635E-02        -0.35328E-01         0.00000E+00
    0.13778E-02        -0.31507E-01         0.00000E+00
    0.12947E-02        -0.27669E-01         0.00000E+00
    0.12097E-02        -0.23811E-01         0.00000E+00
    0.11180E-02        -0.19932E-01         0.00000E+00
    0.10129E-02        -0.16026E-01         0.00000E+00
    0.88406E-03        -0.12088E-01         0.00000E+00
    0.71251E-03        -0.81086E-02         0.00000E+00
    0.45822E-03        -0.40787E-02         0.00000E+00
    0.00000E+00         0.00000E+00         0.00000E+00
    0.16462E-02        -0.58047E-01         0.00000E+00
    0.14672E-02        -0.54350E-01         0.00000E+00
    0.13374E-02        -0.50615E-01         0.00000E+00
    0.12385E-02        -0.46850E-01         0.00000E+00
    0.11586E-02        -0.43063E-01         0.00000E+00
    0.10910E-02        -0.39258E-01         0.00000E+00
    0.10312E-02        -0.35438E-01         0.00000E+00
    0.97596E-03        -0.31603E-01         0.00000E+00
    0.92234E-03        -0.27753E-01         0.00000E+00
    0.86757E-03        -0.23886E-01         0.00000E+00
    0.80845E-03        -0.19998E-01         0.00000E+00
    0.74063E-03        -0.16087E-01         0.00000E+00
    0.65691E-03        -0.12144E-01         0.00000E+00
    0.54308E-03        -0.81596E-02         0.00000E+00
    0.36464E-03        -0.41169E-02         0.00000E+00
    0.00000E+00         0.00000E+00         0.00000E+00
    0.85581E-03        -0.58220E-01         0.00000E+00
    0.75694E-03        -0.54499E-01         0.00000E+00
    0.69328E-03        -0.50738E-01         0.00000E+00
    0.64528E-03        -0.46953E-01         0.00000E+00
    0.60654E-03        -0.43150E-01         0.00000E+00
    0.57373E-03        -0.39333E-01         0.00000E+00
    0.54471E-03        -0.35503E-01         0.00000E+00
    0.51788E-03        -0.31659E-01         0.00000E+00
    0.49184E-03        -0.27802E-01         0.00000E+00
    0.46526E-03        -0.23928E-01         0.00000E+00
    0.43661E-03        -0.20036E-01         0.00000E+00
    0.40380E-03        -0.16122E-01         0.00000E+00
    0.36329E-03        -0.12178E-01         0.00000E+00
    0.30777E-03        -0.81954E-02         0.00000E+00
    0.21737E-03        -0.41521E-02         0.00000E+00
    0.00000E+00         0.00000E+00         0.00000E+00
    0.00000E+00        -0.58297E-01         0.00000E+00
    0.00000E+00        -0.54554E-01         0.00000E+00
    0.00000E+00        -0.50781E-01         0.00000E+00
    0.00000E+00        -0.46988E-01         0.00000E+00
    0.00000E+00        -0.43179E-01         0.00000E+00
    0.00000E+00        -0.39358E-01         0.00000E+00
    0.00000E+00        -0.35524E-01         0.00000E+00
    0.00000E+00        -0.31677E-01         0.00000E+00
    0.00000E+00        -0.27817E-01         0.00000E+00
    0.00000E+00        -0.23942E-01         0.00000E+00
    0.00000E+00        -0.20048E-01         0.00000E+00
    0.00000E+00        -0.16133E-01         0.00000E+00
    0.00000E+00        -0.12190E-01         0.00000E+00
    0.00000E+00        -0.82093E-02         0.00000E+00
    0.00000E+00        -0.41704E-02         0.00000E+00
    0.00000E+00         0.00000E+00         0.00000E+00
CELL_DATA        450
VECTORS vDarcy double 
    0.12011E-09        -0.72308E-11         0.00000E+00
    0.12008E-09        -0.18814E-10         0.00000E+00
    0.12004E-09        -0.27624E-10         0.00000E+00
    0.11998E-09        -0.33901E-10         0.00000E+00
    0.11992E-09        -0.37890E-10         0.00000E+00
    0.11986E-09        -0.39840E-10         0.00000E+00
    0.11981E-09        -0.39985E-10         0.00000E+00
    0.11976E-09        -0.38549E-10         0.00000E+00
    0.11972E-09        -0.35747E-10         0.00000E+00
    0.11968E-09        -0.31794E-10         0.00000E+00
    0.11965E-09        -0.26909E-10         0.00000E+00
    0.11963E-09        -0.21329E-10         0.00000E+00
    0.11962E-09        -0.15308E-10         0.00000E+00
    0.11961E-09        -0.91226E-11         0.00000E+00
    0.11960E-09        -0.30672E-11         0.00000E+00
    0.35995E-09        -0.72017E-11         0.00000E+00
    0.35987E-09        -0.18742E-10         0.00000E+00
    0.35973E-09        -0.27524E-10         0.00000E+00
    0.35957E-09        -0.33786E-10         0.00000E+00
    0.35939E-09        -0.37773E-10         0.00000E+00
    0.35921E-09        -0.39728E-10         0.00000E+00
    0.35904E-09        -0.39882E-10         0.00000E+00
    0.35890E-09        -0.38458E-10         0.00000E+00
    0.35876E-09        -0.35669E-10         0.00000E+00
    0.35865E-09        -0.31728E-10         0.00000E+00
    0.35856E-09        -0.26857E-10         0.00000E+00
    0.35849E-09        -0.21291E-10         0.00000E+00
    0.35844E-09        -0.15284E-10         0.00000E+00
    0.35842E-09        -0.91105E-11         0.00000E+00
    0.35840E-09        -0.30637E-11         0.00000E+00
    0.59867E-09        -0.71430E-11         0.00000E+00
    0.59854E-09        -0.18596E-10         0.00000E+00
    0.59831E-09        -0.27321E-10         0.00000E+00
    0.59803E-09        -0.33553E-10         0.00000E+00
    0.59772E-09        -0.37534E-10         0.00000E+00
    0.59742E-09        -0.39497E-10         0.00000E+00
    0.59713E-09        -0.39670E-10         0.00000E+00
    0.59687E-09        -0.38268E-10         0.00000E+00
    0.59664E-09        -0.35504E-10         0.00000E+00
    0.59644E-09        -0.31590E-10         0.00000E+00
    0.59628E-09        -0.26746E-10         0.00000E+00
    0.59615E-09        -0.21209E-10         0.00000E+00
    0.59606E-09        -0.15231E-10         0.00000E+00
    0.59601E-09        -0.90839E-11         0.00000E+00
    0.59599E-09        -0.30561E-11         0.00000E+00
    0.83554E-09        -0.70535E-11         0.00000E+00
    0.83534E-09        -0.18373E-10         0.00000E+00
    0.83502E-09        -0.27010E-10         0.00000E+00
    0.83461E-09        -0.33196E-10         0.00000E+00
    0.83417E-09        -0.37163E-10         0.00000E+00
    0.83373E-09        -0.39136E-10         0.00000E+00
    0.83330E-09        -0.39333E-10         0.00000E+00
    0.83291E-09        -0.37964E-10         0.00000E+00
    0.83256E-09        -0.35237E-10         0.00000E+00
    0.83226E-09        -0.31364E-10         0.00000E+00
    0.83200E-09        -0.26565E-10         0.00000E+00
    0.83181E-09        -0.21075E-10         0.00000E+00
    0.83167E-09        -0.15143E-10         0.00000E+00
    0.83159E-09        -0.90383E-11         0.00000E+00
    0.83155E-09        -0.30428E-11         0.00000E+00
    0.10698E-08        -0.69315E-11         0.00000E+00
    0.10696E-08        -0.18069E-10         0.00000E+00
    0.10691E-08        -0.26584E-10         0.00000E+00
    0.10686E-08        -0.32702E-10         0.00000E+00
    0.10680E-08        -0.36646E-10         0.00000E+00
    0.10674E-08        -0.38627E-10         0.00000E+00
    0.10668E-08        -0.38851E-10         0.00000E+00
    0.10663E-08        -0.37522E-10         0.00000E+00
    0.10658E-08        -0.34845E-10         0.00000E+00
    0.10653E-08        -0.31029E-10         0.00000E+00
    0.10650E-08        -0.26294E-10         0.00000E+00
    0.10647E-08        -0.20872E-10         0.00000E+00
    0.10645E-08        -0.15009E-10         0.00000E+00
    0.10643E-08        -0.89673E-11         0.00000E+00
    0.10643E-08        -0.30219E-11         0.00000E+00
    0.13008E-08        -0.67747E-11         0.00000E+00
    0.13004E-08        -0.17676E-10         0.00000E+00
    0.12999E-08        -0.26032E-10         0.00000E+00
    0.12992E-08        -0.32059E-10         0.00000E+00
    0.12984E-08        -0.35964E-10         0.00000E+00
    0.12977E-08        -0.37945E-10         0.00000E+00
    0.12969E-08        -0.38196E-10         0.00000E+00
    0.12961E-08        -0.36914E-10         0.00000E+00
    0.12955E-08        -0.34299E-10         0.00000E+00
    0.12949E-08        -0.30560E-10         0.00000E+00
    0.12944E-08        -0.25911E-10         0.00000E+00
    0.12940E-08        -0.20582E-10         0.00000E+00
    0.12937E-08        -0.14815E-10         0.00000E+00
    0.12935E-08        -0.88623E-11         0.00000E+00
    0.12934E-08        -0.29905E-11         0.00000E+00
    0.15277E-08        -0.65803E-11         0.00000E+00
    0.15273E-08        -0.17188E-10         0.00000E+00
    0.15266E-08        -0.25341E-10         0.00000E+00
    0.15257E-08        -0.31245E-10         0.00000E+00
    0.15248E-08        -0.35090E-10         0.00000E+00
    0.15238E-08        -0.37059E-10         0.00000E+00
    0.15228E-08        -0.37334E-10         0.00000E+00
    0.15218E-08        -0.36105E-10         0.00000E+00
    0.15209E-08        -0.33568E-10         0.00000E+00
    0.15201E-08        -0.29925E-10         0.00000E+00
    0.15195E-08        -0.25389E-10         0.00000E+00
    0.15189E-08        -0.20185E-10         0.00000E+00
    0.15186E-08        -0.14545E-10         0.00000E+00
    0.15183E-08        -0.87137E-11         0.00000E+00
    0.15182E-08        -0.29455E-11         0.00000E+00
    0.17498E-08        -0.63449E-11         0.00000E+00
    0.17493E-08        -0.16593E-10         0.00000E+00
    0.17485E-08        -0.24494E-10         0.00000E+00
    0.17475E-08        -0.30237E-10         0.00000E+00
    0.17463E-08        -0.33995E-10         0.00000E+00
    0.17450E-08        -0.35934E-10         0.00000E+00
    0.17438E-08        -0.36228E-10         0.00000E+00
    0.17426E-08        -0.35057E-10         0.00000E+00
    0.17414E-08        -0.32612E-10         0.00000E+00
    0.17404E-08        -0.29091E-10         0.00000E+00
    0.17395E-08        -0.24700E-10         0.00000E+00
    0.17388E-08        -0.19655E-10         0.00000E+00
    0.17383E-08        -0.14181E-10         0.00000E+00
    0.17380E-08        -0.85105E-11         0.00000E+00
    0.17378E-08        -0.28834E-11         0.00000E+00
    0.19665E-08        -0.60647E-11         0.00000E+00
    0.19659E-08        -0.15879E-10         0.00000E+00
    0.19649E-08        -0.23471E-10         0.00000E+00
    0.19637E-08        -0.29007E-10         0.00000E+00
    0.19623E-08        -0.32643E-10         0.00000E+00
    0.19607E-08        -0.34531E-10         0.00000E+00
    0.19592E-08        -0.34836E-10         0.00000E+00
    0.19576E-08        -0.33730E-10         0.00000E+00
    0.19562E-08        -0.31395E-10         0.00000E+00
    0.19549E-08        -0.28023E-10         0.00000E+00
    0.19538E-08        -0.23812E-10         0.00000E+00
    0.19529E-08        -0.18969E-10         0.00000E+00
    0.19523E-08        -0.13706E-10         0.00000E+00
    0.19518E-08        -0.82417E-11         0.00000E+00
    0.19516E-08        -0.28005E-11         0.00000E+00
    0.21770E-08        -0.57353E-11         0.00000E+00
    0.21763E-08        -0.15035E-10         0.00000E+00
    0.21752E-08        -0.22249E-10         0.00000E+00
    0.21737E-08        -0.27524E-10         0.00000E+00
    0.21720E-08        -0.30997E-10         0.00000E+00
    0.21701E-08        -0.32810E-10         0.00000E+00
    0.21682E-08        -0.33116E-10         0.00000E+00
    0.21664E-08        -0.32081E-10         0.00000E+00
    0.21646E-08        -0.29877E-10         0.00000E+00
    0.21630E-08        -0.26686E-10         0.00000E+00
    0.21616E-08        -0.22696E-10         0.00000E+00
    0.21605E-08        -0.18102E-10         0.00000E+00
    0.21597E-08        -0.13101E-10         0.00000E+00
    0.21592E-08        -0.78959E-11         0.00000E+00
    0.21589E-08        -0.26930E-11         0.00000E+00
    0.23807E-08        -0.53519E-11         0.00000E+00
    0.23800E-08        -0.14044E-10         0.00000E+00
    0.23786E-08        -0.20803E-10         0.00000E+00
    0.23769E-08        -0.25754E-10         0.00000E+00
    0.23748E-08        -0.29018E-10         0.00000E+00
    0.23726E-08        -0.30728E-10         0.00000E+00
    0.23703E-08        -0.31027E-10         0.00000E+00
    0.23680E-08        -0.30069E-10         0.00000E+00
    0.23659E-08        -0.28019E-10         0.00000E+00
    0.23640E-08        -0.25045E-10         0.00000E+00
    0.23623E-08        -0.21323E-10         0.00000E+00
    0.23610E-08        -0.17030E-10         0.00000E+00
    0.23600E-08        -0.12349E-10         0.00000E+00
    0.23593E-08        -0.74630E-11         0.00000E+00
    0.23590E-08        -0.25576E-11         0.00000E+00
    0.25770E-08        -0.49096E-11         0.00000E+00
    0.25761E-08        -0.12892E-10         0.00000E+00
    0.25746E-08        -0.19108E-10         0.00000E+00
    0.25725E-08        -0.23664E-10         0.00000E+00
    0.25701E-08        -0.26668E-10         0.00000E+00
    0.25675E-08        -0.28245E-10         0.00000E+00
    0.25648E-08        -0.28527E-10         0.00000E+00
    0.25621E-08        -0.27658E-10         0.00000E+00
    0.25595E-08        -0.25787E-10         0.00000E+00
    0.25572E-08        -0.23071E-10         0.00000E+00
    0.25553E-08        -0.19667E-10         0.00000E+00
    0.25536E-08        -0.15735E-10         0.00000E+00
    0.25524E-08        -0.11437E-10         0.00000E+00
    0.25516E-08        -0.69341E-11         0.00000E+00
    0.25513E-08        -0.23914E-11         0.00000E+00
    0.27652E-08        -0.44030E-11         0.00000E+00
    0.27642E-08        -0.11562E-10         0.00000E+00
    0.27624E-08        -0.17139E-10         0.00000E+00
    0.27600E-08        -0.21222E-10         0.00000E+00
    0.27572E-08        -0.23913E-10         0.00000E+00
    0.27542E-08        -0.25326E-10         0.00000E+00
    0.27510E-08        -0.25582E-10         0.00000E+00
    0.27478E-08        -0.24813E-10         0.00000E+00
    0.27449E-08        -0.23153E-10         0.00000E+00
    0.27422E-08        -0.20739E-10         0.00000E+00
    0.27399E-08        -0.17709E-10         0.00000E+00
    0.27380E-08        -0.14201E-10         0.00000E+00
    0.27366E-08        -0.10352E-10         0.00000E+00
    0.27356E-08        -0.63029E-11         0.00000E+00
    0.27352E-08        -0.21922E-11         0.00000E+00
    0.29447E-08        -0.38262E-11         0.00000E+00
    0.29436E-08        -0.10040E-10         0.00000E+00
    0.29415E-08        -0.14871E-10         0.00000E+00
    0.29388E-08        -0.18401E-10         0.00000E+00
    0.29356E-08        -0.20723E-10         0.00000E+00
    0.29320E-08        -0.21940E-10         0.00000E+00
    0.29284E-08        -0.22165E-10         0.00000E+00
    0.29248E-08        -0.21512E-10         0.00000E+00
    0.29214E-08        -0.20096E-10         0.00000E+00
    0.29183E-08        -0.18033E-10         0.00000E+00
    0.29156E-08        -0.15436E-10         0.00000E+00
    0.29134E-08        -0.12418E-10         0.00000E+00
    0.29118E-08        -0.90904E-11         0.00000E+00
    0.29107E-08        -0.55658E-11         0.00000E+00
    0.29102E-08        -0.19587E-11         0.00000E+00
    0.31150E-08        -0.31738E-11         0.00000E+00
    0.31137E-08        -0.83099E-11         0.00000E+00
    0.31114E-08        -0.12287E-10         0.00000E+00
    0.31083E-08        -0.15180E-10         0.00000E+00
    0.31046E-08        -0.17076E-10         0.00000E+00
    0.31006E-08        -0.18071E-10         0.00000E+00
    0.30965E-08        -0.18261E-10         0.00000E+00
    0.30924E-08        -0.17742E-10         0.00000E+00
    0.30885E-08        -0.16607E-10         0.00000E+00
    0.30850E-08        -0.14947E-10         0.00000E+00
    0.30820E-08        -0.12846E-10         0.00000E+00
    0.30796E-08        -0.10386E-10         0.00000E+00
    0.30777E-08        -0.76510E-11         0.00000E+00
    0.30765E-08        -0.47232E-11         0.00000E+00
    0.30759E-08        -0.16908E-11         0.00000E+00
    0.32754E-08        -0.24410E-11         0.00000E+00
    0.32740E-08        -0.63625E-11         0.00000E+00
    0.32714E-08        -0.93733E-11         0.00000E+00
    0.32679E-08        -0.11547E-10         0.00000E+00
    0.32638E-08        -0.12965E-10         0.00000E+00
    0.32594E-08        -0.13712E-10         0.00000E+00
    0.32547E-08        -0.13867E-10         0.00000E+00
    0.32502E-08        -0.13506E-10         0.00000E+00
    0.32459E-08        -0.12694E-10         0.00000E+00
    0.32420E-08        -0.11490E-10         0.00000E+00
    0.32387E-08        -0.99483E-11         0.00000E+00
    0.32359E-08        -0.81162E-11         0.00000E+00
    0.32339E-08        -0.60429E-11         0.00000E+00
    0.32325E-08        -0.37806E-11         0.00000E+00
    0.32319E-08        -0.13901E-11         0.00000E+00
    0.34255E-08        -0.16254E-11         0.00000E+00
    0.34240E-08        -0.41935E-11         0.00000E+00
    0.34211E-08        -0.61296E-11         0.00000E+00
    0.34173E-08        -0.75063E-11         0.00000E+00
    0.34128E-08        -0.83988E-11         0.00000E+00
    0.34078E-08        -0.88778E-11         0.00000E+00
    0.34028E-08        -0.90043E-11         0.00000E+00
    0.33978E-08        -0.88270E-11         0.00000E+00
    0.33931E-08        -0.83814E-11         0.00000E+00
    0.33888E-08        -0.76910E-11         0.00000E+00
    0.33852E-08        -0.67706E-11         0.00000E+00
    0.33822E-08        -0.56310E-11         0.00000E+00
    0.33800E-08        -0.42841E-11         0.00000E+00
    0.33786E-08        -0.27496E-11         0.00000E+00
    0.33779E-08        -0.10600E-11         0.00000E+00
    0.35648E-08        -0.72747E-12         0.00000E+00
    0.35631E-08        -0.18073E-11         0.00000E+00
    0.35600E-08        -0.25682E-11         0.00000E+00
    0.35558E-08        -0.30796E-11         0.00000E+00
    0.35509E-08        -0.34077E-11         0.00000E+00
    0.35456E-08        -0.36071E-11         0.00000E+00
    0.35401E-08        -0.37163E-11         0.00000E+00
    0.35348E-08        -0.37542E-11         0.00000E+00
    0.35297E-08        -0.37202E-11         0.00000E+00
    0.35252E-08        -0.35975E-11         0.00000E+00
    0.35214E-08        -0.33579E-11         0.00000E+00
    0.35182E-08        -0.29695E-11         0.00000E+00
    0.35159E-08        -0.24048E-11         0.00000E+00
    0.35143E-08        -0.16486E-11         0.00000E+00
    0.35136E-08        -0.70591E-12         0.00000E+00
    0.36928E-08         0.24853E-12         0.00000E+00
    0.36910E-08         0.78005E-12         0.00000E+00
    0.36876E-08         0.12799E-11         0.00000E+00
    0.36832E-08         0.16869E-11         0.00000E+00
    0.36780E-08         0.19485E-11         0.00000E+00
    0.36723E-08         0.20299E-11         0.00000E+00
    0.36666E-08         0.19194E-11         0.00000E+00
    0.36609E-08         0.16324E-11         0.00000E+00
    0.36556E-08         0.12099E-11         0.00000E+00
    0.36509E-08         0.71471E-12         0.00000E+00
    0.36469E-08         0.22247E-12         0.00000E+00
    0.36437E-08        -0.18828E-12         0.00000E+00
    0.36413E-08        -0.44739E-12         0.00000E+00
    0.36397E-08        -0.50389E-12         0.00000E+00
    0.36389E-08        -0.33566E-12         0.00000E+00
    0.38090E-08         0.12934E-11         0.00000E+00
    0.38071E-08         0.35386E-11         0.00000E+00
    0.38036E-08         0.53611E-11         0.00000E+00
    0.37989E-08         0.67166E-11         0.00000E+00
    0.37935E-08         0.75736E-11         0.00000E+00
    0.37877E-08         0.79229E-11         0.00000E+00
    0.37817E-08         0.77847E-11         0.00000E+00
    0.37759E-08         0.72127E-11         0.00000E+00
    0.37706E-08         0.62935E-11         0.00000E+00
    0.37658E-08         0.51396E-11         0.00000E+00
    0.37617E-08         0.38783E-11         0.00000E+00
    0.37585E-08         0.26378E-11         0.00000E+00
    0.37561E-08         0.15328E-11         0.00000E+00
    0.37545E-08         0.65087E-12         0.00000E+00
    0.37537E-08         0.40501E-13         0.00000E+00
    0.39130E-08         0.23925E-11         0.00000E+00
    0.39110E-08         0.64212E-11         0.00000E+00
    0.39074E-08         0.95936E-11         0.00000E+00
    0.39027E-08         0.11895E-10         0.00000E+00
    0.38972E-08         0.13326E-10         0.00000E+00
    0.38913E-08         0.13911E-10         0.00000E+00
    0.38854E-08         0.13709E-10         0.00000E+00
    0.38797E-08         0.12818E-10         0.00000E+00
    0.38744E-08         0.11372E-10         0.00000E+00
    0.38697E-08         0.95365E-11         0.00000E+00
    0.38658E-08         0.74910E-11         0.00000E+00
    0.38627E-08         0.54148E-11         0.00000E+00
    0.38604E-08         0.34680E-11         0.00000E+00
    0.38589E-08         0.17749E-11         0.00000E+00
    0.38581E-08         0.41029E-12         0.00000E+00
    0.40043E-08         0.35246E-11         0.00000E+00
    0.40023E-08         0.93609E-11         0.00000E+00
    0.39987E-08         0.13862E-10         0.00000E+00
    0.39941E-08         0.17061E-10         0.00000E+00
    0.39887E-08         0.19007E-10         0.00000E+00
    0.39831E-08         0.19771E-10         0.00000E+00
    0.39775E-08         0.19460E-10         0.00000E+00
    0.39721E-08         0.18222E-10         0.00000E+00
    0.39671E-08         0.16239E-10         0.00000E+00
    0.39628E-08         0.13726E-10         0.00000E+00
    0.39591E-08         0.10914E-10         0.00000E+00
    0.39562E-08         0.80305E-11         0.00000E+00
    0.39541E-08         0.52790E-11         0.00000E+00
    0.39528E-08         0.28216E-11         0.00000E+00
    0.39521E-08         0.75980E-12         0.00000E+00
    0.40825E-08         0.46610E-11         0.00000E+00
    0.40805E-08         0.12266E-10         0.00000E+00
    0.40771E-08         0.18009E-10         0.00000E+00
    0.40727E-08         0.21998E-10         0.00000E+00
    0.40678E-08         0.24349E-10         0.00000E+00
    0.40627E-08         0.25203E-10         0.00000E+00
    0.40577E-08         0.24730E-10         0.00000E+00
    0.40530E-08         0.23128E-10         0.00000E+00
    0.40487E-08         0.20630E-10         0.00000E+00
    0.40449E-08         0.17489E-10         0.00000E+00
    0.40418E-08         0.13975E-10         0.00000E+00
    0.40393E-08         0.10355E-10         0.00000E+00
    0.40375E-08         0.68771E-11         0.00000E+00
    0.40364E-08         0.37396E-11         0.00000E+00
    0.40358E-08         0.10741E-11         0.00000E+00
    0.41470E-08         0.57633E-11         0.00000E+00
    0.41452E-08         0.15012E-10         0.00000E+00
    0.41421E-08         0.21824E-10         0.00000E+00
    0.41383E-08         0.26413E-10         0.00000E+00
    0.41342E-08         0.29001E-10         0.00000E+00
    0.41301E-08         0.29822E-10         0.00000E+00
    0.41262E-08         0.29125E-10         0.00000E+00
    0.41225E-08         0.27169E-10         0.00000E+00
    0.41193E-08         0.24222E-10         0.00000E+00
    0.41164E-08         0.20560E-10         0.00000E+00
    0.41140E-08         0.16470E-10         0.00000E+00
    0.41122E-08         0.12244E-10         0.00000E+00
    0.41108E-08         0.81657E-11         0.00000E+00
    0.41100E-08         0.44743E-11         0.00000E+00
    0.41095E-08         0.13376E-11         0.00000E+00
    0.41974E-08         0.67792E-11         0.00000E+00
    0.41959E-08         0.17430E-10         0.00000E+00
    0.41934E-08         0.25017E-10         0.00000E+00
    0.41906E-08         0.29919E-10         0.00000E+00
    0.41878E-08         0.32507E-10         0.00000E+00
    0.41851E-08         0.33143E-10         0.00000E+00
    0.41828E-08         0.32170E-10         0.00000E+00
    0.41807E-08         0.29905E-10         0.00000E+00
    0.41789E-08         0.26634E-10         0.00000E+00
    0.41774E-08         0.22630E-10         0.00000E+00
    0.41760E-08         0.18166E-10         0.00000E+00
    0.41750E-08         0.13536E-10         0.00000E+00
    0.41742E-08         0.90418E-11         0.00000E+00
    0.41737E-08         0.49698E-11         0.00000E+00
    0.41735E-08         0.15359E-11         0.00000E+00
    0.42330E-08         0.76344E-11         0.00000E+00
    0.42320E-08         0.19276E-10         0.00000E+00
    0.42305E-08         0.27183E-10         0.00000E+00
    0.42292E-08         0.31990E-10         0.00000E+00
    0.42283E-08         0.34283E-10         0.00000E+00
    0.42278E-08         0.34579E-10         0.00000E+00
    0.42277E-08         0.33313E-10         0.00000E+00
    0.42277E-08         0.30836E-10         0.00000E+00
    0.42279E-08         0.27432E-10         0.00000E+00
    0.42280E-08         0.23342E-10         0.00000E+00
    0.42281E-08         0.18795E-10         0.00000E+00
    0.42281E-08         0.14046E-10         0.00000E+00
    0.42280E-08         0.93952E-11         0.00000E+00
    0.42280E-08         0.51695E-11         0.00000E+00
    0.42280E-08         0.16552E-11         0.00000E+00
    0.42533E-08         0.82137E-11         0.00000E+00
    0.42530E-08         0.20168E-10         0.00000E+00
    0.42531E-08         0.27721E-10         0.00000E+00
    0.42541E-08         0.31912E-10         0.00000E+00
    0.42559E-08         0.33605E-10         0.00000E+00
    0.42583E-08         0.33458E-10         0.00000E+00
    0.42610E-08         0.31954E-10         0.00000E+00
    0.42638E-08         0.29438E-10         0.00000E+00
    0.42664E-08         0.26158E-10         0.00000E+00
    0.42687E-08         0.22304E-10         0.00000E+00
    0.42705E-08         0.18042E-10         0.00000E+00
    0.42718E-08         0.13556E-10         0.00000E+00
    0.42727E-08         0.91002E-11         0.00000E+00
    0.42732E-08         0.50161E-11         0.00000E+00
    0.42735E-08         0.16859E-11         0.00000E+00
    0.42571E-08         0.83070E-11         0.00000E+00
    0.42582E-08         0.19446E-10         0.00000E+00
    0.42610E-08         0.25695E-10         0.00000E+00
    0.42654E-08         0.28723E-10         0.00000E+00
    0.42709E-08         0.29614E-10         0.00000E+00
    0.42770E-08         0.29057E-10         0.00000E+00
    0.42832E-08         0.27490E-10         0.00000E+00
    0.42893E-08         0.25196E-10         0.00000E+00
    0.42948E-08         0.22362E-10         0.00000E+00
    0.42996E-08         0.19115E-10         0.00000E+00
    0.43035E-08         0.15556E-10         0.00000E+00
    0.43065E-08         0.11789E-10         0.00000E+00
    0.43086E-08         0.79789E-11         0.00000E+00
    0.43098E-08         0.44467E-11         0.00000E+00
    0.43104E-08         0.16241E-11         0.00000E+00
    0.42433E-08         0.74604E-11         0.00000E+00
    0.42470E-08         0.15756E-10         0.00000E+00
    0.42541E-08         0.19665E-10         0.00000E+00
    0.42634E-08         0.21218E-10         0.00000E+00
    0.42738E-08         0.21381E-10         0.00000E+00
    0.42844E-08         0.20669E-10         0.00000E+00
    0.42948E-08         0.19372E-10         0.00000E+00
    0.43045E-08         0.17665E-10         0.00000E+00
    0.43133E-08         0.15656E-10         0.00000E+00
    0.43210E-08         0.13415E-10         0.00000E+00
    0.43274E-08         0.10989E-10         0.00000E+00
    0.43324E-08         0.84192E-11         0.00000E+00
    0.43360E-08         0.57758E-11         0.00000E+00
    0.43382E-08         0.32705E-11         0.00000E+00
    0.43391E-08         0.15457E-11         0.00000E+00
    0.42093E-08         0.33616E-11         0.00000E+00
    0.42193E-08         0.64693E-11         0.00000E+00
    0.42336E-08         0.77167E-11         0.00000E+00
    0.42495E-08         0.81109E-11         0.00000E+00
    0.42657E-08         0.80433E-11         0.00000E+00
    0.42815E-08         0.76965E-11         0.00000E+00
    0.42964E-08         0.71677E-11         0.00000E+00
    0.43102E-08         0.65130E-11         0.00000E+00
    0.43225E-08         0.57664E-11         0.00000E+00
    0.43332E-08         0.49484E-11         0.00000E+00
    0.43423E-08         0.40716E-11         0.00000E+00
    0.43495E-08         0.31450E-11         0.00000E+00
    0.43549E-08         0.21835E-11         0.00000E+00
    0.43584E-08         0.12456E-11         0.00000E+00
    0.43605E-08         0.76085E-12         0.00000E+00
POINT_DATA        496
VECTORS vDarcyNodal double 
    0.12011E-09        -0.72381E-11         0.00000E+00
    0.12010E-09        -0.13035E-10         0.00000E+00
    0.12006E-09        -0.23240E-10         0.00000E+00
    0.12001E-09        -0.30789E-10         0.00000E+00
    0.11995E-09        -0.35924E-10         0.00000E+00
    0.11989E-09        -0.38893E-10         0.00000E+00
    0.11984E-09        -0.39939E-10         0.00000E+00
    0.11978E-09        -0.39290E-10         0.00000E+00
    0.11974E-09        -0.37169E-10         0.00000E+00
    0.11970E-09        -0.33788E-10         0.00000E+00
    0.11967E-09        -0.29365E-10         0.00000E+00
    0.11964E-09        -0.24130E-10         0.00000E+00
    0.11962E-09        -0.18326E-10         0.00000E+00
    0.11961E-09        -0.12220E-10         0.00000E+00
    0.11960E-09        -0.60968E-11         0.00000E+00
    0.11960E-09        -0.30680E-11         0.00000E+00
    0.24004E-09        -0.72236E-11         0.00000E+00
    0.24001E-09        -0.13010E-10         0.00000E+00
    0.23994E-09        -0.23197E-10         0.00000E+00
    0.23983E-09        -0.30736E-10         0.00000E+00
    0.23971E-09        -0.35867E-10         0.00000E+00
    0.23959E-09        -0.38837E-10         0.00000E+00
    0.23948E-09        -0.39886E-10         0.00000E+00
    0.23937E-09        -0.39243E-10         0.00000E+00
    0.23928E-09        -0.37127E-10         0.00000E+00
    0.23920E-09        -0.33753E-10         0.00000E+00
    0.23913E-09        -0.29337E-10         0.00000E+00
    0.23908E-09        -0.24108E-10         0.00000E+00
    0.23904E-09        -0.18311E-10         0.00000E+00
    0.23902E-09        -0.12211E-10         0.00000E+00
    0.23901E-09        -0.60930E-11         0.00000E+00
    0.23900E-09        -0.30664E-11         0.00000E+00
    0.47934E-09        -0.71799E-11         0.00000E+00
    0.47928E-09        -0.12934E-10         0.00000E+00
    0.47913E-09        -0.23068E-10         0.00000E+00
    0.47892E-09        -0.30574E-10         0.00000E+00
    0.47868E-09        -0.35692E-10         0.00000E+00
    0.47843E-09        -0.38664E-10         0.00000E+00
    0.47820E-09        -0.39724E-10         0.00000E+00
    0.47798E-09        -0.39097E-10         0.00000E+00
    0.47779E-09        -0.36999E-10         0.00000E+00
    0.47762E-09        -0.33644E-10         0.00000E+00
    0.47748E-09        -0.29248E-10         0.00000E+00
    0.47736E-09        -0.24040E-10         0.00000E+00
    0.47728E-09        -0.18263E-10         0.00000E+00
    0.47723E-09        -0.12183E-10         0.00000E+00
    0.47720E-09        -0.60811E-11         0.00000E+00
    0.47719E-09        -0.30611E-11         0.00000E+00
    0.71715E-09        -0.71061E-11         0.00000E+00
    0.71706E-09        -0.12805E-10         0.00000E+00
    0.71682E-09        -0.22849E-10         0.00000E+00
    0.71650E-09        -0.30300E-10         0.00000E+00
    0.71614E-09        -0.35395E-10         0.00000E+00
    0.71576E-09        -0.38367E-10         0.00000E+00
    0.71539E-09        -0.39443E-10         0.00000E+00
    0.71505E-09        -0.38841E-10         0.00000E+00
    0.71474E-09        -0.36773E-10         0.00000E+00
    0.71446E-09        -0.33450E-10         0.00000E+00
    0.71423E-09        -0.29088E-10         0.00000E+00
    0.71405E-09        -0.23916E-10         0.00000E+00
    0.71391E-09        -0.18177E-10         0.00000E+00
    0.71382E-09        -0.12132E-10         0.00000E+00
    0.71378E-09        -0.60588E-11         0.00000E+00
    0.71376E-09        -0.30511E-11         0.00000E+00
    0.95274E-09        -0.70008E-11         0.00000E+00
    0.95261E-09        -0.12622E-10         0.00000E+00
    0.95229E-09        -0.22535E-10         0.00000E+00
    0.95185E-09        -0.29906E-10         0.00000E+00
    0.95134E-09        -0.34964E-10         0.00000E+00
    0.95082E-09        -0.37932E-10         0.00000E+00
    0.95030E-09        -0.39026E-10         0.00000E+00
    0.94981E-09        -0.38456E-10         0.00000E+00
    0.94936E-09        -0.36428E-10         0.00000E+00
    0.94896E-09        -0.33151E-10         0.00000E+00
    0.94862E-09        -0.28840E-10         0.00000E+00
    0.94835E-09        -0.23723E-10         0.00000E+00
    0.94814E-09        -0.18041E-10         0.00000E+00
    0.94800E-09        -0.12050E-10         0.00000E+00
    0.94793E-09        -0.60223E-11         0.00000E+00
    0.94791E-09        -0.30346E-11         0.00000E+00
    0.11854E-08        -0.68621E-11         0.00000E+00
    0.11852E-08        -0.12379E-10         0.00000E+00
    0.11848E-08        -0.22118E-10         0.00000E+00
    0.11842E-08        -0.29381E-10         0.00000E+00
    0.11836E-08        -0.34385E-10         0.00000E+00
    0.11829E-08        -0.37341E-10         0.00000E+00
    0.11822E-08        -0.38452E-10         0.00000E+00
    0.11815E-08        -0.37917E-10         0.00000E+00
    0.11809E-08        -0.35939E-10         0.00000E+00
    0.11803E-08        -0.32723E-10         0.00000E+00
    0.11799E-08        -0.28483E-10         0.00000E+00
    0.11795E-08        -0.23443E-10         0.00000E+00
    0.11792E-08        -0.17840E-10         0.00000E+00
    0.11790E-08        -0.11927E-10         0.00000E+00
    0.11789E-08        -0.59668E-11         0.00000E+00
    0.11788E-08        -0.30091E-11         0.00000E+00
    0.14143E-08        -0.66873E-11         0.00000E+00
    0.14141E-08        -0.12072E-10         0.00000E+00
    0.14136E-08        -0.21590E-10         0.00000E+00
    0.14129E-08        -0.28710E-10         0.00000E+00
    0.14121E-08        -0.33637E-10         0.00000E+00
    0.14112E-08        -0.36567E-10         0.00000E+00
    0.14103E-08        -0.37689E-10         0.00000E+00
    0.14094E-08        -0.37193E-10         0.00000E+00
    0.14086E-08        -0.35274E-10         0.00000E+00
    0.14078E-08        -0.32136E-10         0.00000E+00
    0.14072E-08        -0.27988E-10         0.00000E+00
    0.14067E-08        -0.23051E-10         0.00000E+00
    0.14063E-08        -0.17557E-10         0.00000E+00
    0.14060E-08        -0.11751E-10         0.00000E+00
    0.14058E-08        -0.58860E-11         0.00000E+00
    0.14058E-08        -0.29718E-11         0.00000E+00
    0.16388E-08        -0.64733E-11         0.00000E+00
    0.16386E-08        -0.11696E-10         0.00000E+00
    0.16380E-08        -0.20938E-10         0.00000E+00
    0.16371E-08        -0.27876E-10         0.00000E+00
    0.16361E-08        -0.32697E-10         0.00000E+00
    0.16350E-08        -0.35581E-10         0.00000E+00
    0.16338E-08        -0.36704E-10         0.00000E+00
    0.16327E-08        -0.36247E-10         0.00000E+00
    0.16317E-08        -0.34398E-10         0.00000E+00
    0.16307E-08        -0.31356E-10         0.00000E+00
    0.16299E-08        -0.27326E-10         0.00000E+00
    0.16292E-08        -0.22523E-10         0.00000E+00
    0.16286E-08        -0.17172E-10         0.00000E+00
    0.16283E-08        -0.11508E-10         0.00000E+00
    0.16280E-08        -0.57732E-11         0.00000E+00
    0.16280E-08        -0.29192E-11         0.00000E+00
    0.18583E-08        -0.62165E-11         0.00000E+00
    0.18580E-08        -0.11242E-10         0.00000E+00
    0.18572E-08        -0.20148E-10         0.00000E+00
    0.18562E-08        -0.26855E-10         0.00000E+00
    0.18550E-08        -0.31534E-10         0.00000E+00
    0.18536E-08        -0.34347E-10         0.00000E+00
    0.18522E-08        -0.35458E-10         0.00000E+00
    0.18508E-08        -0.35039E-10         0.00000E+00
    0.18494E-08        -0.33271E-10         0.00000E+00
    0.18482E-08        -0.30347E-10         0.00000E+00
    0.18471E-08        -0.26465E-10         0.00000E+00
    0.18462E-08        -0.21832E-10         0.00000E+00
    0.18455E-08        -0.16664E-10         0.00000E+00
    0.18451E-08        -0.11184E-10         0.00000E+00
    0.18448E-08        -0.56208E-11         0.00000E+00
    0.18447E-08        -0.28476E-11         0.00000E+00
    0.20719E-08        -0.59129E-11         0.00000E+00
    0.20716E-08        -0.10702E-10         0.00000E+00
    0.20707E-08        -0.19202E-10         0.00000E+00
    0.20695E-08        -0.25623E-10         0.00000E+00
    0.20680E-08        -0.30116E-10         0.00000E+00
    0.20663E-08        -0.32827E-10         0.00000E+00
    0.20646E-08        -0.33910E-10         0.00000E+00
    0.20628E-08        -0.33527E-10         0.00000E+00
    0.20612E-08        -0.31854E-10         0.00000E+00
    0.20596E-08        -0.29071E-10         0.00000E+00
    0.20583E-08        -0.25371E-10         0.00000E+00
    0.20572E-08        -0.20949E-10         0.00000E+00
    0.20563E-08        -0.16011E-10         0.00000E+00
    0.20557E-08        -0.10764E-10         0.00000E+00
    0.20553E-08        -0.54213E-11         0.00000E+00
    0.20552E-08        -0.27533E-11         0.00000E+00
    0.22791E-08        -0.55577E-11         0.00000E+00
    0.22787E-08        -0.10068E-10         0.00000E+00
    0.22777E-08        -0.18082E-10         0.00000E+00
    0.22762E-08        -0.24150E-10         0.00000E+00
    0.22744E-08        -0.28405E-10         0.00000E+00
    0.22724E-08        -0.30980E-10         0.00000E+00
    0.22703E-08        -0.32017E-10         0.00000E+00
    0.22682E-08        -0.31670E-10         0.00000E+00
    0.22662E-08        -0.30104E-10         0.00000E+00
    0.22643E-08        -0.27491E-10         0.00000E+00
    0.22627E-08        -0.24011E-10         0.00000E+00
    0.22613E-08        -0.19849E-10         0.00000E+00
    0.22602E-08        -0.15192E-10         0.00000E+00
    0.22595E-08        -0.10233E-10         0.00000E+00
    0.22590E-08        -0.51675E-11         0.00000E+00
    0.22589E-08        -0.26327E-11         0.00000E+00
    0.24791E-08        -0.51461E-11         0.00000E+00
    0.24786E-08        -0.93284E-11         0.00000E+00
    0.24775E-08        -0.16766E-10         0.00000E+00
    0.24758E-08        -0.22407E-10         0.00000E+00
    0.24736E-08        -0.26367E-10         0.00000E+00
    0.24713E-08        -0.28766E-10         0.00000E+00
    0.24688E-08        -0.29738E-10         0.00000E+00
    0.24663E-08        -0.29426E-10         0.00000E+00
    0.24639E-08        -0.27984E-10         0.00000E+00
    0.24616E-08        -0.25573E-10         0.00000E+00
    0.24596E-08        -0.22357E-10         0.00000E+00
    0.24580E-08        -0.18505E-10         0.00000E+00
    0.24567E-08        -0.14188E-10         0.00000E+00
    0.24557E-08        -0.95791E-11         0.00000E+00
    0.24552E-08        -0.48530E-11         0.00000E+00
    0.24550E-08        -0.24825E-11         0.00000E+00
    0.26713E-08        -0.46731E-11         0.00000E+00
    0.26708E-08        -0.84734E-11         0.00000E+00
    0.26695E-08        -0.15234E-10         0.00000E+00
    0.26675E-08        -0.20365E-10         0.00000E+00
    0.26650E-08        -0.23965E-10         0.00000E+00
    0.26623E-08        -0.26147E-10         0.00000E+00
    0.26593E-08        -0.27034E-10         0.00000E+00
    0.26564E-08        -0.26758E-10         0.00000E+00
    0.26535E-08        -0.25461E-10         0.00000E+00
    0.26509E-08        -0.23286E-10         0.00000E+00
    0.26486E-08        -0.20382E-10         0.00000E+00
    0.26466E-08        -0.16898E-10         0.00000E+00
    0.26450E-08        -0.12984E-10         0.00000E+00
    0.26440E-08        -0.87917E-11         0.00000E+00
    0.26433E-08        -0.44725E-11         0.00000E+00
    0.26431E-08        -0.23003E-11         0.00000E+00
    0.28552E-08        -0.41328E-11         0.00000E+00
    0.28546E-08        -0.74920E-11         0.00000E+00
    0.28531E-08        -0.13467E-10         0.00000E+00
    0.28508E-08        -0.17996E-10         0.00000E+00
    0.28480E-08        -0.21170E-10         0.00000E+00
    0.28448E-08        -0.23091E-10         0.00000E+00
    0.28414E-08        -0.23874E-10         0.00000E+00
    0.28380E-08        -0.23637E-10         0.00000E+00
    0.28347E-08        -0.22506E-10         0.00000E+00
    0.28316E-08        -0.20607E-10         0.00000E+00
    0.28289E-08        -0.18067E-10         0.00000E+00
    0.28266E-08        -0.15012E-10         0.00000E+00
    0.28248E-08        -0.11569E-10         0.00000E+00
    0.28235E-08        -0.78636E-11         0.00000E+00
    0.28228E-08        -0.40226E-11         0.00000E+00
    0.28226E-08        -0.20841E-11         0.00000E+00
    0.30301E-08        -0.35196E-11         0.00000E+00
    0.30295E-08        -0.63739E-11         0.00000E+00
    0.30277E-08        -0.11444E-10         0.00000E+00
    0.30252E-08        -0.15276E-10         0.00000E+00
    0.30219E-08        -0.17954E-10         0.00000E+00
    0.30183E-08        -0.19572E-10         0.00000E+00
    0.30144E-08        -0.20232E-10         0.00000E+00
    0.30105E-08        -0.20040E-10         0.00000E+00
    0.30067E-08        -0.19102E-10         0.00000E+00
    0.30032E-08        -0.17522E-10         0.00000E+00
    0.30001E-08        -0.15402E-10         0.00000E+00
    0.29975E-08        -0.12842E-10         0.00000E+00
    0.29955E-08        -0.99392E-11         0.00000E+00
    0.29940E-08        -0.67925E-11         0.00000E+00
    0.29932E-08        -0.35019E-11         0.00000E+00
    0.29929E-08        -0.18333E-11         0.00000E+00
    0.31955E-08        -0.28280E-11         0.00000E+00
    0.31948E-08        -0.51098E-11         0.00000E+00
    0.31928E-08        -0.91524E-11         0.00000E+00
    0.31899E-08        -0.12190E-10         0.00000E+00
    0.31863E-08        -0.14302E-10         0.00000E+00
    0.31822E-08        -0.15575E-10         0.00000E+00
    0.31778E-08        -0.16099E-10         0.00000E+00
    0.31734E-08        -0.15962E-10         0.00000E+00
    0.31692E-08        -0.15247E-10         0.00000E+00
    0.31653E-08        -0.14032E-10         0.00000E+00
    0.31618E-08        -0.12390E-10         0.00000E+00
    0.31589E-08        -0.10390E-10         0.00000E+00
    0.31566E-08        -0.80983E-11         0.00000E+00
    0.31550E-08        -0.55817E-11         0.00000E+00
    0.31540E-08        -0.29122E-11         0.00000E+00
    0.31537E-08        -0.15484E-11         0.00000E+00
    0.33509E-08        -0.20541E-11         0.00000E+00
    0.33501E-08        -0.36938E-11         0.00000E+00
    0.33479E-08        -0.65835E-11         0.00000E+00
    0.33446E-08        -0.87303E-11         0.00000E+00
    0.33406E-08        -0.10210E-10         0.00000E+00
    0.33360E-08        -0.11102E-10         0.00000E+00
    0.33312E-08        -0.11480E-10         0.00000E+00
    0.33263E-08        -0.11411E-10         0.00000E+00
    0.33216E-08        -0.10953E-10         0.00000E+00
    0.33173E-08        -0.10152E-10         0.00000E+00
    0.33135E-08        -0.90486E-11         0.00000E+00
    0.33103E-08        -0.76744E-11         0.00000E+00
    0.33078E-08        -0.60609E-11         0.00000E+00
    0.33061E-08        -0.42418E-11         0.00000E+00
    0.33050E-08        -0.22586E-11         0.00000E+00
    0.33047E-08        -0.12319E-11         0.00000E+00
    0.34956E-08        -0.11968E-11         0.00000E+00
    0.34947E-08        -0.21251E-11         0.00000E+00
    0.34923E-08        -0.37396E-11         0.00000E+00
    0.34888E-08        -0.49056E-11         0.00000E+00
    0.34843E-08        -0.56947E-11         0.00000E+00
    0.34794E-08        -0.61746E-11         0.00000E+00
    0.34741E-08        -0.64022E-11         0.00000E+00
    0.34688E-08        -0.64203E-11         0.00000E+00
    0.34637E-08        -0.62557E-11         0.00000E+00
    0.34591E-08        -0.59201E-11         0.00000E+00
    0.34550E-08        -0.54131E-11         0.00000E+00
    0.34516E-08        -0.47272E-11         0.00000E+00
    0.34489E-08        -0.38543E-11         0.00000E+00
    0.34470E-08        -0.27920E-11         0.00000E+00
    0.34459E-08        -0.15510E-11         0.00000E+00
    0.34455E-08        -0.88814E-12         0.00000E+00
    0.36293E-08        -0.25818E-12         0.00000E+00
    0.36283E-08        -0.40968E-12         0.00000E+00
    0.36257E-08        -0.63595E-12         0.00000E+00
    0.36219E-08        -0.74234E-12         0.00000E+00
    0.36171E-08        -0.79269E-12         0.00000E+00
    0.36118E-08        -0.84037E-12         0.00000E+00
    0.36062E-08        -0.92143E-12         0.00000E+00
    0.36005E-08        -0.10504E-11         0.00000E+00
    0.35952E-08        -0.12188E-11         0.00000E+00
    0.35902E-08        -0.13977E-11         0.00000E+00
    0.35859E-08        -0.15423E-11         0.00000E+00
    0.35823E-08        -0.16002E-11         0.00000E+00
    0.35796E-08        -0.15201E-11         0.00000E+00
    0.35776E-08        -0.12615E-11         0.00000E+00
    0.35764E-08        -0.80357E-12         0.00000E+00
    0.35761E-08        -0.52369E-12         0.00000E+00
    0.37514E-08         0.75521E-12         0.00000E+00
    0.37504E-08         0.14382E-11         0.00000E+00
    0.37477E-08         0.26959E-11         0.00000E+00
    0.37436E-08         0.37090E-11         0.00000E+00
    0.37386E-08         0.44279E-11         0.00000E+00
    0.37329E-08         0.48186E-11         0.00000E+00
    0.37271E-08         0.48706E-11         0.00000E+00
    0.37212E-08         0.46020E-11         0.00000E+00
    0.37156E-08         0.40610E-11         0.00000E+00
    0.37106E-08         0.33222E-11         0.00000E+00
    0.37062E-08         0.24794E-11         0.00000E+00
    0.37025E-08         0.16343E-11         0.00000E+00
    0.36997E-08         0.88440E-12         0.00000E+00
    0.36977E-08         0.31018E-12         0.00000E+00
    0.36965E-08        -0.35994E-13         0.00000E+00
    0.36961E-08        -0.14763E-12         0.00000E+00
    0.38616E-08         0.18316E-11         0.00000E+00
    0.38605E-08         0.33937E-11         0.00000E+00
    0.38576E-08         0.62037E-11         0.00000E+00
    0.38534E-08         0.83685E-11         0.00000E+00
    0.38482E-08         0.98621E-11         0.00000E+00
    0.38425E-08         0.10678E-10         0.00000E+00
    0.38365E-08         0.10837E-10         0.00000E+00
    0.38306E-08         0.10395E-10         0.00000E+00
    0.38250E-08         0.94451E-11         0.00000E+00
    0.38200E-08         0.81108E-11         0.00000E+00
    0.38156E-08         0.65384E-11         0.00000E+00
    0.38120E-08         0.48817E-11         0.00000E+00
    0.38092E-08         0.32862E-11         0.00000E+00
    0.38073E-08         0.18735E-11         0.00000E+00
    0.38061E-08         0.72735E-12         0.00000E+00
    0.38057E-08         0.22862E-12         0.00000E+00
    0.39592E-08         0.29534E-11         0.00000E+00
    0.39581E-08         0.54199E-11         0.00000E+00
    0.39552E-08         0.98110E-11         0.00000E+00
    0.39509E-08         0.13120E-10         0.00000E+00
    0.39458E-08         0.15359E-10         0.00000E+00
    0.39401E-08         0.16559E-10         0.00000E+00
    0.39343E-08         0.16783E-10         0.00000E+00
    0.39286E-08         0.16132E-10         0.00000E+00
    0.39232E-08         0.14745E-10         0.00000E+00
    0.39183E-08         0.12798E-10         0.00000E+00
    0.39142E-08         0.10489E-10         0.00000E+00
    0.39108E-08         0.80240E-11         0.00000E+00
    0.39082E-08         0.55966E-11         0.00000E+00
    0.39063E-08         0.33694E-11         0.00000E+00
    0.39053E-08         0.14579E-11         0.00000E+00
    0.39049E-08         0.59195E-12         0.00000E+00
    0.40440E-08         0.40958E-11         0.00000E+00
    0.40428E-08         0.74655E-11         0.00000E+00
    0.40400E-08         0.13412E-10         0.00000E+00
    0.40358E-08         0.17803E-10         0.00000E+00
    0.40309E-08         0.20710E-10         0.00000E+00
    0.40256E-08         0.22219E-10         0.00000E+00
    0.40202E-08         0.22448E-10         0.00000E+00
    0.40150E-08         0.21550E-10         0.00000E+00
    0.40101E-08         0.19715E-10         0.00000E+00
    0.40057E-08         0.17167E-10         0.00000E+00
    0.40020E-08         0.14152E-10         0.00000E+00
    0.39989E-08         0.10921E-10         0.00000E+00
    0.39966E-08         0.77129E-11         0.00000E+00
    0.39950E-08         0.47311E-11         0.00000E+00
    0.39941E-08         0.21235E-11         0.00000E+00
    0.39938E-08         0.92764E-12         0.00000E+00
    0.41153E-08         0.52262E-11         0.00000E+00
    0.41142E-08         0.94613E-11         0.00000E+00
    0.41115E-08         0.16863E-10         0.00000E+00
    0.41077E-08         0.22204E-10         0.00000E+00
    0.41033E-08         0.25637E-10         0.00000E+00
    0.40987E-08         0.27334E-10         0.00000E+00
    0.40941E-08         0.27485E-10         0.00000E+00
    0.40898E-08         0.26308E-10         0.00000E+00
    0.40858E-08         0.24043E-10         0.00000E+00
    0.40822E-08         0.20952E-10         0.00000E+00
    0.40792E-08         0.17312E-10         0.00000E+00
    0.40767E-08         0.13409E-10         0.00000E+00
    0.40748E-08         0.95196E-11         0.00000E+00
    0.40735E-08         0.58855E-11         0.00000E+00
    0.40728E-08         0.26902E-11         0.00000E+00
    0.40725E-08         0.12205E-11         0.00000E+00
    0.41727E-08         0.63003E-11         0.00000E+00
    0.41717E-08         0.11314E-10         0.00000E+00
    0.41693E-08         0.19973E-10         0.00000E+00
    0.41662E-08         0.26033E-10         0.00000E+00
    0.41627E-08         0.29777E-10         0.00000E+00
    0.41593E-08         0.31489E-10         0.00000E+00
    0.41560E-08         0.31462E-10         0.00000E+00
    0.41530E-08         0.29987E-10         0.00000E+00
    0.41503E-08         0.27349E-10         0.00000E+00
    0.41479E-08         0.23831E-10         0.00000E+00
    0.41459E-08         0.19718E-10         0.00000E+00
    0.41442E-08         0.15305E-10         0.00000E+00
    0.41429E-08         0.10890E-10         0.00000E+00
    0.41421E-08         0.67545E-11         0.00000E+00
    0.41416E-08         0.31218E-11         0.00000E+00
    0.41414E-08         0.14548E-11         0.00000E+00
    0.42156E-08         0.72579E-11         0.00000E+00
    0.42148E-08         0.12895E-10         0.00000E+00
    0.42130E-08         0.22475E-10         0.00000E+00
    0.42109E-08         0.28903E-10         0.00000E+00
    0.42089E-08         0.32648E-10         0.00000E+00
    0.42072E-08         0.34160E-10         0.00000E+00
    0.42058E-08         0.33851E-10         0.00000E+00
    0.42047E-08         0.32088E-10         0.00000E+00
    0.42038E-08         0.29190E-10         0.00000E+00
    0.42030E-08         0.25433E-10         0.00000E+00
    0.42023E-08         0.21078E-10         0.00000E+00
    0.42018E-08         0.16397E-10         0.00000E+00
    0.42013E-08         0.11687E-10         0.00000E+00
    0.42009E-08         0.72571E-11         0.00000E+00
    0.42008E-08         0.33838E-11         0.00000E+00
    0.42007E-08         0.16170E-11         0.00000E+00
    0.42435E-08         0.80108E-11         0.00000E+00
    0.42429E-08         0.14015E-10         0.00000E+00
    0.42421E-08         0.23984E-10         0.00000E+00
    0.42416E-08         0.30271E-10         0.00000E+00
    0.42417E-08         0.33625E-10         0.00000E+00
    0.42425E-08         0.34702E-10         0.00000E+00
    0.42437E-08         0.34041E-10         0.00000E+00
    0.42451E-08         0.32061E-10         0.00000E+00
    0.42465E-08         0.29079E-10         0.00000E+00
    0.42478E-08         0.25341E-10         0.00000E+00
    0.42489E-08         0.21058E-10         0.00000E+00
    0.42497E-08         0.16444E-10         0.00000E+00
    0.42502E-08         0.11754E-10         0.00000E+00
    0.42505E-08         0.73076E-11         0.00000E+00
    0.42507E-08         0.34409E-11         0.00000E+00
    0.42507E-08         0.16934E-11         0.00000E+00
    0.42553E-08         0.84166E-11         0.00000E+00
    0.42552E-08         0.14367E-10         0.00000E+00
    0.42560E-08         0.23905E-10         0.00000E+00
    0.42581E-08         0.29362E-10         0.00000E+00
    0.42614E-08         0.31893E-10         0.00000E+00
    0.42654E-08         0.32361E-10         0.00000E+00
    0.42699E-08         0.31371E-10         0.00000E+00
    0.42744E-08         0.29331E-10         0.00000E+00
    0.42787E-08         0.26517E-10         0.00000E+00
    0.42825E-08         0.23121E-10         0.00000E+00
    0.42857E-08         0.19287E-10         0.00000E+00
    0.42883E-08         0.15154E-10         0.00000E+00
    0.42901E-08         0.10902E-10         0.00000E+00
    0.42912E-08         0.68086E-11         0.00000E+00
    0.42918E-08         0.32611E-11         0.00000E+00
    0.42919E-08         0.16784E-11         0.00000E+00
    0.42498E-08         0.81974E-11         0.00000E+00
    0.42507E-08         0.13386E-10         0.00000E+00
    0.42545E-08         0.21235E-10         0.00000E+00
    0.42606E-08         0.25055E-10         0.00000E+00
    0.42682E-08         0.26444E-10         0.00000E+00
    0.42765E-08         0.26310E-10         0.00000E+00
    0.42849E-08         0.25177E-10         0.00000E+00
    0.42931E-08         0.23356E-10         0.00000E+00
    0.43007E-08         0.21041E-10         0.00000E+00
    0.43074E-08         0.18356E-10         0.00000E+00
    0.43132E-08         0.15384E-10         0.00000E+00
    0.43178E-08         0.12192E-10         0.00000E+00
    0.43212E-08         0.88663E-11         0.00000E+00
    0.43234E-08         0.56170E-11         0.00000E+00
    0.43247E-08         0.28097E-11         0.00000E+00
    0.43248E-08         0.15697E-11         0.00000E+00
    0.42242E-08         0.67234E-11         0.00000E+00
    0.42284E-08         0.98311E-11         0.00000E+00
    0.42378E-08         0.14186E-10         0.00000E+00
    0.42499E-08         0.15828E-10         0.00000E+00
    0.42631E-08         0.16155E-10         0.00000E+00
    0.42765E-08         0.15740E-10         0.00000E+00
    0.42895E-08         0.14865E-10         0.00000E+00
    0.43018E-08         0.13681E-10         0.00000E+00
    0.43129E-08         0.12280E-10         0.00000E+00
    0.43229E-08         0.10715E-10         0.00000E+00
    0.43314E-08         0.90203E-11         0.00000E+00
    0.43383E-08         0.72168E-11         0.00000E+00
    0.43436E-08         0.53287E-11         0.00000E+00
    0.43473E-08         0.34293E-11         0.00000E+00
    0.43494E-08         0.20066E-11         0.00000E+00
    0.43502E-08         0.15217E-11         0.00000E+00
    0.42059E-08         0.00000E+00         0.00000E+00
    0.42127E-08         0.00000E+00         0.00000E+00
    0.42258E-08        -0.12427E-22         0.00000E+00
    0.42413E-08         0.27643E-27         0.00000E+00
    0.42576E-08         0.16570E-22         0.00000E+00
    0.42738E-08         0.00000E+00         0.00000E+00
    0.42893E-08         0.00000E+00         0.00000E+00
    0.43036E-08        -0.12428E-22         0.00000E+00
    0.43167E-08        -0.12428E-22         0.00000E+00
    0.43283E-08         0.12428E-22         0.00000E+00
    0.43382E-08         0.16571E-22         0.00000E+00
    0.43464E-08        -0.16571E-22         0.00000E+00
    0.43527E-08        -0.41428E-23         0.00000E+00
    0.43571E-08         0.16572E-22         0.00000E+00
    0.43597E-08         0.82859E-23         0.00000E+00
    0.43613E-08         0.00000E+00         0.00000E+00
CELL_DATA        450
TENSORS stressef double 
   -0.11660E+08         0.24855E+04         0.00000E+00
    0.24855E+04        -0.38095E+08         0.00000E+00
    0.00000E+00         0.00000E+00        -0.12952E+08
 
   -0.11547E+08         0.75625E+04         0.00000E+00
    0.75625E+04        -0.38087E+08         0.00000E+00
    0.00000E+00         0.00000E+00        -0.13068E+08
 
   -0.11455E+08         0.12453E+05         0.00000E+00
    0.12453E+05        -0.38071E+08         0.00000E+00
    0.00000E+00         0.00000E+00        -0.13152E+08
 
   -0.11387E+08         0.16788E+05         0.00000E+00
    0.16788E+05        -0.38046E+08         0.00000E+00
    0.00000E+00         0.00000E+00        -0.13196E+08
 
   -0.11350E+08         0.20161E+05         0.00000E+00
    0.20161E+05        -0.38015E+08         0.00000E+00
    0.00000E+00         0.00000E+00        -0.13194E+08
 
   -0.11346E+08         0.22391E+05         0.00000E+00
    0.22391E+05        -0.37978E+08         0.00000E+00
    0.00000E+00         0.00000E+00        -0.13147E+08
 
   -0.11371E+08         0.23830E+05         0.00000E+00
    0.23830E+05        -0.37938E+08         0.00000E+00
    0.00000E+00         0.00000E+00        -0.13059E+08
 
   -0.11421E+08         0.24749E+05         0.00000E+00
    0.24749E+05        -0.37895E+08         0.00000E+00
    0.00000E+00         0.00000E+00        -0.12942E+08
 
   -0.11488E+08         0.25515E+05         0.00000E+00
    0.25515E+05        -0.37851E+08         0.00000E+00
    0.00000E+00         0.00000E+00        -0.12804E+08
 
   -0.11562E+08         0.26422E+05         0.00000E+00
    0.26422E+05        -0.37804E+08         0.00000E+00
    0.00000E+00         0.00000E+00        -0.12656E+08
 
   -0.11638E+08         0.27628E+05         0.00000E+00
    0.27628E+05        -0.37755E+08         0.00000E+00
    0.00000E+00         0.00000E+00        -0.12505E+08
 
   -0.11710E+08         0.29158E+05         0.00000E+00
    0.29158E+05        -0.37702E+08         0.00000E+00
    0.00000E+00         0.00000E+00        -0.12356E+08
 
   -0.11774E+08         0.30963E+05         0.00000E+00
    0.30963E+05        -0.37644E+08         0.00000E+00
    0.00000E+00         0.00000E+00        -0.12211E+08
 
   -0.11827E+08         0.32956E+05         0.00000E+00
    0.32956E+05        -0.37582E+08         0.00000E+00
    0.00000E+00         0.00000E+00        -0.12074E+08
 
   -0.11866E+08         0.35012E+05         0.00000E+00
    0.35012E+05        -0.37515E+08         0.00000E+00
    0.00000E+00         0.00000E+00        -0.11945E+08
 
   -0.11683E+08         0.74501E+04         0.00000E+00
    0.74501E+04        -0.38129E+08         0.00000E+00
    0.00000E+00         0.00000E+00        -0.12972E+08
 
   -0.11571E+08         0.22665E+05         0.00000E+00
    0.22665E+05        -0.38121E+08         0.00000E+00
    0.00000E+00         0.00000E+00        -0.13088E+08
 
   -0.11479E+08         0.37238E+05         0.00000E+00
    0.37238E+05        -0.38105E+08         0.00000E+00
    0.00000E+00         0.00000E+00        -0.13172E+08
 
   -0.11413E+08         0.50048E+05         0.00000E+00
    0.50048E+05        -0.38080E+08         0.00000E+00
    0.00000E+00         0.00000E+00        -0.13215E+08
 
   -0.11378E+08         0.59910E+05         0.00000E+00
    0.59910E+05        -0.38050E+08         0.00000E+00
    0.00000E+00         0.00000E+00        -0.13211E+08
 
   -0.11376E+08         0.66425E+05         0.00000E+00
    0.66425E+05        -0.38014E+08         0.00000E+00
    0.00000E+00         0.00000E+00        -0.13164E+08
 
   -0.11403E+08         0.70684E+05         0.00000E+00
    0.70684E+05        -0.37976E+08         0.00000E+00
    0.00000E+00         0.00000E+00        -0.13078E+08
 
   -0.11453E+08         0.73476E+05         0.00000E+00
    0.73476E+05        -0.37935E+08         0.00000E+00
    0.00000E+00         0.00000E+00        -0.12961E+08
 
   -0.11520E+08         0.75894E+05         0.00000E+00
    0.75894E+05        -0.37892E+08         0.00000E+00
    0.00000E+00         0.00000E+00        -0.12826E+08
 
   -0.11594E+08         0.78768E+05         0.00000E+00
    0.78768E+05        -0.37846E+08         0.00000E+00
    0.00000E+00         0.00000E+00        -0.12680E+08
 
   -0.11669E+08         0.82522E+05         0.00000E+00
    0.82522E+05        -0.37798E+08         0.00000E+00
    0.00000E+00         0.00000E+00        -0.12531E+08
 
   -0.11740E+08         0.87239E+05         0.00000E+00
    0.87239E+05        -0.37745E+08         0.00000E+00
    0.00000E+00         0.00000E+00        -0.12383E+08
 
   -0.11803E+08         0.92745E+05         0.00000E+00
    0.92745E+05        -0.37688E+08         0.00000E+00
    0.00000E+00         0.00000E+00        -0.12240E+08
 
   -0.11856E+08         0.98788E+05         0.00000E+00
    0.98788E+05        -0.37626E+08         0.00000E+00
    0.00000E+00         0.00000E+00        -0.12103E+08
 
   -0.11896E+08         0.10501E+06         0.00000E+00
    0.10501E+06        -0.37559E+08         0.00000E+00
    0.00000E+00         0.00000E+00        -0.11974E+08
 
   -0.11730E+08         0.12403E+05         0.00000E+00
    0.12403E+05        -0.38196E+08         0.00000E+00
    0.00000E+00         0.00000E+00        -0.13013E+08
 
   -0.11618E+08         0.37642E+05         0.00000E+00
    0.37642E+05        -0.38188E+08         0.00000E+00
    0.00000E+00         0.00000E+00        -0.13129E+08
 
   -0.11528E+08         0.61637E+05         0.00000E+00
    0.61637E+05        -0.38172E+08         0.00000E+00
    0.00000E+00         0.00000E+00        -0.13211E+08
 
   -0.11465E+08         0.82290E+05         0.00000E+00
    0.82290E+05        -0.38149E+08         0.00000E+00
    0.00000E+00         0.00000E+00        -0.13252E+08
 
   -0.11435E+08         0.97878E+05         0.00000E+00
    0.97878E+05        -0.38120E+08         0.00000E+00
    0.00000E+00         0.00000E+00        -0.13246E+08
 
   -0.11436E+08         0.10828E+06         0.00000E+00
    0.10828E+06        -0.38088E+08         0.00000E+00
    0.00000E+00         0.00000E+00        -0.13199E+08
 
   -0.11465E+08         0.11517E+06         0.00000E+00
    0.11517E+06        -0.38052E+08         0.00000E+00
    0.00000E+00         0.00000E+00        -0.13114E+08
 
   -0.11517E+08         0.11997E+06         0.00000E+00
    0.11997E+06        -0.38014E+08         0.00000E+00
    0.00000E+00         0.00000E+00        -0.13001E+08
 
   -0.11583E+08         0.12440E+06         0.00000E+00
    0.12440E+06        -0.37974E+08         0.00000E+00
    0.00000E+00         0.00000E+00        -0.12869E+08
 
   -0.11656E+08         0.12967E+06         0.00000E+00
    0.12967E+06        -0.37930E+08         0.00000E+00
    0.00000E+00         0.00000E+00        -0.12728E+08
 
   -0.11730E+08         0.13637E+06         0.00000E+00
    0.13637E+06        -0.37883E+08         0.00000E+00
    0.00000E+00         0.00000E+00        -0.12583E+08
 
   -0.11800E+08         0.14460E+06         0.00000E+00
    0.14460E+06        -0.37832E+08         0.00000E+00
    0.00000E+00         0.00000E+00        -0.12438E+08
 
   -0.11863E+08         0.15409E+06         0.00000E+00
    0.15409E+06        -0.37775E+08         0.00000E+00
    0.00000E+00         0.00000E+00        -0.12297E+08
 
   -0.11915E+08         0.16437E+06         0.00000E+00
    0.16437E+06        -0.37714E+08         0.00000E+00
    0.00000E+00         0.00000E+00        -0.12161E+08
 
   -0.11954E+08         0.17491E+06         0.00000E+00
    0.17491E+06        -0.37647E+08         0.00000E+00
    0.00000E+00         0.00000E+00        -0.12033E+08
 
   -0.11801E+08         0.17362E+05         0.00000E+00
    0.17362E+05        -0.38297E+08         0.00000E+00
    0.00000E+00         0.00000E+00        -0.13074E+08
 
   -0.11689E+08         0.52361E+05         0.00000E+00
    0.52361E+05        -0.38289E+08         0.00000E+00
    0.00000E+00         0.00000E+00        -0.13190E+08
 
   -0.11601E+08         0.85177E+05         0.00000E+00
    0.85177E+05        -0.38273E+08         0.00000E+00
    0.00000E+00         0.00000E+00        -0.13270E+08
 
   -0.11544E+08         0.11266E+06         0.00000E+00
    0.11266E+06        -0.38252E+08         0.00000E+00
    0.00000E+00         0.00000E+00        -0.13307E+08
 
   -0.11520E+08         0.13282E+06         0.00000E+00
    0.13282E+06        -0.38227E+08         0.00000E+00
    0.00000E+00         0.00000E+00        -0.13299E+08
 
   -0.11526E+08         0.14655E+06         0.00000E+00
    0.14655E+06        -0.38198E+08         0.00000E+00
    0.00000E+00         0.00000E+00        -0.13251E+08
 
   -0.11559E+08         0.15587E+06         0.00000E+00
    0.15587E+06        -0.38167E+08         0.00000E+00
    0.00000E+00         0.00000E+00        -0.13169E+08
 
   -0.11612E+08         0.16298E+06         0.00000E+00
    0.16298E+06        -0.38133E+08         0.00000E+00
    0.00000E+00         0.00000E+00        -0.13061E+08
 
   -0.11678E+08         0.17000E+06         0.00000E+00
    0.17000E+06        -0.38096E+08         0.00000E+00
    0.00000E+00         0.00000E+00        -0.12935E+08
 
   -0.11749E+08         0.17834E+06         0.00000E+00
    0.17834E+06        -0.38055E+08         0.00000E+00
    0.00000E+00         0.00000E+00        -0.12800E+08
 
   -0.11821E+08         0.18857E+06         0.00000E+00
    0.18857E+06        -0.38010E+08         0.00000E+00
    0.00000E+00         0.00000E+00        -0.12660E+08
 
   -0.11890E+08         0.20080E+06         0.00000E+00
    0.20080E+06        -0.37961E+08         0.00000E+00
    0.00000E+00         0.00000E+00        -0.12520E+08
 
   -0.11951E+08         0.21465E+06         0.00000E+00
    0.21465E+06        -0.37905E+08         0.00000E+00
    0.00000E+00         0.00000E+00        -0.12382E+08
 
   -0.12002E+08         0.22951E+06         0.00000E+00
    0.22951E+06        -0.37845E+08         0.00000E+00
    0.00000E+00         0.00000E+00        -0.12248E+08
 
   -0.12042E+08         0.24460E+06         0.00000E+00
    0.24460E+06        -0.37779E+08         0.00000E+00
    0.00000E+00         0.00000E+00        -0.12121E+08
 
   -0.11894E+08         0.22260E+05         0.00000E+00
    0.22260E+05        -0.38430E+08         0.00000E+00
    0.00000E+00         0.00000E+00        -0.13156E+08
 
   -0.11784E+08         0.66647E+05         0.00000E+00
    0.66647E+05        -0.38423E+08         0.00000E+00
    0.00000E+00         0.00000E+00        -0.13271E+08
 
   -0.11700E+08         0.10719E+06         0.00000E+00
    0.10719E+06        -0.38409E+08         0.00000E+00
    0.00000E+00         0.00000E+00        -0.13347E+08
 
   -0.11652E+08         0.13998E+06         0.00000E+00
    0.13998E+06        -0.38390E+08         0.00000E+00
    0.00000E+00         0.00000E+00        -0.13379E+08
 
   -0.11635E+08         0.16355E+06         0.00000E+00
    0.16355E+06        -0.38369E+08         0.00000E+00
    0.00000E+00         0.00000E+00        -0.13368E+08
 
   -0.11647E+08         0.17997E+06         0.00000E+00
    0.17997E+06        -0.38345E+08         0.00000E+00
    0.00000E+00         0.00000E+00        -0.13321E+08
 
   -0.11683E+08         0.19164E+06         0.00000E+00
    0.19164E+06        -0.38319E+08         0.00000E+00
    0.00000E+00         0.00000E+00        -0.13243E+08
 
   -0.11737E+08         0.20160E+06         0.00000E+00
    0.20160E+06        -0.38290E+08         0.00000E+00
    0.00000E+00         0.00000E+00        -0.13141E+08
 
   -0.11802E+08         0.21194E+06         0.00000E+00
    0.21194E+06        -0.38258E+08         0.00000E+00
    0.00000E+00         0.00000E+00        -0.13023E+08
 
   -0.11871E+08         0.22410E+06         0.00000E+00
    0.22410E+06        -0.38221E+08         0.00000E+00
    0.00000E+00         0.00000E+00        -0.12896E+08
 
   -0.11941E+08         0.23860E+06         0.00000E+00
    0.23860E+06        -0.38178E+08         0.00000E+00
    0.00000E+00         0.00000E+00        -0.12762E+08
 
   -0.12007E+08         0.25542E+06         0.00000E+00
    0.25542E+06        -0.38131E+08         0.00000E+00
    0.00000E+00         0.00000E+00        -0.12628E+08
 
   -0.12067E+08         0.27408E+06         0.00000E+00
    0.27408E+06        -0.38077E+08         0.00000E+00
    0.00000E+00         0.00000E+00        -0.12494E+08
 
   -0.12118E+08         0.29389E+06         0.00000E+00
    0.29389E+06        -0.38018E+08         0.00000E+00
    0.00000E+00         0.00000E+00        -0.12363E+08
 
   -0.12158E+08         0.31396E+06         0.00000E+00
    0.31396E+06        -0.37952E+08         0.00000E+00
    0.00000E+00         0.00000E+00        -0.12237E+08
 
   -0.12011E+08         0.27058E+05         0.00000E+00
    0.27058E+05        -0.38596E+08         0.00000E+00
    0.00000E+00         0.00000E+00        -0.13257E+08
 
   -0.11902E+08         0.79997E+05         0.00000E+00
    0.79997E+05        -0.38590E+08         0.00000E+00
    0.00000E+00         0.00000E+00        -0.13371E+08
 
   -0.11827E+08         0.12677E+06         0.00000E+00
    0.12677E+06        -0.38578E+08         0.00000E+00
    0.00000E+00         0.00000E+00        -0.13441E+08
 
   -0.11787E+08         0.16297E+06         0.00000E+00
    0.16297E+06        -0.38563E+08         0.00000E+00
    0.00000E+00         0.00000E+00        -0.13468E+08
 
   -0.11780E+08         0.18896E+06         0.00000E+00
    0.18896E+06        -0.38547E+08         0.00000E+00
    0.00000E+00         0.00000E+00        -0.13454E+08
 
   -0.11799E+08         0.20743E+06         0.00000E+00
    0.20743E+06        -0.38530E+08         0.00000E+00
    0.00000E+00         0.00000E+00        -0.13408E+08
 
   -0.11837E+08         0.22182E+06         0.00000E+00
    0.22182E+06        -0.38510E+08         0.00000E+00
    0.00000E+00         0.00000E+00        -0.13336E+08
 
   -0.11891E+08         0.23524E+06         0.00000E+00
    0.23524E+06        -0.38486E+08         0.00000E+00
    0.00000E+00         0.00000E+00        -0.13243E+08
 
   -0.11954E+08         0.24968E+06         0.00000E+00
    0.24968E+06        -0.38458E+08         0.00000E+00
    0.00000E+00         0.00000E+00        -0.13134E+08
 
   -0.12022E+08         0.26645E+06         0.00000E+00
    0.26645E+06        -0.38425E+08         0.00000E+00
    0.00000E+00         0.00000E+00        -0.13015E+08
 
   -0.12089E+08         0.28595E+06         0.00000E+00
    0.28595E+06        -0.38386E+08         0.00000E+00
    0.00000E+00         0.00000E+00        -0.12889E+08
 
   -0.12153E+08         0.30799E+06         0.00000E+00
    0.30799E+06        -0.38341E+08         0.00000E+00
    0.00000E+00         0.00000E+00        -0.12761E+08
 
   -0.12211E+08         0.33206E+06         0.00000E+00
    0.33206E+06        -0.38289E+08         0.00000E+00
    0.00000E+00         0.00000E+00        -0.12632E+08
 
   -0.12261E+08         0.35727E+06         0.00000E+00
    0.35727E+06        -0.38231E+08         0.00000E+00
    0.00000E+00         0.00000E+00        -0.12504E+08
 
   -0.12301E+08         0.38281E+06         0.00000E+00
    0.38281E+06        -0.38166E+08         0.00000E+00
    0.00000E+00         0.00000E+00        -0.12380E+08
 
   -0.12150E+08         0.31540E+05         0.00000E+00
    0.31540E+05        -0.38795E+08         0.00000E+00
    0.00000E+00         0.00000E+00        -0.13378E+08
 
   -0.12047E+08         0.91860E+05         0.00000E+00
    0.91860E+05        -0.38790E+08         0.00000E+00
    0.00000E+00         0.00000E+00        -0.13488E+08
 
   -0.11981E+08         0.14257E+06         0.00000E+00
    0.14257E+06        -0.38781E+08         0.00000E+00
    0.00000E+00         0.00000E+00        -0.13551E+08
 
   -0.11953E+08         0.18052E+06         0.00000E+00
    0.18052E+06        -0.38772E+08         0.00000E+00
    0.00000E+00         0.00000E+00        -0.13571E+08
 
   -0.11956E+08         0.20781E+06         0.00000E+00
    0.20781E+06        -0.38762E+08         0.00000E+00
    0.00000E+00         0.00000E+00        -0.13556E+08
 
   -0.11980E+08         0.22843E+06         0.00000E+00
    0.22843E+06        -0.38751E+08         0.00000E+00
    0.00000E+00         0.00000E+00        -0.13514E+08
 
   -0.12020E+08         0.24608E+06         0.00000E+00
    0.24608E+06        -0.38737E+08         0.00000E+00
    0.00000E+00         0.00000E+00        -0.13449E+08
 
   -0.12074E+08         0.26357E+06         0.00000E+00
    0.26357E+06        -0.38719E+08         0.00000E+00
    0.00000E+00         0.00000E+00        -0.13364E+08
 
   -0.12134E+08         0.28285E+06         0.00000E+00
    0.28285E+06        -0.38696E+08         0.00000E+00
    0.00000E+00         0.00000E+00        -0.13265E+08
 
   -0.12199E+08         0.30498E+06         0.00000E+00
    0.30498E+06        -0.38667E+08         0.00000E+00
    0.00000E+00         0.00000E+00        -0.13156E+08
 
   -0.12263E+08         0.33018E+06         0.00000E+00
    0.33018E+06        -0.38632E+08         0.00000E+00
    0.00000E+00         0.00000E+00        -0.13040E+08
 
   -0.12324E+08         0.35813E+06         0.00000E+00
    0.35813E+06        -0.38589E+08         0.00000E+00
    0.00000E+00         0.00000E+00        -0.12919E+08
 
   -0.12381E+08         0.38815E+06         0.00000E+00
    0.38815E+06        -0.38540E+08         0.00000E+00
    0.00000E+00         0.00000E+00        -0.12796E+08
 
   -0.12430E+08         0.41947E+06         0.00000E+00
    0.41947E+06        -0.38483E+08         0.00000E+00
    0.00000E+00         0.00000E+00        -0.12672E+08
 
   -0.12470E+08         0.45074E+06         0.00000E+00
    0.45074E+06        -0.38420E+08         0.00000E+00
    0.00000E+00         0.00000E+00        -0.12549E+08
 
   -0.12313E+08         0.35460E+05         0.00000E+00
    0.35460E+05        -0.39026E+08         0.00000E+00
    0.00000E+00         0.00000E+00        -0.13517E+08
 
   -0.12217E+08         0.10120E+06         0.00000E+00
    0.10120E+06        -0.39022E+08         0.00000E+00
    0.00000E+00         0.00000E+00        -0.13620E+08
 
   -0.12165E+08         0.15334E+06         0.00000E+00
    0.15334E+06        -0.39018E+08         0.00000E+00
    0.00000E+00         0.00000E+00        -0.13675E+08
 
   -0.12151E+08         0.19135E+06         0.00000E+00
    0.19135E+06        -0.39015E+08         0.00000E+00
    0.00000E+00         0.00000E+00        -0.13688E+08
 
   -0.12161E+08         0.21966E+06         0.00000E+00
    0.21966E+06        -0.39012E+08         0.00000E+00
    0.00000E+00         0.00000E+00        -0.13674E+08
 
   -0.12189E+08         0.24287E+06         0.00000E+00
    0.24287E+06        -0.39007E+08         0.00000E+00
    0.00000E+00         0.00000E+00        -0.13636E+08
 
   -0.12231E+08         0.26424E+06         0.00000E+00
    0.26424E+06        -0.39000E+08         0.00000E+00
    0.00000E+00         0.00000E+00        -0.13580E+08
 
   -0.12282E+08         0.28642E+06         0.00000E+00
    0.28642E+06        -0.38987E+08         0.00000E+00
    0.00000E+00         0.00000E+00        -0.13506E+08
 
   -0.12340E+08         0.31118E+06         0.00000E+00
    0.31118E+06        -0.38969E+08         0.00000E+00
    0.00000E+00         0.00000E+00        -0.13418E+08
 
   -0.12401E+08         0.33930E+06         0.00000E+00
    0.33930E+06        -0.38945E+08         0.00000E+00
    0.00000E+00         0.00000E+00        -0.13320E+08
 
   -0.12462E+08         0.37085E+06         0.00000E+00
    0.37085E+06        -0.38913E+08         0.00000E+00
    0.00000E+00         0.00000E+00        -0.13213E+08
 
   -0.12521E+08         0.40539E+06         0.00000E+00
    0.40539E+06        -0.38875E+08         0.00000E+00
    0.00000E+00         0.00000E+00        -0.13100E+08
 
   -0.12576E+08         0.44214E+06         0.00000E+00
    0.44214E+06        -0.38828E+08         0.00000E+00
    0.00000E+00         0.00000E+00        -0.12983E+08
 
   -0.12624E+08         0.47991E+06         0.00000E+00
    0.47991E+06        -0.38773E+08         0.00000E+00
    0.00000E+00         0.00000E+00        -0.12864E+08
 
   -0.12665E+08         0.51780E+06         0.00000E+00
    0.51780E+06        -0.38711E+08         0.00000E+00
    0.00000E+00         0.00000E+00        -0.12743E+08
 
   -0.12500E+08         0.38531E+05         0.00000E+00
    0.38531E+05        -0.39287E+08         0.00000E+00
    0.00000E+00         0.00000E+00        -0.13672E+08
 
   -0.12416E+08         0.10664E+06         0.00000E+00
    0.10664E+06        -0.39287E+08         0.00000E+00
    0.00000E+00         0.00000E+00        -0.13767E+08
 
   -0.12382E+08         0.15765E+06         0.00000E+00
    0.15765E+06        -0.39288E+08         0.00000E+00
    0.00000E+00         0.00000E+00        -0.13809E+08
 
   -0.12379E+08         0.19503E+06         0.00000E+00
    0.19503E+06        -0.39292E+08         0.00000E+00
    0.00000E+00         0.00000E+00        -0.13818E+08
 
   -0.12395E+08         0.22471E+06         0.00000E+00
    0.22471E+06        -0.39295E+08         0.00000E+00
    0.00000E+00         0.00000E+00        -0.13806E+08
 
   -0.12426E+08         0.25075E+06         0.00000E+00
    0.25075E+06        -0.39297E+08         0.00000E+00
    0.00000E+00         0.00000E+00        -0.13775E+08
 
   -0.12467E+08         0.27622E+06         0.00000E+00
    0.27622E+06        -0.39295E+08         0.00000E+00
    0.00000E+00         0.00000E+00        -0.13728E+08
 
   -0.12516E+08         0.30358E+06         0.00000E+00
    0.30358E+06        -0.39289E+08         0.00000E+00
    0.00000E+00         0.00000E+00        -0.13665E+08
 
   -0.12571E+08         0.33432E+06         0.00000E+00
    0.33432E+06        -0.39276E+08         0.00000E+00
    0.00000E+00         0.00000E+00        -0.13590E+08
 
   -0.12627E+08         0.36901E+06         0.00000E+00
    0.36901E+06        -0.39257E+08         0.00000E+00
    0.00000E+00         0.00000E+00        -0.13504E+08
 
   -0.12685E+08         0.40759E+06         0.00000E+00
    0.40759E+06        -0.39230E+08         0.00000E+00
    0.00000E+00         0.00000E+00        -0.13408E+08
 
   -0.12741E+08         0.44939E+06         0.00000E+00
    0.44939E+06        -0.39195E+08         0.00000E+00
    0.00000E+00         0.00000E+00        -0.13304E+08
 
   -0.12794E+08         0.49342E+06         0.00000E+00
    0.49342E+06        -0.39151E+08         0.00000E+00
    0.00000E+00         0.00000E+00        -0.13194E+08
 
   -0.12842E+08         0.53858E+06         0.00000E+00
    0.53858E+06        -0.39099E+08         0.00000E+00
    0.00000E+00         0.00000E+00        -0.13079E+08
 
   -0.12883E+08         0.58336E+06         0.00000E+00
    0.58336E+06        -0.39038E+08         0.00000E+00
    0.00000E+00         0.00000E+00        -0.12962E+08
 
   -0.12713E+08         0.39997E+05         0.00000E+00
    0.39997E+05        -0.39580E+08         0.00000E+00
    0.00000E+00         0.00000E+00        -0.13843E+08
 
   -0.12648E+08         0.10677E+06         0.00000E+00
    0.10677E+06        -0.39583E+08         0.00000E+00
    0.00000E+00         0.00000E+00        -0.13920E+08
 
   -0.12630E+08         0.15502E+06         0.00000E+00
    0.15502E+06        -0.39590E+08         0.00000E+00
    0.00000E+00         0.00000E+00        -0.13952E+08
 
   -0.12636E+08         0.19199E+06         0.00000E+00
    0.19199E+06        -0.39600E+08         0.00000E+00
    0.00000E+00         0.00000E+00        -0.13959E+08
 
   -0.12657E+08         0.22307E+06         0.00000E+00
    0.22307E+06        -0.39610E+08         0.00000E+00
    0.00000E+00         0.00000E+00        -0.13951E+08
 
   -0.12689E+08         0.25210E+06         0.00000E+00
    0.25210E+06        -0.39618E+08         0.00000E+00
    0.00000E+00         0.00000E+00        -0.13928E+08
 
   -0.12728E+08         0.28194E+06         0.00000E+00
    0.28194E+06        -0.39622E+08         0.00000E+00
    0.00000E+00         0.00000E+00        -0.13891E+08
 
   -0.12774E+08         0.31478E+06         0.00000E+00
    0.31478E+06        -0.39622E+08         0.00000E+00
    0.00000E+00         0.00000E+00        -0.13842E+08
 
   -0.12824E+08         0.35190E+06         0.00000E+00
    0.35190E+06        -0.39615E+08         0.00000E+00
    0.00000E+00         0.00000E+00        -0.13780E+08
 
   -0.12877E+08         0.39373E+06         0.00000E+00
    0.39373E+06        -0.39601E+08         0.00000E+00
    0.00000E+00         0.00000E+00        -0.13707E+08
 
   -0.12930E+08         0.43989E+06         0.00000E+00
    0.43989E+06        -0.39579E+08         0.00000E+00
    0.00000E+00         0.00000E+00        -0.13623E+08
 
   -0.12983E+08         0.48969E+06         0.00000E+00
    0.48969E+06        -0.39548E+08         0.00000E+00
    0.00000E+00         0.00000E+00        -0.13529E+08
 
   -0.13034E+08         0.54183E+06         0.00000E+00
    0.54183E+06        -0.39507E+08         0.00000E+00
    0.00000E+00         0.00000E+00        -0.13427E+08
 
   -0.13082E+08         0.59493E+06         0.00000E+00
    0.59493E+06        -0.39458E+08         0.00000E+00
    0.00000E+00         0.00000E+00        -0.13318E+08
 
   -0.13124E+08         0.64730E+06         0.00000E+00
    0.64730E+06        -0.39400E+08         0.00000E+00
    0.00000E+00         0.00000E+00        -0.13203E+08
 
   -0.12955E+08         0.38770E+05         0.00000E+00
    0.38770E+05        -0.39902E+08         0.00000E+00
    0.00000E+00         0.00000E+00        -0.14021E+08
 
   -0.12913E+08         0.10107E+06         0.00000E+00
    0.10107E+06        -0.39909E+08         0.00000E+00
    0.00000E+00         0.00000E+00        -0.14078E+08
 
   -0.12908E+08         0.14614E+06         0.00000E+00
    0.14614E+06        -0.39922E+08         0.00000E+00
    0.00000E+00         0.00000E+00        -0.14101E+08
 
   -0.12922E+08         0.18238E+06         0.00000E+00
    0.18238E+06        -0.39937E+08         0.00000E+00
    0.00000E+00         0.00000E+00        -0.14109E+08
 
   -0.12945E+08         0.21485E+06         0.00000E+00
    0.21485E+06        -0.39953E+08         0.00000E+00
    0.00000E+00         0.00000E+00        -0.14106E+08
 
   -0.12977E+08         0.24687E+06         0.00000E+00
    0.24687E+06        -0.39968E+08         0.00000E+00
    0.00000E+00         0.00000E+00        -0.14093E+08
 
   -0.13013E+08         0.28118E+06         0.00000E+00
    0.28118E+06        -0.39978E+08         0.00000E+00
    0.00000E+00         0.00000E+00        -0.14069E+08
 
   -0.13055E+08         0.31973E+06         0.00000E+00
    0.31973E+06        -0.39984E+08         0.00000E+00
    0.00000E+00         0.00000E+00        -0.14034E+08
 
   -0.13099E+08         0.36358E+06         0.00000E+00
    0.36358E+06        -0.39983E+08         0.00000E+00
    0.00000E+00         0.00000E+00        -0.13987E+08
 
   -0.13146E+08         0.41296E+06         0.00000E+00
    0.41296E+06        -0.39975E+08         0.00000E+00
    0.00000E+00         0.00000E+00        -0.13928E+08
 
   -0.13195E+08         0.46745E+06         0.00000E+00
    0.46745E+06        -0.39958E+08         0.00000E+00
    0.00000E+00         0.00000E+00        -0.13857E+08
 
   -0.13245E+08         0.52585E+06         0.00000E+00
    0.52585E+06        -0.39931E+08         0.00000E+00
    0.00000E+00         0.00000E+00        -0.13774E+08
 
   -0.13294E+08         0.58688E+06         0.00000E+00
    0.58688E+06        -0.39895E+08         0.00000E+00
    0.00000E+00         0.00000E+00        -0.13680E+08
 
   -0.13342E+08         0.64858E+06         0.00000E+00
    0.64858E+06        -0.39848E+08         0.00000E+00
    0.00000E+00         0.00000E+00        -0.13577E+08
 
   -0.13386E+08         0.70937E+06         0.00000E+00
    0.70937E+06        -0.39793E+08         0.00000E+00
    0.00000E+00         0.00000E+00        -0.13465E+08
 
   -0.13231E+08         0.34468E+05         0.00000E+00
    0.34468E+05        -0.40252E+08         0.00000E+00
    0.00000E+00         0.00000E+00        -0.14202E+08
 
   -0.13211E+08         0.89916E+05         0.00000E+00
    0.89916E+05        -0.40263E+08         0.00000E+00
    0.00000E+00         0.00000E+00        -0.14238E+08
 
   -0.13217E+08         0.13143E+06         0.00000E+00
    0.13143E+06        -0.40280E+08         0.00000E+00
    0.00000E+00         0.00000E+00        -0.14256E+08
 
   -0.13235E+08         0.16661E+06         0.00000E+00
    0.16661E+06        -0.40302E+08         0.00000E+00
    0.00000E+00         0.00000E+00        -0.14267E+08
 
   -0.13260E+08         0.20001E+06         0.00000E+00
    0.20001E+06        -0.40324E+08         0.00000E+00
    0.00000E+00         0.00000E+00        -0.14271E+08
 
   -0.13289E+08         0.23494E+06         0.00000E+00
    0.23494E+06        -0.40344E+08         0.00000E+00
    0.00000E+00         0.00000E+00        -0.14269E+08
 
   -0.13321E+08         0.27376E+06         0.00000E+00
    0.27376E+06        -0.40361E+08         0.00000E+00
    0.00000E+00         0.00000E+00        -0.14259E+08
 
   -0.13357E+08         0.31815E+06         0.00000E+00
    0.31815E+06        -0.40373E+08         0.00000E+00
    0.00000E+00         0.00000E+00        -0.14240E+08
 
   -0.13395E+08         0.36903E+06         0.00000E+00
    0.36903E+06        -0.40378E+08         0.00000E+00
    0.00000E+00         0.00000E+00        -0.14209E+08
 
   -0.13436E+08         0.42641E+06         0.00000E+00
    0.42641E+06        -0.40376E+08         0.00000E+00
    0.00000E+00         0.00000E+00        -0.14165E+08
 
   -0.13480E+08         0.48966E+06         0.00000E+00
    0.48966E+06        -0.40364E+08         0.00000E+00
    0.00000E+00         0.00000E+00        -0.14109E+08
 
   -0.13526E+08         0.55748E+06         0.00000E+00
    0.55748E+06        -0.40343E+08         0.00000E+00
    0.00000E+00         0.00000E+00        -0.14037E+08
 
   -0.13573E+08         0.62804E+06         0.00000E+00
    0.62804E+06        -0.40311E+08         0.00000E+00
    0.00000E+00         0.00000E+00        -0.13953E+08
 
   -0.13621E+08         0.69924E+06         0.00000E+00
    0.69924E+06        -0.40268E+08         0.00000E+00
    0.00000E+00         0.00000E+00        -0.13855E+08
 
   -0.13667E+08         0.76887E+06         0.00000E+00
    0.76887E+06        -0.40215E+08         0.00000E+00
    0.00000E+00         0.00000E+00        -0.13747E+08
 
   -0.13544E+08         0.27677E+05         0.00000E+00
    0.27677E+05        -0.40628E+08         0.00000E+00
    0.00000E+00         0.00000E+00        -0.14377E+08
 
   -0.13542E+08         0.74319E+05         0.00000E+00
    0.74319E+05        -0.40642E+08         0.00000E+00
    0.00000E+00         0.00000E+00        -0.14398E+08
 
   -0.13556E+08         0.11115E+06         0.00000E+00
    0.11115E+06        -0.40664E+08         0.00000E+00
    0.00000E+00         0.00000E+00        -0.14414E+08
 
   -0.13576E+08         0.14458E+06         0.00000E+00
    0.14458E+06        -0.40690E+08         0.00000E+00
    0.00000E+00         0.00000E+00        -0.14430E+08
 
   -0.13599E+08         0.17865E+06         0.00000E+00
    0.17865E+06        -0.40718E+08         0.00000E+00
    0.00000E+00         0.00000E+00        -0.14444E+08
 
   -0.13624E+08         0.21626E+06         0.00000E+00
    0.21626E+06        -0.40745E+08         0.00000E+00
    0.00000E+00         0.00000E+00        -0.14455E+08
 
   -0.13650E+08         0.25957E+06         0.00000E+00
    0.25957E+06        -0.40768E+08         0.00000E+00
    0.00000E+00         0.00000E+00        -0.14460E+08
 
   -0.13679E+08         0.30993E+06         0.00000E+00
    0.30993E+06        -0.40787E+08         0.00000E+00
    0.00000E+00         0.00000E+00        -0.14457E+08
 
   -0.13710E+08         0.36799E+06         0.00000E+00
    0.36799E+06        -0.40798E+08         0.00000E+00
    0.00000E+00         0.00000E+00        -0.14443E+08
 
   -0.13744E+08         0.43374E+06         0.00000E+00
    0.43374E+06        -0.40801E+08         0.00000E+00
    0.00000E+00         0.00000E+00        -0.14417E+08
 
   -0.13781E+08         0.50615E+06         0.00000E+00
    0.50615E+06        -0.40796E+08         0.00000E+00
    0.00000E+00         0.00000E+00        -0.14375E+08
 
   -0.13823E+08         0.58391E+06         0.00000E+00
    0.58391E+06        -0.40779E+08         0.00000E+00
    0.00000E+00         0.00000E+00        -0.14317E+08
 
   -0.13869E+08         0.66473E+06         0.00000E+00
    0.66473E+06        -0.40752E+08         0.00000E+00
    0.00000E+00         0.00000E+00        -0.14242E+08
 
   -0.13917E+08         0.74617E+06         0.00000E+00
    0.74617E+06        -0.40714E+08         0.00000E+00
    0.00000E+00         0.00000E+00        -0.14152E+08
 
   -0.13966E+08         0.82536E+06         0.00000E+00
    0.82536E+06        -0.40665E+08         0.00000E+00
    0.00000E+00         0.00000E+00        -0.14048E+08
 
   -0.13897E+08         0.19509E+05         0.00000E+00
    0.19509E+05        -0.41029E+08         0.00000E+00
    0.00000E+00         0.00000E+00        -0.14546E+08
 
   -0.13906E+08         0.55076E+05         0.00000E+00
    0.55076E+05        -0.41045E+08         0.00000E+00
    0.00000E+00         0.00000E+00        -0.14558E+08
 
   -0.13923E+08         0.85758E+05         0.00000E+00
    0.85758E+05        -0.41071E+08         0.00000E+00
    0.00000E+00         0.00000E+00        -0.14575E+08
 
   -0.13943E+08         0.11661E+06         0.00000E+00
    0.11661E+06        -0.41102E+08         0.00000E+00
    0.00000E+00         0.00000E+00        -0.14597E+08
 
   -0.13962E+08         0.15095E+06         0.00000E+00
    0.15095E+06        -0.41136E+08         0.00000E+00
    0.00000E+00         0.00000E+00        -0.14623E+08
 
   -0.13981E+08         0.19110E+06         0.00000E+00
    0.19110E+06        -0.41168E+08         0.00000E+00
    0.00000E+00         0.00000E+00        -0.14648E+08
 
   -0.14000E+08         0.23874E+06         0.00000E+00
    0.23874E+06        -0.41197E+08         0.00000E+00
    0.00000E+00         0.00000E+00        -0.14669E+08
 
   -0.14019E+08         0.29502E+06         0.00000E+00
    0.29502E+06        -0.41221E+08         0.00000E+00
    0.00000E+00         0.00000E+00        -0.14684E+08
 
   -0.14042E+08         0.36039E+06         0.00000E+00
    0.36039E+06        -0.41239E+08         0.00000E+00
    0.00000E+00         0.00000E+00        -0.14688E+08
 
   -0.14067E+08         0.43450E+06         0.00000E+00
    0.43450E+06        -0.41248E+08         0.00000E+00
    0.00000E+00         0.00000E+00        -0.14679E+08
 
   -0.14098E+08         0.51653E+06         0.00000E+00
    0.51653E+06        -0.41249E+08         0.00000E+00
    0.00000E+00         0.00000E+00        -0.14654E+08
 
   -0.14135E+08         0.60457E+06         0.00000E+00
    0.60457E+06        -0.41239E+08         0.00000E+00
    0.00000E+00         0.00000E+00        -0.14610E+08
 
   -0.14179E+08         0.69625E+06         0.00000E+00
    0.69625E+06        -0.41217E+08         0.00000E+00
    0.00000E+00         0.00000E+00        -0.14547E+08
 
   -0.14227E+08         0.78854E+06         0.00000E+00
    0.78854E+06        -0.41184E+08         0.00000E+00
    0.00000E+00         0.00000E+00        -0.14465E+08
 
   -0.14281E+08         0.87791E+06         0.00000E+00
    0.87791E+06        -0.41140E+08         0.00000E+00
    0.00000E+00         0.00000E+00        -0.14365E+08
 
   -0.14290E+08         0.10567E+05         0.00000E+00
    0.10567E+05        -0.41455E+08         0.00000E+00
    0.00000E+00         0.00000E+00        -0.14708E+08
 
   -0.14304E+08         0.33158E+05         0.00000E+00
    0.33158E+05        -0.41472E+08         0.00000E+00
    0.00000E+00         0.00000E+00        -0.14716E+08
 
   -0.14321E+08         0.56159E+05         0.00000E+00
    0.56159E+05        -0.41501E+08         0.00000E+00
    0.00000E+00         0.00000E+00        -0.14737E+08
 
   -0.14336E+08         0.83568E+05         0.00000E+00
    0.83568E+05        -0.41536E+08         0.00000E+00
    0.00000E+00         0.00000E+00        -0.14769E+08
 
   -0.14348E+08         0.11757E+06         0.00000E+00
    0.11757E+06        -0.41573E+08         0.00000E+00
    0.00000E+00         0.00000E+00        -0.14807E+08
 
   -0.14359E+08         0.15985E+06         0.00000E+00
    0.15985E+06        -0.41610E+08         0.00000E+00
    0.00000E+00         0.00000E+00        -0.14847E+08
 
   -0.14368E+08         0.21160E+06         0.00000E+00
    0.21160E+06        -0.41645E+08         0.00000E+00
    0.00000E+00         0.00000E+00        -0.14885E+08
 
   -0.14378E+08         0.27360E+06         0.00000E+00
    0.27360E+06        -0.41675E+08         0.00000E+00
    0.00000E+00         0.00000E+00        -0.14918E+08
 
   -0.14390E+08         0.34608E+06         0.00000E+00
    0.34608E+06        -0.41698E+08         0.00000E+00
    0.00000E+00         0.00000E+00        -0.14941E+08
 
   -0.14406E+08         0.42869E+06         0.00000E+00
    0.42869E+06        -0.41714E+08         0.00000E+00
    0.00000E+00         0.00000E+00        -0.14950E+08
 
   -0.14429E+08         0.52026E+06         0.00000E+00
    0.52026E+06        -0.41721E+08         0.00000E+00
    0.00000E+00         0.00000E+00        -0.14943E+08
 
   -0.14461E+08         0.61885E+06         0.00000E+00
    0.61885E+06        -0.41717E+08         0.00000E+00
    0.00000E+00         0.00000E+00        -0.14915E+08
 
   -0.14501E+08         0.72172E+06         0.00000E+00
    0.72172E+06        -0.41702E+08         0.00000E+00
    0.00000E+00         0.00000E+00        -0.14865E+08
 
   -0.14551E+08         0.82539E+06         0.00000E+00
    0.82539E+06        -0.41675E+08         0.00000E+00
    0.00000E+00         0.00000E+00        -0.14792E+08
 
   -0.14610E+08         0.92553E+06         0.00000E+00
    0.92553E+06        -0.41636E+08         0.00000E+00
    0.00000E+00         0.00000E+00        -0.14696E+08
 
   -0.14723E+08         0.11024E+04         0.00000E+00
    0.11024E+04        -0.41904E+08         0.00000E+00
    0.00000E+00         0.00000E+00        -0.14862E+08
 
   -0.14736E+08         0.94920E+04         0.00000E+00
    0.94920E+04        -0.41922E+08         0.00000E+00
    0.00000E+00         0.00000E+00        -0.14872E+08
 
   -0.14747E+08         0.23789E+05         0.00000E+00
    0.23789E+05        -0.41951E+08         0.00000E+00
    0.00000E+00         0.00000E+00        -0.14900E+08
 
   -0.14754E+08         0.46628E+05         0.00000E+00
    0.46628E+05        -0.41989E+08         0.00000E+00
    0.00000E+00         0.00000E+00        -0.14943E+08
 
   -0.14757E+08         0.79505E+05         0.00000E+00
    0.79505E+05        -0.42029E+08         0.00000E+00
    0.00000E+00         0.00000E+00        -0.14994E+08
 
   -0.14757E+08         0.12323E+06         0.00000E+00
    0.12323E+06        -0.42071E+08         0.00000E+00
    0.00000E+00         0.00000E+00        -0.15050E+08
 
   -0.14755E+08         0.17863E+06         0.00000E+00
    0.17863E+06        -0.42109E+08         0.00000E+00
    0.00000E+00         0.00000E+00        -0.15105E+08
 
   -0.14753E+08         0.24599E+06         0.00000E+00
    0.24599E+06        -0.42144E+08         0.00000E+00
    0.00000E+00         0.00000E+00        -0.15157E+08
 
   -0.14753E+08         0.32531E+06         0.00000E+00
    0.32531E+06        -0.42173E+08         0.00000E+00
    0.00000E+00         0.00000E+00        -0.15199E+08
 
   -0.14759E+08         0.41610E+06         0.00000E+00
    0.41610E+06        -0.42195E+08         0.00000E+00
    0.00000E+00         0.00000E+00        -0.15228E+08
 
   -0.14773E+08         0.51707E+06         0.00000E+00
    0.51707E+06        -0.42208E+08         0.00000E+00
    0.00000E+00         0.00000E+00        -0.15238E+08
 
   -0.14798E+08         0.62612E+06         0.00000E+00
    0.62612E+06        -0.42211E+08         0.00000E+00
    0.00000E+00         0.00000E+00        -0.15228E+08
 
   -0.14835E+08         0.74025E+06         0.00000E+00
    0.74025E+06        -0.42203E+08         0.00000E+00
    0.00000E+00         0.00000E+00        -0.15192E+08
 
   -0.14886E+08         0.85560E+06         0.00000E+00
    0.85560E+06        -0.42183E+08         0.00000E+00
    0.00000E+00         0.00000E+00        -0.15129E+08
 
   -0.14951E+08         0.96789E+06         0.00000E+00
    0.96789E+06        -0.42151E+08         0.00000E+00
    0.00000E+00         0.00000E+00        -0.15039E+08
 
   -0.15195E+08        -0.86180E+04         0.00000E+00
   -0.86180E+04        -0.42374E+08         0.00000E+00
    0.00000E+00         0.00000E+00        -0.15009E+08
 
   -0.15201E+08        -0.14936E+05         0.00000E+00
   -0.14936E+05        -0.42392E+08         0.00000E+00
    0.00000E+00         0.00000E+00        -0.15026E+08
 
   -0.15202E+08        -0.10159E+05         0.00000E+00
   -0.10159E+05        -0.42422E+08         0.00000E+00
    0.00000E+00         0.00000E+00        -0.15065E+08
 
   -0.15197E+08         0.71836E+04         0.00000E+00
    0.71836E+04        -0.42460E+08         0.00000E+00
    0.00000E+00         0.00000E+00        -0.15119E+08
 
   -0.15188E+08         0.37925E+05         0.00000E+00
    0.37925E+05        -0.42503E+08         0.00000E+00
    0.00000E+00         0.00000E+00        -0.15185E+08
 
   -0.15174E+08         0.82356E+05         0.00000E+00
    0.82356E+05        -0.42547E+08         0.00000E+00
    0.00000E+00         0.00000E+00        -0.15256E+08
 
   -0.15159E+08         0.14070E+06         0.00000E+00
    0.14070E+06        -0.42589E+08         0.00000E+00
    0.00000E+00         0.00000E+00        -0.15329E+08
 
   -0.15143E+08         0.21277E+06         0.00000E+00
    0.21277E+06        -0.42628E+08         0.00000E+00
    0.00000E+00         0.00000E+00        -0.15399E+08
 
   -0.15130E+08         0.29845E+06         0.00000E+00
    0.29845E+06        -0.42661E+08         0.00000E+00
    0.00000E+00         0.00000E+00        -0.15460E+08
 
   -0.15124E+08         0.39689E+06         0.00000E+00
    0.39689E+06        -0.42688E+08         0.00000E+00
    0.00000E+00         0.00000E+00        -0.15508E+08
 
   -0.15128E+08         0.50672E+06         0.00000E+00
    0.50672E+06        -0.42708E+08         0.00000E+00
    0.00000E+00         0.00000E+00        -0.15539E+08
 
   -0.15146E+08         0.62583E+06         0.00000E+00
    0.62583E+06        -0.42718E+08         0.00000E+00
    0.00000E+00         0.00000E+00        -0.15546E+08
 
   -0.15179E+08         0.75112E+06         0.00000E+00
    0.75112E+06        -0.42717E+08         0.00000E+00
    0.00000E+00         0.00000E+00        -0.15526E+08
 
   -0.15231E+08         0.87845E+06         0.00000E+00
    0.87845E+06        -0.42705E+08         0.00000E+00
    0.00000E+00         0.00000E+00        -0.15475E+08
 
   -0.15300E+08         0.10031E+07         0.00000E+00
    0.10031E+07        -0.42681E+08         0.00000E+00
    0.00000E+00         0.00000E+00        -0.15391E+08
 
   -0.15706E+08        -0.18185E+05         0.00000E+00
   -0.18185E+05        -0.42865E+08         0.00000E+00
    0.00000E+00         0.00000E+00        -0.15149E+08
 
   -0.15699E+08        -0.39329E+05         0.00000E+00
   -0.39329E+05        -0.42882E+08         0.00000E+00
    0.00000E+00         0.00000E+00        -0.15178E+08
 
   -0.15685E+08        -0.44719E+05         0.00000E+00
   -0.44719E+05        -0.42912E+08         0.00000E+00
    0.00000E+00         0.00000E+00        -0.15230E+08
 
   -0.15665E+08        -0.33558E+05         0.00000E+00
   -0.33558E+05        -0.42950E+08         0.00000E+00
    0.00000E+00         0.00000E+00        -0.15298E+08
 
   -0.15640E+08        -0.57305E+04         0.00000E+00
   -0.57305E+04        -0.42993E+08         0.00000E+00
    0.00000E+00         0.00000E+00        -0.15379E+08
 
   -0.15610E+08         0.38644E+05         0.00000E+00
    0.38644E+05        -0.43037E+08         0.00000E+00
    0.00000E+00         0.00000E+00        -0.15466E+08
 
   -0.15579E+08         0.99097E+05         0.00000E+00
    0.99097E+05        -0.43081E+08         0.00000E+00
    0.00000E+00         0.00000E+00        -0.15555E+08
 
   -0.15548E+08         0.17522E+06         0.00000E+00
    0.17522E+06        -0.43122E+08         0.00000E+00
    0.00000E+00         0.00000E+00        -0.15642E+08
 
   -0.15521E+08         0.26625E+06         0.00000E+00
    0.26625E+06        -0.43159E+08         0.00000E+00
    0.00000E+00         0.00000E+00        -0.15722E+08
 
   -0.15502E+08         0.37133E+06         0.00000E+00
    0.37133E+06        -0.43191E+08         0.00000E+00
    0.00000E+00         0.00000E+00        -0.15790E+08
 
   -0.15494E+08         0.48914E+06         0.00000E+00
    0.48914E+06        -0.43216E+08         0.00000E+00
    0.00000E+00         0.00000E+00        -0.15839E+08
 
   -0.15503E+08         0.61758E+06         0.00000E+00
    0.61758E+06        -0.43234E+08         0.00000E+00
    0.00000E+00         0.00000E+00        -0.15866E+08
 
   -0.15531E+08         0.75364E+06         0.00000E+00
    0.75364E+06        -0.43242E+08         0.00000E+00
    0.00000E+00         0.00000E+00        -0.15863E+08
 
   -0.15582E+08         0.89311E+06         0.00000E+00
    0.89311E+06        -0.43238E+08         0.00000E+00
    0.00000E+00         0.00000E+00        -0.15826E+08
 
   -0.15658E+08         0.10299E+07         0.00000E+00
    0.10299E+07        -0.43222E+08         0.00000E+00
    0.00000E+00         0.00000E+00        -0.15751E+08
 
   -0.16253E+08        -0.27353E+05         0.00000E+00
   -0.27353E+05        -0.43375E+08         0.00000E+00
    0.00000E+00         0.00000E+00        -0.15286E+08
 
   -0.16228E+08        -0.63212E+05         0.00000E+00
   -0.63212E+05        -0.43391E+08         0.00000E+00
    0.00000E+00         0.00000E+00        -0.15329E+08
 
   -0.16196E+08        -0.78880E+05         0.00000E+00
   -0.78880E+05        -0.43419E+08         0.00000E+00
    0.00000E+00         0.00000E+00        -0.15396E+08
 
   -0.16156E+08        -0.74360E+05         0.00000E+00
   -0.74360E+05        -0.43456E+08         0.00000E+00
    0.00000E+00         0.00000E+00        -0.15480E+08
 
   -0.16112E+08        -0.49925E+05         0.00000E+00
   -0.49925E+05        -0.43498E+08         0.00000E+00
    0.00000E+00         0.00000E+00        -0.15576E+08
 
   -0.16064E+08        -0.62367E+04         0.00000E+00
   -0.62367E+04        -0.43542E+08         0.00000E+00
    0.00000E+00         0.00000E+00        -0.15678E+08
 
   -0.16015E+08         0.55640E+05         0.00000E+00
    0.55640E+05        -0.43585E+08         0.00000E+00
    0.00000E+00         0.00000E+00        -0.15782E+08
 
   -0.15968E+08         0.13478E+06         0.00000E+00
    0.13478E+06        -0.43627E+08         0.00000E+00
    0.00000E+00         0.00000E+00        -0.15885E+08
 
   -0.15925E+08         0.22995E+06         0.00000E+00
    0.22995E+06        -0.43666E+08         0.00000E+00
    0.00000E+00         0.00000E+00        -0.15982E+08
 
   -0.15890E+08         0.34027E+06         0.00000E+00
    0.34027E+06        -0.43701E+08         0.00000E+00
    0.00000E+00         0.00000E+00        -0.16068E+08
 
   -0.15870E+08         0.46451E+06         0.00000E+00
    0.46451E+06        -0.43731E+08         0.00000E+00
    0.00000E+00         0.00000E+00        -0.16137E+08
 
   -0.15868E+08         0.60095E+06         0.00000E+00
    0.60095E+06        -0.43755E+08         0.00000E+00
    0.00000E+00         0.00000E+00        -0.16184E+08
 
   -0.15890E+08         0.74688E+06         0.00000E+00
    0.74688E+06        -0.43772E+08         0.00000E+00
    0.00000E+00         0.00000E+00        -0.16201E+08
 
   -0.15940E+08         0.89813E+06         0.00000E+00
    0.89813E+06        -0.43779E+08         0.00000E+00
    0.00000E+00         0.00000E+00        -0.16179E+08
 
   -0.16021E+08         0.10479E+07         0.00000E+00
    0.10479E+07        -0.43773E+08         0.00000E+00
    0.00000E+00         0.00000E+00        -0.16115E+08
 
   -0.16834E+08        -0.36083E+05         0.00000E+00
   -0.36083E+05        -0.43901E+08         0.00000E+00
    0.00000E+00         0.00000E+00        -0.15420E+08
 
   -0.16787E+08        -0.86083E+05         0.00000E+00
   -0.86083E+05        -0.43916E+08         0.00000E+00
    0.00000E+00         0.00000E+00        -0.15481E+08
 
   -0.16732E+08        -0.11190E+06         0.00000E+00
   -0.11190E+06        -0.43943E+08         0.00000E+00
    0.00000E+00         0.00000E+00        -0.15565E+08
 
   -0.16670E+08        -0.11394E+06         0.00000E+00
   -0.11394E+06        -0.43977E+08         0.00000E+00
    0.00000E+00         0.00000E+00        -0.15665E+08
 
   -0.16603E+08        -0.93032E+05         0.00000E+00
   -0.93032E+05        -0.44017E+08         0.00000E+00
    0.00000E+00         0.00000E+00        -0.15775E+08
 
   -0.16535E+08        -0.50416E+05         0.00000E+00
   -0.50416E+05        -0.44058E+08         0.00000E+00
    0.00000E+00         0.00000E+00        -0.15892E+08
 
   -0.16467E+08         0.12265E+05         0.00000E+00
    0.12265E+05        -0.44099E+08         0.00000E+00
    0.00000E+00         0.00000E+00        -0.16010E+08
 
   -0.16401E+08         0.93369E+05         0.00000E+00
    0.93369E+05        -0.44139E+08         0.00000E+00
    0.00000E+00         0.00000E+00        -0.16127E+08
 
   -0.16341E+08         0.19135E+06         0.00000E+00
    0.19135E+06        -0.44178E+08         0.00000E+00
    0.00000E+00         0.00000E+00        -0.16238E+08
 
   -0.16292E+08         0.30497E+06         0.00000E+00
    0.30497E+06        -0.44214E+08         0.00000E+00
    0.00000E+00         0.00000E+00        -0.16340E+08
 
   -0.16257E+08         0.43344E+06         0.00000E+00
    0.43344E+06        -0.44249E+08         0.00000E+00
    0.00000E+00         0.00000E+00        -0.16428E+08
 
   -0.16243E+08         0.57582E+06         0.00000E+00
    0.57582E+06        -0.44280E+08         0.00000E+00
    0.00000E+00         0.00000E+00        -0.16496E+08
 
   -0.16256E+08         0.72995E+06         0.00000E+00
    0.72995E+06        -0.44306E+08         0.00000E+00
    0.00000E+00         0.00000E+00        -0.16534E+08
 
   -0.16302E+08         0.89189E+06         0.00000E+00
    0.89189E+06        -0.44323E+08         0.00000E+00
    0.00000E+00         0.00000E+00        -0.16532E+08
 
   -0.16387E+08         0.10552E+07         0.00000E+00
    0.10552E+07        -0.44329E+08         0.00000E+00
    0.00000E+00         0.00000E+00        -0.16480E+08
 
   -0.17447E+08        -0.44328E+05         0.00000E+00
   -0.44328E+05        -0.44443E+08         0.00000E+00
    0.00000E+00         0.00000E+00        -0.15553E+08
 
   -0.17373E+08        -0.10768E+06         0.00000E+00
   -0.10768E+06        -0.44457E+08         0.00000E+00
    0.00000E+00         0.00000E+00        -0.15634E+08
 
   -0.17291E+08        -0.14295E+06         0.00000E+00
   -0.14295E+06        -0.44482E+08         0.00000E+00
    0.00000E+00         0.00000E+00        -0.15736E+08
 
   -0.17203E+08        -0.15108E+06         0.00000E+00
   -0.15108E+06        -0.44513E+08         0.00000E+00
    0.00000E+00         0.00000E+00        -0.15853E+08
 
   -0.17113E+08        -0.13345E+06         0.00000E+00
   -0.13345E+06        -0.44548E+08         0.00000E+00
    0.00000E+00         0.00000E+00        -0.15978E+08
 
   -0.17022E+08        -0.91935E+05         0.00000E+00
   -0.91935E+05        -0.44584E+08         0.00000E+00
    0.00000E+00         0.00000E+00        -0.16107E+08
 
   -0.16932E+08        -0.28890E+05         0.00000E+00
   -0.28890E+05        -0.44621E+08         0.00000E+00
    0.00000E+00         0.00000E+00        -0.16237E+08
 
   -0.16848E+08         0.53247E+05         0.00000E+00
    0.53247E+05        -0.44658E+08         0.00000E+00
    0.00000E+00         0.00000E+00        -0.16365E+08
 
   -0.16771E+08         0.15242E+06         0.00000E+00
    0.15242E+06        -0.44694E+08         0.00000E+00
    0.00000E+00         0.00000E+00        -0.16488E+08
 
   -0.16705E+08         0.26718E+06         0.00000E+00
    0.26718E+06        -0.44730E+08         0.00000E+00
    0.00000E+00         0.00000E+00        -0.16603E+08
 
   -0.16655E+08         0.39717E+06         0.00000E+00
    0.39717E+06        -0.44767E+08         0.00000E+00
    0.00000E+00         0.00000E+00        -0.16708E+08
 
   -0.16627E+08         0.54230E+06         0.00000E+00
    0.54230E+06        -0.44803E+08         0.00000E+00
    0.00000E+00         0.00000E+00        -0.16797E+08
 
   -0.16628E+08         0.70207E+06         0.00000E+00
    0.70207E+06        -0.44838E+08         0.00000E+00
    0.00000E+00         0.00000E+00        -0.16858E+08
 
   -0.16669E+08         0.87339E+06         0.00000E+00
    0.87339E+06        -0.44868E+08         0.00000E+00
    0.00000E+00         0.00000E+00        -0.16879E+08
 
   -0.16756E+08         0.10496E+07         0.00000E+00
    0.10496E+07        -0.44888E+08         0.00000E+00
    0.00000E+00         0.00000E+00        -0.16845E+08
 
   -0.18088E+08        -0.52074E+05         0.00000E+00
   -0.52074E+05        -0.44999E+08         0.00000E+00
    0.00000E+00         0.00000E+00        -0.15688E+08
 
   -0.17983E+08        -0.12776E+06         0.00000E+00
   -0.12776E+06        -0.45012E+08         0.00000E+00
    0.00000E+00         0.00000E+00        -0.15790E+08
 
   -0.17871E+08        -0.17141E+06         0.00000E+00
   -0.17141E+06        -0.45033E+08         0.00000E+00
    0.00000E+00         0.00000E+00        -0.15912E+08
 
   -0.17755E+08        -0.18459E+06         0.00000E+00
   -0.18459E+06        -0.45060E+08         0.00000E+00
    0.00000E+00         0.00000E+00        -0.16045E+08
 
   -0.17638E+08        -0.16944E+06         0.00000E+00
   -0.16944E+06        -0.45090E+08         0.00000E+00
    0.00000E+00         0.00000E+00        -0.16184E+08
 
   -0.17522E+08        -0.12873E+06         0.00000E+00
   -0.12873E+06        -0.45120E+08         0.00000E+00
    0.00000E+00         0.00000E+00        -0.16324E+08
 
   -0.17412E+08        -0.65618E+05         0.00000E+00
   -0.65618E+05        -0.45150E+08         0.00000E+00
    0.00000E+00         0.00000E+00        -0.16463E+08
 
   -0.17308E+08         0.16595E+05         0.00000E+00
    0.16595E+05        -0.45181E+08         0.00000E+00
    0.00000E+00         0.00000E+00        -0.16598E+08
 
   -0.17214E+08         0.11527E+06         0.00000E+00
    0.11527E+06        -0.45213E+08         0.00000E+00
    0.00000E+00         0.00000E+00        -0.16729E+08
 
   -0.17133E+08         0.22887E+06         0.00000E+00
    0.22887E+06        -0.45246E+08         0.00000E+00
    0.00000E+00         0.00000E+00        -0.16855E+08
 
   -0.17067E+08         0.35715E+06         0.00000E+00
    0.35715E+06        -0.45283E+08         0.00000E+00
    0.00000E+00         0.00000E+00        -0.16974E+08
 
   -0.17022E+08         0.50135E+06         0.00000E+00
    0.50135E+06        -0.45324E+08         0.00000E+00
    0.00000E+00         0.00000E+00        -0.17083E+08
 
   -0.17008E+08         0.66294E+06         0.00000E+00
    0.66294E+06        -0.45367E+08         0.00000E+00
    0.00000E+00         0.00000E+00        -0.17169E+08
 
   -0.17038E+08         0.84100E+06         0.00000E+00
    0.84100E+06        -0.45410E+08         0.00000E+00
    0.00000E+00         0.00000E+00        -0.17217E+08
 
   -0.17124E+08         0.10296E+07         0.00000E+00
    0.10296E+07        -0.45445E+08         0.00000E+00
    0.00000E+00         0.00000E+00        -0.17206E+08
 
   -0.18755E+08        -0.59400E+05         0.00000E+00
   -0.59400E+05        -0.45567E+08         0.00000E+00
    0.00000E+00         0.00000E+00        -0.15825E+08
 
   -0.18615E+08        -0.14611E+06         0.00000E+00
   -0.14611E+06        -0.45578E+08         0.00000E+00
    0.00000E+00         0.00000E+00        -0.15950E+08
 
   -0.18470E+08        -0.19651E+06         0.00000E+00
   -0.19651E+06        -0.45597E+08         0.00000E+00
    0.00000E+00         0.00000E+00        -0.16092E+08
 
   -0.18322E+08        -0.21310E+06         0.00000E+00
   -0.21310E+06        -0.45618E+08         0.00000E+00
    0.00000E+00         0.00000E+00        -0.16241E+08
 
   -0.18176E+08        -0.19910E+06         0.00000E+00
   -0.19910E+06        -0.45640E+08         0.00000E+00
    0.00000E+00         0.00000E+00        -0.16392E+08
 
   -0.18035E+08        -0.15852E+06         0.00000E+00
   -0.15852E+06        -0.45662E+08         0.00000E+00
    0.00000E+00         0.00000E+00        -0.16541E+08
 
   -0.17903E+08        -0.95711E+05         0.00000E+00
   -0.95711E+05        -0.45683E+08         0.00000E+00
    0.00000E+00         0.00000E+00        -0.16684E+08
 
   -0.17782E+08        -0.14633E+05         0.00000E+00
   -0.14633E+05        -0.45706E+08         0.00000E+00
    0.00000E+00         0.00000E+00        -0.16824E+08
 
   -0.17672E+08         0.81685E+05         0.00000E+00
    0.81685E+05        -0.45732E+08         0.00000E+00
    0.00000E+00         0.00000E+00        -0.16959E+08
 
   -0.17575E+08         0.19166E+06         0.00000E+00
    0.19166E+06        -0.45762E+08         0.00000E+00
    0.00000E+00         0.00000E+00        -0.17093E+08
 
   -0.17494E+08         0.31535E+06         0.00000E+00
    0.31535E+06        -0.45798E+08         0.00000E+00
    0.00000E+00         0.00000E+00        -0.17224E+08
 
   -0.17431E+08         0.45472E+06         0.00000E+00
    0.45472E+06        -0.45841E+08         0.00000E+00
    0.00000E+00         0.00000E+00        -0.17350E+08
 
   -0.17398E+08         0.61312E+06         0.00000E+00
    0.61312E+06        -0.45891E+08         0.00000E+00
    0.00000E+00         0.00000E+00        -0.17463E+08
 
   -0.17411E+08         0.79338E+06         0.00000E+00
    0.79338E+06        -0.45946E+08         0.00000E+00
    0.00000E+00         0.00000E+00        -0.17543E+08
 
   -0.17491E+08         0.99212E+06         0.00000E+00
    0.99212E+06        -0.45998E+08         0.00000E+00
    0.00000E+00         0.00000E+00        -0.17559E+08
 
   -0.19445E+08        -0.66322E+05         0.00000E+00
   -0.66322E+05        -0.46145E+08         0.00000E+00
    0.00000E+00         0.00000E+00        -0.15965E+08
 
   -0.19265E+08        -0.16254E+06         0.00000E+00
   -0.16254E+06        -0.46155E+08         0.00000E+00
    0.00000E+00         0.00000E+00        -0.16116E+08
 
   -0.19082E+08        -0.21752E+06         0.00000E+00
   -0.21752E+06        -0.46169E+08         0.00000E+00
    0.00000E+00         0.00000E+00        -0.16278E+08
 
   -0.18900E+08        -0.23502E+06         0.00000E+00
   -0.23502E+06        -0.46184E+08         0.00000E+00
    0.00000E+00         0.00000E+00        -0.16443E+08
 
   -0.18724E+08        -0.22019E+06         0.00000E+00
   -0.22019E+06        -0.46197E+08         0.00000E+00
    0.00000E+00         0.00000E+00        -0.16603E+08
 
   -0.18559E+08        -0.17891E+06         0.00000E+00
   -0.17891E+06        -0.46207E+08         0.00000E+00
    0.00000E+00         0.00000E+00        -0.16756E+08
 
   -0.18406E+08        -0.11689E+06         0.00000E+00
   -0.11689E+06        -0.46218E+08         0.00000E+00
    0.00000E+00         0.00000E+00        -0.16900E+08
 
   -0.18269E+08        -0.38689E+05         0.00000E+00
   -0.38689E+05        -0.46231E+08         0.00000E+00
    0.00000E+00         0.00000E+00        -0.17039E+08
 
   -0.18145E+08         0.52849E+05         0.00000E+00
    0.52849E+05        -0.46250E+08         0.00000E+00
    0.00000E+00         0.00000E+00        -0.17176E+08
 
   -0.18035E+08         0.15659E+06         0.00000E+00
    0.15659E+06        -0.46276E+08         0.00000E+00
    0.00000E+00         0.00000E+00        -0.17314E+08
 
   -0.17938E+08         0.27291E+06         0.00000E+00
    0.27291E+06        -0.46311E+08         0.00000E+00
    0.00000E+00         0.00000E+00        -0.17455E+08
 
   -0.17858E+08         0.40386E+06         0.00000E+00
    0.40386E+06        -0.46355E+08         0.00000E+00
    0.00000E+00         0.00000E+00        -0.17598E+08
 
   -0.17802E+08         0.55413E+06         0.00000E+00
    0.55413E+06        -0.46410E+08         0.00000E+00
    0.00000E+00         0.00000E+00        -0.17736E+08
 
   -0.17791E+08         0.73049E+06         0.00000E+00
    0.73049E+06        -0.46475E+08         0.00000E+00
    0.00000E+00         0.00000E+00        -0.17850E+08
 
   -0.17857E+08         0.93759E+06         0.00000E+00
    0.93759E+06        -0.46545E+08         0.00000E+00
    0.00000E+00         0.00000E+00        -0.17904E+08
 
   -0.20155E+08        -0.72957E+05         0.00000E+00
   -0.72957E+05        -0.46731E+08         0.00000E+00
    0.00000E+00         0.00000E+00        -0.16111E+08
 
   -0.19928E+08        -0.17673E+06         0.00000E+00
   -0.17673E+06        -0.46740E+08         0.00000E+00
    0.00000E+00         0.00000E+00        -0.16288E+08
 
   -0.19703E+08        -0.23306E+06         0.00000E+00
   -0.23306E+06        -0.46749E+08         0.00000E+00
    0.00000E+00         0.00000E+00        -0.16471E+08
 
   -0.19485E+08        -0.24812E+06         0.00000E+00
   -0.24812E+06        -0.46755E+08         0.00000E+00
    0.00000E+00         0.00000E+00        -0.16649E+08
 
   -0.19279E+08        -0.23006E+06         0.00000E+00
   -0.23006E+06        -0.46755E+08         0.00000E+00
    0.00000E+00         0.00000E+00        -0.16814E+08
 
   -0.19091E+08        -0.18738E+06         0.00000E+00
   -0.18738E+06        -0.46752E+08         0.00000E+00
    0.00000E+00         0.00000E+00        -0.16966E+08
 
   -0.18921E+08        -0.12719E+06         0.00000E+00
   -0.12719E+06        -0.46750E+08         0.00000E+00
    0.00000E+00         0.00000E+00        -0.17106E+08
 
   -0.18770E+08        -0.54125E+05         0.00000E+00
   -0.54125E+05        -0.46752E+08         0.00000E+00
    0.00000E+00         0.00000E+00        -0.17241E+08
 
   -0.18634E+08         0.29643E+05         0.00000E+00
    0.29643E+05        -0.46763E+08         0.00000E+00
    0.00000E+00         0.00000E+00        -0.17375E+08
 
   -0.18512E+08         0.12393E+06         0.00000E+00
    0.12393E+06        -0.46785E+08         0.00000E+00
    0.00000E+00         0.00000E+00        -0.17516E+08
 
   -0.18402E+08         0.22984E+06         0.00000E+00
    0.22984E+06        -0.46819E+08         0.00000E+00
    0.00000E+00         0.00000E+00        -0.17665E+08
 
   -0.18304E+08         0.34982E+06         0.00000E+00
    0.34982E+06        -0.46866E+08         0.00000E+00
    0.00000E+00         0.00000E+00        -0.17823E+08
 
   -0.18225E+08         0.48850E+06         0.00000E+00
    0.48850E+06        -0.46926E+08         0.00000E+00
    0.00000E+00         0.00000E+00        -0.17987E+08
 
   -0.18181E+08         0.65438E+06         0.00000E+00
    0.65438E+06        -0.46999E+08         0.00000E+00
    0.00000E+00         0.00000E+00        -0.18140E+08
 
   -0.18224E+08         0.85591E+06         0.00000E+00
    0.85591E+06        -0.47085E+08         0.00000E+00
    0.00000E+00         0.00000E+00        -0.18235E+08
 
   -0.20881E+08        -0.79425E+05         0.00000E+00
   -0.79425E+05        -0.47323E+08         0.00000E+00
    0.00000E+00         0.00000E+00        -0.16262E+08
 
   -0.20601E+08        -0.18785E+06         0.00000E+00
   -0.18785E+06        -0.47330E+08         0.00000E+00
    0.00000E+00         0.00000E+00        -0.16467E+08
 
   -0.20328E+08        -0.24080E+06         0.00000E+00
   -0.24080E+06        -0.47332E+08         0.00000E+00
    0.00000E+00         0.00000E+00        -0.16671E+08
 
   -0.20071E+08        -0.24904E+06         0.00000E+00
   -0.24904E+06        -0.47325E+08         0.00000E+00
    0.00000E+00         0.00000E+00        -0.16858E+08
 
   -0.19838E+08        -0.22555E+06         0.00000E+00
   -0.22555E+06        -0.47310E+08         0.00000E+00
    0.00000E+00         0.00000E+00        -0.17022E+08
 
   -0.19630E+08        -0.18175E+06         0.00000E+00
   -0.18175E+06        -0.47291E+08         0.00000E+00
    0.00000E+00         0.00000E+00        -0.17166E+08
 
   -0.19448E+08        -0.12530E+06         0.00000E+00
   -0.12530E+06        -0.47275E+08         0.00000E+00
    0.00000E+00         0.00000E+00        -0.17297E+08
 
   -0.19286E+08        -0.60079E+05         0.00000E+00
   -0.60079E+05        -0.47267E+08         0.00000E+00
    0.00000E+00         0.00000E+00        -0.17423E+08
 
   -0.19141E+08         0.12783E+05         0.00000E+00
    0.12783E+05        -0.47269E+08         0.00000E+00
    0.00000E+00         0.00000E+00        -0.17553E+08
 
   -0.19009E+08         0.93936E+05         0.00000E+00
    0.93936E+05        -0.47286E+08         0.00000E+00
    0.00000E+00         0.00000E+00        -0.17692E+08
 
   -0.18886E+08         0.18559E+06         0.00000E+00
    0.18559E+06        -0.47320E+08         0.00000E+00
    0.00000E+00         0.00000E+00        -0.17848E+08
 
   -0.18772E+08         0.29117E+06         0.00000E+00
    0.29117E+06        -0.47370E+08         0.00000E+00
    0.00000E+00         0.00000E+00        -0.18021E+08
 
   -0.18669E+08         0.41520E+06         0.00000E+00
    0.41520E+06        -0.47437E+08         0.00000E+00
    0.00000E+00         0.00000E+00        -0.18212E+08
 
   -0.18591E+08         0.56637E+06         0.00000E+00
    0.56637E+06        -0.47519E+08         0.00000E+00
    0.00000E+00         0.00000E+00        -0.18407E+08
 
   -0.18590E+08         0.76269E+06         0.00000E+00
    0.76269E+06        -0.47614E+08         0.00000E+00
    0.00000E+00         0.00000E+00        -0.18553E+08
 
   -0.21620E+08        -0.85764E+05         0.00000E+00
   -0.85764E+05        -0.47920E+08         0.00000E+00
    0.00000E+00         0.00000E+00        -0.16418E+08
 
   -0.21274E+08        -0.19382E+06         0.00000E+00
   -0.19382E+06        -0.47923E+08         0.00000E+00
    0.00000E+00         0.00000E+00        -0.16656E+08
 
   -0.20948E+08        -0.23612E+06         0.00000E+00
   -0.23612E+06        -0.47913E+08         0.00000E+00
    0.00000E+00         0.00000E+00        -0.16876E+08
 
   -0.20654E+08        -0.23278E+06         0.00000E+00
   -0.23278E+06        -0.47887E+08         0.00000E+00
    0.00000E+00         0.00000E+00        -0.17063E+08
 
   -0.20398E+08        -0.20345E+06         0.00000E+00
   -0.20345E+06        -0.47852E+08         0.00000E+00
    0.00000E+00         0.00000E+00        -0.17216E+08
 
   -0.20177E+08        -0.16089E+06         0.00000E+00
   -0.16089E+06        -0.47816E+08         0.00000E+00
    0.00000E+00         0.00000E+00        -0.17347E+08
 
   -0.19987E+08        -0.11116E+06         0.00000E+00
   -0.11116E+06        -0.47787E+08         0.00000E+00
    0.00000E+00         0.00000E+00        -0.17465E+08
 
   -0.19820E+08        -0.56504E+05         0.00000E+00
   -0.56504E+05        -0.47769E+08         0.00000E+00
    0.00000E+00         0.00000E+00        -0.17581E+08
 
   -0.19668E+08         0.27178E+04         0.00000E+00
    0.27178E+04        -0.47764E+08         0.00000E+00
    0.00000E+00         0.00000E+00        -0.17703E+08
 
   -0.19528E+08         0.67510E+05         0.00000E+00
    0.67510E+05        -0.47776E+08         0.00000E+00
    0.00000E+00         0.00000E+00        -0.17839E+08
 
   -0.19394E+08         0.14058E+06         0.00000E+00
    0.14058E+06        -0.47807E+08         0.00000E+00
    0.00000E+00         0.00000E+00        -0.17997E+08
 
   -0.19263E+08         0.22669E+06         0.00000E+00
    0.22669E+06        -0.47860E+08         0.00000E+00
    0.00000E+00         0.00000E+00        -0.18184E+08
 
   -0.19137E+08         0.33276E+06         0.00000E+00
    0.33276E+06        -0.47936E+08         0.00000E+00
    0.00000E+00         0.00000E+00        -0.18402E+08
 
   -0.19018E+08         0.46834E+06         0.00000E+00
    0.46834E+06        -0.48029E+08         0.00000E+00
    0.00000E+00         0.00000E+00        -0.18645E+08
 
   -0.18957E+08         0.65389E+06         0.00000E+00
    0.65389E+06        -0.48136E+08         0.00000E+00
    0.00000E+00         0.00000E+00        -0.18861E+08
 
   -0.22367E+08        -0.91636E+05         0.00000E+00
   -0.91636E+05        -0.48517E+08         0.00000E+00
    0.00000E+00         0.00000E+00        -0.16582E+08
 
   -0.21939E+08        -0.18886E+06         0.00000E+00
   -0.18886E+06        -0.48512E+08         0.00000E+00
    0.00000E+00         0.00000E+00        -0.16854E+08
 
   -0.21555E+08        -0.21020E+06         0.00000E+00
   -0.21020E+06        -0.48478E+08         0.00000E+00
    0.00000E+00         0.00000E+00        -0.17079E+08
 
   -0.21230E+08        -0.19333E+06         0.00000E+00
   -0.19333E+06        -0.48425E+08         0.00000E+00
    0.00000E+00         0.00000E+00        -0.17250E+08
 
   -0.20960E+08        -0.16220E+06         0.00000E+00
   -0.16220E+06        -0.48369E+08         0.00000E+00
    0.00000E+00         0.00000E+00        -0.17385E+08
 
   -0.20734E+08        -0.12557E+06         0.00000E+00
   -0.12557E+06        -0.48319E+08         0.00000E+00
    0.00000E+00         0.00000E+00        -0.17498E+08
 
   -0.20541E+08        -0.86159E+05         0.00000E+00
   -0.86159E+05        -0.48280E+08         0.00000E+00
    0.00000E+00         0.00000E+00        -0.17603E+08
 
   -0.20371E+08        -0.44731E+05         0.00000E+00
   -0.44731E+05        -0.48254E+08         0.00000E+00
    0.00000E+00         0.00000E+00        -0.17708E+08
 
   -0.20216E+08        -0.11131E+04         0.00000E+00
   -0.11131E+04        -0.48244E+08         0.00000E+00
    0.00000E+00         0.00000E+00        -0.17822E+08
 
   -0.20071E+08         0.45616E+05         0.00000E+00
    0.45616E+05        -0.48252E+08         0.00000E+00
    0.00000E+00         0.00000E+00        -0.17953E+08
 
   -0.19928E+08         0.97368E+05         0.00000E+00
    0.97368E+05        -0.48279E+08         0.00000E+00
    0.00000E+00         0.00000E+00        -0.18110E+08
 
   -0.19783E+08         0.15864E+06         0.00000E+00
    0.15864E+06        -0.48331E+08         0.00000E+00
    0.00000E+00         0.00000E+00        -0.18303E+08
 
   -0.19630E+08         0.23939E+06         0.00000E+00
    0.23939E+06        -0.48411E+08         0.00000E+00
    0.00000E+00         0.00000E+00        -0.18544E+08
 
   -0.19470E+08         0.35529E+06         0.00000E+00
    0.35529E+06        -0.48524E+08         0.00000E+00
    0.00000E+00         0.00000E+00        -0.18841E+08
 
   -0.19326E+08         0.52358E+06         0.00000E+00
    0.52358E+06        -0.48652E+08         0.00000E+00
    0.00000E+00         0.00000E+00        -0.19158E+08
 
   -0.23109E+08        -0.93903E+05         0.00000E+00
   -0.93903E+05        -0.49111E+08         0.00000E+00
    0.00000E+00         0.00000E+00        -0.16754E+08
 
   -0.22577E+08        -0.15736E+06         0.00000E+00
   -0.15736E+06        -0.49079E+08         0.00000E+00
    0.00000E+00         0.00000E+00        -0.17051E+08
 
   -0.22143E+08        -0.15002E+06         0.00000E+00
   -0.15002E+06        -0.49003E+08         0.00000E+00
    0.00000E+00         0.00000E+00        -0.17253E+08
 
   -0.21804E+08        -0.12841E+06         0.00000E+00
   -0.12841E+06        -0.48922E+08         0.00000E+00
    0.00000E+00         0.00000E+00        -0.17397E+08
 
   -0.21531E+08        -0.10403E+06         0.00000E+00
   -0.10403E+06        -0.48849E+08         0.00000E+00
    0.00000E+00         0.00000E+00        -0.17510E+08
 
   -0.21304E+08        -0.78987E+05         0.00000E+00
   -0.78987E+05        -0.48789E+08         0.00000E+00
    0.00000E+00         0.00000E+00        -0.17608E+08
 
   -0.21110E+08        -0.53551E+05         0.00000E+00
   -0.53551E+05        -0.48744E+08         0.00000E+00
    0.00000E+00         0.00000E+00        -0.17702E+08
 
   -0.20940E+08        -0.27543E+05         0.00000E+00
   -0.27543E+05        -0.48715E+08         0.00000E+00
    0.00000E+00         0.00000E+00        -0.17800E+08
 
   -0.20785E+08        -0.71665E+03         0.00000E+00
   -0.71665E+03        -0.48704E+08         0.00000E+00
    0.00000E+00         0.00000E+00        -0.17908E+08
 
   -0.20638E+08         0.27436E+05         0.00000E+00
    0.27436E+05        -0.48710E+08         0.00000E+00
    0.00000E+00         0.00000E+00        -0.18034E+08
 
   -0.20491E+08         0.57782E+05         0.00000E+00
    0.57782E+05        -0.48737E+08         0.00000E+00
    0.00000E+00         0.00000E+00        -0.18187E+08
 
   -0.20335E+08         0.92871E+05         0.00000E+00
    0.92871E+05        -0.48786E+08         0.00000E+00
    0.00000E+00         0.00000E+00        -0.18379E+08
 
   -0.20158E+08         0.13952E+06         0.00000E+00
    0.13952E+06        -0.48865E+08         0.00000E+00
    0.00000E+00         0.00000E+00        -0.18631E+08
 
   -0.19944E+08         0.21817E+06         0.00000E+00
    0.21817E+06        -0.48981E+08         0.00000E+00
    0.00000E+00         0.00000E+00        -0.18974E+08
 
   -0.19698E+08         0.37508E+06         0.00000E+00
    0.37508E+06        -0.49157E+08         0.00000E+00
    0.00000E+00         0.00000E+00        -0.19441E+08
 
   -0.23819E+08        -0.70424E+05         0.00000E+00
   -0.70424E+05        -0.49678E+08         0.00000E+00
    0.00000E+00         0.00000E+00        -0.16925E+08
 
   -0.23168E+08        -0.66959E+05         0.00000E+00
   -0.66959E+05        -0.49564E+08         0.00000E+00
    0.00000E+00         0.00000E+00        -0.17193E+08
 
   -0.22724E+08        -0.54932E+05         0.00000E+00
   -0.54932E+05        -0.49454E+08         0.00000E+00
    0.00000E+00         0.00000E+00        -0.17357E+08
 
   -0.22385E+08        -0.45021E+05         0.00000E+00
   -0.45021E+05        -0.49358E+08         0.00000E+00
    0.00000E+00         0.00000E+00        -0.17478E+08
 
   -0.22113E+08        -0.35752E+05         0.00000E+00
   -0.35752E+05        -0.49279E+08         0.00000E+00
    0.00000E+00         0.00000E+00        -0.17577E+08
 
   -0.21888E+08        -0.26837E+05         0.00000E+00
   -0.26837E+05        -0.49218E+08         0.00000E+00
    0.00000E+00         0.00000E+00        -0.17668E+08
 
   -0.21696E+08        -0.18013E+05         0.00000E+00
   -0.18013E+05        -0.49174E+08         0.00000E+00
    0.00000E+00         0.00000E+00        -0.17757E+08
 
   -0.21527E+08        -0.91309E+04         0.00000E+00
   -0.91309E+04        -0.49148E+08         0.00000E+00
    0.00000E+00         0.00000E+00        -0.17851E+08
 
   -0.21373E+08        -0.23936E+02         0.00000E+00
   -0.23936E+02        -0.49139E+08         0.00000E+00
    0.00000E+00         0.00000E+00        -0.17958E+08
 
   -0.21227E+08         0.94134E+04         0.00000E+00
    0.94134E+04        -0.49149E+08         0.00000E+00
    0.00000E+00         0.00000E+00        -0.18083E+08
 
   -0.21079E+08         0.19371E+05         0.00000E+00
    0.19371E+05        -0.49179E+08         0.00000E+00
    0.00000E+00         0.00000E+00        -0.18235E+08
 
   -0.20920E+08         0.30495E+05         0.00000E+00
    0.30495E+05        -0.49231E+08         0.00000E+00
    0.00000E+00         0.00000E+00        -0.18426E+08
 
   -0.20731E+08         0.44544E+05         0.00000E+00
    0.44544E+05        -0.49310E+08         0.00000E+00
    0.00000E+00         0.00000E+00        -0.18680E+08
 
   -0.20475E+08         0.69907E+05         0.00000E+00
    0.69907E+05        -0.49431E+08         0.00000E+00
    0.00000E+00         0.00000E+00        -0.19052E+08
 
   -0.20067E+08         0.14885E+06         0.00000E+00
    0.14885E+06        -0.49628E+08         0.00000E+00
    0.00000E+00         0.00000E+00        -0.19685E+08
 
TENSORS stresstot double 
   -0.33559E+08         0.24855E+04         0.00000E+00
    0.24855E+04        -0.59995E+08         0.00000E+00
    0.00000E+00         0.00000E+00        -0.34852E+08
 
   -0.33445E+08         0.75625E+04         0.00000E+00
    0.75625E+04        -0.59985E+08         0.00000E+00
    0.00000E+00         0.00000E+00        -0.34966E+08
 
   -0.33349E+08         0.12453E+05         0.00000E+00
    0.12453E+05        -0.59966E+08         0.00000E+00
    0.00000E+00         0.00000E+00        -0.35046E+08
 
   -0.33277E+08         0.16788E+05         0.00000E+00
    0.16788E+05        -0.59937E+08         0.00000E+00
    0.00000E+00         0.00000E+00        -0.35086E+08
 
   -0.33236E+08         0.20161E+05         0.00000E+00
    0.20161E+05        -0.59900E+08         0.00000E+00
    0.00000E+00         0.00000E+00        -0.35079E+08
 
   -0.33226E+08         0.22391E+05         0.00000E+00
    0.22391E+05        -0.59858E+08         0.00000E+00
    0.00000E+00         0.00000E+00        -0.35027E+08
 
   -0.33246E+08         0.23830E+05         0.00000E+00
    0.23830E+05        -0.59812E+08         0.00000E+00
    0.00000E+00         0.00000E+00        -0.34934E+08
 
   -0.33290E+08         0.24749E+05         0.00000E+00
    0.24749E+05        -0.59764E+08         0.00000E+00
    0.00000E+00         0.00000E+00        -0.34811E+08
 
   -0.33351E+08         0.25515E+05         0.00000E+00
    0.25515E+05        -0.59714E+08         0.00000E+00
    0.00000E+00         0.00000E+00        -0.34667E+08
 
   -0.33421E+08         0.26422E+05         0.00000E+00
    0.26422E+05        -0.59663E+08         0.00000E+00
    0.00000E+00         0.00000E+00        -0.34515E+08
 
   -0.33493E+08         0.27628E+05         0.00000E+00
    0.27628E+05        -0.59609E+08         0.00000E+00
    0.00000E+00         0.00000E+00        -0.34360E+08
 
   -0.33561E+08         0.29158E+05         0.00000E+00
    0.29158E+05        -0.59553E+08         0.00000E+00
    0.00000E+00         0.00000E+00        -0.34207E+08
 
   -0.33622E+08         0.30963E+05         0.00000E+00
    0.30963E+05        -0.59493E+08         0.00000E+00
    0.00000E+00         0.00000E+00        -0.34060E+08
 
   -0.33674E+08         0.32956E+05         0.00000E+00
    0.32956E+05        -0.59429E+08         0.00000E+00
    0.00000E+00         0.00000E+00        -0.33921E+08
 
   -0.33712E+08         0.35012E+05         0.00000E+00
    0.35012E+05        -0.59361E+08         0.00000E+00
    0.00000E+00         0.00000E+00        -0.33791E+08
 
   -0.33549E+08         0.74501E+04         0.00000E+00
    0.74501E+04        -0.59995E+08         0.00000E+00
    0.00000E+00         0.00000E+00        -0.34838E+08
 
   -0.33435E+08         0.22665E+05         0.00000E+00
    0.22665E+05        -0.59985E+08         0.00000E+00
    0.00000E+00         0.00000E+00        -0.34953E+08
 
   -0.33340E+08         0.37238E+05         0.00000E+00
    0.37238E+05        -0.59966E+08         0.00000E+00
    0.00000E+00         0.00000E+00        -0.35033E+08
 
   -0.33270E+08         0.50048E+05         0.00000E+00
    0.50048E+05        -0.59937E+08         0.00000E+00
    0.00000E+00         0.00000E+00        -0.35071E+08
 
   -0.33230E+08         0.59910E+05         0.00000E+00
    0.59910E+05        -0.59901E+08         0.00000E+00
    0.00000E+00         0.00000E+00        -0.35063E+08
 
   -0.33222E+08         0.66425E+05         0.00000E+00
    0.66425E+05        -0.59861E+08         0.00000E+00
    0.00000E+00         0.00000E+00        -0.35010E+08
 
   -0.33244E+08         0.70684E+05         0.00000E+00
    0.70684E+05        -0.59817E+08         0.00000E+00
    0.00000E+00         0.00000E+00        -0.34918E+08
 
   -0.33289E+08         0.73476E+05         0.00000E+00
    0.73476E+05        -0.59770E+08         0.00000E+00
    0.00000E+00         0.00000E+00        -0.34797E+08
 
   -0.33350E+08         0.75894E+05         0.00000E+00
    0.75894E+05        -0.59722E+08         0.00000E+00
    0.00000E+00         0.00000E+00        -0.34656E+08
 
   -0.33419E+08         0.78768E+05         0.00000E+00
    0.78768E+05        -0.59672E+08         0.00000E+00
    0.00000E+00         0.00000E+00        -0.34505E+08
 
   -0.33490E+08         0.82522E+05         0.00000E+00
    0.82522E+05        -0.59619E+08         0.00000E+00
    0.00000E+00         0.00000E+00        -0.34352E+08
 
   -0.33558E+08         0.87239E+05         0.00000E+00
    0.87239E+05        -0.59563E+08         0.00000E+00
    0.00000E+00         0.00000E+00        -0.34201E+08
 
   -0.33619E+08         0.92745E+05         0.00000E+00
    0.92745E+05        -0.59503E+08         0.00000E+00
    0.00000E+00         0.00000E+00        -0.34055E+08
 
   -0.33670E+08         0.98788E+05         0.00000E+00
    0.98788E+05        -0.59440E+08         0.00000E+00
    0.00000E+00         0.00000E+00        -0.33917E+08
 
   -0.33708E+08         0.10501E+06         0.00000E+00
    0.10501E+06        -0.59372E+08         0.00000E+00
    0.00000E+00         0.00000E+00        -0.33787E+08
 
   -0.33529E+08         0.12403E+05         0.00000E+00
    0.12403E+05        -0.59995E+08         0.00000E+00
    0.00000E+00         0.00000E+00        -0.34812E+08
 
   -0.33415E+08         0.37642E+05         0.00000E+00
    0.37642E+05        -0.59985E+08         0.00000E+00
    0.00000E+00         0.00000E+00        -0.34926E+08
 
   -0.33322E+08         0.61637E+05         0.00000E+00
    0.61637E+05        -0.59966E+08         0.00000E+00
    0.00000E+00         0.00000E+00        -0.35005E+08
 
   -0.33254E+08         0.82290E+05         0.00000E+00
    0.82290E+05        -0.59939E+08         0.00000E+00
    0.00000E+00         0.00000E+00        -0.35042E+08
 
   -0.33220E+08         0.97878E+05         0.00000E+00
    0.97878E+05        -0.59905E+08         0.00000E+00
    0.00000E+00         0.00000E+00        -0.35031E+08
 
   -0.33215E+08         0.10828E+06         0.00000E+00
    0.10828E+06        -0.59867E+08         0.00000E+00
    0.00000E+00         0.00000E+00        -0.34978E+08
 
   -0.33239E+08         0.11517E+06         0.00000E+00
    0.11517E+06        -0.59826E+08         0.00000E+00
    0.00000E+00         0.00000E+00        -0.34888E+08
 
   -0.33285E+08         0.11997E+06         0.00000E+00
    0.11997E+06        -0.59782E+08         0.00000E+00
    0.00000E+00         0.00000E+00        -0.34769E+08
 
   -0.33346E+08         0.12440E+06         0.00000E+00
    0.12440E+06        -0.59737E+08         0.00000E+00
    0.00000E+00         0.00000E+00        -0.34632E+08
 
   -0.33415E+08         0.12967E+06         0.00000E+00
    0.12967E+06        -0.59688E+08         0.00000E+00
    0.00000E+00         0.00000E+00        -0.34486E+08
 
   -0.33484E+08         0.13637E+06         0.00000E+00
    0.13637E+06        -0.59637E+08         0.00000E+00
    0.00000E+00         0.00000E+00        -0.34337E+08
 
   -0.33551E+08         0.14460E+06         0.00000E+00
    0.14460E+06        -0.59582E+08         0.00000E+00
    0.00000E+00         0.00000E+00        -0.34189E+08
 
   -0.33611E+08         0.15409E+06         0.00000E+00
    0.15409E+06        -0.59524E+08         0.00000E+00
    0.00000E+00         0.00000E+00        -0.34045E+08
 
   -0.33661E+08         0.16437E+06         0.00000E+00
    0.16437E+06        -0.59461E+08         0.00000E+00
    0.00000E+00         0.00000E+00        -0.33908E+08
 
   -0.33700E+08         0.17491E+06         0.00000E+00
    0.17491E+06        -0.59393E+08         0.00000E+00
    0.00000E+00         0.00000E+00        -0.33779E+08
 
   -0.33499E+08         0.17362E+05         0.00000E+00
    0.17362E+05        -0.59995E+08         0.00000E+00
    0.00000E+00         0.00000E+00        -0.34773E+08
 
   -0.33385E+08         0.52361E+05         0.00000E+00
    0.52361E+05        -0.59985E+08         0.00000E+00
    0.00000E+00         0.00000E+00        -0.34886E+08
 
   -0.33295E+08         0.85177E+05         0.00000E+00
    0.85177E+05        -0.59967E+08         0.00000E+00
    0.00000E+00         0.00000E+00        -0.34963E+08
 
   -0.33233E+08         0.11266E+06         0.00000E+00
    0.11266E+06        -0.59941E+08         0.00000E+00
    0.00000E+00         0.00000E+00        -0.34996E+08
 
   -0.33204E+08         0.13282E+06         0.00000E+00
    0.13282E+06        -0.59911E+08         0.00000E+00
    0.00000E+00         0.00000E+00        -0.34983E+08
 
   -0.33205E+08         0.14655E+06         0.00000E+00
    0.14655E+06        -0.59877E+08         0.00000E+00
    0.00000E+00         0.00000E+00        -0.34930E+08
 
   -0.33232E+08         0.15587E+06         0.00000E+00
    0.15587E+06        -0.59840E+08         0.00000E+00
    0.00000E+00         0.00000E+00        -0.34842E+08
 
   -0.33280E+08         0.16298E+06         0.00000E+00
    0.16298E+06        -0.59801E+08         0.00000E+00
    0.00000E+00         0.00000E+00        -0.34729E+08
 
   -0.33340E+08         0.17000E+06         0.00000E+00
    0.17000E+06        -0.59759E+08         0.00000E+00
    0.00000E+00         0.00000E+00        -0.34598E+08
 
   -0.33407E+08         0.17834E+06         0.00000E+00
    0.17834E+06        -0.59713E+08         0.00000E+00
    0.00000E+00         0.00000E+00        -0.34458E+08
 
   -0.33475E+08         0.18857E+06         0.00000E+00
    0.18857E+06        -0.59664E+08         0.00000E+00
    0.00000E+00         0.00000E+00        -0.34314E+08
 
   -0.33540E+08         0.20080E+06         0.00000E+00
    0.20080E+06        -0.59611E+08         0.00000E+00
    0.00000E+00         0.00000E+00        -0.34170E+08
 
   -0.33599E+08         0.21465E+06         0.00000E+00
    0.21465E+06        -0.59553E+08         0.00000E+00
    0.00000E+00         0.00000E+00        -0.34030E+08
 
   -0.33649E+08         0.22951E+06         0.00000E+00
    0.22951E+06        -0.59491E+08         0.00000E+00
    0.00000E+00         0.00000E+00        -0.33895E+08
 
   -0.33687E+08         0.24460E+06         0.00000E+00
    0.24460E+06        -0.59424E+08         0.00000E+00
    0.00000E+00         0.00000E+00        -0.33766E+08
 
   -0.33459E+08         0.22260E+05         0.00000E+00
    0.22260E+05        -0.59995E+08         0.00000E+00
    0.00000E+00         0.00000E+00        -0.34720E+08
 
   -0.33346E+08         0.66647E+05         0.00000E+00
    0.66647E+05        -0.59985E+08         0.00000E+00
    0.00000E+00         0.00000E+00        -0.34834E+08
 
   -0.33260E+08         0.10719E+06         0.00000E+00
    0.10719E+06        -0.59968E+08         0.00000E+00
    0.00000E+00         0.00000E+00        -0.34907E+08
 
   -0.33207E+08         0.13998E+06         0.00000E+00
    0.13998E+06        -0.59946E+08         0.00000E+00
    0.00000E+00         0.00000E+00        -0.34934E+08
 
   -0.33186E+08         0.16355E+06         0.00000E+00
    0.16355E+06        -0.59919E+08         0.00000E+00
    0.00000E+00         0.00000E+00        -0.34919E+08
 
   -0.33193E+08         0.17997E+06         0.00000E+00
    0.17997E+06        -0.59891E+08         0.00000E+00
    0.00000E+00         0.00000E+00        -0.34866E+08
 
   -0.33223E+08         0.19164E+06         0.00000E+00
    0.19164E+06        -0.59859E+08         0.00000E+00
    0.00000E+00         0.00000E+00        -0.34783E+08
 
   -0.33272E+08         0.20160E+06         0.00000E+00
    0.20160E+06        -0.59825E+08         0.00000E+00
    0.00000E+00         0.00000E+00        -0.34676E+08
 
   -0.33331E+08         0.21194E+06         0.00000E+00
    0.21194E+06        -0.59787E+08         0.00000E+00
    0.00000E+00         0.00000E+00        -0.34553E+08
 
   -0.33396E+08         0.22410E+06         0.00000E+00
    0.22410E+06        -0.59745E+08         0.00000E+00
    0.00000E+00         0.00000E+00        -0.34420E+08
 
   -0.33462E+08         0.23860E+06         0.00000E+00
    0.23860E+06        -0.59699E+08         0.00000E+00
    0.00000E+00         0.00000E+00        -0.34283E+08
 
   -0.33525E+08         0.25542E+06         0.00000E+00
    0.25542E+06        -0.59648E+08         0.00000E+00
    0.00000E+00         0.00000E+00        -0.34145E+08
 
   -0.33582E+08         0.27408E+06         0.00000E+00
    0.27408E+06        -0.59592E+08         0.00000E+00
    0.00000E+00         0.00000E+00        -0.34009E+08
 
   -0.33631E+08         0.29389E+06         0.00000E+00
    0.29389E+06        -0.59531E+08         0.00000E+00
    0.00000E+00         0.00000E+00        -0.33876E+08
 
   -0.33670E+08         0.31396E+06         0.00000E+00
    0.31396E+06        -0.59464E+08         0.00000E+00
    0.00000E+00         0.00000E+00        -0.33749E+08
 
   -0.33409E+08         0.27058E+05         0.00000E+00
    0.27058E+05        -0.59995E+08         0.00000E+00
    0.00000E+00         0.00000E+00        -0.34655E+08
 
   -0.33299E+08         0.79997E+05         0.00000E+00
    0.79997E+05        -0.59986E+08         0.00000E+00
    0.00000E+00         0.00000E+00        -0.34767E+08
 
   -0.33220E+08         0.12677E+06         0.00000E+00
    0.12677E+06        -0.59971E+08         0.00000E+00
    0.00000E+00         0.00000E+00        -0.34835E+08
 
   -0.33177E+08         0.16297E+06         0.00000E+00
    0.16297E+06        -0.59953E+08         0.00000E+00
    0.00000E+00         0.00000E+00        -0.34857E+08
 
   -0.33165E+08         0.18896E+06         0.00000E+00
    0.18896E+06        -0.59932E+08         0.00000E+00
    0.00000E+00         0.00000E+00        -0.34839E+08
 
   -0.33178E+08         0.20743E+06         0.00000E+00
    0.20743E+06        -0.59909E+08         0.00000E+00
    0.00000E+00         0.00000E+00        -0.34788E+08
 
   -0.33211E+08         0.22182E+06         0.00000E+00
    0.22182E+06        -0.59884E+08         0.00000E+00
    0.00000E+00         0.00000E+00        -0.34710E+08
 
   -0.33260E+08         0.23524E+06         0.00000E+00
    0.23524E+06        -0.59855E+08         0.00000E+00
    0.00000E+00         0.00000E+00        -0.34611E+08
 
   -0.33318E+08         0.24968E+06         0.00000E+00
    0.24968E+06        -0.59822E+08         0.00000E+00
    0.00000E+00         0.00000E+00        -0.34497E+08
 
   -0.33381E+08         0.26645E+06         0.00000E+00
    0.26645E+06        -0.59784E+08         0.00000E+00
    0.00000E+00         0.00000E+00        -0.34374E+08
 
   -0.33444E+08         0.28595E+06         0.00000E+00
    0.28595E+06        -0.59741E+08         0.00000E+00
    0.00000E+00         0.00000E+00        -0.34245E+08
 
   -0.33505E+08         0.30799E+06         0.00000E+00
    0.30799E+06        -0.59693E+08         0.00000E+00
    0.00000E+00         0.00000E+00        -0.34113E+08
 
   -0.33560E+08         0.33206E+06         0.00000E+00
    0.33206E+06        -0.59639E+08         0.00000E+00
    0.00000E+00         0.00000E+00        -0.33981E+08
 
   -0.33609E+08         0.35727E+06         0.00000E+00
    0.35727E+06        -0.59579E+08         0.00000E+00
    0.00000E+00         0.00000E+00        -0.33852E+08
 
   -0.33648E+08         0.38281E+06         0.00000E+00
    0.38281E+06        -0.59513E+08         0.00000E+00
    0.00000E+00         0.00000E+00        -0.33727E+08
 
   -0.33350E+08         0.31540E+05         0.00000E+00
    0.31540E+05        -0.59995E+08         0.00000E+00
    0.00000E+00         0.00000E+00        -0.34578E+08
 
   -0.33245E+08         0.91860E+05         0.00000E+00
    0.91860E+05        -0.59988E+08         0.00000E+00
    0.00000E+00         0.00000E+00        -0.34686E+08
 
   -0.33176E+08         0.14257E+06         0.00000E+00
    0.14257E+06        -0.59976E+08         0.00000E+00
    0.00000E+00         0.00000E+00        -0.34746E+08
 
   -0.33144E+08         0.18052E+06         0.00000E+00
    0.18052E+06        -0.59963E+08         0.00000E+00
    0.00000E+00         0.00000E+00        -0.34762E+08
 
   -0.33142E+08         0.20781E+06         0.00000E+00
    0.20781E+06        -0.59949E+08         0.00000E+00
    0.00000E+00         0.00000E+00        -0.34743E+08
 
   -0.33161E+08         0.22843E+06         0.00000E+00
    0.22843E+06        -0.59932E+08         0.00000E+00
    0.00000E+00         0.00000E+00        -0.34695E+08
 
   -0.33196E+08         0.24608E+06         0.00000E+00
    0.24608E+06        -0.59913E+08         0.00000E+00
    0.00000E+00         0.00000E+00        -0.34625E+08
 
   -0.33245E+08         0.26357E+06         0.00000E+00
    0.26357E+06        -0.59890E+08         0.00000E+00
    0.00000E+00         0.00000E+00        -0.34535E+08
 
   -0.33301E+08         0.28285E+06         0.00000E+00
    0.28285E+06        -0.59862E+08         0.00000E+00
    0.00000E+00         0.00000E+00        -0.34432E+08
 
   -0.33360E+08         0.30498E+06         0.00000E+00
    0.30498E+06        -0.59829E+08         0.00000E+00
    0.00000E+00         0.00000E+00        -0.34318E+08
 
   -0.33421E+08         0.33018E+06         0.00000E+00
    0.33018E+06        -0.59789E+08         0.00000E+00
    0.00000E+00         0.00000E+00        -0.34198E+08
 
   -0.33479E+08         0.35813E+06         0.00000E+00
    0.35813E+06        -0.59744E+08         0.00000E+00
    0.00000E+00         0.00000E+00        -0.34073E+08
 
   -0.33533E+08         0.38815E+06         0.00000E+00
    0.38815E+06        -0.59692E+08         0.00000E+00
    0.00000E+00         0.00000E+00        -0.33948E+08
 
   -0.33581E+08         0.41947E+06         0.00000E+00
    0.41947E+06        -0.59634E+08         0.00000E+00
    0.00000E+00         0.00000E+00        -0.33822E+08
 
   -0.33620E+08         0.45074E+06         0.00000E+00
    0.45074E+06        -0.59569E+08         0.00000E+00
    0.00000E+00         0.00000E+00        -0.33699E+08
 
   -0.33283E+08         0.35460E+05         0.00000E+00
    0.35460E+05        -0.59995E+08         0.00000E+00
    0.00000E+00         0.00000E+00        -0.34487E+08
 
   -0.33185E+08         0.10120E+06         0.00000E+00
    0.10120E+06        -0.59990E+08         0.00000E+00
    0.00000E+00         0.00000E+00        -0.34588E+08
 
   -0.33130E+08         0.15334E+06         0.00000E+00
    0.15334E+06        -0.59983E+08         0.00000E+00
    0.00000E+00         0.00000E+00        -0.34640E+08
 
   -0.33112E+08         0.19135E+06         0.00000E+00
    0.19135E+06        -0.59976E+08         0.00000E+00
    0.00000E+00         0.00000E+00        -0.34650E+08
 
   -0.33118E+08         0.21966E+06         0.00000E+00
    0.21966E+06        -0.59969E+08         0.00000E+00
    0.00000E+00         0.00000E+00        -0.34631E+08
 
   -0.33141E+08         0.24287E+06         0.00000E+00
    0.24287E+06        -0.59959E+08         0.00000E+00
    0.00000E+00         0.00000E+00        -0.34588E+08
 
   -0.33177E+08         0.26424E+06         0.00000E+00
    0.26424E+06        -0.59946E+08         0.00000E+00
    0.00000E+00         0.00000E+00        -0.34526E+08
 
   -0.33224E+08         0.28642E+06         0.00000E+00
    0.28642E+06        -0.59929E+08         0.00000E+00
    0.00000E+00         0.00000E+00        -0.34447E+08
 
   -0.33277E+08         0.31118E+06         0.00000E+00
    0.31118E+06        -0.59906E+08         0.00000E+00
    0.00000E+00         0.00000E+00        -0.34355E+08
 
   -0.33334E+08         0.33930E+06         0.00000E+00
    0.33930E+06        -0.59878E+08         0.00000E+00
    0.00000E+00         0.00000E+00        -0.34252E+08
 
   -0.33391E+08         0.37085E+06         0.00000E+00
    0.37085E+06        -0.59843E+08         0.00000E+00
    0.00000E+00         0.00000E+00        -0.34142E+08
 
   -0.33447E+08         0.40539E+06         0.00000E+00
    0.40539E+06        -0.59800E+08         0.00000E+00
    0.00000E+00         0.00000E+00        -0.34026E+08
 
   -0.33499E+08         0.44214E+06         0.00000E+00
    0.44214E+06        -0.59751E+08         0.00000E+00
    0.00000E+00         0.00000E+00        -0.33907E+08
 
   -0.33546E+08         0.47991E+06         0.00000E+00
    0.47991E+06        -0.59695E+08         0.00000E+00
    0.00000E+00         0.00000E+00        -0.33786E+08
 
   -0.33586E+08         0.51780E+06         0.00000E+00
    0.51780E+06        -0.59632E+08         0.00000E+00
    0.00000E+00         0.00000E+00        -0.33665E+08
 
   -0.33209E+08         0.38531E+05         0.00000E+00
    0.38531E+05        -0.59996E+08         0.00000E+00
    0.00000E+00         0.00000E+00        -0.34381E+08
 
   -0.33124E+08         0.10664E+06         0.00000E+00
    0.10664E+06        -0.59994E+08         0.00000E+00
    0.00000E+00         0.00000E+00        -0.34474E+08
 
   -0.33086E+08         0.15765E+06         0.00000E+00
    0.15765E+06        -0.59993E+08         0.00000E+00
    0.00000E+00         0.00000E+00        -0.34513E+08
 
   -0.33079E+08         0.19503E+06         0.00000E+00
    0.19503E+06        -0.59993E+08         0.00000E+00
    0.00000E+00         0.00000E+00        -0.34519E+08
 
   -0.33092E+08         0.22471E+06         0.00000E+00
    0.22471E+06        -0.59992E+08         0.00000E+00
    0.00000E+00         0.00000E+00        -0.34502E+08
 
   -0.33118E+08         0.25075E+06         0.00000E+00
    0.25075E+06        -0.59989E+08         0.00000E+00
    0.00000E+00         0.00000E+00        -0.34467E+08
 
   -0.33154E+08         0.27622E+06         0.00000E+00
    0.27622E+06        -0.59982E+08         0.00000E+00
    0.00000E+00         0.00000E+00        -0.34415E+08
 
   -0.33198E+08         0.30358E+06         0.00000E+00
    0.30358E+06        -0.59971E+08         0.00000E+00
    0.00000E+00         0.00000E+00        -0.34347E+08
 
   -0.33248E+08         0.33432E+06         0.00000E+00
    0.33432E+06        -0.59954E+08         0.00000E+00
    0.00000E+00         0.00000E+00        -0.34268E+08
 
   -0.33301E+08         0.36901E+06         0.00000E+00
    0.36901E+06        -0.59930E+08         0.00000E+00
    0.00000E+00         0.00000E+00        -0.34177E+08
 
   -0.33355E+08         0.40759E+06         0.00000E+00
    0.40759E+06        -0.59900E+08         0.00000E+00
    0.00000E+00         0.00000E+00        -0.34078E+08
 
   -0.33408E+08         0.44939E+06         0.00000E+00
    0.44939E+06        -0.59861E+08         0.00000E+00
    0.00000E+00         0.00000E+00        -0.33971E+08
 
   -0.33458E+08         0.49342E+06         0.00000E+00
    0.49342E+06        -0.59815E+08         0.00000E+00
    0.00000E+00         0.00000E+00        -0.33859E+08
 
   -0.33505E+08         0.53858E+06         0.00000E+00
    0.53858E+06        -0.59762E+08         0.00000E+00
    0.00000E+00         0.00000E+00        -0.33742E+08
 
   -0.33546E+08         0.58336E+06         0.00000E+00
    0.58336E+06        -0.59701E+08         0.00000E+00
    0.00000E+00         0.00000E+00        -0.33624E+08
 
   -0.33131E+08         0.39997E+05         0.00000E+00
    0.39997E+05        -0.59998E+08         0.00000E+00
    0.00000E+00         0.00000E+00        -0.34261E+08
 
   -0.33064E+08         0.10677E+06         0.00000E+00
    0.10677E+06        -0.60000E+08         0.00000E+00
    0.00000E+00         0.00000E+00        -0.34337E+08
 
   -0.33044E+08         0.15502E+06         0.00000E+00
    0.15502E+06        -0.60004E+08         0.00000E+00
    0.00000E+00         0.00000E+00        -0.34366E+08
 
   -0.33047E+08         0.19199E+06         0.00000E+00
    0.19199E+06        -0.60011E+08         0.00000E+00
    0.00000E+00         0.00000E+00        -0.34370E+08
 
   -0.33063E+08         0.22307E+06         0.00000E+00
    0.22307E+06        -0.60016E+08         0.00000E+00
    0.00000E+00         0.00000E+00        -0.34357E+08
 
   -0.33091E+08         0.25210E+06         0.00000E+00
    0.25210E+06        -0.60020E+08         0.00000E+00
    0.00000E+00         0.00000E+00        -0.34330E+08
 
   -0.33126E+08         0.28194E+06         0.00000E+00
    0.28194E+06        -0.60020E+08         0.00000E+00
    0.00000E+00         0.00000E+00        -0.34289E+08
 
   -0.33167E+08         0.31478E+06         0.00000E+00
    0.31478E+06        -0.60015E+08         0.00000E+00
    0.00000E+00         0.00000E+00        -0.34235E+08
 
   -0.33212E+08         0.35190E+06         0.00000E+00
    0.35190E+06        -0.60004E+08         0.00000E+00
    0.00000E+00         0.00000E+00        -0.34169E+08
 
   -0.33261E+08         0.39373E+06         0.00000E+00
    0.39373E+06        -0.59985E+08         0.00000E+00
    0.00000E+00         0.00000E+00        -0.34092E+08
 
   -0.33311E+08         0.43989E+06         0.00000E+00
    0.43989E+06        -0.59960E+08         0.00000E+00
    0.00000E+00         0.00000E+00        -0.34004E+08
 
   -0.33361E+08         0.48969E+06         0.00000E+00
    0.48969E+06        -0.59926E+08         0.00000E+00
    0.00000E+00         0.00000E+00        -0.33908E+08
 
   -0.33410E+08         0.54183E+06         0.00000E+00
    0.54183E+06        -0.59883E+08         0.00000E+00
    0.00000E+00         0.00000E+00        -0.33803E+08
 
   -0.33456E+08         0.59493E+06         0.00000E+00
    0.59493E+06        -0.59832E+08         0.00000E+00
    0.00000E+00         0.00000E+00        -0.33692E+08
 
   -0.33498E+08         0.64730E+06         0.00000E+00
    0.64730E+06        -0.59773E+08         0.00000E+00
    0.00000E+00         0.00000E+00        -0.33577E+08
 
   -0.33053E+08         0.38770E+05         0.00000E+00
    0.38770E+05        -0.60001E+08         0.00000E+00
    0.00000E+00         0.00000E+00        -0.34120E+08
 
   -0.33010E+08         0.10107E+06         0.00000E+00
    0.10107E+06        -0.60006E+08         0.00000E+00
    0.00000E+00         0.00000E+00        -0.34175E+08
 
   -0.33003E+08         0.14614E+06         0.00000E+00
    0.14614E+06        -0.60016E+08         0.00000E+00
    0.00000E+00         0.00000E+00        -0.34196E+08
 
   -0.33013E+08         0.18238E+06         0.00000E+00
    0.18238E+06        -0.60029E+08         0.00000E+00
    0.00000E+00         0.00000E+00        -0.34201E+08
 
   -0.33033E+08         0.21485E+06         0.00000E+00
    0.21485E+06        -0.60041E+08         0.00000E+00
    0.00000E+00         0.00000E+00        -0.34194E+08
 
   -0.33060E+08         0.24687E+06         0.00000E+00
    0.24687E+06        -0.60051E+08         0.00000E+00
    0.00000E+00         0.00000E+00        -0.34176E+08
 
   -0.33092E+08         0.28118E+06         0.00000E+00
    0.28118E+06        -0.60057E+08         0.00000E+00
    0.00000E+00         0.00000E+00        -0.34148E+08
 
   -0.33129E+08         0.31973E+06         0.00000E+00
    0.31973E+06        -0.60059E+08         0.00000E+00
    0.00000E+00         0.00000E+00        -0.34109E+08
 
   -0.33170E+08         0.36358E+06         0.00000E+00
    0.36358E+06        -0.60054E+08         0.00000E+00
    0.00000E+00         0.00000E+00        -0.34058E+08
 
   -0.33213E+08         0.41296E+06         0.00000E+00
    0.41296E+06        -0.60041E+08         0.00000E+00
    0.00000E+00         0.00000E+00        -0.33995E+08
 
   -0.33259E+08         0.46745E+06         0.00000E+00
    0.46745E+06        -0.60021E+08         0.00000E+00
    0.00000E+00         0.00000E+00        -0.33921E+08
 
   -0.33306E+08         0.52585E+06         0.00000E+00
    0.52585E+06        -0.59992E+08         0.00000E+00
    0.00000E+00         0.00000E+00        -0.33835E+08
 
   -0.33353E+08         0.58688E+06         0.00000E+00
    0.58688E+06        -0.59953E+08         0.00000E+00
    0.00000E+00         0.00000E+00        -0.33739E+08
 
   -0.33399E+08         0.64858E+06         0.00000E+00
    0.64858E+06        -0.59906E+08         0.00000E+00
    0.00000E+00         0.00000E+00        -0.33634E+08
 
   -0.33443E+08         0.70937E+06         0.00000E+00
    0.70937E+06        -0.59849E+08         0.00000E+00
    0.00000E+00         0.00000E+00        -0.33522E+08
 
   -0.32981E+08         0.34468E+05         0.00000E+00
    0.34468E+05        -0.60003E+08         0.00000E+00
    0.00000E+00         0.00000E+00        -0.33952E+08
 
   -0.32960E+08         0.89916E+05         0.00000E+00
    0.89916E+05        -0.60012E+08         0.00000E+00
    0.00000E+00         0.00000E+00        -0.33987E+08
 
   -0.32964E+08         0.13143E+06         0.00000E+00
    0.13143E+06        -0.60027E+08         0.00000E+00
    0.00000E+00         0.00000E+00        -0.34003E+08
 
   -0.32979E+08         0.16661E+06         0.00000E+00
    0.16661E+06        -0.60045E+08         0.00000E+00
    0.00000E+00         0.00000E+00        -0.34010E+08
 
   -0.33000E+08         0.20001E+06         0.00000E+00
    0.20001E+06        -0.60064E+08         0.00000E+00
    0.00000E+00         0.00000E+00        -0.34012E+08
 
   -0.33025E+08         0.23494E+06         0.00000E+00
    0.23494E+06        -0.60081E+08         0.00000E+00
    0.00000E+00         0.00000E+00        -0.34006E+08
 
   -0.33054E+08         0.27376E+06         0.00000E+00
    0.27376E+06        -0.60094E+08         0.00000E+00
    0.00000E+00         0.00000E+00        -0.33992E+08
 
   -0.33085E+08         0.31815E+06         0.00000E+00
    0.31815E+06        -0.60102E+08         0.00000E+00
    0.00000E+00         0.00000E+00        -0.33968E+08
 
   -0.33120E+08         0.36903E+06         0.00000E+00
    0.36903E+06        -0.60103E+08         0.00000E+00
    0.00000E+00         0.00000E+00        -0.33934E+08
 
   -0.33157E+08         0.42641E+06         0.00000E+00
    0.42641E+06        -0.60097E+08         0.00000E+00
    0.00000E+00         0.00000E+00        -0.33887E+08
 
   -0.33198E+08         0.48966E+06         0.00000E+00
    0.48966E+06        -0.60082E+08         0.00000E+00
    0.00000E+00         0.00000E+00        -0.33827E+08
 
   -0.33242E+08         0.55748E+06         0.00000E+00
    0.55748E+06        -0.60058E+08         0.00000E+00
    0.00000E+00         0.00000E+00        -0.33753E+08
 
   -0.33287E+08         0.62804E+06         0.00000E+00
    0.62804E+06        -0.60025E+08         0.00000E+00
    0.00000E+00         0.00000E+00        -0.33667E+08
 
   -0.33333E+08         0.69924E+06         0.00000E+00
    0.69924E+06        -0.59981E+08         0.00000E+00
    0.00000E+00         0.00000E+00        -0.33568E+08
 
   -0.33379E+08         0.76887E+06         0.00000E+00
    0.76887E+06        -0.59927E+08         0.00000E+00
    0.00000E+00         0.00000E+00        -0.33459E+08
 
   -0.32919E+08         0.27677E+05         0.00000E+00
    0.27677E+05        -0.60004E+08         0.00000E+00
    0.00000E+00         0.00000E+00        -0.33753E+08
 
   -0.32916E+08         0.74319E+05         0.00000E+00
    0.74319E+05        -0.60016E+08         0.00000E+00
    0.00000E+00         0.00000E+00        -0.33772E+08
 
   -0.32928E+08         0.11115E+06         0.00000E+00
    0.11115E+06        -0.60036E+08         0.00000E+00
    0.00000E+00         0.00000E+00        -0.33786E+08
 
   -0.32945E+08         0.14458E+06         0.00000E+00
    0.14458E+06        -0.60060E+08         0.00000E+00
    0.00000E+00         0.00000E+00        -0.33799E+08
 
   -0.32965E+08         0.17865E+06         0.00000E+00
    0.17865E+06        -0.60085E+08         0.00000E+00
    0.00000E+00         0.00000E+00        -0.33810E+08
 
   -0.32987E+08         0.21626E+06         0.00000E+00
    0.21626E+06        -0.60108E+08         0.00000E+00
    0.00000E+00         0.00000E+00        -0.33818E+08
 
   -0.33010E+08         0.25957E+06         0.00000E+00
    0.25957E+06        -0.60128E+08         0.00000E+00
    0.00000E+00         0.00000E+00        -0.33820E+08
 
   -0.33034E+08         0.30993E+06         0.00000E+00
    0.30993E+06        -0.60142E+08         0.00000E+00
    0.00000E+00         0.00000E+00        -0.33813E+08
 
   -0.33062E+08         0.36799E+06         0.00000E+00
    0.36799E+06        -0.60150E+08         0.00000E+00
    0.00000E+00         0.00000E+00        -0.33796E+08
 
   -0.33093E+08         0.43374E+06         0.00000E+00
    0.43374E+06        -0.60151E+08         0.00000E+00
    0.00000E+00         0.00000E+00        -0.33766E+08
 
   -0.33128E+08         0.50615E+06         0.00000E+00
    0.50615E+06        -0.60142E+08         0.00000E+00
    0.00000E+00         0.00000E+00        -0.33721E+08
 
   -0.33168E+08         0.58391E+06         0.00000E+00
    0.58391E+06        -0.60124E+08         0.00000E+00
    0.00000E+00         0.00000E+00        -0.33661E+08
 
   -0.33211E+08         0.66473E+06         0.00000E+00
    0.66473E+06        -0.60095E+08         0.00000E+00
    0.00000E+00         0.00000E+00        -0.33585E+08
 
   -0.33258E+08         0.74617E+06         0.00000E+00
    0.74617E+06        -0.60056E+08         0.00000E+00
    0.00000E+00         0.00000E+00        -0.33494E+08
 
   -0.33307E+08         0.82536E+06         0.00000E+00
    0.82536E+06        -0.60006E+08         0.00000E+00
    0.00000E+00         0.00000E+00        -0.33389E+08
 
   -0.32871E+08         0.19509E+05         0.00000E+00
    0.19509E+05        -0.60004E+08         0.00000E+00
    0.00000E+00         0.00000E+00        -0.33521E+08
 
   -0.32880E+08         0.55076E+05         0.00000E+00
    0.55076E+05        -0.60019E+08         0.00000E+00
    0.00000E+00         0.00000E+00        -0.33531E+08
 
   -0.32895E+08         0.85758E+05         0.00000E+00
    0.85758E+05        -0.60043E+08         0.00000E+00
    0.00000E+00         0.00000E+00        -0.33547E+08
 
   -0.32912E+08         0.11661E+06         0.00000E+00
    0.11661E+06        -0.60072E+08         0.00000E+00
    0.00000E+00         0.00000E+00        -0.33567E+08
 
   -0.32929E+08         0.15095E+06         0.00000E+00
    0.15095E+06        -0.60102E+08         0.00000E+00
    0.00000E+00         0.00000E+00        -0.33590E+08
 
   -0.32945E+08         0.19110E+06         0.00000E+00
    0.19110E+06        -0.60132E+08         0.00000E+00
    0.00000E+00         0.00000E+00        -0.33612E+08
 
   -0.32960E+08         0.23874E+06         0.00000E+00
    0.23874E+06        -0.60158E+08         0.00000E+00
    0.00000E+00         0.00000E+00        -0.33630E+08
 
   -0.32977E+08         0.29502E+06         0.00000E+00
    0.29502E+06        -0.60179E+08         0.00000E+00
    0.00000E+00         0.00000E+00        -0.33641E+08
 
   -0.32996E+08         0.36039E+06         0.00000E+00
    0.36039E+06        -0.60194E+08         0.00000E+00
    0.00000E+00         0.00000E+00        -0.33643E+08
 
   -0.33019E+08         0.43450E+06         0.00000E+00
    0.43450E+06        -0.60200E+08         0.00000E+00
    0.00000E+00         0.00000E+00        -0.33631E+08
 
   -0.33048E+08         0.51653E+06         0.00000E+00
    0.51653E+06        -0.60198E+08         0.00000E+00
    0.00000E+00         0.00000E+00        -0.33603E+08
 
   -0.33083E+08         0.60457E+06         0.00000E+00
    0.60457E+06        -0.60186E+08         0.00000E+00
    0.00000E+00         0.00000E+00        -0.33558E+08
 
   -0.33125E+08         0.69625E+06         0.00000E+00
    0.69625E+06        -0.60163E+08         0.00000E+00
    0.00000E+00         0.00000E+00        -0.33493E+08
 
   -0.33173E+08         0.78854E+06         0.00000E+00
    0.78854E+06        -0.60129E+08         0.00000E+00
    0.00000E+00         0.00000E+00        -0.33410E+08
 
   -0.33226E+08         0.87791E+06         0.00000E+00
    0.87791E+06        -0.60084E+08         0.00000E+00
    0.00000E+00         0.00000E+00        -0.33309E+08
 
   -0.32839E+08         0.10567E+05         0.00000E+00
    0.10567E+05        -0.60004E+08         0.00000E+00
    0.00000E+00         0.00000E+00        -0.33257E+08
 
   -0.32852E+08         0.33158E+05         0.00000E+00
    0.33158E+05        -0.60021E+08         0.00000E+00
    0.00000E+00         0.00000E+00        -0.33265E+08
 
   -0.32868E+08         0.56159E+05         0.00000E+00
    0.56159E+05        -0.60048E+08         0.00000E+00
    0.00000E+00         0.00000E+00        -0.33284E+08
 
   -0.32881E+08         0.83568E+05         0.00000E+00
    0.83568E+05        -0.60081E+08         0.00000E+00
    0.00000E+00         0.00000E+00        -0.33314E+08
 
   -0.32891E+08         0.11757E+06         0.00000E+00
    0.11757E+06        -0.60116E+08         0.00000E+00
    0.00000E+00         0.00000E+00        -0.33349E+08
 
   -0.32899E+08         0.15985E+06         0.00000E+00
    0.15985E+06        -0.60151E+08         0.00000E+00
    0.00000E+00         0.00000E+00        -0.33387E+08
 
   -0.32906E+08         0.21160E+06         0.00000E+00
    0.21160E+06        -0.60183E+08         0.00000E+00
    0.00000E+00         0.00000E+00        -0.33423E+08
 
   -0.32913E+08         0.27360E+06         0.00000E+00
    0.27360E+06        -0.60210E+08         0.00000E+00
    0.00000E+00         0.00000E+00        -0.33453E+08
 
   -0.32923E+08         0.34608E+06         0.00000E+00
    0.34608E+06        -0.60231E+08         0.00000E+00
    0.00000E+00         0.00000E+00        -0.33474E+08
 
   -0.32937E+08         0.42869E+06         0.00000E+00
    0.42869E+06        -0.60245E+08         0.00000E+00
    0.00000E+00         0.00000E+00        -0.33481E+08
 
   -0.32958E+08         0.52026E+06         0.00000E+00
    0.52026E+06        -0.60249E+08         0.00000E+00
    0.00000E+00         0.00000E+00        -0.33471E+08
 
   -0.32988E+08         0.61885E+06         0.00000E+00
    0.61885E+06        -0.60244E+08         0.00000E+00
    0.00000E+00         0.00000E+00        -0.33442E+08
 
   -0.33027E+08         0.72172E+06         0.00000E+00
    0.72172E+06        -0.60228E+08         0.00000E+00
    0.00000E+00         0.00000E+00        -0.33390E+08
 
   -0.33076E+08         0.82539E+06         0.00000E+00
    0.82539E+06        -0.60200E+08         0.00000E+00
    0.00000E+00         0.00000E+00        -0.33316E+08
 
   -0.33135E+08         0.92553E+06         0.00000E+00
    0.92553E+06        -0.60161E+08         0.00000E+00
    0.00000E+00         0.00000E+00        -0.33220E+08
 
   -0.32823E+08         0.11024E+04         0.00000E+00
    0.11024E+04        -0.60005E+08         0.00000E+00
    0.00000E+00         0.00000E+00        -0.32963E+08
 
   -0.32836E+08         0.94920E+04         0.00000E+00
    0.94920E+04        -0.60022E+08         0.00000E+00
    0.00000E+00         0.00000E+00        -0.32972E+08
 
   -0.32846E+08         0.23789E+05         0.00000E+00
    0.23789E+05        -0.60050E+08         0.00000E+00
    0.00000E+00         0.00000E+00        -0.32999E+08
 
   -0.32851E+08         0.46628E+05         0.00000E+00
    0.46628E+05        -0.60086E+08         0.00000E+00
    0.00000E+00         0.00000E+00        -0.33040E+08
 
   -0.32853E+08         0.79505E+05         0.00000E+00
    0.79505E+05        -0.60125E+08         0.00000E+00
    0.00000E+00         0.00000E+00        -0.33090E+08
 
   -0.32851E+08         0.12323E+06         0.00000E+00
    0.12323E+06        -0.60164E+08         0.00000E+00
    0.00000E+00         0.00000E+00        -0.33144E+08
 
   -0.32847E+08         0.17863E+06         0.00000E+00
    0.17863E+06        -0.60201E+08         0.00000E+00
    0.00000E+00         0.00000E+00        -0.33197E+08
 
   -0.32843E+08         0.24599E+06         0.00000E+00
    0.24599E+06        -0.60234E+08         0.00000E+00
    0.00000E+00         0.00000E+00        -0.33247E+08
 
   -0.32841E+08         0.32531E+06         0.00000E+00
    0.32531E+06        -0.60261E+08         0.00000E+00
    0.00000E+00         0.00000E+00        -0.33287E+08
 
   -0.32845E+08         0.41610E+06         0.00000E+00
    0.41610E+06        -0.60281E+08         0.00000E+00
    0.00000E+00         0.00000E+00        -0.33314E+08
 
   -0.32858E+08         0.51707E+06         0.00000E+00
    0.51707E+06        -0.60293E+08         0.00000E+00
    0.00000E+00         0.00000E+00        -0.33323E+08
 
   -0.32882E+08         0.62612E+06         0.00000E+00
    0.62612E+06        -0.60295E+08         0.00000E+00
    0.00000E+00         0.00000E+00        -0.33311E+08
 
   -0.32918E+08         0.74025E+06         0.00000E+00
    0.74025E+06        -0.60286E+08         0.00000E+00
    0.00000E+00         0.00000E+00        -0.33274E+08
 
   -0.32968E+08         0.85560E+06         0.00000E+00
    0.85560E+06        -0.60265E+08         0.00000E+00
    0.00000E+00         0.00000E+00        -0.33211E+08
 
   -0.33032E+08         0.96789E+06         0.00000E+00
    0.96789E+06        -0.60232E+08         0.00000E+00
    0.00000E+00         0.00000E+00        -0.33120E+08
 
   -0.32825E+08        -0.86180E+04         0.00000E+00
   -0.86180E+04        -0.60005E+08         0.00000E+00
    0.00000E+00         0.00000E+00        -0.32639E+08
 
   -0.32831E+08        -0.14936E+05         0.00000E+00
   -0.14936E+05        -0.60022E+08         0.00000E+00
    0.00000E+00         0.00000E+00        -0.32656E+08
 
   -0.32831E+08        -0.10159E+05         0.00000E+00
   -0.10159E+05        -0.60051E+08         0.00000E+00
    0.00000E+00         0.00000E+00        -0.32694E+08
 
   -0.32825E+08         0.71836E+04         0.00000E+00
    0.71836E+04        -0.60089E+08         0.00000E+00
    0.00000E+00         0.00000E+00        -0.32748E+08
 
   -0.32815E+08         0.37925E+05         0.00000E+00
    0.37925E+05        -0.60130E+08         0.00000E+00
    0.00000E+00         0.00000E+00        -0.32812E+08
 
   -0.32800E+08         0.82356E+05         0.00000E+00
    0.82356E+05        -0.60172E+08         0.00000E+00
    0.00000E+00         0.00000E+00        -0.32882E+08
 
   -0.32783E+08         0.14070E+06         0.00000E+00
    0.14070E+06        -0.60213E+08         0.00000E+00
    0.00000E+00         0.00000E+00        -0.32954E+08
 
   -0.32766E+08         0.21277E+06         0.00000E+00
    0.21277E+06        -0.60251E+08         0.00000E+00
    0.00000E+00         0.00000E+00        -0.33022E+08
 
   -0.32752E+08         0.29845E+06         0.00000E+00
    0.29845E+06        -0.60283E+08         0.00000E+00
    0.00000E+00         0.00000E+00        -0.33082E+08
 
   -0.32745E+08         0.39689E+06         0.00000E+00
    0.39689E+06        -0.60309E+08         0.00000E+00
    0.00000E+00         0.00000E+00        -0.33129E+08
 
   -0.32748E+08         0.50672E+06         0.00000E+00
    0.50672E+06        -0.60327E+08         0.00000E+00
    0.00000E+00         0.00000E+00        -0.33159E+08
 
   -0.32765E+08         0.62583E+06         0.00000E+00
    0.62583E+06        -0.60337E+08         0.00000E+00
    0.00000E+00         0.00000E+00        -0.33165E+08
 
   -0.32798E+08         0.75112E+06         0.00000E+00
    0.75112E+06        -0.60336E+08         0.00000E+00
    0.00000E+00         0.00000E+00        -0.33144E+08
 
   -0.32848E+08         0.87845E+06         0.00000E+00
    0.87845E+06        -0.60323E+08         0.00000E+00
    0.00000E+00         0.00000E+00        -0.33093E+08
 
   -0.32918E+08         0.10031E+07         0.00000E+00
    0.10031E+07        -0.60298E+08         0.00000E+00
    0.00000E+00         0.00000E+00        -0.33009E+08
 
   -0.32846E+08        -0.18185E+05         0.00000E+00
   -0.18185E+05        -0.60005E+08         0.00000E+00
    0.00000E+00         0.00000E+00        -0.32289E+08
 
   -0.32839E+08        -0.39329E+05         0.00000E+00
   -0.39329E+05        -0.60021E+08         0.00000E+00
    0.00000E+00         0.00000E+00        -0.32317E+08
 
   -0.32824E+08        -0.44719E+05         0.00000E+00
   -0.44719E+05        -0.60051E+08         0.00000E+00
    0.00000E+00         0.00000E+00        -0.32369E+08
 
   -0.32804E+08        -0.33558E+05         0.00000E+00
   -0.33558E+05        -0.60089E+08         0.00000E+00
    0.00000E+00         0.00000E+00        -0.32437E+08
 
   -0.32778E+08        -0.57305E+04         0.00000E+00
   -0.57305E+04        -0.60131E+08         0.00000E+00
    0.00000E+00         0.00000E+00        -0.32517E+08
 
   -0.32748E+08         0.38644E+05         0.00000E+00
    0.38644E+05        -0.60175E+08         0.00000E+00
    0.00000E+00         0.00000E+00        -0.32604E+08
 
   -0.32716E+08         0.99097E+05         0.00000E+00
    0.99097E+05        -0.60218E+08         0.00000E+00
    0.00000E+00         0.00000E+00        -0.32692E+08
 
   -0.32685E+08         0.17522E+06         0.00000E+00
    0.17522E+06        -0.60259E+08         0.00000E+00
    0.00000E+00         0.00000E+00        -0.32779E+08
 
   -0.32657E+08         0.26625E+06         0.00000E+00
    0.26625E+06        -0.60295E+08         0.00000E+00
    0.00000E+00         0.00000E+00        -0.32858E+08
 
   -0.32637E+08         0.37133E+06         0.00000E+00
    0.37133E+06        -0.60327E+08         0.00000E+00
    0.00000E+00         0.00000E+00        -0.32925E+08
 
   -0.32629E+08         0.48914E+06         0.00000E+00
    0.48914E+06        -0.60351E+08         0.00000E+00
    0.00000E+00         0.00000E+00        -0.32975E+08
 
   -0.32637E+08         0.61758E+06         0.00000E+00
    0.61758E+06        -0.60368E+08         0.00000E+00
    0.00000E+00         0.00000E+00        -0.33001E+08
 
   -0.32665E+08         0.75364E+06         0.00000E+00
    0.75364E+06        -0.60376E+08         0.00000E+00
    0.00000E+00         0.00000E+00        -0.32997E+08
 
   -0.32716E+08         0.89311E+06         0.00000E+00
    0.89311E+06        -0.60372E+08         0.00000E+00
    0.00000E+00         0.00000E+00        -0.32960E+08
 
   -0.32792E+08         0.10299E+07         0.00000E+00
    0.10299E+07        -0.60356E+08         0.00000E+00
    0.00000E+00         0.00000E+00        -0.32884E+08
 
   -0.32883E+08        -0.27353E+05         0.00000E+00
   -0.27353E+05        -0.60004E+08         0.00000E+00
    0.00000E+00         0.00000E+00        -0.31916E+08
 
   -0.32858E+08        -0.63212E+05         0.00000E+00
   -0.63212E+05        -0.60021E+08         0.00000E+00
    0.00000E+00         0.00000E+00        -0.31959E+08
 
   -0.32826E+08        -0.78880E+05         0.00000E+00
   -0.78880E+05        -0.60049E+08         0.00000E+00
    0.00000E+00         0.00000E+00        -0.32026E+08
 
   -0.32787E+08        -0.74360E+05         0.00000E+00
   -0.74360E+05        -0.60086E+08         0.00000E+00
    0.00000E+00         0.00000E+00        -0.32110E+08
 
   -0.32742E+08        -0.49925E+05         0.00000E+00
   -0.49925E+05        -0.60128E+08         0.00000E+00
    0.00000E+00         0.00000E+00        -0.32206E+08
 
   -0.32695E+08        -0.62367E+04         0.00000E+00
   -0.62367E+04        -0.60172E+08         0.00000E+00
    0.00000E+00         0.00000E+00        -0.32309E+08
 
   -0.32646E+08         0.55640E+05         0.00000E+00
    0.55640E+05        -0.60216E+08         0.00000E+00
    0.00000E+00         0.00000E+00        -0.32414E+08
 
   -0.32599E+08         0.13478E+06         0.00000E+00
    0.13478E+06        -0.60258E+08         0.00000E+00
    0.00000E+00         0.00000E+00        -0.32517E+08
 
   -0.32556E+08         0.22995E+06         0.00000E+00
    0.22995E+06        -0.60297E+08         0.00000E+00
    0.00000E+00         0.00000E+00        -0.32614E+08
 
   -0.32522E+08         0.34027E+06         0.00000E+00
    0.34027E+06        -0.60332E+08         0.00000E+00
    0.00000E+00         0.00000E+00        -0.32700E+08
 
   -0.32502E+08         0.46451E+06         0.00000E+00
    0.46451E+06        -0.60363E+08         0.00000E+00
    0.00000E+00         0.00000E+00        -0.32769E+08
 
   -0.32500E+08         0.60095E+06         0.00000E+00
    0.60095E+06        -0.60387E+08         0.00000E+00
    0.00000E+00         0.00000E+00        -0.32816E+08
 
   -0.32522E+08         0.74688E+06         0.00000E+00
    0.74688E+06        -0.60404E+08         0.00000E+00
    0.00000E+00         0.00000E+00        -0.32832E+08
 
   -0.32572E+08         0.89813E+06         0.00000E+00
    0.89813E+06        -0.60410E+08         0.00000E+00
    0.00000E+00         0.00000E+00        -0.32811E+08
 
   -0.32652E+08         0.10479E+07         0.00000E+00
    0.10479E+07        -0.60405E+08         0.00000E+00
    0.00000E+00         0.00000E+00        -0.32746E+08
 
   -0.32937E+08        -0.36083E+05         0.00000E+00
   -0.36083E+05        -0.60004E+08         0.00000E+00
    0.00000E+00         0.00000E+00        -0.31523E+08
 
   -0.32890E+08        -0.86083E+05         0.00000E+00
   -0.86083E+05        -0.60020E+08         0.00000E+00
    0.00000E+00         0.00000E+00        -0.31585E+08
 
   -0.32836E+08        -0.11190E+06         0.00000E+00
   -0.11190E+06        -0.60047E+08         0.00000E+00
    0.00000E+00         0.00000E+00        -0.31669E+08
 
   -0.32775E+08        -0.11394E+06         0.00000E+00
   -0.11394E+06        -0.60082E+08         0.00000E+00
    0.00000E+00         0.00000E+00        -0.31770E+08
 
   -0.32709E+08        -0.93032E+05         0.00000E+00
   -0.93032E+05        -0.60123E+08         0.00000E+00
    0.00000E+00         0.00000E+00        -0.31881E+08
 
   -0.32642E+08        -0.50416E+05         0.00000E+00
   -0.50416E+05        -0.60165E+08         0.00000E+00
    0.00000E+00         0.00000E+00        -0.31999E+08
 
   -0.32575E+08         0.12265E+05         0.00000E+00
    0.12265E+05        -0.60207E+08         0.00000E+00
    0.00000E+00         0.00000E+00        -0.32118E+08
 
   -0.32510E+08         0.93369E+05         0.00000E+00
    0.93369E+05        -0.60249E+08         0.00000E+00
    0.00000E+00         0.00000E+00        -0.32236E+08
 
   -0.32451E+08         0.19135E+06         0.00000E+00
    0.19135E+06        -0.60288E+08         0.00000E+00
    0.00000E+00         0.00000E+00        -0.32348E+08
 
   -0.32402E+08         0.30497E+06         0.00000E+00
    0.30497E+06        -0.60325E+08         0.00000E+00
    0.00000E+00         0.00000E+00        -0.32451E+08
 
   -0.32368E+08         0.43344E+06         0.00000E+00
    0.43344E+06        -0.60360E+08         0.00000E+00
    0.00000E+00         0.00000E+00        -0.32540E+08
 
   -0.32355E+08         0.57582E+06         0.00000E+00
    0.57582E+06        -0.60392E+08         0.00000E+00
    0.00000E+00         0.00000E+00        -0.32608E+08
 
   -0.32368E+08         0.72995E+06         0.00000E+00
    0.72995E+06        -0.60418E+08         0.00000E+00
    0.00000E+00         0.00000E+00        -0.32646E+08
 
   -0.32415E+08         0.89189E+06         0.00000E+00
    0.89189E+06        -0.60436E+08         0.00000E+00
    0.00000E+00         0.00000E+00        -0.32644E+08
 
   -0.32500E+08         0.10552E+07         0.00000E+00
    0.10552E+07        -0.60442E+08         0.00000E+00
    0.00000E+00         0.00000E+00        -0.32593E+08
 
   -0.33007E+08        -0.44328E+05         0.00000E+00
   -0.44328E+05        -0.60004E+08         0.00000E+00
    0.00000E+00         0.00000E+00        -0.31114E+08
 
   -0.32934E+08        -0.10768E+06         0.00000E+00
   -0.10768E+06        -0.60019E+08         0.00000E+00
    0.00000E+00         0.00000E+00        -0.31196E+08
 
   -0.32854E+08        -0.14295E+06         0.00000E+00
   -0.14295E+06        -0.60044E+08         0.00000E+00
    0.00000E+00         0.00000E+00        -0.31299E+08
 
   -0.32768E+08        -0.15108E+06         0.00000E+00
   -0.15108E+06        -0.60077E+08         0.00000E+00
    0.00000E+00         0.00000E+00        -0.31417E+08
 
   -0.32679E+08        -0.13345E+06         0.00000E+00
   -0.13345E+06        -0.60114E+08         0.00000E+00
    0.00000E+00         0.00000E+00        -0.31544E+08
 
   -0.32589E+08        -0.91935E+05         0.00000E+00
   -0.91935E+05        -0.60152E+08         0.00000E+00
    0.00000E+00         0.00000E+00        -0.31675E+08
 
   -0.32502E+08        -0.28890E+05         0.00000E+00
   -0.28890E+05        -0.60191E+08         0.00000E+00
    0.00000E+00         0.00000E+00        -0.31807E+08
 
   -0.32420E+08         0.53247E+05         0.00000E+00
    0.53247E+05        -0.60230E+08         0.00000E+00
    0.00000E+00         0.00000E+00        -0.31936E+08
 
   -0.32344E+08         0.15242E+06         0.00000E+00
    0.15242E+06        -0.60267E+08         0.00000E+00
    0.00000E+00         0.00000E+00        -0.32061E+08
 
   -0.32280E+08         0.26718E+06         0.00000E+00
    0.26718E+06        -0.60305E+08         0.00000E+00
    0.00000E+00         0.00000E+00        -0.32178E+08
 
   -0.32231E+08         0.39717E+06         0.00000E+00
    0.39717E+06        -0.60343E+08         0.00000E+00
    0.00000E+00         0.00000E+00        -0.32285E+08
 
   -0.32204E+08         0.54230E+06         0.00000E+00
    0.54230E+06        -0.60380E+08         0.00000E+00
    0.00000E+00         0.00000E+00        -0.32374E+08
 
   -0.32206E+08         0.70207E+06         0.00000E+00
    0.70207E+06        -0.60416E+08         0.00000E+00
    0.00000E+00         0.00000E+00        -0.32436E+08
 
   -0.32247E+08         0.87339E+06         0.00000E+00
    0.87339E+06        -0.60446E+08         0.00000E+00
    0.00000E+00         0.00000E+00        -0.32457E+08
 
   -0.32334E+08         0.10496E+07         0.00000E+00
    0.10496E+07        -0.60466E+08         0.00000E+00
    0.00000E+00         0.00000E+00        -0.32423E+08
 
   -0.33093E+08        -0.52074E+05         0.00000E+00
   -0.52074E+05        -0.60004E+08         0.00000E+00
    0.00000E+00         0.00000E+00        -0.30693E+08
 
   -0.32989E+08        -0.12776E+06         0.00000E+00
   -0.12776E+06        -0.60018E+08         0.00000E+00
    0.00000E+00         0.00000E+00        -0.30796E+08
 
   -0.32879E+08        -0.17141E+06         0.00000E+00
   -0.17141E+06        -0.60041E+08         0.00000E+00
    0.00000E+00         0.00000E+00        -0.30919E+08
 
   -0.32765E+08        -0.18459E+06         0.00000E+00
   -0.18459E+06        -0.60070E+08         0.00000E+00
    0.00000E+00         0.00000E+00        -0.31054E+08
 
   -0.32650E+08        -0.16944E+06         0.00000E+00
   -0.16944E+06        -0.60102E+08         0.00000E+00
    0.00000E+00         0.00000E+00        -0.31196E+08
 
   -0.32537E+08        -0.12873E+06         0.00000E+00
   -0.12873E+06        -0.60135E+08         0.00000E+00
    0.00000E+00         0.00000E+00        -0.31339E+08
 
   -0.32429E+08        -0.65618E+05         0.00000E+00
   -0.65618E+05        -0.60168E+08         0.00000E+00
    0.00000E+00         0.00000E+00        -0.31480E+08
 
   -0.32328E+08         0.16595E+05         0.00000E+00
    0.16595E+05        -0.60201E+08         0.00000E+00
    0.00000E+00         0.00000E+00        -0.31618E+08
 
   -0.32237E+08         0.11527E+06         0.00000E+00
    0.11527E+06        -0.60235E+08         0.00000E+00
    0.00000E+00         0.00000E+00        -0.31752E+08
 
   -0.32158E+08         0.22887E+06         0.00000E+00
    0.22887E+06        -0.60271E+08         0.00000E+00
    0.00000E+00         0.00000E+00        -0.31880E+08
 
   -0.32093E+08         0.35715E+06         0.00000E+00
    0.35715E+06        -0.60310E+08         0.00000E+00
    0.00000E+00         0.00000E+00        -0.32001E+08
 
   -0.32050E+08         0.50135E+06         0.00000E+00
    0.50135E+06        -0.60352E+08         0.00000E+00
    0.00000E+00         0.00000E+00        -0.32110E+08
 
   -0.32037E+08         0.66294E+06         0.00000E+00
    0.66294E+06        -0.60396E+08         0.00000E+00
    0.00000E+00         0.00000E+00        -0.32198E+08
 
   -0.32067E+08         0.84100E+06         0.00000E+00
    0.84100E+06        -0.60439E+08         0.00000E+00
    0.00000E+00         0.00000E+00        -0.32247E+08
 
   -0.32154E+08         0.10296E+07         0.00000E+00
    0.10296E+07        -0.60475E+08         0.00000E+00
    0.00000E+00         0.00000E+00        -0.32236E+08
 
   -0.33192E+08        -0.59400E+05         0.00000E+00
   -0.59400E+05        -0.60004E+08         0.00000E+00
    0.00000E+00         0.00000E+00        -0.30262E+08
 
   -0.33053E+08        -0.14611E+06         0.00000E+00
   -0.14611E+06        -0.60017E+08         0.00000E+00
    0.00000E+00         0.00000E+00        -0.30389E+08
 
   -0.32910E+08        -0.19651E+06         0.00000E+00
   -0.19651E+06        -0.60037E+08         0.00000E+00
    0.00000E+00         0.00000E+00        -0.30532E+08
 
   -0.32765E+08        -0.21310E+06         0.00000E+00
   -0.21310E+06        -0.60061E+08         0.00000E+00
    0.00000E+00         0.00000E+00        -0.30684E+08
 
   -0.32622E+08        -0.19910E+06         0.00000E+00
   -0.19910E+06        -0.60087E+08         0.00000E+00
    0.00000E+00         0.00000E+00        -0.30839E+08
 
   -0.32485E+08        -0.15852E+06         0.00000E+00
   -0.15852E+06        -0.60112E+08         0.00000E+00
    0.00000E+00         0.00000E+00        -0.30991E+08
 
   -0.32357E+08        -0.95711E+05         0.00000E+00
   -0.95711E+05        -0.60137E+08         0.00000E+00
    0.00000E+00         0.00000E+00        -0.31138E+08
 
   -0.32238E+08        -0.14633E+05         0.00000E+00
   -0.14633E+05        -0.60163E+08         0.00000E+00
    0.00000E+00         0.00000E+00        -0.31280E+08
 
   -0.32132E+08         0.81685E+05         0.00000E+00
    0.81685E+05        -0.60192E+08         0.00000E+00
    0.00000E+00         0.00000E+00        -0.31419E+08
 
   -0.32038E+08         0.19166E+06         0.00000E+00
    0.19166E+06        -0.60225E+08         0.00000E+00
    0.00000E+00         0.00000E+00        -0.31555E+08
 
   -0.31958E+08         0.31535E+06         0.00000E+00
    0.31535E+06        -0.60263E+08         0.00000E+00
    0.00000E+00         0.00000E+00        -0.31689E+08
 
   -0.31898E+08         0.45472E+06         0.00000E+00
    0.45472E+06        -0.60308E+08         0.00000E+00
    0.00000E+00         0.00000E+00        -0.31817E+08
 
   -0.31866E+08         0.61312E+06         0.00000E+00
    0.61312E+06        -0.60359E+08         0.00000E+00
    0.00000E+00         0.00000E+00        -0.31930E+08
 
   -0.31880E+08         0.79338E+06         0.00000E+00
    0.79338E+06        -0.60415E+08         0.00000E+00
    0.00000E+00         0.00000E+00        -0.32011E+08
 
   -0.31960E+08         0.99212E+06         0.00000E+00
    0.99212E+06        -0.60467E+08         0.00000E+00
    0.00000E+00         0.00000E+00        -0.32028E+08
 
   -0.33304E+08        -0.66322E+05         0.00000E+00
   -0.66322E+05        -0.60004E+08         0.00000E+00
    0.00000E+00         0.00000E+00        -0.29825E+08
 
   -0.33125E+08        -0.16254E+06         0.00000E+00
   -0.16254E+06        -0.60015E+08         0.00000E+00
    0.00000E+00         0.00000E+00        -0.29976E+08
 
   -0.32945E+08        -0.21752E+06         0.00000E+00
   -0.21752E+06        -0.60033E+08         0.00000E+00
    0.00000E+00         0.00000E+00        -0.30141E+08
 
   -0.32766E+08        -0.23502E+06         0.00000E+00
   -0.23502E+06        -0.60051E+08         0.00000E+00
    0.00000E+00         0.00000E+00        -0.30309E+08
 
   -0.32594E+08        -0.22019E+06         0.00000E+00
   -0.22019E+06        -0.60067E+08         0.00000E+00
    0.00000E+00         0.00000E+00        -0.30473E+08
 
   -0.32433E+08        -0.17891E+06         0.00000E+00
   -0.17891E+06        -0.60082E+08         0.00000E+00
    0.00000E+00         0.00000E+00        -0.30630E+08
 
   -0.32285E+08        -0.11689E+06         0.00000E+00
   -0.11689E+06        -0.60096E+08         0.00000E+00
    0.00000E+00         0.00000E+00        -0.30779E+08
 
   -0.32151E+08        -0.38689E+05         0.00000E+00
   -0.38689E+05        -0.60114E+08         0.00000E+00
    0.00000E+00         0.00000E+00        -0.30922E+08
 
   -0.32031E+08         0.52849E+05         0.00000E+00
    0.52849E+05        -0.60136E+08         0.00000E+00
    0.00000E+00         0.00000E+00        -0.31062E+08
 
   -0.31924E+08         0.15659E+06         0.00000E+00
    0.15659E+06        -0.60165E+08         0.00000E+00
    0.00000E+00         0.00000E+00        -0.31204E+08
 
   -0.31830E+08         0.27291E+06         0.00000E+00
    0.27291E+06        -0.60203E+08         0.00000E+00
    0.00000E+00         0.00000E+00        -0.31347E+08
 
   -0.31752E+08         0.40386E+06         0.00000E+00
    0.40386E+06        -0.60249E+08         0.00000E+00
    0.00000E+00         0.00000E+00        -0.31492E+08
 
   -0.31698E+08         0.55413E+06         0.00000E+00
    0.55413E+06        -0.60306E+08         0.00000E+00
    0.00000E+00         0.00000E+00        -0.31631E+08
 
   -0.31687E+08         0.73049E+06         0.00000E+00
    0.73049E+06        -0.60371E+08         0.00000E+00
    0.00000E+00         0.00000E+00        -0.31747E+08
 
   -0.31754E+08         0.93759E+06         0.00000E+00
    0.93759E+06        -0.60442E+08         0.00000E+00
    0.00000E+00         0.00000E+00        -0.31800E+08
 
   -0.33428E+08        -0.72957E+05         0.00000E+00
   -0.72957E+05        -0.60004E+08         0.00000E+00
    0.00000E+00         0.00000E+00        -0.29384E+08
 
   -0.33203E+08        -0.17673E+06         0.00000E+00
   -0.17673E+06        -0.60014E+08         0.00000E+00
    0.00000E+00         0.00000E+00        -0.29562E+08
 
   -0.32981E+08        -0.23306E+06         0.00000E+00
   -0.23306E+06        -0.60027E+08         0.00000E+00
    0.00000E+00         0.00000E+00        -0.29748E+08
 
   -0.32766E+08        -0.24812E+06         0.00000E+00
   -0.24812E+06        -0.60036E+08         0.00000E+00
    0.00000E+00         0.00000E+00        -0.29930E+08
 
   -0.32565E+08        -0.23006E+06         0.00000E+00
   -0.23006E+06        -0.60041E+08         0.00000E+00
    0.00000E+00         0.00000E+00        -0.30100E+08
 
   -0.32381E+08        -0.18738E+06         0.00000E+00
   -0.18738E+06        -0.60043E+08         0.00000E+00
    0.00000E+00         0.00000E+00        -0.30256E+08
 
   -0.32216E+08        -0.12719E+06         0.00000E+00
   -0.12719E+06        -0.60045E+08         0.00000E+00
    0.00000E+00         0.00000E+00        -0.30401E+08
 
   -0.32069E+08        -0.54125E+05         0.00000E+00
   -0.54125E+05        -0.60052E+08         0.00000E+00
    0.00000E+00         0.00000E+00        -0.30540E+08
 
   -0.31937E+08         0.29643E+05         0.00000E+00
    0.29643E+05        -0.60067E+08         0.00000E+00
    0.00000E+00         0.00000E+00        -0.30679E+08
 
   -0.31819E+08         0.12393E+06         0.00000E+00
    0.12393E+06        -0.60092E+08         0.00000E+00
    0.00000E+00         0.00000E+00        -0.30823E+08
 
   -0.31711E+08         0.22984E+06         0.00000E+00
    0.22984E+06        -0.60129E+08         0.00000E+00
    0.00000E+00         0.00000E+00        -0.30974E+08
 
   -0.31616E+08         0.34982E+06         0.00000E+00
    0.34982E+06        -0.60178E+08         0.00000E+00
    0.00000E+00         0.00000E+00        -0.31135E+08
 
   -0.31538E+08         0.48850E+06         0.00000E+00
    0.48850E+06        -0.60239E+08         0.00000E+00
    0.00000E+00         0.00000E+00        -0.31300E+08
 
   -0.31496E+08         0.65438E+06         0.00000E+00
    0.65438E+06        -0.60313E+08         0.00000E+00
    0.00000E+00         0.00000E+00        -0.31454E+08
 
   -0.31539E+08         0.85591E+06         0.00000E+00
    0.85591E+06        -0.60400E+08         0.00000E+00
    0.00000E+00         0.00000E+00        -0.31550E+08
 
   -0.33562E+08        -0.79425E+05         0.00000E+00
   -0.79425E+05        -0.60004E+08         0.00000E+00
    0.00000E+00         0.00000E+00        -0.28942E+08
 
   -0.33283E+08        -0.18785E+06         0.00000E+00
   -0.18785E+06        -0.60013E+08         0.00000E+00
    0.00000E+00         0.00000E+00        -0.29150E+08
 
   -0.33014E+08        -0.24080E+06         0.00000E+00
   -0.24080E+06        -0.60018E+08         0.00000E+00
    0.00000E+00         0.00000E+00        -0.29357E+08
 
   -0.32761E+08        -0.24904E+06         0.00000E+00
   -0.24904E+06        -0.60015E+08         0.00000E+00
    0.00000E+00         0.00000E+00        -0.29548E+08
 
   -0.32532E+08        -0.22555E+06         0.00000E+00
   -0.22555E+06        -0.60005E+08         0.00000E+00
    0.00000E+00         0.00000E+00        -0.29716E+08
 
   -0.32330E+08        -0.18175E+06         0.00000E+00
   -0.18175E+06        -0.59991E+08         0.00000E+00
    0.00000E+00         0.00000E+00        -0.29865E+08
 
   -0.32152E+08        -0.12530E+06         0.00000E+00
   -0.12530E+06        -0.59979E+08         0.00000E+00
    0.00000E+00         0.00000E+00        -0.30001E+08
 
   -0.31995E+08        -0.60079E+05         0.00000E+00
   -0.60079E+05        -0.59975E+08         0.00000E+00
    0.00000E+00         0.00000E+00        -0.30132E+08
 
   -0.31854E+08         0.12783E+05         0.00000E+00
    0.12783E+05        -0.59982E+08         0.00000E+00
    0.00000E+00         0.00000E+00        -0.30266E+08
 
   -0.31725E+08         0.93936E+05         0.00000E+00
    0.93936E+05        -0.60003E+08         0.00000E+00
    0.00000E+00         0.00000E+00        -0.30409E+08
 
   -0.31605E+08         0.18559E+06         0.00000E+00
    0.18559E+06        -0.60039E+08         0.00000E+00
    0.00000E+00         0.00000E+00        -0.30567E+08
 
   -0.31494E+08         0.29117E+06         0.00000E+00
    0.29117E+06        -0.60092E+08         0.00000E+00
    0.00000E+00         0.00000E+00        -0.30743E+08
 
   -0.31393E+08         0.41520E+06         0.00000E+00
    0.41520E+06        -0.60160E+08         0.00000E+00
    0.00000E+00         0.00000E+00        -0.30936E+08
 
   -0.31315E+08         0.56637E+06         0.00000E+00
    0.56637E+06        -0.60244E+08         0.00000E+00
    0.00000E+00         0.00000E+00        -0.31132E+08
 
   -0.31315E+08         0.76269E+06         0.00000E+00
    0.76269E+06        -0.60339E+08         0.00000E+00
    0.00000E+00         0.00000E+00        -0.31278E+08
 
   -0.33705E+08        -0.85764E+05         0.00000E+00
   -0.85764E+05        -0.60004E+08         0.00000E+00
    0.00000E+00         0.00000E+00        -0.28503E+08
 
   -0.33361E+08        -0.19382E+06         0.00000E+00
   -0.19382E+06        -0.60009E+08         0.00000E+00
    0.00000E+00         0.00000E+00        -0.28743E+08
 
   -0.33038E+08        -0.23612E+06         0.00000E+00
   -0.23612E+06        -0.60003E+08         0.00000E+00
    0.00000E+00         0.00000E+00        -0.28966E+08
 
   -0.32748E+08        -0.23278E+06         0.00000E+00
   -0.23278E+06        -0.59981E+08         0.00000E+00
    0.00000E+00         0.00000E+00        -0.29157E+08
 
   -0.32497E+08        -0.20345E+06         0.00000E+00
   -0.20345E+06        -0.59950E+08         0.00000E+00
    0.00000E+00         0.00000E+00        -0.29315E+08
 
   -0.32281E+08        -0.16089E+06         0.00000E+00
   -0.16089E+06        -0.59920E+08         0.00000E+00
    0.00000E+00         0.00000E+00        -0.29450E+08
 
   -0.32095E+08        -0.11116E+06         0.00000E+00
   -0.11116E+06        -0.59895E+08         0.00000E+00
    0.00000E+00         0.00000E+00        -0.29573E+08
 
   -0.31932E+08        -0.56504E+05         0.00000E+00
   -0.56504E+05        -0.59881E+08         0.00000E+00
    0.00000E+00         0.00000E+00        -0.29693E+08
 
   -0.31785E+08         0.27178E+04         0.00000E+00
    0.27178E+04        -0.59881E+08         0.00000E+00
    0.00000E+00         0.00000E+00        -0.29819E+08
 
   -0.31648E+08         0.67510E+05         0.00000E+00
    0.67510E+05        -0.59896E+08         0.00000E+00
    0.00000E+00         0.00000E+00        -0.29959E+08
 
   -0.31516E+08         0.14058E+06         0.00000E+00
    0.14058E+06        -0.59930E+08         0.00000E+00
    0.00000E+00         0.00000E+00        -0.30120E+08
 
   -0.31388E+08         0.22669E+06         0.00000E+00
    0.22669E+06        -0.59985E+08         0.00000E+00
    0.00000E+00         0.00000E+00        -0.30309E+08
 
   -0.31264E+08         0.33276E+06         0.00000E+00
    0.33276E+06        -0.60062E+08         0.00000E+00
    0.00000E+00         0.00000E+00        -0.30529E+08
 
   -0.31146E+08         0.46834E+06         0.00000E+00
    0.46834E+06        -0.60156E+08         0.00000E+00
    0.00000E+00         0.00000E+00        -0.30772E+08
 
   -0.31084E+08         0.65389E+06         0.00000E+00
    0.65389E+06        -0.60264E+08         0.00000E+00
    0.00000E+00         0.00000E+00        -0.30989E+08
 
   -0.33854E+08        -0.91636E+05         0.00000E+00
   -0.91636E+05        -0.60004E+08         0.00000E+00
    0.00000E+00         0.00000E+00        -0.28069E+08
 
   -0.33427E+08        -0.18886E+06         0.00000E+00
   -0.18886E+06        -0.60000E+08         0.00000E+00
    0.00000E+00         0.00000E+00        -0.28342E+08
 
   -0.33047E+08        -0.21020E+06         0.00000E+00
   -0.21020E+06        -0.59970E+08         0.00000E+00
    0.00000E+00         0.00000E+00        -0.28571E+08
 
   -0.32726E+08        -0.19333E+06         0.00000E+00
   -0.19333E+06        -0.59921E+08         0.00000E+00
    0.00000E+00         0.00000E+00        -0.28746E+08
 
   -0.32460E+08        -0.16220E+06         0.00000E+00
   -0.16220E+06        -0.59869E+08         0.00000E+00
    0.00000E+00         0.00000E+00        -0.28884E+08
 
   -0.32238E+08        -0.12557E+06         0.00000E+00
   -0.12557E+06        -0.59823E+08         0.00000E+00
    0.00000E+00         0.00000E+00        -0.29002E+08
 
   -0.32049E+08        -0.86159E+05         0.00000E+00
   -0.86159E+05        -0.59788E+08         0.00000E+00
    0.00000E+00         0.00000E+00        -0.29111E+08
 
   -0.31882E+08        -0.44731E+05         0.00000E+00
   -0.44731E+05        -0.59766E+08         0.00000E+00
    0.00000E+00         0.00000E+00        -0.29220E+08
 
   -0.31731E+08        -0.11131E+04         0.00000E+00
   -0.11131E+04        -0.59759E+08         0.00000E+00
    0.00000E+00         0.00000E+00        -0.29337E+08
 
   -0.31589E+08         0.45616E+05         0.00000E+00
    0.45616E+05        -0.59770E+08         0.00000E+00
    0.00000E+00         0.00000E+00        -0.29471E+08
 
   -0.31449E+08         0.97368E+05         0.00000E+00
    0.97368E+05        -0.59800E+08         0.00000E+00
    0.00000E+00         0.00000E+00        -0.29630E+08
 
   -0.31305E+08         0.15864E+06         0.00000E+00
    0.15864E+06        -0.59854E+08         0.00000E+00
    0.00000E+00         0.00000E+00        -0.29825E+08
 
   -0.31153E+08         0.23939E+06         0.00000E+00
    0.23939E+06        -0.59935E+08         0.00000E+00
    0.00000E+00         0.00000E+00        -0.30067E+08
 
   -0.30995E+08         0.35529E+06         0.00000E+00
    0.35529E+06        -0.60048E+08         0.00000E+00
    0.00000E+00         0.00000E+00        -0.30365E+08
 
   -0.30851E+08         0.52358E+06         0.00000E+00
    0.52358E+06        -0.60176E+08         0.00000E+00
    0.00000E+00         0.00000E+00        -0.30683E+08
 
   -0.33999E+08        -0.93903E+05         0.00000E+00
   -0.93903E+05        -0.60001E+08         0.00000E+00
    0.00000E+00         0.00000E+00        -0.27644E+08
 
   -0.33468E+08        -0.15736E+06         0.00000E+00
   -0.15736E+06        -0.59971E+08         0.00000E+00
    0.00000E+00         0.00000E+00        -0.27942E+08
 
   -0.33037E+08        -0.15002E+06         0.00000E+00
   -0.15002E+06        -0.59897E+08         0.00000E+00
    0.00000E+00         0.00000E+00        -0.28147E+08
 
   -0.32701E+08        -0.12841E+06         0.00000E+00
   -0.12841E+06        -0.59819E+08         0.00000E+00
    0.00000E+00         0.00000E+00        -0.28294E+08
 
   -0.32430E+08        -0.10403E+06         0.00000E+00
   -0.10403E+06        -0.59749E+08         0.00000E+00
    0.00000E+00         0.00000E+00        -0.28409E+08
 
   -0.32206E+08        -0.78987E+05         0.00000E+00
   -0.78987E+05        -0.59692E+08         0.00000E+00
    0.00000E+00         0.00000E+00        -0.28511E+08
 
   -0.32016E+08        -0.53551E+05         0.00000E+00
   -0.53551E+05        -0.59650E+08         0.00000E+00
    0.00000E+00         0.00000E+00        -0.28607E+08
 
   -0.31848E+08        -0.27543E+05         0.00000E+00
   -0.27543E+05        -0.59623E+08         0.00000E+00
    0.00000E+00         0.00000E+00        -0.28708E+08
 
   -0.31695E+08        -0.71665E+03         0.00000E+00
   -0.71665E+03        -0.59614E+08         0.00000E+00
    0.00000E+00         0.00000E+00        -0.28818E+08
 
   -0.31550E+08         0.27436E+05         0.00000E+00
    0.27436E+05        -0.59622E+08         0.00000E+00
    0.00000E+00         0.00000E+00        -0.28947E+08
 
   -0.31405E+08         0.57782E+05         0.00000E+00
    0.57782E+05        -0.59651E+08         0.00000E+00
    0.00000E+00         0.00000E+00        -0.29101E+08
 
   -0.31251E+08         0.92871E+05         0.00000E+00
    0.92871E+05        -0.59701E+08         0.00000E+00
    0.00000E+00         0.00000E+00        -0.29295E+08
 
   -0.31075E+08         0.13952E+06         0.00000E+00
    0.13952E+06        -0.59781E+08         0.00000E+00
    0.00000E+00         0.00000E+00        -0.29547E+08
 
   -0.30861E+08         0.21817E+06         0.00000E+00
    0.21817E+06        -0.59899E+08         0.00000E+00
    0.00000E+00         0.00000E+00        -0.29891E+08
 
   -0.30615E+08         0.37508E+06         0.00000E+00
    0.37508E+06        -0.60074E+08         0.00000E+00
    0.00000E+00         0.00000E+00        -0.30359E+08
 
   -0.34114E+08        -0.70424E+05         0.00000E+00
   -0.70424E+05        -0.59973E+08         0.00000E+00
    0.00000E+00         0.00000E+00        -0.27221E+08
 
   -0.33465E+08        -0.66959E+05         0.00000E+00
   -0.66959E+05        -0.59861E+08         0.00000E+00
    0.00000E+00         0.00000E+00        -0.27490E+08
 
   -0.33021E+08        -0.54932E+05         0.00000E+00
   -0.54932E+05        -0.59751E+08         0.00000E+00
    0.00000E+00         0.00000E+00        -0.27654E+08
 
   -0.32683E+08        -0.45021E+05         0.00000E+00
   -0.45021E+05        -0.59657E+08         0.00000E+00
    0.00000E+00         0.00000E+00        -0.27776E+08
 
   -0.32413E+08        -0.35752E+05         0.00000E+00
   -0.35752E+05        -0.59579E+08         0.00000E+00
    0.00000E+00         0.00000E+00        -0.27877E+08
 
   -0.32189E+08        -0.26837E+05         0.00000E+00
   -0.26837E+05        -0.59519E+08         0.00000E+00
    0.00000E+00         0.00000E+00        -0.27968E+08
 
   -0.31998E+08        -0.18013E+05         0.00000E+00
   -0.18013E+05        -0.59476E+08         0.00000E+00
    0.00000E+00         0.00000E+00        -0.28058E+08
 
   -0.31830E+08        -0.91309E+04         0.00000E+00
   -0.91309E+04        -0.59450E+08         0.00000E+00
    0.00000E+00         0.00000E+00        -0.28154E+08
 
   -0.31677E+08        -0.23936E+02         0.00000E+00
   -0.23936E+02        -0.59443E+08         0.00000E+00
    0.00000E+00         0.00000E+00        -0.28262E+08
 
   -0.31531E+08         0.94134E+04         0.00000E+00
    0.94134E+04        -0.59453E+08         0.00000E+00
    0.00000E+00         0.00000E+00        -0.28387E+08
 
   -0.31384E+08         0.19371E+05         0.00000E+00
    0.19371E+05        -0.59484E+08         0.00000E+00
    0.00000E+00         0.00000E+00        -0.28540E+08
 
   -0.31226E+08         0.30495E+05         0.00000E+00
    0.30495E+05        -0.59537E+08         0.00000E+00
    0.00000E+00         0.00000E+00        -0.28731E+08
 
   -0.31037E+08         0.44544E+05         0.00000E+00
    0.44544E+05        -0.59616E+08         0.00000E+00
    0.00000E+00         0.00000E+00        -0.28986E+08
 
   -0.30781E+08         0.69907E+05         0.00000E+00
    0.69907E+05        -0.59737E+08         0.00000E+00
    0.00000E+00         0.00000E+00        -0.29358E+08
 
   -0.30374E+08         0.14885E+06         0.00000E+00
    0.14885E+06        -0.59934E+08         0.00000E+00
    0.00000E+00         0.00000E+00        -0.29992E+08
 
SCALARS stressS double 
LOOKUP_TABLE default
  -42802052.6651664     
  -42798873.3761392     
  -42787113.7237916     
  -42766682.6548906     
  -42738231.1404924     
  -42703355.7051250     
  -42663904.6699663     
  -42621595.1643087     
  -42577717.7777601     
  -42532927.8135840     
  -42487257.8709163     
  -42440385.1718516     
  -42391855.7822612     
  -42341234.2937694     
  -42288184.6236100     
  -42794231.6014259     
  -42791090.7908475     
  -42779439.9802497     
  -42759310.8223406     
  -42731518.4463359     
  -42697684.6894856     
  -42659462.9311514     
  -42618440.0719863     
  -42575739.0018185     
  -42531902.4334287     
  -42486946.8378336     
  -42440581.7929235     
  -42392390.2206418     
  -42341974.7764371     
  -42289050.0195403     
  -42778655.3483303     
  -42775545.4439837     
  -42764190.4207735     
  -42744804.4068547     
  -42718414.2199548     
  -42686592.0475639     
  -42650771.9712458     
  -42612219.1343768     
  -42571742.9245191     
  -42529719.1952334     
  -42486140.9591577     
  -42440766.0963077     
  -42393251.0244448     
  -42343275.5125282     
  -42290625.4711512     
  -42755387.6076487     
  -42752375.7800589     
  -42741472.0203006     
  -42723326.2015863     
  -42699262.8762510     
  -42670511.7593121     
  -42638149.9413606     
  -42603032.3704765     
  -42565615.3061229     
  -42526107.2002760     
  -42484473.8280122     
  -42440534.1431260     
  -42394056.1119621     
  -42344816.0215517     
  -42292598.9222184     
  -42724523.5407006     
  -42721808.7746572     
  -42711800.9573195     
  -42695651.1539824     
  -42674636.0057535     
  -42649832.5026796     
  -42621841.1648603     
  -42590875.9726778     
  -42557139.7583347     
  -42520690.9781285     
  -42481481.4970592     
  -42439409.1737538     
  -42394335.7081973     
  -42346091.8069186     
  -42294537.4269057     
  -42686292.5691514     
  -42683941.7736352     
  -42675431.4537192     
  -42662075.2987372     
  -42645063.5216873     
  -42625052.9587117     
  -42601890.7661911     
  -42575530.5660386     
  -42545895.3284916     
  -42512942.9858865     
  -42476612.8820877     
  -42436825.0623512     
  -42393485.1876322     
  -42346514.5988092     
  -42295875.8631852     
  -42640769.7742458     
  -42639343.9265626     
  -42632874.6808779     
  -42623135.4729802     
  -42611100.4848759     
  -42596198.3714288     
  -42578160.8396559     
  -42556624.2070295     
  -42531394.9570580     
  -42502298.1532755     
  -42469216.0596168     
  -42432070.8386601     
  -42390837.8889156     
  -42345489.3388847     
  -42296007.2024853     
  -42588393.0291300     
  -42587941.5754537     
  -42584504.2898242     
  -42579508.0777929     
  -42572419.7562518     
  -42562870.2746878     
  -42550097.2251081     
  -42533588.7607021     
  -42512982.7901414     
  -42488029.0734606     
  -42458567.5490761     
  -42424499.9713620     
  -42385743.9449171     
  -42342331.8561415     
  -42294301.8248116     
  -42528963.2758280     
  -42530688.3951436     
  -42530978.3714055     
  -42530441.4733662     
  -42528654.4422127     
  -42524424.8385044     
  -42516990.4485628     
  -42505659.4345165     
  -42489943.1339584     
  -42469504.9146286     
  -42444062.5659513     
  -42413410.1243355     
  -42377499.6669199     
  -42336324.7422966     
  -42290073.6453346     
  -42463491.1318847     
  -42467078.0442997     
  -42471297.2894310     
  -42475720.4774283     
  -42478941.0015274     
  -42480054.1248175     
  -42478035.6204562     
  -42472083.7919810     
  -42461592.8640935     
  -42445990.6586865     
  -42424885.1966918     
  -42398048.5934149     
  -42365345.7477304     
  -42326806.3912494     
  -42282617.8233193     
  -42391210.8355212     
  -42397119.1516208     
  -42405110.1972053     
  -42414000.2502083     
  -42422398.6136023     
  -42428944.6197245     
  -42432519.3107056     
  -42432180.0067675     
  -42427075.5979479     
  -42416604.0707528     
  -42400246.7747946     
  -42377603.2252237     
  -42348490.1587807     
  -42312982.9456498     
  -42271222.2973204     
  -42311836.7876446     
  -42319845.0102129     
  -42331526.6896190     
  -42344952.4972973     
  -42358454.6253815     
  -42370491.3314453     
  -42379745.8567190     
  -42385048.8869978     
  -42385553.7182878     
  -42380466.7365869     
  -42369134.1591832     
  -42351114.3147211     
  -42326104.2674412     
  -42294049.1456105     
  -42255230.1495324     
  -42225159.0552307     
  -42234918.6804853     
  -42250179.2061108     
  -42268177.1885895     
  -42286751.8429852     
  -42304159.0609191     
  -42318930.7428073     
  -42329909.7035534     
  -42336044.7202769     
  -42336483.4571656     
  -42330535.2194539     
  -42317545.2188207     
  -42297149.0959485     
  -42269192.7489831     
  -42233915.9809408     
  -42131935.2733691     
  -42143256.3292050     
  -42161630.6893462     
  -42183722.8017532     
  -42206958.8326199     
  -42229360.1349568     
  -42249398.2316266     
  -42265801.9457271     
  -42277524.8585601     
  -42283630.3967695     
  -42283249.9355317     
  -42275744.3975173     
  -42260538.3983699     
  -42237384.2901428     
  -42206499.0117496     
  -42033440.0881938     
  -42045814.0277716     
  -42066461.9499391     
  -42091747.9825023     
  -42118845.1330976     
  -42145641.1824887     
  -42170480.3578349     
  -42191997.8447373     
  -42209081.2767555     
  -42220753.9128738     
  -42226157.6721521     
  -42224456.5034779     
  -42215044.5189633     
  -42197515.4299497     
  -42171776.8592925     
  -41930289.2246789     
  -41943246.2768563     
  -41965224.7734544     
  -41992620.1157126     
  -42022620.6064716     
  -42052943.5230263     
  -42081808.8717409     
  -42107840.8516949     
  -42129889.9935569     
  -42146939.5506902     
  -42158088.8105709     
  -42162506.4347785     
  -42159412.2368656     
  -42148229.4859508     
  -42128309.1861312     
  -41823085.6283655     
  -41836202.3819475     
  -41858719.2088297     
  -41887190.2953333     
  -41918904.5152069     
  -41951598.3783373     
  -41983446.3640602     
  -42013055.4670906     
  -42039308.9107056     
  -42061291.9038933     
  -42078069.6877510     
  -42088761.1744937     
  -42092419.5239572     
  -42088054.8241179     
  -42074992.6388861     
  -41712931.4669615     
  -41725720.2754675     
  -41747899.5492974     
  -41776390.6987671     
  -41808542.8981354     
  -41842196.2743485     
  -41875630.0941499     
  -41907503.1160066     
  -41936858.3753028     
  -41962960.8874672     
  -41985039.7182779     
  -42002054.6091051     
  -42012831.2305905     
  -42015990.4912753     
  -42010736.7591896     
  -41600975.2004057     
  -41612766.4312109     
  -41633789.3638356     
  -41661123.2264793     
  -41692333.2826889     
  -41725420.6252507     
  -41758766.8119201     
  -41791311.2776074     
  -41822363.0208806     
  -41851415.0413282     
  -41877971.6100810     
  -41901109.4769650     
  -41919380.7122657     
  -41931005.1630806     
  -41934326.5997443     
  -41488126.4861677     
  -41498267.7873526     
  -41517208.5091206     
  -41542230.0719713     
  -41571090.1534093     
  -41601930.9534095     
  -41633449.0912628     
  -41664838.4430540     
  -41695790.9234468     
  -41726284.4903626     
  -41756158.2179274     
  -41784820.8187166     
  -41810762.7958422     
  -41831640.6847689     
  -41844812.7566616     
  -41375231.1192288     
  -41382966.5174381     
  -41398931.8480204     
  -41420464.1388924     
  -41445437.8678930     
  -41472322.2613787     
  -41500147.7184854     
  -41528496.1396233     
  -41557524.9339580     
  -41587669.3796448     
  -41619351.0782700     
  -41652508.8266390     
  -41685818.0472402     
  -41716568.8404251     
  -41740904.2368838     
  -41263140.0690873     
  -41267615.5735933     
  -41279548.1858735     
  -41296314.7103467     
  -41315852.2004574     
  -41336937.7752805     
  -41359122.6367480     
  -41382616.5556161     
  -41408011.1221524     
  -41436192.1115166     
  -41468057.1903578     
  -41504094.1622679     
  -41543795.3775548     
  -41584559.1065591     
  -41621428.7302263     
  -41152571.7687663     
  -41152811.2229599     
  -41159653.4454145     
  -41170184.0435149     
  -41182482.9092138     
  -41195788.7688308     
  -41210377.8150761     
  -41227253.9115085     
  -41247661.7544516     
  -41272695.0121763     
  -41303377.6586078     
  -41340667.6128808     
  -41385083.3170997     
  -41435149.3596757     
  -41484892.9977978     
  -41044144.6126519     
  -41039004.1660661     
  -41039428.7778846     
  -41041998.9664770     
  -41044988.9788874     
  -41048379.1181573     
  -41053499.3435692     
  -41062253.4950085     
  -41076502.0344710     
  -41097655.2201271     
  -41126634.5147020     
  -41164271.6863033     
  -41211434.8709731     
  -41268456.8750272     
  -41332094.8999266     
  -40938538.9774826     
  -40926571.9226303     
  -40918698.8350521     
  -40910938.9311610     
  -40902102.5950314     
  -40893423.4806803     
  -40887503.3526405     
  -40887074.1012704     
  -40894355.2078362     
  -40911028.2677877     
  -40938206.5723432     
  -40976352.1948971     
  -41025933.7347032     
  -41087830.7694373     
  -41162875.7789916     
  -40836165.9186845     
  -40815360.5281971     
  -40796310.1707655     
  -40774747.2475104     
  -40751090.2539565     
  -40728563.0632643     
  -40710849.6321584     
  -40700810.8258238     
  -40700700.5774706     
  -40712328.3993715     
  -40737168.3309973     
  -40776230.4442400     
  -40829481.1544317     
  -40897122.3132913     
  -40977380.4557944     
  -40737460.5242821     
  -40704390.9008345     
  -40669091.0992353     
  -40628706.2134679     
  -40587311.4258602     
  -40550291.5745132     
  -40521206.9445914     
  -40502217.4120166     
  -40494846.9796098     
  -40500784.0564753     
  -40522024.9669615     
  -40560657.3519856     
  -40618114.7824630     
  -40691377.8253433     
  -40779003.4902799     
  -40642302.5921295     
  -40590011.5566012     
  -40529408.5862259     
  -40464338.3202407     
  -40404582.7652809     
  -40354427.1767715     
  -40315669.8826647     
  -40289203.5311376     
  -40275851.9221194     
  -40276518.0860964     
  -40292921.2670786     
  -40327922.1824418     
  -40385282.6006031     
  -40469442.8833695     
  -40570239.3995888     
  -40547813.1177037     
  -40460215.3251633     
  -40360144.8603763     
  -40270902.4953235     
  -40196157.5565466     
  -40136294.2628429     
  -40090938.4625418     
  -40059703.1326007     
  -40042524.8004866     
  -40039741.9664695     
  -40052280.7517803     
  -40082261.3255534     
  -40134439.9839326     
  -40217004.5732732     
  -40349401.8790361     
  -40436154.8420065     
  -40271647.2360912     
  -40142179.6515438     
  -40038705.1208365     
  -39956366.4090473     
  -39892145.2834506     
  -39844218.6295868     
  -39811556.9263232     
  -39793715.7066836     
  -39790622.4029318     
  -39802700.7138132     
  -39831228.5253242     
  -39879658.5718136     
  -39958931.2199551     
  -40099779.3297955     
SCALARS 2waySource double 
LOOKUP_TABLE default
 -3.152531420032847E-005
 -3.248725502597219E-005
 -3.337346418423018E-005
 -3.417840314976436E-005
 -3.489898109497590E-005
 -3.553739503475284E-005
 -3.609832671966951E-005
 -3.658716207087479E-005
 -3.700737446971676E-005
 -3.735937481088299E-005
 -3.764009511419871E-005
 -3.784425669857321E-005
 -3.796565819918556E-005
 -3.799818728051594E-005
 -3.793641536260648E-005
 -3.142725269727032E-005
 -3.238649937244194E-005
 -3.327052217210110E-005
 -3.407400557500981E-005
 -3.479432990171722E-005
 -3.543461339745510E-005
 -3.599902893654892E-005
 -3.649239810387887E-005
 -3.691745605450973E-005
 -3.727396621123662E-005
 -3.755858272396280E-005
 -3.776604382222517E-005
 -3.789027779688944E-005
 -3.792531986279429E-005
 -3.786596831140297E-005
 -3.126845659360024E-005
 -3.222048417689428E-005
 -3.309824732504381E-005
 -3.389688789516331E-005
 -3.461521720195952E-005
 -3.525719210130650E-005
 -3.582622028994491E-005
 -3.632603049170969E-005
 -3.675797890634863E-005
 -3.712085725339700E-005
 -3.741095994319318E-005
 -3.762306639061715E-005
 -3.775136574708635E-005
 -3.779021616607660E-005
 -3.773476940960942E-005
 -3.105034891786922E-005
 -3.199048336604676E-005
 -3.285780761612524E-005
 -3.364838163321921E-005
 -3.436355564309076E-005
 -3.500715393913744E-005
 -3.558188825650989E-005
 -3.608952570409146E-005
 -3.652973187126749E-005
 -3.690024166349933E-005
 -3.719695259526935E-005
 -3.741471513142922E-005
 -3.754809072837871E-005
 -3.759194578005460E-005
 -3.754172066251159E-005
 -3.077504084136930E-005
 -3.169846322485170E-005
 -3.255099036167587E-005
 -3.333103064056656E-005
 -3.404206996544588E-005
 -3.468741448359941E-005
 -3.526856336947779E-005
 -3.578460431493220E-005
 -3.623360632910211E-005
 -3.661227302843173E-005
 -3.691610226048517E-005
 -3.714010583742089E-005
 -3.727928896049189E-005
 -3.732896642069813E-005
 -3.728517688647147E-005
 -3.044537602370429E-005
 -3.134686010345465E-005
 -3.218053393182537E-005
 -3.294810379589571E-005
 -3.365428295614294E-005
 -3.430164848765603E-005
 -3.488891513015446E-005
 -3.541293016563280E-005
 -3.587032872982172E-005
 -3.625683025097171E-005
 -3.656765987724306E-005
 -3.679797725743098E-005
 -3.694319926201983E-005
 -3.699923977611253E-005
 -3.696281836034552E-005
 -3.006481441037409E-005
 -3.093898205363280E-005
 -3.175015010024053E-005
 -3.250366343077680E-005
 -3.320481469082698E-005
 -3.385344412355487E-005
 -3.444544131741436E-005
 -3.497600023197592E-005
 -3.544038269439583E-005
 -3.583352196569028E-005
 -3.615042975510319E-005
 -3.638645438339881E-005
 -3.653750338102384E-005
 -3.660017214043777E-005
 -3.657173100790307E-005
 -2.963750279665562E-005
 -3.047885483884811E-005
 -3.126441360355483E-005
 -3.200305736001336E-005
 -3.269816716837360E-005
 -3.334590225645758E-005
 -3.394025324106438E-005
 -3.447482533849221E-005
 -3.494372647683342E-005
 -3.534133671245815E-005
 -3.566260036765708E-005
 -3.590316395756787E-005
 -3.605937911530293E-005
 -3.612844943823721E-005
 -3.610835160952172E-005
 -2.916829947547960E-005
 -2.997141521288568E-005
 -3.072913819320713E-005
 -3.145190983643001E-005
 -3.213828411352108E-005
 -3.278190519559677E-005
 -3.337492734587518E-005
 -3.390977509123511E-005
 -3.437968091973590E-005
 -3.477871435277121E-005
 -3.510187558365791E-005
 -3.534507090998365E-005
 -3.550522490288548E-005
 -3.558005174566833E-005
 -3.556833999541529E-005
 -2.866250658023154E-005
 -2.942236054431326E-005
 -3.015113794463997E-005
 -3.085518747177502E-005
 -3.152887831703279E-005
 -3.216364464400523E-005
 -3.275037009441205E-005
 -3.328052237045256E-005
 -3.374686750272062E-005
 -3.414330602045046E-005
 -3.446498686855977E-005
 -3.470829096116215E-005
 -3.487059557873327E-005
 -3.495031588371573E-005
 -3.494657910608423E-005
 -2.812582088020079E-005
 -2.883919716531036E-005
 -2.953664379582128E-005
 -3.021734406049623E-005
 -3.087283511833932E-005
 -3.149265927364977E-005
 -3.206670315694530E-005
 -3.258597656263153E-005
 -3.304295651632556E-005
 -3.343173936791367E-005
 -3.374784555450537E-005
 -3.398806378085155E-005
 -3.415030129044060E-005
 -3.423349156219116E-005
 -3.423721804463196E-005
 -2.756471476014730E-005
 -2.822943536384031E-005
 -2.889108983641114E-005
 -2.954248380569236E-005
 -3.017252874351681E-005
 -3.076963432600260E-005
 -3.132315576906976E-005
 -3.182391442830731E-005
 -3.226464699601292E-005
 -3.263978273357211E-005
 -3.294532422285382E-005
 -3.317862513689541E-005
 -3.333814976313996E-005
 -3.342315928449614E-005
 -3.343364791042852E-005
 -2.698626094427216E-005
 -2.759975387962018E-005
 -2.821950172129978E-005
 -2.883372414628583E-005
 -2.942940031820073E-005
 -2.999430566221911E-005
 -3.051782194372236E-005
 -3.099119133761185E-005
 -3.140759784386937E-005
 -3.176208261898111E-005
 -3.205134474907648E-005
 -3.227331129217392E-005
 -3.242698370394565E-005
 -3.251199043480824E-005
 -3.252849499247486E-005
 -2.639811725068210E-005
 -2.695644582304992E-005
 -2.752637889791116E-005
 -2.809346997283816E-005
 -2.864380650442625E-005
 -2.916528205169258E-005
 -2.964784937221009E-005
 -3.008354314770783E-005
 -3.046641537688406E-005
 -3.079236774936691E-005
 -3.105880367147576E-005
 -3.126448480166030E-005
 -3.140886836753315E-005
 -3.149188068666035E-005
 -3.151369462061291E-005
 -2.580841516999690E-005
 -2.630515574433477E-005
 -2.681522084414618E-005
 -2.732309156233909E-005
 -2.781517286101819E-005
 -2.828024560509299E-005
 -2.870940718316289E-005
 -2.909585963511605E-005
 -2.943483127344054E-005
 -2.972331845403158E-005
 -2.995979177477780E-005
 -3.014370733829536E-005
 -3.027514079374544E-005
 -3.035421657250087E-005
 -3.038053211524682E-005
 -2.522486766164924E-005
 -2.565069474254577E-005
 -2.608856742672745E-005
 -2.652319693231092E-005
 -2.694233821075086E-005
 -2.733634519629899E-005
 -2.769796873525689E-005
 -2.802214461158921E-005
 -2.830568060681517E-005
 -2.854694380227420E-005
 -2.874560746681197E-005
 -2.890205727618030E-005
 -2.901680055284446E-005
 -2.908994375664809E-005
 -2.912030913587810E-005
 -2.465460928820078E-005
 -2.499732114906561E-005
 -2.534856055962995E-005
 -2.569419100207215E-005
 -2.602387898877980E-005
 -2.633030683317518E-005
 -2.660856227561012E-005
 -2.685585584114919E-005
 -2.707107218147823E-005
 -2.725450082918460E-005
 -2.740715620230096E-005
 -2.753033981228269E-005
 -2.762489099137411E-005
 -2.769041429577953E-005
 -2.772506443448233E-005
 -2.410456228579817E-005
 -2.434919132997140E-005
 -2.459725660607615E-005
 -2.483628058415864E-005
 -2.505824191913500E-005
 -2.525865186235430E-005
 -2.543575221442657E-005
 -2.558982007159358E-005
 -2.572262615282291E-005
 -2.583676328567121E-005
 -2.593501720879065E-005
 -2.601949509288639E-005
 -2.609099371278348E-005
 -2.614828225368492E-005
 -2.618806211982801E-005
 -2.358103093077295E-005
 -2.370997065388422E-005
 -2.383651462568450E-005
 -2.394965645510437E-005
 -2.404380295178636E-005
 -2.411781700751058E-005
 -2.417391406038874E-005
 -2.421664793472973E-005
 -2.425165535584392E-005
 -2.428462120950835E-005
 -2.432021928273781E-005
 -2.436125812414516E-005
 -2.440792754401522E-005
 -2.445753093057571E-005
 -2.450424483794168E-005
 -2.308909686001963E-005
 -2.308266586828043E-005
 -2.306776332666346E-005
 -2.303428117361955E-005
 -2.297891064249021E-005
 -2.290420855049427E-005
 -2.281749350495321E-005
 -2.272901349706575E-005
 -2.264986488393156E-005
 -2.258967483735984E-005
 -2.255512701417534E-005
 -2.254912745170600E-005
 -2.257051523251349E-005
 -2.261409024329070E-005
 -2.267093882516961E-005
 -2.263273985446467E-005
 -2.246937350518142E-005
 -2.229158393328155E-005
 -2.208935855633249E-005
 -2.186119861543536E-005
 -2.161384366535252E-005
 -2.136095188710874E-005
 -2.112041750498381E-005
 -2.091045943988332E-005
 -2.074568199265624E-005
 -2.063461574350370E-005
 -2.057938914156562E-005
 -2.057627739203830E-005
 -2.061672310338076E-005
 -2.068792959823173E-005
 -2.221514702659202E-005
 -2.187103371673460E-005
 -2.150689244766161E-005
 -2.111196492982763E-005
 -2.068624270286678E-005
 -2.024135178290973E-005
 -1.979887578728382E-005
 -1.938612807528359E-005
 -1.902985648087669E-005
 -1.875024640681480E-005
 -1.855752119636535E-005
 -1.845189117551703E-005
 -1.842599673995534E-005
 -1.846696625264590E-005
 -1.855769175844760E-005
 -2.183874855783913E-005
 -2.128685133135913E-005
 -2.070993996972221E-005
 -2.009525372145720E-005
 -1.944517123255490E-005
 -1.877823580064541E-005
 -1.812574361164671E-005
 -1.752481470047929E-005
 -1.701017813369828E-005
 -1.660719111765259E-005
 -1.632790916606257E-005
 -1.617078984913097E-005
 -1.612386947957395E-005
 -1.616931255302255E-005
 -1.628495125716018E-005
 -2.150529938970657E-005
 -2.071367280383533E-005
 -1.989180828037749E-005
 -1.902491707342856E-005
 -1.812127192056127E-005
 -1.721067826033393E-005
 -1.633574442386204E-005
 -1.554030950778464E-005
 -1.486205011780232E-005
 -1.432907686706395E-005
 -1.395676063900267E-005
 -1.374457987430332E-005
 -1.367716495676689E-005
 -1.373022395942766E-005
 -1.387745852479183E-005
 -2.121670918553734E-005
 -2.014450646938865E-005
 -1.903475903371012E-005
 -1.787423301767485E-005
 -1.668607574250739E-005
 -1.551848592617527E-005
 -1.442341235123489E-005
 -1.344223373664248E-005
 -1.260583545686264E-005
 -1.193965009877659E-005
 -1.146407212044523E-005
 -1.118675400809776E-005
 -1.109504566608333E-005
 -1.115943267492084E-005
 -1.134440571177110E-005
 -2.097438628072115E-005
 -1.956392262869922E-005
 -1.810397609193607E-005
 -1.659619963362699E-005
 -1.509757755512738E-005
 -1.367819816719531E-005
 -1.238583276668300E-005
 -1.124439244103585E-005
 -1.026841623867622E-005
 -9.473642725866665E-006
 -8.882350388524294E-006
 -8.519162167855639E-006
 -8.389251816030932E-006
 -8.464482192509104E-006
 -8.697163041868524E-006
 -2.077895891496399E-005
 -1.893739880768516E-005
 -1.703016262019293E-005
 -1.511562791502195E-005
 -1.330704608997373E-005
 -1.167173510860956E-005
 -1.022429692340573E-005
 -8.960753253979350E-006
 -7.875417387048851E-006
 -6.969762943470028E-006
 -6.259398869971280E-006
 -5.779840568996069E-006
 -5.577655454403928E-006
 -5.652764401965464E-006
 -5.948618719599991E-006
 -2.062400731956958E-005
 -1.817613393329292E-005
 -1.567739872917680E-005
 -1.333823742497077E-005
 -1.128053303164532E-005
 -9.493146907858002E-006
 -7.943246074033856E-006
 -6.600462113720759E-006
 -5.442894804012325E-006
 -4.458297134247416E-006
 -3.648871181283074E-006
 -3.040578342721263E-006
 -2.701371120267173E-006
 -2.738274703659473E-006
 -3.115952039772572E-006
 -2.045580303282575E-005
 -1.701980143799828E-005
 -1.383972185768720E-005
 -1.120986451366794E-005
 -9.010570147217039E-006
 -7.144705044900028E-006
 -5.545158360798160E-006
 -4.165641042642288E-006
 -2.974589494403586E-006
 -1.951464578189837E-006
 -1.086855502563685E-006
 -3.874742566203676E-007
  1.051000683445809E-007
  2.568604138918442E-007
 -2.364842022206748E-007
 -1.975395679537923E-005
 -1.490059279623757E-005
 -1.144573063952054E-005
 -8.732177360439781E-006
 -6.502944779527478E-006
 -4.627155091892181E-006
 -3.026424139853610E-006
 -1.649932128452329E-006
 -4.638257592080667E-007
  5.549630903898542E-007
  1.419828844221605E-006
  2.133726605699017E-006
  2.681851114739778E-006
  2.995728618742218E-006
  2.755983661475883E-006
SCALARS poroP double 
LOOKUP_TABLE default
  1.693473846276308E-005
  1.599936115526182E-005
  1.502835022018589E-005
  1.404378551755229E-005
  1.306811189216096E-005
  1.212024683904364E-005
  1.121445748839387E-005
  1.035989169389398E-005
  9.562800900224117E-006
  8.826550175917414E-006
  8.152761948625890E-006
  7.541693222921840E-006
  6.992785862763260E-006
  6.505097473486964E-006
  6.077564935595699E-006
  1.687743068916036E-005
  1.594693233643672E-005
  1.498118580011282E-005
  1.400378995244375E-005
  1.303794807006370E-005
  1.210131333896507E-005
  1.120758869589365E-005
  1.036499417656337E-005
  9.578884822832081E-006
  8.851983630646830E-006
  8.185603562382682E-006
  7.579941980303868E-006
  7.034530717895270E-006
  6.548552296884093E-006
  6.121240963831844E-006
  1.675977708309940E-005
  1.583913833511541E-005
  1.488521413760425E-005
  1.392315891719282E-005
  1.297791665926518E-005
  1.206469427240583E-005
  1.119542541044023E-005
  1.037675406127475E-005
  9.612263491116440E-006
  8.903534500359516E-006
  8.251415076375661E-006
  7.656177929227624E-006
  7.117539584711386E-006
  6.634958229626094E-006
  6.208211941276904E-006
  1.657735604405842E-005
  1.567095661107460E-005
  1.473728764242882E-005
  1.380273157764614E-005
  1.288996300562434E-005
  1.201318984113961E-005
  1.118114353561474E-005
  1.039796982293711E-005
  9.664780816787564E-006
  8.982096009559887E-006
  8.350350978303286E-006
  7.769918328090749E-006
  7.240874203757529E-006
  6.763402230400025E-006
  6.337766533305756E-006
  1.632459790137332E-005
  1.543778876049962E-005
  1.453384213954687E-005
  1.364141544591459E-005
  1.277717270085278E-005
  1.195152071202233E-005
  1.116934044290824E-005
  1.043194003432614E-005
  9.738293953744074E-006
  9.088243972216039E-006
  8.482024504818504E-006
  7.920168870789328E-006
  7.403444971388844E-006
  6.932749007743826E-006
  6.508847939203274E-006
  1.599639768630770E-005
  1.513715983655054E-005
  1.427777827342271E-005
  1.344256936483001E-005
  1.264390890785667E-005
  1.188453517834089E-005
  1.116443746471414E-005
  1.048150141675872E-005
  9.834192650943427E-006
  9.222089275335040E-006
  8.645605986840136E-006
  8.105784254637532E-006
  7.604045903339429E-006
  7.141712632039354E-006
  6.720176738162932E-006
  1.559089849130556E-005
  1.477029773944023E-005
  1.397185116456808E-005
  1.321341228880979E-005
  1.249658980127828E-005
  1.181693949955109E-005
  1.116849972905166E-005
  1.054761982477340E-005
  9.952450623034662E-006
  9.382972538750837E-006
  8.840233067411899E-006
  8.325725701771363E-006
  7.841235016391495E-006
  7.388748192194575E-006
  6.970348984743725E-006
  1.511057766740448E-005
  1.434468009061418E-005
  1.362677350687622E-005
  1.296328770863134E-005
  1.234253364698298E-005
  1.175132938984674E-005
  1.118168673677517E-005
  1.062916605155928E-005
  1.009184209959189E-005
  9.569904797510423E-006
  9.064817219010722E-006
  8.578564183397559E-006
  8.113529415846565E-006
  7.672384278776132E-006
  7.257764193298678E-006
  1.456835933916709E-005
  1.387253273438781E-005
  1.325770083631182E-005
  1.270287513869822E-005
  1.218441069973501E-005
  1.168736270183576E-005
  1.120226531192272E-005
  1.072383920274424E-005
  1.024991236764932E-005
  9.780567653122051E-006
  9.317369022977178E-006
  8.862775840974035E-006
  8.419620930273600E-006
  7.991105777917379E-006
  7.580836130056633E-006
  1.397849649123731E-005
  1.338250978605248E-005
  1.288058731639029E-005
  1.243592434026497E-005
  1.202237721501593E-005
  1.162292202495268E-005
  1.122694082964296E-005
  1.082797693656393E-005
  1.042312201833682E-005
  1.001205039809063E-005
  9.595858596883463E-006
  9.176737934804921E-006
  8.757970904787649E-006
  8.343535629588548E-006
  7.937827230602749E-006
  1.337573814766620E-005
  1.289104096082984E-005
  1.250170017483041E-005
  1.216484916411868E-005
  1.185491591390580E-005
  1.155456256615987E-005
  1.125124808975133E-005
  1.093713667254552E-005
  1.060789291742457E-005
  1.026142188639357E-005
  9.897597462060257E-006
  9.518356216914123E-006
  9.126986272608077E-006
  8.728165791696925E-006
  8.327091068925733E-006
  1.278883015221930E-005
  1.240921915437811E-005
  1.212259231385485E-005
  1.188790725674345E-005
  1.167937332098352E-005
  1.147864245498463E-005
  1.127143348633278E-005
  1.104759164905472E-005
  1.080012568436890E-005
  1.052458372548733E-005
  1.021939018480392E-005
  9.885051742342327E-006
  9.524694543203028E-006
  9.143298435724935E-006
  8.746947737717580E-006
  1.222950497037667E-005
  1.194043849785220E-005
  1.174469190977065E-005
  1.160486443273735E-005
  1.149459473704638E-005
  1.139317375818791E-005
  1.128451019125347E-005
  1.115514886098112E-005
  1.099499774595621E-005
  1.079699966382709E-005
  1.055690986948049E-005
  1.027350614136431E-005
  9.948636936668203E-006
  9.587099161735729E-006
  9.195614739503445E-006
  1.169355849583449E-005
  1.148316728820121E-005
  1.136960269428116E-005
  1.131794435050253E-005
  1.130133491279348E-005
  1.129746125121749E-005
  1.128738191662966E-005
  1.125524842266595E-005
  1.118730485800817E-005
  1.107310204241683E-005
  1.090514363727602E-005
  1.067929725162311E-005
  1.039544505893159E-005
  1.005712924199740E-005
  9.671430859385993E-006
  1.117253031042288E-005
  1.103753607734485E-005
  1.100053925695095E-005
  1.103035222954724E-005
  1.110128211071735E-005
  1.119056235938839E-005
  1.127743321328174E-005
  1.134320961092174E-005
  1.137119414932868E-005
  1.134663404302800E-005
  1.125778239287547E-005
  1.109703008330186E-005
  1.086090052206699E-005
  1.055054071801580E-005
  1.017217355368955E-005
  1.066445737045799E-005
  1.060370576487922E-005
  1.063914282297122E-005
  1.074399813636066E-005
  1.089548111599555E-005
  1.107189352862395E-005
  1.125207579745662E-005
  1.141501380749577E-005
  1.154060117462955E-005
  1.161008009782206E-005
  1.160724394438081E-005
  1.151966064405853E-005
  1.133914188016903E-005
  1.106303073310314E-005
  1.069479107880292E-005
  1.016864626630275E-005
  1.017989214029931E-005
  1.028418230824612E-005
  1.045926056573005E-005
  1.068512931552786E-005
  1.094218550355326E-005
  1.120982204655722E-005
  1.146618733159930E-005
  1.168875397240933E-005
  1.185494734881497E-005
  1.194403986996809E-005
  1.193791004255826E-005
  1.182203926695004E-005
  1.158853024136926E-005
  1.123708171788433E-005
  9.681770004941455E-006
  9.763560677910522E-006
  9.934667120201800E-006
  1.017646592492447E-005
  1.047164015335746E-005
  1.080271201614957E-005
  1.115036124022044E-005
  1.149348786920398E-005
  1.180887050974786E-005
  1.207179515769683E-005
  1.225683826700260E-005
  1.234002440759012E-005
  1.229988822216929E-005
  1.212040264126787E-005
  1.179584853642672E-005
  9.201459891789617E-006
  9.353762811935478E-006
  9.590719930860333E-006
  9.896673659853995E-006
  1.025657431466444E-005
  1.065461239061260E-005
  1.107366694858446E-005
  1.149440870357328E-005
  1.189463758231899E-005
  1.224986659373230E-005
  1.253241682695067E-005
  1.271255233299761E-005
  1.276101422186856E-005
  1.265112299794570E-005
  1.236704736273928E-005
  8.728011945268053E-006
  8.951155151517975E-006
  9.253611397109167E-006
  9.621532541717924E-006
  1.004144865113617E-005
  1.049925750672579E-005
  1.097982048019121E-005
  1.146629132777363E-005
  1.193981232345709E-005
  1.237851094421558E-005
  1.275612529391115E-005
  1.303970159747007E-005
  1.319145420496524E-005
  1.317162603560987E-005
  1.294793029979502E-005
  8.263446548441082E-006
  8.557935759799837E-006
  8.925556042640771E-006
  9.353290422150509E-006
  9.828410330171699E-006
  1.033799235120438E-005
  1.086863580949532E-005
  1.140667271152829E-005
  1.193819907182748E-005
  1.244734236271749E-005
  1.291269785066558E-005
  1.330282806124520E-005
  1.357376852977405E-005
  1.366978511811982E-005
  1.353450598962833E-005
  7.810678260336245E-006
  8.177142701638234E-006
  8.609811911388495E-006
  9.095061964525410E-006
  9.619881652009366E-006
  1.017180386536955E-005
  1.073934025595023E-005
  1.131289293453718E-005
  1.188470614641338E-005
  1.244698428389922E-005
  1.298719484050482E-005
  1.348124059893878E-005
  1.388513887635818E-005
  1.412816751372040E-005
  1.411999516282173E-005
  7.372725797255104E-006
  7.812397250329903E-006
  8.310207147378433E-006
  8.850375353183607E-006
  9.418167889369930E-006
  1.000110785029045E-005
  1.059030541243568E-005
  1.118148711864623E-005
  1.177440632206818E-005
  1.237037738100996E-005
  1.296785898108506E-005
  1.355531638207582E-005
  1.409887840661511E-005
  1.452285444731961E-005
  1.469574358138897E-005
  6.952150763352078E-006
  7.467527930264394E-006
  8.031135267485955E-006
  8.622719195227379E-006
  9.224666876162588E-006
  9.824739321463819E-006
  1.041823350534384E-005
  1.100811491211793E-005
  1.160286611291267E-005
  1.221295539976633E-005
  1.284744285520945E-005
  1.350917864902387E-005
  1.418359860863945E-005
  1.481155570602137E-005
  1.523588147105244E-005
  6.550955799750752E-006
  7.146605531864358E-006
  7.776902149012727E-006
  8.414351957991019E-006
  9.038082936404471E-006
  9.638317727423401E-006
  1.021752829438189E-005
  1.078772963321670E-005
  1.136615483918779E-005
  1.197182242275291E-005
  1.262318152401277E-005
  1.333621201990270E-005
  1.412015846184649E-005
  1.495806515776097E-005
  1.571934993190336E-005
  6.171093891630398E-006
  6.854363060577202E-006
  7.551250579200187E-006
  8.224055988316371E-006
  8.851542043725225E-006
  9.432334322399596E-006
  9.979817969827428E-006
  1.051492552150641E-005
  1.106175675314091E-005
  1.164616846154741E-005
  1.229525723456406E-005
  1.303668332716314E-005
  1.390021243770259E-005
  1.491568152544023E-005
  1.605623234522602E-005
  5.814672561924123E-006
  6.596650218001716E-006
  7.354796987276719E-006
  8.042238653941617E-006
  8.648764390440742E-006
  9.190911813823347E-006
  9.693932156062893E-006
  1.018459988736763E-005
  1.069017471428920E-005
  1.123986190176504E-005
  1.186706220236023E-005
  1.261223211869183E-005
  1.352414066899268E-005
  1.468065976455210E-005
  1.622186335156555E-005
  5.486201451809944E-006
  6.379334671779671E-006
  7.176937795743878E-006
  7.842583510059639E-006
  8.402199610674878E-006
  8.893278692911018E-006
  9.347593286082851E-006
  9.792558204566998E-006
  1.025438082667950E-005
  1.076177283057858E-005
  1.135069656347165E-005
  1.207145575152588E-005
  1.300099589157138E-005
  1.426472639943910E-005
  1.619427395962317E-005
  5.193988841027372E-006
  6.196440771924118E-006
  6.973503211716390E-006
  7.577564818052172E-006
  8.078388212891065E-006
  8.519000230364838E-006
  8.929551396741412E-006
  9.334869004158955E-006
  9.758197594861380E-006
  1.022520889530847E-005
  1.076964328357840E-005
  1.144373161802105E-005
  1.234311699063954E-005
  1.367028237663339E-005
  1.599157101438854E-005
  4.942278141227030E-006
  5.960970780826451E-006
  6.653912467040804E-006
  7.195155678162104E-006
  7.649392660740027E-006
  8.053202918936854E-006
  8.432668799430203E-006
  8.809687108760104E-006
  9.205035259053155E-006
  9.641893299480021E-006
  1.015009291646983E-005
  1.077755920215611E-005
  1.161918793556224E-005
  1.291661040249916E-005
  1.568241801706598E-005
SCALARS elementIsPlast double 
LOOKUP_TABLE default
   1.00000000000000     
   1.00000000000000     
   1.00000000000000     
   1.00000000000000     
   1.00000000000000     
   1.00000000000000     
   1.00000000000000     
   1.00000000000000     
   1.00000000000000     
   1.00000000000000     
   1.00000000000000     
   1.00000000000000     
   1.00000000000000     
   1.00000000000000     
   1.00000000000000     
   1.00000000000000     
   1.00000000000000     
   1.00000000000000     
   1.00000000000000     
   1.00000000000000     
   1.00000000000000     
   1.00000000000000     
   1.00000000000000     
   1.00000000000000     
   1.00000000000000     
   1.00000000000000     
   1.00000000000000     
   1.00000000000000     
   1.00000000000000     
   1.00000000000000     
   1.00000000000000     
   1.00000000000000     
   1.00000000000000     
   1.00000000000000     
   1.00000000000000     
   1.00000000000000     
   1.00000000000000     
   1.00000000000000     
   1.00000000000000     
   1.00000000000000     
   1.00000000000000     
   1.00000000000000     
   1.00000000000000     
   1.00000000000000     
   1.00000000000000     
   1.00000000000000     
   1.00000000000000     
   1.00000000000000     
   1.00000000000000     
   1.00000000000000     
   1.00000000000000     
   1.00000000000000     
   1.00000000000000     
   1.00000000000000     
   1.00000000000000     
   1.00000000000000     
   1.00000000000000     
   1.00000000000000     
   1.00000000000000     
   1.00000000000000     
   1.00000000000000     
   1.00000000000000     
   1.00000000000000     
   1.00000000000000     
   1.00000000000000     
   1.00000000000000     
   1.00000000000000     
   1.00000000000000     
   1.00000000000000     
   1.00000000000000     
   1.00000000000000     
   1.00000000000000     
   1.00000000000000     
   1.00000000000000     
   1.00000000000000     
   1.00000000000000     
   1.00000000000000     
   1.00000000000000     
   1.00000000000000     
   1.00000000000000     
   1.00000000000000     
   1.00000000000000     
   1.00000000000000     
   1.00000000000000     
   1.00000000000000     
   1.00000000000000     
   1.00000000000000     
   1.00000000000000     
   1.00000000000000     
   1.00000000000000     
   1.00000000000000     
   1.00000000000000     
   1.00000000000000     
   1.00000000000000     
   1.00000000000000     
   1.00000000000000     
   1.00000000000000     
   1.00000000000000     
   1.00000000000000     
   1.00000000000000     
   1.00000000000000     
   1.00000000000000     
   1.00000000000000     
   1.00000000000000     
   1.00000000000000     
   1.00000000000000     
   1.00000000000000     
   1.00000000000000     
   1.00000000000000     
   1.00000000000000     
   1.00000000000000     
   1.00000000000000     
   1.00000000000000     
   1.00000000000000     
   1.00000000000000     
   1.00000000000000     
   1.00000000000000     
   1.00000000000000     
   1.00000000000000     
   1.00000000000000     
   1.00000000000000     
   1.00000000000000     
   1.00000000000000     
   1.00000000000000     
   1.00000000000000     
   1.00000000000000     
   1.00000000000000     
   1.00000000000000     
   1.00000000000000     
   1.00000000000000     
   1.00000000000000     
   1.00000000000000     
   1.00000000000000     
   1.00000000000000     
   1.00000000000000     
   1.00000000000000     
   1.00000000000000     
   1.00000000000000     
   1.00000000000000     
   1.00000000000000     
   1.00000000000000     
   1.00000000000000     
   1.00000000000000     
   1.00000000000000     
   1.00000000000000     
   1.00000000000000     
   1.00000000000000     
   1.00000000000000     
   1.00000000000000     
   1.00000000000000     
   1.00000000000000     
   1.00000000000000     
   1.00000000000000     
   1.00000000000000     
   1.00000000000000     
   1.00000000000000     
   1.00000000000000     
   1.00000000000000     
   1.00000000000000     
   1.00000000000000     
   1.00000000000000     
   1.00000000000000     
   1.00000000000000     
   1.00000000000000     
   1.00000000000000     
   1.00000000000000     
   1.00000000000000     
   1.00000000000000     
   1.00000000000000     
   1.00000000000000     
   1.00000000000000     
   1.00000000000000     
   1.00000000000000     
   1.00000000000000     
   1.00000000000000     
   1.00000000000000     
   1.00000000000000     
   1.00000000000000     
   1.00000000000000     
   1.00000000000000     
   1.00000000000000     
   1.00000000000000     
   1.00000000000000     
   1.00000000000000     
   1.00000000000000     
   1.00000000000000     
   1.00000000000000     
   1.00000000000000     
   1.00000000000000     
   1.00000000000000     
   1.00000000000000     
   1.00000000000000     
   1.00000000000000     
   1.00000000000000     
   1.00000000000000     
   1.00000000000000     
   1.00000000000000     
   1.00000000000000     
   1.00000000000000     
   1.00000000000000     
   1.00000000000000     
   1.00000000000000     
   1.00000000000000     
   1.00000000000000     
   1.00000000000000     
   1.00000000000000     
   1.00000000000000     
   1.00000000000000     
   1.00000000000000     
   1.00000000000000     
   1.00000000000000     
   1.00000000000000     
   1.00000000000000     
   1.00000000000000     
   1.00000000000000     
   1.00000000000000     
   1.00000000000000     
   1.00000000000000     
   1.00000000000000     
   1.00000000000000     
   1.00000000000000     
   1.00000000000000     
   1.00000000000000     
   1.00000000000000     
   1.00000000000000     
   1.00000000000000     
   1.00000000000000     
   1.00000000000000     
   1.00000000000000     
   1.00000000000000     
   1.00000000000000     
   1.00000000000000     
   1.00000000000000     
   1.00000000000000     
   1.00000000000000     
   1.00000000000000     
   1.00000000000000     
   1.00000000000000     
   1.00000000000000     
   1.00000000000000     
   1.00000000000000     
   1.00000000000000     
   1.00000000000000     
   1.00000000000000     
   1.00000000000000     
   1.00000000000000     
   1.00000000000000     
   1.00000000000000     
   1.00000000000000     
   1.00000000000000     
   1.00000000000000     
   1.00000000000000     
   1.00000000000000     
   1.00000000000000     
   1.00000000000000     
   1.00000000000000     
   1.00000000000000     
   1.00000000000000     
   1.00000000000000     
   1.00000000000000     
   1.00000000000000     
   1.00000000000000     
   1.00000000000000     
   1.00000000000000     
   1.00000000000000     
   1.00000000000000     
   1.00000000000000     
   1.00000000000000     
   1.00000000000000     
   1.00000000000000     
   1.00000000000000     
   1.00000000000000     
   1.00000000000000     
   1.00000000000000     
   1.00000000000000     
   1.00000000000000     
   1.00000000000000     
   1.00000000000000     
   1.00000000000000     
   1.00000000000000     
   1.00000000000000     
   1.00000000000000     
   1.00000000000000     
   1.00000000000000     
   1.00000000000000     
   1.00000000000000     
   1.00000000000000     
   1.00000000000000     
   1.00000000000000     
   1.00000000000000     
   1.00000000000000     
   1.00000000000000     
   1.00000000000000     
   1.00000000000000     
   1.00000000000000     
   1.00000000000000     
   1.00000000000000     
   1.00000000000000     
   1.00000000000000     
   1.00000000000000     
   1.00000000000000     
   1.00000000000000     
   1.00000000000000     
   1.00000000000000     
   1.00000000000000     
   1.00000000000000     
   1.00000000000000     
   1.00000000000000     
   1.00000000000000     
   1.00000000000000     
   1.00000000000000     
   1.00000000000000     
   1.00000000000000     
   1.00000000000000     
   1.00000000000000     
   1.00000000000000     
   1.00000000000000     
   1.00000000000000     
   1.00000000000000     
   1.00000000000000     
   1.00000000000000     
   1.00000000000000     
   1.00000000000000     
   1.00000000000000     
   1.00000000000000     
   1.00000000000000     
   1.00000000000000     
   1.00000000000000     
   1.00000000000000     
   1.00000000000000     
   1.00000000000000     
   1.00000000000000     
   1.00000000000000     
   1.00000000000000     
   1.00000000000000     
   1.00000000000000     
   1.00000000000000     
   1.00000000000000     
   1.00000000000000     
   1.00000000000000     
   1.00000000000000     
   1.00000000000000     
   1.00000000000000     
   1.00000000000000     
   1.00000000000000     
   1.00000000000000     
   1.00000000000000     
   1.00000000000000     
   1.00000000000000     
   1.00000000000000     
   1.00000000000000     
   1.00000000000000     
   1.00000000000000     
   1.00000000000000     
   1.00000000000000     
   1.00000000000000     
   1.00000000000000     
   1.00000000000000     
   1.00000000000000     
   1.00000000000000     
   1.00000000000000     
   1.00000000000000     
   1.00000000000000     
   1.00000000000000     
   1.00000000000000     
   1.00000000000000     
   1.00000000000000     
   1.00000000000000     
   1.00000000000000     
   1.00000000000000     
   1.00000000000000     
   1.00000000000000     
   1.00000000000000     
   1.00000000000000     
   1.00000000000000     
   1.00000000000000     
   1.00000000000000     
   1.00000000000000     
   1.00000000000000     
   1.00000000000000     
   1.00000000000000     
   1.00000000000000     
   1.00000000000000     
   1.00000000000000     
   1.00000000000000     
   1.00000000000000     
   1.00000000000000     
   1.00000000000000     
   1.00000000000000     
   1.00000000000000     
   1.00000000000000     
   1.00000000000000     
   1.00000000000000     
   1.00000000000000     
   1.00000000000000     
   1.00000000000000     
   1.00000000000000     
   1.00000000000000     
   1.00000000000000     
   1.00000000000000     
   1.00000000000000     
   1.00000000000000     
   1.00000000000000     
   1.00000000000000     
   1.00000000000000     
   1.00000000000000     
   1.00000000000000     
   1.00000000000000     
   1.00000000000000     
   1.00000000000000     
   1.00000000000000     
   1.00000000000000     
   1.00000000000000     
   1.00000000000000     
   1.00000000000000     
   1.00000000000000     
   1.00000000000000     
   1.00000000000000     
   1.00000000000000     
   1.00000000000000     
   1.00000000000000     
   1.00000000000000     
   1.00000000000000     
   1.00000000000000     
   1.00000000000000     
   1.00000000000000     
   1.00000000000000     
   1.00000000000000     
   1.00000000000000     
   1.00000000000000     
   1.00000000000000     
   1.00000000000000     
   1.00000000000000     
   1.00000000000000     
   1.00000000000000     
   1.00000000000000     
   1.00000000000000     
   1.00000000000000     
   1.00000000000000     
   1.00000000000000     
   1.00000000000000     
   1.00000000000000     
   1.00000000000000     
   1.00000000000000     
   1.00000000000000     
   1.00000000000000     
   1.00000000000000     
   1.00000000000000     
   1.00000000000000     
   1.00000000000000     
SCALARS poroL double 
LOOKUP_TABLE default
  0.155856148221822     
  0.155855223243085     
  0.155854317625988     
  0.155853457014713     
  0.155852661448314     
  0.155851939898881     
  0.155851294491255     
  0.155850722991927     
  0.155850223315092     
  0.155849795144178     
  0.155849440975600     
  0.155849164427441     
  0.155848969046477     
  0.155848857566340     
  0.155848831528042     
  0.155855891969181     
  0.155854971627945     
  0.155854070530905     
  0.155853214881951     
  0.155852424202130     
  0.155851705993943     
  0.155851063310858     
  0.155850493989805     
  0.155849996337076     
  0.155849570259429     
  0.155849218067301     
  0.155848943069706     
  0.155848748619799     
  0.155848637284309     
  0.155848610514754     
  0.155855376719823     
  0.155854466110694     
  0.155853574748722     
  0.155852728958783     
  0.155851948347056     
  0.155851238330847     
  0.155850601867799     
  0.155850037686496     
  0.155849544729402     
  0.155849123042549     
  0.155848774650108     
  0.155848502563413     
  0.155848309754552     
  0.155848198474574     
  0.155848170175308     
  0.155854599161533     
  0.155853702205581     
  0.155852827915166     
  0.155852000444766     
  0.155851234800517     
  0.155850538004470     
  0.155849912537895     
  0.155849357774530     
  0.155848872895131     
  0.155848458167359     
  0.155848115408515     
  0.155847847256892     
  0.155847656184945     
  0.155847544429156     
  0.155847513941829     
  0.155853555386719     
  0.155852675965859     
  0.155851824899807     
  0.155851024700542     
  0.155850284679161     
  0.155849609191244     
  0.155849000506065     
  0.155848460072556     
  0.155847986871259     
  0.155847581636744     
  0.155847246084549     
  0.155846982400939     
  0.155846793026532     
  0.155846680494405     
  0.155846646693445     
  0.155852241708427     
  0.155851387355309     
  0.155850569844398     
  0.155849806018121     
  0.155849101499040     
  0.155848456156561     
  0.155847873127910     
  0.155847352416917     
  0.155846894628871     
  0.155846500992448     
  0.155846173487022     
  0.155845914626802     
  0.155845727163444     
  0.155845613360602     
  0.155845574954869     
  0.155850659655791     
  0.155849837193276     
  0.155849065553192     
  0.155848351485903     
  0.155847691431753     
  0.155847087465774     
  0.155846537617139     
  0.155846042758914     
  0.155845604049124     
  0.155845224117074     
  0.155844905994489     
  0.155844652616798     
  0.155844466554196     
  0.155844350346434     
  0.155844306284859     
  0.155848813072425     
  0.155848038265673     
  0.155847324620684     
  0.155846670022281     
  0.155846069119539     
  0.155845513622932     
  0.155845003278772     
  0.155844539263449     
  0.155844123915603     
  0.155843760619359     
  0.155843453119733     
  0.155843204979750     
  0.155843019801621     
  0.155842900345380     
  0.155842849035933     
  0.155846721907274     
  0.155846000964374     
  0.155845362659272     
  0.155844783633790     
  0.155844245634193     
  0.155843744857605     
  0.155843279499506     
  0.155842851219179     
  0.155842463028410     
  0.155842118822860     
  0.155841823350341     
  0.155841581448937     
  0.155841396888264     
  0.155841273254517     
  0.155841212801178     
  0.155844398878070     
  0.155843764086837     
  0.155843209580708     
  0.155842704022892     
  0.155842234109322     
  0.155841791644546     
  0.155841375598631     
  0.155840987219698     
  0.155840629614666     
  0.155840308022891     
  0.155840027520209     
  0.155839792808786     
  0.155839608756394     
  0.155839479441896     
  0.155839407928719     
  0.155841891592011     
  0.155841350974690     
  0.155840881350829     
  0.155840450979553     
  0.155840046873183     
  0.155839663910095     
  0.155839299757483     
  0.155838955270791     
  0.155838633930003     
  0.155838339359749     
  0.155838076326325     
  0.155837850559098     
  0.155837667273668     
  0.155837530888913     
  0.155837445639763     
  0.155839238669216     
  0.155838787845423     
  0.155838394082492     
  0.155838033029344     
  0.155837693458374     
  0.155837370489337     
  0.155837061440063     
  0.155836766470987     
  0.155836486265904     
  0.155836223474825     
  0.155835982379487     
  0.155835767540607     
  0.155835584897631     
  0.155835440160531     
  0.155835337382395     
  0.155836461820785     
  0.155836089060246     
  0.155835760428631     
  0.155835461443275     
  0.155835183921911     
  0.155834922013785     
  0.155834672235241     
  0.155834431210307     
  0.155834197968055     
  0.155833972895878     
  0.155833757801922     
  0.155833557091777     
  0.155833375858501     
  0.155833220376609     
  0.155833095665059     
  0.155833560038836     
  0.155833255075726     
  0.155832986719342     
  0.155832747156397     
  0.155832530683356     
  0.155832331455864     
  0.155832143422233     
  0.155831961522604     
  0.155831780936330     
  0.155831599179845     
  0.155831416076189     
  0.155831232924574     
  0.155831054427854     
  0.155830886306733     
  0.155830734124446     
  0.155830524715776     
  0.155830288336510     
  0.155830081387919     
  0.155829901861838     
  0.155829746934733     
  0.155829611112951     
  0.155829487295083     
  0.155829368111930     
  0.155829246137721     
  0.155829114749475     
  0.155828969323003     
  0.155828809111679     
  0.155828635642034     
  0.155828453439423     
  0.155828269597735     
  0.155827359416950     
  0.155827194241784     
  0.155827052116136     
  0.155826934941087     
  0.155826842414376     
  0.155826771167829     
  0.155826714416170     
  0.155826662326761     
  0.155826604157574     
  0.155826529426460     
  0.155826429249681     
  0.155826297929645     
  0.155826133566367     
  0.155825938171601     
  0.155825720372749     
  0.155824069655654     
  0.155823976861051     
  0.155823902370127     
  0.155823851076267     
  0.155823824400238     
  0.155823820635293     
  0.155823833630503     
  0.155823852604061     
  0.155823863928127     
  0.155823852342024     
  0.155823804564985     
  0.155823709495709     
  0.155823560129302     
  0.155823356396464     
  0.155823103368996     
  0.155820655025229     
  0.155820637071527     
  0.155820635205153     
  0.155820654791114     
  0.155820699137207     
  0.155820767548551     
  0.155820854059459     
  0.155820947974492     
  0.155821033510845     
  0.155821091694988     
  0.155821103144687     
  0.155821052029913     
  0.155820926094190     
  0.155820720117528     
  0.155820434705173     
  0.155817116252136     
  0.155817178408806     
  0.155817254763642     
  0.155817352059229     
  0.155817473845950     
  0.155817619514686     
  0.155817784193093     
  0.155817956511079     
  0.155818119415456     
  0.155818252206839     
  0.155818330981925     
  0.155818333152306     
  0.155818240722921     
  0.155818040899076     
  0.155817730820502     
  0.155813459077330     
  0.155813606820389     
  0.155813768385661     
  0.155813950356622     
  0.155814155990464     
  0.155814384932284     
  0.155814631531917     
  0.155814884646481     
  0.155815127366303     
  0.155815337674100     
  0.155815490361138     
  0.155815556975275     
  0.155815511426792     
  0.155815332178898     
  0.155815007532945     
  0.155809691957403     
  0.155809931704319     
  0.155810185164831     
  0.155810458873325     
  0.155810755510578     
  0.155811073001354     
  0.155811404521762     
  0.155811738822501     
  0.155812060116671     
  0.155812348673183     
  0.155812579520353     
  0.155812721561776     
  0.155812741075355     
  0.155812603379244     
  0.155812282085067     
  0.155805824697176     
  0.155806163695249     
  0.155806517119886     
  0.155806890101105     
  0.155807284115739     
  0.155807694787903     
  0.155808112863067     
  0.155808526047953     
  0.155808921132777     
  0.155809282820212     
  0.155809591224740     
  0.155809818296247     
  0.155809923989761     
  0.155809857826827     
  0.155809567976495     
  0.155801868721780     
  0.155802315695533     
  0.155802777228220     
  0.155803258004407     
  0.155803756227571     
  0.155804263583541     
  0.155804767531624     
  0.155805254749898     
  0.155805714323628     
  0.155806138322708     
  0.155806516780312     
  0.155806830534685     
  0.155807041746108     
  0.155807086333662     
  0.155806879179678     
  0.155797836279994     
  0.155798402423163     
  0.155798982665034     
  0.155799580538234     
  0.155800189423130     
  0.155800795196415     
  0.155801381149699     
  0.155801934103416     
  0.155802447013568     
  0.155802918578546     
  0.155803350152566     
  0.155803737883348     
  0.155804060535228     
  0.155804256689738     
  0.155804194631886     
  0.155793739127419     
  0.155794439911583     
  0.155795153704183     
  0.155795880526414     
  0.155796605956120     
  0.155797308421640     
  0.155797968457863     
  0.155798575497713     
  0.155799128459738     
  0.155799632487771     
  0.155800096822948     
  0.155800533552320     
  0.155800948299468     
  0.155801317644660     
  0.155801505174685     
  0.155789591641790     
  0.155790449492720     
  0.155791318024284     
  0.155792188670740     
  0.155793033941562     
  0.155793825226022     
  0.155794545648510     
  0.155795192636871     
  0.155795771797860     
  0.155796294197028     
  0.155796774974786     
  0.155797233666160     
  0.155797700239024     
  0.155798203260272     
  0.155798730127883     
  0.155785408872150     
  0.155786460568073     
  0.155787516129102     
  0.155788546446551     
  0.155789506795260     
  0.155790369947194     
  0.155791132039471     
  0.155791801951741     
  0.155792394261237     
  0.155792924462983     
  0.155793410070730     
  0.155793875140718     
  0.155794357309998     
  0.155794957894094     
  0.155795828675078     
  0.155781213426728     
  0.155782523796255     
  0.155783811969489     
  0.155785007561849     
  0.155786058359553     
  0.155786966954522     
  0.155787749957973     
  0.155788426979493     
  0.155789017204456     
  0.155789541883657     
  0.155790023363356     
  0.155790489660333     
  0.155790988647620     
  0.155791611705152     
  0.155792769175010     
  0.155777054174870     
  0.155778743003151     
  0.155780308981026     
  0.155781621615882     
  0.155782720420734     
  0.155783644243103     
  0.155784425322495     
  0.155785090925745     
  0.155785664401063     
  0.155786168527989     
  0.155786629697432     
  0.155787083653455     
  0.155787589334857     
  0.155788286276177     
  0.155789591726415     
  0.155773093053431     
  0.155775382502463     
  0.155777079015482     
  0.155778424770462     
  0.155779521112371     
  0.155780427437427     
  0.155781183602662     
  0.155781819257991     
  0.155782358482125     
  0.155782824925067     
  0.155783245088959     
  0.155783657010345     
  0.155784128979757     
  0.155784818465698     
  0.155786501910572     
