# vtk DataFile Version 3.0
vtk output
ASCII
DATASET UNSTRUCTURED_GRID
POINTS      5151 double 
  0.00000000E+00  1.00000000E+02  0.00000000E+00
  0.00000000E+00  9.80000000E+01  0.00000000E+00
  0.00000000E+00  9.60000000E+01  0.00000000E+00
  0.00000000E+00  9.40000000E+01  0.00000000E+00
  0.00000000E+00  9.20000000E+01  0.00000000E+00
  0.00000000E+00  9.00000000E+01  0.00000000E+00
  0.00000000E+00  8.80000000E+01  0.00000000E+00
  0.00000000E+00  8.60000000E+01  0.00000000E+00
  0.00000000E+00  8.40000000E+01  0.00000000E+00
  0.00000000E+00  8.20000000E+01  0.00000000E+00
  0.00000000E+00  8.00000000E+01  0.00000000E+00
  0.00000000E+00  7.80000000E+01  0.00000000E+00
  0.00000000E+00  7.60000000E+01  0.00000000E+00
  0.00000000E+00  7.40000000E+01  0.00000000E+00
  0.00000000E+00  7.20000000E+01  0.00000000E+00
  0.00000000E+00  7.00000000E+01  0.00000000E+00
  0.00000000E+00  6.80000000E+01  0.00000000E+00
  0.00000000E+00  6.60000000E+01  0.00000000E+00
  0.00000000E+00  6.40000000E+01  0.00000000E+00
  0.00000000E+00  6.20000000E+01  0.00000000E+00
  0.00000000E+00  6.00000000E+01  0.00000000E+00
  0.00000000E+00  5.80000000E+01  0.00000000E+00
  0.00000000E+00  5.60000000E+01  0.00000000E+00
  0.00000000E+00  5.40000000E+01  0.00000000E+00
  0.00000000E+00  5.20000000E+01  0.00000000E+00
  0.00000000E+00  5.00000000E+01  0.00000000E+00
  0.00000000E+00  4.80000000E+01  0.00000000E+00
  0.00000000E+00  4.60000000E+01  0.00000000E+00
  0.00000000E+00  4.40000000E+01  0.00000000E+00
  0.00000000E+00  4.20000000E+01  0.00000000E+00
  0.00000000E+00  4.00000000E+01  0.00000000E+00
  0.00000000E+00  3.80000000E+01  0.00000000E+00
  0.00000000E+00  3.60000000E+01  0.00000000E+00
  0.00000000E+00  3.40000000E+01  0.00000000E+00
  0.00000000E+00  3.20000000E+01  0.00000000E+00
  0.00000000E+00  3.00000000E+01  0.00000000E+00
  0.00000000E+00  2.80000000E+01  0.00000000E+00
  0.00000000E+00  2.60000000E+01  0.00000000E+00
  0.00000000E+00  2.40000000E+01  0.00000000E+00
  0.00000000E+00  2.20000000E+01  0.00000000E+00
  0.00000000E+00  2.00000000E+01  0.00000000E+00
  0.00000000E+00  1.80000000E+01  0.00000000E+00
  0.00000000E+00  1.60000000E+01  0.00000000E+00
  0.00000000E+00  1.40000000E+01  0.00000000E+00
  0.00000000E+00  1.20000000E+01  0.00000000E+00
  0.00000000E+00  1.00000000E+01  0.00000000E+00
  0.00000000E+00  8.00000000E+00  0.00000000E+00
  0.00000000E+00  6.00000000E+00  0.00000000E+00
  0.00000000E+00  4.00000000E+00  0.00000000E+00
  0.00000000E+00  2.00000000E+00  0.00000000E+00
  0.00000000E+00 -3.33066907E-14  0.00000000E+00
  1.00000000E+01  1.00000000E+02  0.00000000E+00
  1.00000000E+01  9.80000000E+01  0.00000000E+00
  1.00000000E+01  9.60000000E+01  0.00000000E+00
  1.00000000E+01  9.40000000E+01  0.00000000E+00
  1.00000000E+01  9.20000000E+01  0.00000000E+00
  1.00000000E+01  9.00000000E+01  0.00000000E+00
  1.00000000E+01  8.80000000E+01  0.00000000E+00
  1.00000000E+01  8.60000000E+01  0.00000000E+00
  1.00000000E+01  8.40000000E+01  0.00000000E+00
  1.00000000E+01  8.20000000E+01  0.00000000E+00
  1.00000000E+01  8.00000000E+01  0.00000000E+00
  1.00000000E+01  7.80000000E+01  0.00000000E+00
  1.00000000E+01  7.60000000E+01  0.00000000E+00
  1.00000000E+01  7.40000000E+01  0.00000000E+00
  1.00000000E+01  7.20000000E+01  0.00000000E+00
  1.00000000E+01  7.00000000E+01  0.00000000E+00
  1.00000000E+01  6.80000000E+01  0.00000000E+00
  1.00000000E+01  6.60000000E+01  0.00000000E+00
  1.00000000E+01  6.40000000E+01  0.00000000E+00
  1.00000000E+01  6.20000000E+01  0.00000000E+00
  1.00000000E+01  6.00000000E+01  0.00000000E+00
  1.00000000E+01  5.80000000E+01  0.00000000E+00
  1.00000000E+01  5.60000000E+01  0.00000000E+00
  1.00000000E+01  5.40000000E+01  0.00000000E+00
  1.00000000E+01  5.20000000E+01  0.00000000E+00
  1.00000000E+01  5.00000000E+01  0.00000000E+00
  1.00000000E+01  4.80000000E+01  0.00000000E+00
  1.00000000E+01  4.60000000E+01  0.00000000E+00
  1.00000000E+01  4.40000000E+01  0.00000000E+00
  1.00000000E+01  4.20000000E+01  0.00000000E+00
  1.00000000E+01  4.00000000E+01  0.00000000E+00
  1.00000000E+01  3.80000000E+01  0.00000000E+00
  1.00000000E+01  3.60000000E+01  0.00000000E+00
  1.00000000E+01  3.40000000E+01  0.00000000E+00
  1.00000000E+01  3.20000000E+01  0.00000000E+00
  1.00000000E+01  3.00000000E+01  0.00000000E+00
  1.00000000E+01  2.80000000E+01  0.00000000E+00
  1.00000000E+01  2.60000000E+01  0.00000000E+00
  1.00000000E+01  2.40000000E+01  0.00000000E+00
  1.00000000E+01  2.20000000E+01  0.00000000E+00
  1.00000000E+01  2.00000000E+01  0.00000000E+00
  1.00000000E+01  1.80000000E+01  0.00000000E+00
  1.00000000E+01  1.60000000E+01  0.00000000E+00
  1.00000000E+01  1.40000000E+01  0.00000000E+00
  1.00000000E+01  1.20000000E+01  0.00000000E+00
  1.00000000E+01  1.00000000E+01  0.00000000E+00
  1.00000000E+01  8.00000000E+00  0.00000000E+00
  1.00000000E+01  6.00000000E+00  0.00000000E+00
  1.00000000E+01  4.00000000E+00  0.00000000E+00
  1.00000000E+01  2.00000000E+00  0.00000000E+00
  1.00000000E+01 -3.33066907E-14  0.00000000E+00
  2.00000000E+01  1.00000000E+02  0.00000000E+00
  2.00000000E+01  9.80000000E+01  0.00000000E+00
  2.00000000E+01  9.60000000E+01  0.00000000E+00
  2.00000000E+01  9.40000000E+01  0.00000000E+00
  2.00000000E+01  9.20000000E+01  0.00000000E+00
  2.00000000E+01  9.00000000E+01  0.00000000E+00
  2.00000000E+01  8.80000000E+01  0.00000000E+00
  2.00000000E+01  8.60000000E+01  0.00000000E+00
  2.00000000E+01  8.40000000E+01  0.00000000E+00
  2.00000000E+01  8.20000000E+01  0.00000000E+00
  2.00000000E+01  8.00000000E+01  0.00000000E+00
  2.00000000E+01  7.80000000E+01  0.00000000E+00
  2.00000000E+01  7.60000000E+01  0.00000000E+00
  2.00000000E+01  7.40000000E+01  0.00000000E+00
  2.00000000E+01  7.20000000E+01  0.00000000E+00
  2.00000000E+01  7.00000000E+01  0.00000000E+00
  2.00000000E+01  6.80000000E+01  0.00000000E+00
  2.00000000E+01  6.60000000E+01  0.00000000E+00
  2.00000000E+01  6.40000000E+01  0.00000000E+00
  2.00000000E+01  6.20000000E+01  0.00000000E+00
  2.00000000E+01  6.00000000E+01  0.00000000E+00
  2.00000000E+01  5.80000000E+01  0.00000000E+00
  2.00000000E+01  5.60000000E+01  0.00000000E+00
  2.00000000E+01  5.40000000E+01  0.00000000E+00
  2.00000000E+01  5.20000000E+01  0.00000000E+00
  2.00000000E+01  5.00000000E+01  0.00000000E+00
  2.00000000E+01  4.80000000E+01  0.00000000E+00
  2.00000000E+01  4.60000000E+01  0.00000000E+00
  2.00000000E+01  4.40000000E+01  0.00000000E+00
  2.00000000E+01  4.20000000E+01  0.00000000E+00
  2.00000000E+01  4.00000000E+01  0.00000000E+00
  2.00000000E+01  3.80000000E+01  0.00000000E+00
  2.00000000E+01  3.60000000E+01  0.00000000E+00
  2.00000000E+01  3.40000000E+01  0.00000000E+00
  2.00000000E+01  3.20000000E+01  0.00000000E+00
  2.00000000E+01  3.00000000E+01  0.00000000E+00
  2.00000000E+01  2.80000000E+01  0.00000000E+00
  2.00000000E+01  2.60000000E+01  0.00000000E+00
  2.00000000E+01  2.40000000E+01  0.00000000E+00
  2.00000000E+01  2.20000000E+01  0.00000000E+00
  2.00000000E+01  2.00000000E+01  0.00000000E+00
  2.00000000E+01  1.80000000E+01  0.00000000E+00
  2.00000000E+01  1.60000000E+01  0.00000000E+00
  2.00000000E+01  1.40000000E+01  0.00000000E+00
  2.00000000E+01  1.20000000E+01  0.00000000E+00
  2.00000000E+01  1.00000000E+01  0.00000000E+00
  2.00000000E+01  8.00000000E+00  0.00000000E+00
  2.00000000E+01  6.00000000E+00  0.00000000E+00
  2.00000000E+01  4.00000000E+00  0.00000000E+00
  2.00000000E+01  2.00000000E+00  0.00000000E+00
  2.00000000E+01 -3.33066907E-14  0.00000000E+00
  3.00000000E+01  1.00000000E+02  0.00000000E+00
  3.00000000E+01  9.80000000E+01  0.00000000E+00
  3.00000000E+01  9.60000000E+01  0.00000000E+00
  3.00000000E+01  9.40000000E+01  0.00000000E+00
  3.00000000E+01  9.20000000E+01  0.00000000E+00
  3.00000000E+01  9.00000000E+01  0.00000000E+00
  3.00000000E+01  8.80000000E+01  0.00000000E+00
  3.00000000E+01  8.60000000E+01  0.00000000E+00
  3.00000000E+01  8.40000000E+01  0.00000000E+00
  3.00000000E+01  8.20000000E+01  0.00000000E+00
  3.00000000E+01  8.00000000E+01  0.00000000E+00
  3.00000000E+01  7.80000000E+01  0.00000000E+00
  3.00000000E+01  7.60000000E+01  0.00000000E+00
  3.00000000E+01  7.40000000E+01  0.00000000E+00
  3.00000000E+01  7.20000000E+01  0.00000000E+00
  3.00000000E+01  7.00000000E+01  0.00000000E+00
  3.00000000E+01  6.80000000E+01  0.00000000E+00
  3.00000000E+01  6.60000000E+01  0.00000000E+00
  3.00000000E+01  6.40000000E+01  0.00000000E+00
  3.00000000E+01  6.20000000E+01  0.00000000E+00
  3.00000000E+01  6.00000000E+01  0.00000000E+00
  3.00000000E+01  5.80000000E+01  0.00000000E+00
  3.00000000E+01  5.60000000E+01  0.00000000E+00
  3.00000000E+01  5.40000000E+01  0.00000000E+00
  3.00000000E+01  5.20000000E+01  0.00000000E+00
  3.00000000E+01  5.00000000E+01  0.00000000E+00
  3.00000000E+01  4.80000000E+01  0.00000000E+00
  3.00000000E+01  4.60000000E+01  0.00000000E+00
  3.00000000E+01  4.40000000E+01  0.00000000E+00
  3.00000000E+01  4.20000000E+01  0.00000000E+00
  3.00000000E+01  4.00000000E+01  0.00000000E+00
  3.00000000E+01  3.80000000E+01  0.00000000E+00
  3.00000000E+01  3.60000000E+01  0.00000000E+00
  3.00000000E+01  3.40000000E+01  0.00000000E+00
  3.00000000E+01  3.20000000E+01  0.00000000E+00
  3.00000000E+01  3.00000000E+01  0.00000000E+00
  3.00000000E+01  2.80000000E+01  0.00000000E+00
  3.00000000E+01  2.60000000E+01  0.00000000E+00
  3.00000000E+01  2.40000000E+01  0.00000000E+00
  3.00000000E+01  2.20000000E+01  0.00000000E+00
  3.00000000E+01  2.00000000E+01  0.00000000E+00
  3.00000000E+01  1.80000000E+01  0.00000000E+00
  3.00000000E+01  1.60000000E+01  0.00000000E+00
  3.00000000E+01  1.40000000E+01  0.00000000E+00
  3.00000000E+01  1.20000000E+01  0.00000000E+00
  3.00000000E+01  1.00000000E+01  0.00000000E+00
  3.00000000E+01  8.00000000E+00  0.00000000E+00
  3.00000000E+01  6.00000000E+00  0.00000000E+00
  3.00000000E+01  4.00000000E+00  0.00000000E+00
  3.00000000E+01  2.00000000E+00  0.00000000E+00
  3.00000000E+01 -3.33066907E-14  0.00000000E+00
  4.00000000E+01  1.00000000E+02  0.00000000E+00
  4.00000000E+01  9.80000000E+01  0.00000000E+00
  4.00000000E+01  9.60000000E+01  0.00000000E+00
  4.00000000E+01  9.40000000E+01  0.00000000E+00
  4.00000000E+01  9.20000000E+01  0.00000000E+00
  4.00000000E+01  9.00000000E+01  0.00000000E+00
  4.00000000E+01  8.80000000E+01  0.00000000E+00
  4.00000000E+01  8.60000000E+01  0.00000000E+00
  4.00000000E+01  8.40000000E+01  0.00000000E+00
  4.00000000E+01  8.20000000E+01  0.00000000E+00
  4.00000000E+01  8.00000000E+01  0.00000000E+00
  4.00000000E+01  7.80000000E+01  0.00000000E+00
  4.00000000E+01  7.60000000E+01  0.00000000E+00
  4.00000000E+01  7.40000000E+01  0.00000000E+00
  4.00000000E+01  7.20000000E+01  0.00000000E+00
  4.00000000E+01  7.00000000E+01  0.00000000E+00
  4.00000000E+01  6.80000000E+01  0.00000000E+00
  4.00000000E+01  6.60000000E+01  0.00000000E+00
  4.00000000E+01  6.40000000E+01  0.00000000E+00
  4.00000000E+01  6.20000000E+01  0.00000000E+00
  4.00000000E+01  6.00000000E+01  0.00000000E+00
  4.00000000E+01  5.80000000E+01  0.00000000E+00
  4.00000000E+01  5.60000000E+01  0.00000000E+00
  4.00000000E+01  5.40000000E+01  0.00000000E+00
  4.00000000E+01  5.20000000E+01  0.00000000E+00
  4.00000000E+01  5.00000000E+01  0.00000000E+00
  4.00000000E+01  4.80000000E+01  0.00000000E+00
  4.00000000E+01  4.60000000E+01  0.00000000E+00
  4.00000000E+01  4.40000000E+01  0.00000000E+00
  4.00000000E+01  4.20000000E+01  0.00000000E+00
  4.00000000E+01  4.00000000E+01  0.00000000E+00
  4.00000000E+01  3.80000000E+01  0.00000000E+00
  4.00000000E+01  3.60000000E+01  0.00000000E+00
  4.00000000E+01  3.40000000E+01  0.00000000E+00
  4.00000000E+01  3.20000000E+01  0.00000000E+00
  4.00000000E+01  3.00000000E+01  0.00000000E+00
  4.00000000E+01  2.80000000E+01  0.00000000E+00
  4.00000000E+01  2.60000000E+01  0.00000000E+00
  4.00000000E+01  2.40000000E+01  0.00000000E+00
  4.00000000E+01  2.20000000E+01  0.00000000E+00
  4.00000000E+01  2.00000000E+01  0.00000000E+00
  4.00000000E+01  1.80000000E+01  0.00000000E+00
  4.00000000E+01  1.60000000E+01  0.00000000E+00
  4.00000000E+01  1.40000000E+01  0.00000000E+00
  4.00000000E+01  1.20000000E+01  0.00000000E+00
  4.00000000E+01  1.00000000E+01  0.00000000E+00
  4.00000000E+01  8.00000000E+00  0.00000000E+00
  4.00000000E+01  6.00000000E+00  0.00000000E+00
  4.00000000E+01  4.00000000E+00  0.00000000E+00
  4.00000000E+01  2.00000000E+00  0.00000000E+00
  4.00000000E+01 -3.33066907E-14  0.00000000E+00
  5.00000000E+01  1.00000000E+02  0.00000000E+00
  5.00000000E+01  9.80000000E+01  0.00000000E+00
  5.00000000E+01  9.60000000E+01  0.00000000E+00
  5.00000000E+01  9.40000000E+01  0.00000000E+00
  5.00000000E+01  9.20000000E+01  0.00000000E+00
  5.00000000E+01  9.00000000E+01  0.00000000E+00
  5.00000000E+01  8.80000000E+01  0.00000000E+00
  5.00000000E+01  8.60000000E+01  0.00000000E+00
  5.00000000E+01  8.40000000E+01  0.00000000E+00
  5.00000000E+01  8.20000000E+01  0.00000000E+00
  5.00000000E+01  8.00000000E+01  0.00000000E+00
  5.00000000E+01  7.80000000E+01  0.00000000E+00
  5.00000000E+01  7.60000000E+01  0.00000000E+00
  5.00000000E+01  7.40000000E+01  0.00000000E+00
  5.00000000E+01  7.20000000E+01  0.00000000E+00
  5.00000000E+01  7.00000000E+01  0.00000000E+00
  5.00000000E+01  6.80000000E+01  0.00000000E+00
  5.00000000E+01  6.60000000E+01  0.00000000E+00
  5.00000000E+01  6.40000000E+01  0.00000000E+00
  5.00000000E+01  6.20000000E+01  0.00000000E+00
  5.00000000E+01  6.00000000E+01  0.00000000E+00
  5.00000000E+01  5.80000000E+01  0.00000000E+00
  5.00000000E+01  5.60000000E+01  0.00000000E+00
  5.00000000E+01  5.40000000E+01  0.00000000E+00
  5.00000000E+01  5.20000000E+01  0.00000000E+00
  5.00000000E+01  5.00000000E+01  0.00000000E+00
  5.00000000E+01  4.80000000E+01  0.00000000E+00
  5.00000000E+01  4.60000000E+01  0.00000000E+00
  5.00000000E+01  4.40000000E+01  0.00000000E+00
  5.00000000E+01  4.20000000E+01  0.00000000E+00
  5.00000000E+01  4.00000000E+01  0.00000000E+00
  5.00000000E+01  3.80000000E+01  0.00000000E+00
  5.00000000E+01  3.60000000E+01  0.00000000E+00
  5.00000000E+01  3.40000000E+01  0.00000000E+00
  5.00000000E+01  3.20000000E+01  0.00000000E+00
  5.00000000E+01  3.00000000E+01  0.00000000E+00
  5.00000000E+01  2.80000000E+01  0.00000000E+00
  5.00000000E+01  2.60000000E+01  0.00000000E+00
  5.00000000E+01  2.40000000E+01  0.00000000E+00
  5.00000000E+01  2.20000000E+01  0.00000000E+00
  5.00000000E+01  2.00000000E+01  0.00000000E+00
  5.00000000E+01  1.80000000E+01  0.00000000E+00
  5.00000000E+01  1.60000000E+01  0.00000000E+00
  5.00000000E+01  1.40000000E+01  0.00000000E+00
  5.00000000E+01  1.20000000E+01  0.00000000E+00
  5.00000000E+01  1.00000000E+01  0.00000000E+00
  5.00000000E+01  8.00000000E+00  0.00000000E+00
  5.00000000E+01  6.00000000E+00  0.00000000E+00
  5.00000000E+01  4.00000000E+00  0.00000000E+00
  5.00000000E+01  2.00000000E+00  0.00000000E+00
  5.00000000E+01 -3.33066907E-14  0.00000000E+00
  6.00000000E+01  1.00000000E+02  0.00000000E+00
  6.00000000E+01  9.80000000E+01  0.00000000E+00
  6.00000000E+01  9.60000000E+01  0.00000000E+00
  6.00000000E+01  9.40000000E+01  0.00000000E+00
  6.00000000E+01  9.20000000E+01  0.00000000E+00
  6.00000000E+01  9.00000000E+01  0.00000000E+00
  6.00000000E+01  8.80000000E+01  0.00000000E+00
  6.00000000E+01  8.60000000E+01  0.00000000E+00
  6.00000000E+01  8.40000000E+01  0.00000000E+00
  6.00000000E+01  8.20000000E+01  0.00000000E+00
  6.00000000E+01  8.00000000E+01  0.00000000E+00
  6.00000000E+01  7.80000000E+01  0.00000000E+00
  6.00000000E+01  7.60000000E+01  0.00000000E+00
  6.00000000E+01  7.40000000E+01  0.00000000E+00
  6.00000000E+01  7.20000000E+01  0.00000000E+00
  6.00000000E+01  7.00000000E+01  0.00000000E+00
  6.00000000E+01  6.80000000E+01  0.00000000E+00
  6.00000000E+01  6.60000000E+01  0.00000000E+00
  6.00000000E+01  6.40000000E+01  0.00000000E+00
  6.00000000E+01  6.20000000E+01  0.00000000E+00
  6.00000000E+01  6.00000000E+01  0.00000000E+00
  6.00000000E+01  5.80000000E+01  0.00000000E+00
  6.00000000E+01  5.60000000E+01  0.00000000E+00
  6.00000000E+01  5.40000000E+01  0.00000000E+00
  6.00000000E+01  5.20000000E+01  0.00000000E+00
  6.00000000E+01  5.00000000E+01  0.00000000E+00
  6.00000000E+01  4.80000000E+01  0.00000000E+00
  6.00000000E+01  4.60000000E+01  0.00000000E+00
  6.00000000E+01  4.40000000E+01  0.00000000E+00
  6.00000000E+01  4.20000000E+01  0.00000000E+00
  6.00000000E+01  4.00000000E+01  0.00000000E+00
  6.00000000E+01  3.80000000E+01  0.00000000E+00
  6.00000000E+01  3.60000000E+01  0.00000000E+00
  6.00000000E+01  3.40000000E+01  0.00000000E+00
  6.00000000E+01  3.20000000E+01  0.00000000E+00
  6.00000000E+01  3.00000000E+01  0.00000000E+00
  6.00000000E+01  2.80000000E+01  0.00000000E+00
  6.00000000E+01  2.60000000E+01  0.00000000E+00
  6.00000000E+01  2.40000000E+01  0.00000000E+00
  6.00000000E+01  2.20000000E+01  0.00000000E+00
  6.00000000E+01  2.00000000E+01  0.00000000E+00
  6.00000000E+01  1.80000000E+01  0.00000000E+00
  6.00000000E+01  1.60000000E+01  0.00000000E+00
  6.00000000E+01  1.40000000E+01  0.00000000E+00
  6.00000000E+01  1.20000000E+01  0.00000000E+00
  6.00000000E+01  1.00000000E+01  0.00000000E+00
  6.00000000E+01  8.00000000E+00  0.00000000E+00
  6.00000000E+01  6.00000000E+00  0.00000000E+00
  6.00000000E+01  4.00000000E+00  0.00000000E+00
  6.00000000E+01  2.00000000E+00  0.00000000E+00
  6.00000000E+01 -3.33066907E-14  0.00000000E+00
  7.00000000E+01  1.00000000E+02  0.00000000E+00
  7.00000000E+01  9.80000000E+01  0.00000000E+00
  7.00000000E+01  9.60000000E+01  0.00000000E+00
  7.00000000E+01  9.40000000E+01  0.00000000E+00
  7.00000000E+01  9.20000000E+01  0.00000000E+00
  7.00000000E+01  9.00000000E+01  0.00000000E+00
  7.00000000E+01  8.80000000E+01  0.00000000E+00
  7.00000000E+01  8.60000000E+01  0.00000000E+00
  7.00000000E+01  8.40000000E+01  0.00000000E+00
  7.00000000E+01  8.20000000E+01  0.00000000E+00
  7.00000000E+01  8.00000000E+01  0.00000000E+00
  7.00000000E+01  7.80000000E+01  0.00000000E+00
  7.00000000E+01  7.60000000E+01  0.00000000E+00
  7.00000000E+01  7.40000000E+01  0.00000000E+00
  7.00000000E+01  7.20000000E+01  0.00000000E+00
  7.00000000E+01  7.00000000E+01  0.00000000E+00
  7.00000000E+01  6.80000000E+01  0.00000000E+00
  7.00000000E+01  6.60000000E+01  0.00000000E+00
  7.00000000E+01  6.40000000E+01  0.00000000E+00
  7.00000000E+01  6.20000000E+01  0.00000000E+00
  7.00000000E+01  6.00000000E+01  0.00000000E+00
  7.00000000E+01  5.80000000E+01  0.00000000E+00
  7.00000000E+01  5.60000000E+01  0.00000000E+00
  7.00000000E+01  5.40000000E+01  0.00000000E+00
  7.00000000E+01  5.20000000E+01  0.00000000E+00
  7.00000000E+01  5.00000000E+01  0.00000000E+00
  7.00000000E+01  4.80000000E+01  0.00000000E+00
  7.00000000E+01  4.60000000E+01  0.00000000E+00
  7.00000000E+01  4.40000000E+01  0.00000000E+00
  7.00000000E+01  4.20000000E+01  0.00000000E+00
  7.00000000E+01  4.00000000E+01  0.00000000E+00
  7.00000000E+01  3.80000000E+01  0.00000000E+00
  7.00000000E+01  3.60000000E+01  0.00000000E+00
  7.00000000E+01  3.40000000E+01  0.00000000E+00
  7.00000000E+01  3.20000000E+01  0.00000000E+00
  7.00000000E+01  3.00000000E+01  0.00000000E+00
  7.00000000E+01  2.80000000E+01  0.00000000E+00
  7.00000000E+01  2.60000000E+01  0.00000000E+00
  7.00000000E+01  2.40000000E+01  0.00000000E+00
  7.00000000E+01  2.20000000E+01  0.00000000E+00
  7.00000000E+01  2.00000000E+01  0.00000000E+00
  7.00000000E+01  1.80000000E+01  0.00000000E+00
  7.00000000E+01  1.60000000E+01  0.00000000E+00
  7.00000000E+01  1.40000000E+01  0.00000000E+00
  7.00000000E+01  1.20000000E+01  0.00000000E+00
  7.00000000E+01  1.00000000E+01  0.00000000E+00
  7.00000000E+01  8.00000000E+00  0.00000000E+00
  7.00000000E+01  6.00000000E+00  0.00000000E+00
  7.00000000E+01  4.00000000E+00  0.00000000E+00
  7.00000000E+01  2.00000000E+00  0.00000000E+00
  7.00000000E+01 -3.33066907E-14  0.00000000E+00
  8.00000000E+01  1.00000000E+02  0.00000000E+00
  8.00000000E+01  9.80000000E+01  0.00000000E+00
  8.00000000E+01  9.60000000E+01  0.00000000E+00
  8.00000000E+01  9.40000000E+01  0.00000000E+00
  8.00000000E+01  9.20000000E+01  0.00000000E+00
  8.00000000E+01  9.00000000E+01  0.00000000E+00
  8.00000000E+01  8.80000000E+01  0.00000000E+00
  8.00000000E+01  8.60000000E+01  0.00000000E+00
  8.00000000E+01  8.40000000E+01  0.00000000E+00
  8.00000000E+01  8.20000000E+01  0.00000000E+00
  8.00000000E+01  8.00000000E+01  0.00000000E+00
  8.00000000E+01  7.80000000E+01  0.00000000E+00
  8.00000000E+01  7.60000000E+01  0.00000000E+00
  8.00000000E+01  7.40000000E+01  0.00000000E+00
  8.00000000E+01  7.20000000E+01  0.00000000E+00
  8.00000000E+01  7.00000000E+01  0.00000000E+00
  8.00000000E+01  6.80000000E+01  0.00000000E+00
  8.00000000E+01  6.60000000E+01  0.00000000E+00
  8.00000000E+01  6.40000000E+01  0.00000000E+00
  8.00000000E+01  6.20000000E+01  0.00000000E+00
  8.00000000E+01  6.00000000E+01  0.00000000E+00
  8.00000000E+01  5.80000000E+01  0.00000000E+00
  8.00000000E+01  5.60000000E+01  0.00000000E+00
  8.00000000E+01  5.40000000E+01  0.00000000E+00
  8.00000000E+01  5.20000000E+01  0.00000000E+00
  8.00000000E+01  5.00000000E+01  0.00000000E+00
  8.00000000E+01  4.80000000E+01  0.00000000E+00
  8.00000000E+01  4.60000000E+01  0.00000000E+00
  8.00000000E+01  4.40000000E+01  0.00000000E+00
  8.00000000E+01  4.20000000E+01  0.00000000E+00
  8.00000000E+01  4.00000000E+01  0.00000000E+00
  8.00000000E+01  3.80000000E+01  0.00000000E+00
  8.00000000E+01  3.60000000E+01  0.00000000E+00
  8.00000000E+01  3.40000000E+01  0.00000000E+00
  8.00000000E+01  3.20000000E+01  0.00000000E+00
  8.00000000E+01  3.00000000E+01  0.00000000E+00
  8.00000000E+01  2.80000000E+01  0.00000000E+00
  8.00000000E+01  2.60000000E+01  0.00000000E+00
  8.00000000E+01  2.40000000E+01  0.00000000E+00
  8.00000000E+01  2.20000000E+01  0.00000000E+00
  8.00000000E+01  2.00000000E+01  0.00000000E+00
  8.00000000E+01  1.80000000E+01  0.00000000E+00
  8.00000000E+01  1.60000000E+01  0.00000000E+00
  8.00000000E+01  1.40000000E+01  0.00000000E+00
  8.00000000E+01  1.20000000E+01  0.00000000E+00
  8.00000000E+01  1.00000000E+01  0.00000000E+00
  8.00000000E+01  8.00000000E+00  0.00000000E+00
  8.00000000E+01  6.00000000E+00  0.00000000E+00
  8.00000000E+01  4.00000000E+00  0.00000000E+00
  8.00000000E+01  2.00000000E+00  0.00000000E+00
  8.00000000E+01 -3.33066907E-14  0.00000000E+00
  9.00000000E+01  1.00000000E+02  0.00000000E+00
  9.00000000E+01  9.80000000E+01  0.00000000E+00
  9.00000000E+01  9.60000000E+01  0.00000000E+00
  9.00000000E+01  9.40000000E+01  0.00000000E+00
  9.00000000E+01  9.20000000E+01  0.00000000E+00
  9.00000000E+01  9.00000000E+01  0.00000000E+00
  9.00000000E+01  8.80000000E+01  0.00000000E+00
  9.00000000E+01  8.60000000E+01  0.00000000E+00
  9.00000000E+01  8.40000000E+01  0.00000000E+00
  9.00000000E+01  8.20000000E+01  0.00000000E+00
  9.00000000E+01  8.00000000E+01  0.00000000E+00
  9.00000000E+01  7.80000000E+01  0.00000000E+00
  9.00000000E+01  7.60000000E+01  0.00000000E+00
  9.00000000E+01  7.40000000E+01  0.00000000E+00
  9.00000000E+01  7.20000000E+01  0.00000000E+00
  9.00000000E+01  7.00000000E+01  0.00000000E+00
  9.00000000E+01  6.80000000E+01  0.00000000E+00
  9.00000000E+01  6.60000000E+01  0.00000000E+00
  9.00000000E+01  6.40000000E+01  0.00000000E+00
  9.00000000E+01  6.20000000E+01  0.00000000E+00
  9.00000000E+01  6.00000000E+01  0.00000000E+00
  9.00000000E+01  5.80000000E+01  0.00000000E+00
  9.00000000E+01  5.60000000E+01  0.00000000E+00
  9.00000000E+01  5.40000000E+01  0.00000000E+00
  9.00000000E+01  5.20000000E+01  0.00000000E+00
  9.00000000E+01  5.00000000E+01  0.00000000E+00
  9.00000000E+01  4.80000000E+01  0.00000000E+00
  9.00000000E+01  4.60000000E+01  0.00000000E+00
  9.00000000E+01  4.40000000E+01  0.00000000E+00
  9.00000000E+01  4.20000000E+01  0.00000000E+00
  9.00000000E+01  4.00000000E+01  0.00000000E+00
  9.00000000E+01  3.80000000E+01  0.00000000E+00
  9.00000000E+01  3.60000000E+01  0.00000000E+00
  9.00000000E+01  3.40000000E+01  0.00000000E+00
  9.00000000E+01  3.20000000E+01  0.00000000E+00
  9.00000000E+01  3.00000000E+01  0.00000000E+00
  9.00000000E+01  2.80000000E+01  0.00000000E+00
  9.00000000E+01  2.60000000E+01  0.00000000E+00
  9.00000000E+01  2.40000000E+01  0.00000000E+00
  9.00000000E+01  2.20000000E+01  0.00000000E+00
  9.00000000E+01  2.00000000E+01  0.00000000E+00
  9.00000000E+01  1.80000000E+01  0.00000000E+00
  9.00000000E+01  1.60000000E+01  0.00000000E+00
  9.00000000E+01  1.40000000E+01  0.00000000E+00
  9.00000000E+01  1.20000000E+01  0.00000000E+00
  9.00000000E+01  1.00000000E+01  0.00000000E+00
  9.00000000E+01  8.00000000E+00  0.00000000E+00
  9.00000000E+01  6.00000000E+00  0.00000000E+00
  9.00000000E+01  4.00000000E+00  0.00000000E+00
  9.00000000E+01  2.00000000E+00  0.00000000E+00
  9.00000000E+01 -3.33066907E-14  0.00000000E+00
  1.00000000E+02  1.00000000E+02  0.00000000E+00
  1.00000000E+02  9.80000000E+01  0.00000000E+00
  1.00000000E+02  9.60000000E+01  0.00000000E+00
  1.00000000E+02  9.40000000E+01  0.00000000E+00
  1.00000000E+02  9.20000000E+01  0.00000000E+00
  1.00000000E+02  9.00000000E+01  0.00000000E+00
  1.00000000E+02  8.80000000E+01  0.00000000E+00
  1.00000000E+02  8.60000000E+01  0.00000000E+00
  1.00000000E+02  8.40000000E+01  0.00000000E+00
  1.00000000E+02  8.20000000E+01  0.00000000E+00
  1.00000000E+02  8.00000000E+01  0.00000000E+00
  1.00000000E+02  7.80000000E+01  0.00000000E+00
  1.00000000E+02  7.60000000E+01  0.00000000E+00
  1.00000000E+02  7.40000000E+01  0.00000000E+00
  1.00000000E+02  7.20000000E+01  0.00000000E+00
  1.00000000E+02  7.00000000E+01  0.00000000E+00
  1.00000000E+02  6.80000000E+01  0.00000000E+00
  1.00000000E+02  6.60000000E+01  0.00000000E+00
  1.00000000E+02  6.40000000E+01  0.00000000E+00
  1.00000000E+02  6.20000000E+01  0.00000000E+00
  1.00000000E+02  6.00000000E+01  0.00000000E+00
  1.00000000E+02  5.80000000E+01  0.00000000E+00
  1.00000000E+02  5.60000000E+01  0.00000000E+00
  1.00000000E+02  5.40000000E+01  0.00000000E+00
  1.00000000E+02  5.20000000E+01  0.00000000E+00
  1.00000000E+02  5.00000000E+01  0.00000000E+00
  1.00000000E+02  4.80000000E+01  0.00000000E+00
  1.00000000E+02  4.60000000E+01  0.00000000E+00
  1.00000000E+02  4.40000000E+01  0.00000000E+00
  1.00000000E+02  4.20000000E+01  0.00000000E+00
  1.00000000E+02  4.00000000E+01  0.00000000E+00
  1.00000000E+02  3.80000000E+01  0.00000000E+00
  1.00000000E+02  3.60000000E+01  0.00000000E+00
  1.00000000E+02  3.40000000E+01  0.00000000E+00
  1.00000000E+02  3.20000000E+01  0.00000000E+00
  1.00000000E+02  3.00000000E+01  0.00000000E+00
  1.00000000E+02  2.80000000E+01  0.00000000E+00
  1.00000000E+02  2.60000000E+01  0.00000000E+00
  1.00000000E+02  2.40000000E+01  0.00000000E+00
  1.00000000E+02  2.20000000E+01  0.00000000E+00
  1.00000000E+02  2.00000000E+01  0.00000000E+00
  1.00000000E+02  1.80000000E+01  0.00000000E+00
  1.00000000E+02  1.60000000E+01  0.00000000E+00
  1.00000000E+02  1.40000000E+01  0.00000000E+00
  1.00000000E+02  1.20000000E+01  0.00000000E+00
  1.00000000E+02  1.00000000E+01  0.00000000E+00
  1.00000000E+02  8.00000000E+00  0.00000000E+00
  1.00000000E+02  6.00000000E+00  0.00000000E+00
  1.00000000E+02  4.00000000E+00  0.00000000E+00
  1.00000000E+02  2.00000000E+00  0.00000000E+00
  1.00000000E+02 -3.33066907E-14  0.00000000E+00
  1.10000000E+02  1.00000000E+02  0.00000000E+00
  1.10000000E+02  9.80000000E+01  0.00000000E+00
  1.10000000E+02  9.60000000E+01  0.00000000E+00
  1.10000000E+02  9.40000000E+01  0.00000000E+00
  1.10000000E+02  9.20000000E+01  0.00000000E+00
  1.10000000E+02  9.00000000E+01  0.00000000E+00
  1.10000000E+02  8.80000000E+01  0.00000000E+00
  1.10000000E+02  8.60000000E+01  0.00000000E+00
  1.10000000E+02  8.40000000E+01  0.00000000E+00
  1.10000000E+02  8.20000000E+01  0.00000000E+00
  1.10000000E+02  8.00000000E+01  0.00000000E+00
  1.10000000E+02  7.80000000E+01  0.00000000E+00
  1.10000000E+02  7.60000000E+01  0.00000000E+00
  1.10000000E+02  7.40000000E+01  0.00000000E+00
  1.10000000E+02  7.20000000E+01  0.00000000E+00
  1.10000000E+02  7.00000000E+01  0.00000000E+00
  1.10000000E+02  6.80000000E+01  0.00000000E+00
  1.10000000E+02  6.60000000E+01  0.00000000E+00
  1.10000000E+02  6.40000000E+01  0.00000000E+00
  1.10000000E+02  6.20000000E+01  0.00000000E+00
  1.10000000E+02  6.00000000E+01  0.00000000E+00
  1.10000000E+02  5.80000000E+01  0.00000000E+00
  1.10000000E+02  5.60000000E+01  0.00000000E+00
  1.10000000E+02  5.40000000E+01  0.00000000E+00
  1.10000000E+02  5.20000000E+01  0.00000000E+00
  1.10000000E+02  5.00000000E+01  0.00000000E+00
  1.10000000E+02  4.80000000E+01  0.00000000E+00
  1.10000000E+02  4.60000000E+01  0.00000000E+00
  1.10000000E+02  4.40000000E+01  0.00000000E+00
  1.10000000E+02  4.20000000E+01  0.00000000E+00
  1.10000000E+02  4.00000000E+01  0.00000000E+00
  1.10000000E+02  3.80000000E+01  0.00000000E+00
  1.10000000E+02  3.60000000E+01  0.00000000E+00
  1.10000000E+02  3.40000000E+01  0.00000000E+00
  1.10000000E+02  3.20000000E+01  0.00000000E+00
  1.10000000E+02  3.00000000E+01  0.00000000E+00
  1.10000000E+02  2.80000000E+01  0.00000000E+00
  1.10000000E+02  2.60000000E+01  0.00000000E+00
  1.10000000E+02  2.40000000E+01  0.00000000E+00
  1.10000000E+02  2.20000000E+01  0.00000000E+00
  1.10000000E+02  2.00000000E+01  0.00000000E+00
  1.10000000E+02  1.80000000E+01  0.00000000E+00
  1.10000000E+02  1.60000000E+01  0.00000000E+00
  1.10000000E+02  1.40000000E+01  0.00000000E+00
  1.10000000E+02  1.20000000E+01  0.00000000E+00
  1.10000000E+02  1.00000000E+01  0.00000000E+00
  1.10000000E+02  8.00000000E+00  0.00000000E+00
  1.10000000E+02  6.00000000E+00  0.00000000E+00
  1.10000000E+02  4.00000000E+00  0.00000000E+00
  1.10000000E+02  2.00000000E+00  0.00000000E+00
  1.10000000E+02 -3.33066907E-14  0.00000000E+00
  1.20000000E+02  1.00000000E+02  0.00000000E+00
  1.20000000E+02  9.80000000E+01  0.00000000E+00
  1.20000000E+02  9.60000000E+01  0.00000000E+00
  1.20000000E+02  9.40000000E+01  0.00000000E+00
  1.20000000E+02  9.20000000E+01  0.00000000E+00
  1.20000000E+02  9.00000000E+01  0.00000000E+00
  1.20000000E+02  8.80000000E+01  0.00000000E+00
  1.20000000E+02  8.60000000E+01  0.00000000E+00
  1.20000000E+02  8.40000000E+01  0.00000000E+00
  1.20000000E+02  8.20000000E+01  0.00000000E+00
  1.20000000E+02  8.00000000E+01  0.00000000E+00
  1.20000000E+02  7.80000000E+01  0.00000000E+00
  1.20000000E+02  7.60000000E+01  0.00000000E+00
  1.20000000E+02  7.40000000E+01  0.00000000E+00
  1.20000000E+02  7.20000000E+01  0.00000000E+00
  1.20000000E+02  7.00000000E+01  0.00000000E+00
  1.20000000E+02  6.80000000E+01  0.00000000E+00
  1.20000000E+02  6.60000000E+01  0.00000000E+00
  1.20000000E+02  6.40000000E+01  0.00000000E+00
  1.20000000E+02  6.20000000E+01  0.00000000E+00
  1.20000000E+02  6.00000000E+01  0.00000000E+00
  1.20000000E+02  5.80000000E+01  0.00000000E+00
  1.20000000E+02  5.60000000E+01  0.00000000E+00
  1.20000000E+02  5.40000000E+01  0.00000000E+00
  1.20000000E+02  5.20000000E+01  0.00000000E+00
  1.20000000E+02  5.00000000E+01  0.00000000E+00
  1.20000000E+02  4.80000000E+01  0.00000000E+00
  1.20000000E+02  4.60000000E+01  0.00000000E+00
  1.20000000E+02  4.40000000E+01  0.00000000E+00
  1.20000000E+02  4.20000000E+01  0.00000000E+00
  1.20000000E+02  4.00000000E+01  0.00000000E+00
  1.20000000E+02  3.80000000E+01  0.00000000E+00
  1.20000000E+02  3.60000000E+01  0.00000000E+00
  1.20000000E+02  3.40000000E+01  0.00000000E+00
  1.20000000E+02  3.20000000E+01  0.00000000E+00
  1.20000000E+02  3.00000000E+01  0.00000000E+00
  1.20000000E+02  2.80000000E+01  0.00000000E+00
  1.20000000E+02  2.60000000E+01  0.00000000E+00
  1.20000000E+02  2.40000000E+01  0.00000000E+00
  1.20000000E+02  2.20000000E+01  0.00000000E+00
  1.20000000E+02  2.00000000E+01  0.00000000E+00
  1.20000000E+02  1.80000000E+01  0.00000000E+00
  1.20000000E+02  1.60000000E+01  0.00000000E+00
  1.20000000E+02  1.40000000E+01  0.00000000E+00
  1.20000000E+02  1.20000000E+01  0.00000000E+00
  1.20000000E+02  1.00000000E+01  0.00000000E+00
  1.20000000E+02  8.00000000E+00  0.00000000E+00
  1.20000000E+02  6.00000000E+00  0.00000000E+00
  1.20000000E+02  4.00000000E+00  0.00000000E+00
  1.20000000E+02  2.00000000E+00  0.00000000E+00
  1.20000000E+02 -3.33066907E-14  0.00000000E+00
  1.30000000E+02  1.00000000E+02  0.00000000E+00
  1.30000000E+02  9.80000000E+01  0.00000000E+00
  1.30000000E+02  9.60000000E+01  0.00000000E+00
  1.30000000E+02  9.40000000E+01  0.00000000E+00
  1.30000000E+02  9.20000000E+01  0.00000000E+00
  1.30000000E+02  9.00000000E+01  0.00000000E+00
  1.30000000E+02  8.80000000E+01  0.00000000E+00
  1.30000000E+02  8.60000000E+01  0.00000000E+00
  1.30000000E+02  8.40000000E+01  0.00000000E+00
  1.30000000E+02  8.20000000E+01  0.00000000E+00
  1.30000000E+02  8.00000000E+01  0.00000000E+00
  1.30000000E+02  7.80000000E+01  0.00000000E+00
  1.30000000E+02  7.60000000E+01  0.00000000E+00
  1.30000000E+02  7.40000000E+01  0.00000000E+00
  1.30000000E+02  7.20000000E+01  0.00000000E+00
  1.30000000E+02  7.00000000E+01  0.00000000E+00
  1.30000000E+02  6.80000000E+01  0.00000000E+00
  1.30000000E+02  6.60000000E+01  0.00000000E+00
  1.30000000E+02  6.40000000E+01  0.00000000E+00
  1.30000000E+02  6.20000000E+01  0.00000000E+00
  1.30000000E+02  6.00000000E+01  0.00000000E+00
  1.30000000E+02  5.80000000E+01  0.00000000E+00
  1.30000000E+02  5.60000000E+01  0.00000000E+00
  1.30000000E+02  5.40000000E+01  0.00000000E+00
  1.30000000E+02  5.20000000E+01  0.00000000E+00
  1.30000000E+02  5.00000000E+01  0.00000000E+00
  1.30000000E+02  4.80000000E+01  0.00000000E+00
  1.30000000E+02  4.60000000E+01  0.00000000E+00
  1.30000000E+02  4.40000000E+01  0.00000000E+00
  1.30000000E+02  4.20000000E+01  0.00000000E+00
  1.30000000E+02  4.00000000E+01  0.00000000E+00
  1.30000000E+02  3.80000000E+01  0.00000000E+00
  1.30000000E+02  3.60000000E+01  0.00000000E+00
  1.30000000E+02  3.40000000E+01  0.00000000E+00
  1.30000000E+02  3.20000000E+01  0.00000000E+00
  1.30000000E+02  3.00000000E+01  0.00000000E+00
  1.30000000E+02  2.80000000E+01  0.00000000E+00
  1.30000000E+02  2.60000000E+01  0.00000000E+00
  1.30000000E+02  2.40000000E+01  0.00000000E+00
  1.30000000E+02  2.20000000E+01  0.00000000E+00
  1.30000000E+02  2.00000000E+01  0.00000000E+00
  1.30000000E+02  1.80000000E+01  0.00000000E+00
  1.30000000E+02  1.60000000E+01  0.00000000E+00
  1.30000000E+02  1.40000000E+01  0.00000000E+00
  1.30000000E+02  1.20000000E+01  0.00000000E+00
  1.30000000E+02  1.00000000E+01  0.00000000E+00
  1.30000000E+02  8.00000000E+00  0.00000000E+00
  1.30000000E+02  6.00000000E+00  0.00000000E+00
  1.30000000E+02  4.00000000E+00  0.00000000E+00
  1.30000000E+02  2.00000000E+00  0.00000000E+00
  1.30000000E+02 -3.33066907E-14  0.00000000E+00
  1.40000000E+02  1.00000000E+02  0.00000000E+00
  1.40000000E+02  9.80000000E+01  0.00000000E+00
  1.40000000E+02  9.60000000E+01  0.00000000E+00
  1.40000000E+02  9.40000000E+01  0.00000000E+00
  1.40000000E+02  9.20000000E+01  0.00000000E+00
  1.40000000E+02  9.00000000E+01  0.00000000E+00
  1.40000000E+02  8.80000000E+01  0.00000000E+00
  1.40000000E+02  8.60000000E+01  0.00000000E+00
  1.40000000E+02  8.40000000E+01  0.00000000E+00
  1.40000000E+02  8.20000000E+01  0.00000000E+00
  1.40000000E+02  8.00000000E+01  0.00000000E+00
  1.40000000E+02  7.80000000E+01  0.00000000E+00
  1.40000000E+02  7.60000000E+01  0.00000000E+00
  1.40000000E+02  7.40000000E+01  0.00000000E+00
  1.40000000E+02  7.20000000E+01  0.00000000E+00
  1.40000000E+02  7.00000000E+01  0.00000000E+00
  1.40000000E+02  6.80000000E+01  0.00000000E+00
  1.40000000E+02  6.60000000E+01  0.00000000E+00
  1.40000000E+02  6.40000000E+01  0.00000000E+00
  1.40000000E+02  6.20000000E+01  0.00000000E+00
  1.40000000E+02  6.00000000E+01  0.00000000E+00
  1.40000000E+02  5.80000000E+01  0.00000000E+00
  1.40000000E+02  5.60000000E+01  0.00000000E+00
  1.40000000E+02  5.40000000E+01  0.00000000E+00
  1.40000000E+02  5.20000000E+01  0.00000000E+00
  1.40000000E+02  5.00000000E+01  0.00000000E+00
  1.40000000E+02  4.80000000E+01  0.00000000E+00
  1.40000000E+02  4.60000000E+01  0.00000000E+00
  1.40000000E+02  4.40000000E+01  0.00000000E+00
  1.40000000E+02  4.20000000E+01  0.00000000E+00
  1.40000000E+02  4.00000000E+01  0.00000000E+00
  1.40000000E+02  3.80000000E+01  0.00000000E+00
  1.40000000E+02  3.60000000E+01  0.00000000E+00
  1.40000000E+02  3.40000000E+01  0.00000000E+00
  1.40000000E+02  3.20000000E+01  0.00000000E+00
  1.40000000E+02  3.00000000E+01  0.00000000E+00
  1.40000000E+02  2.80000000E+01  0.00000000E+00
  1.40000000E+02  2.60000000E+01  0.00000000E+00
  1.40000000E+02  2.40000000E+01  0.00000000E+00
  1.40000000E+02  2.20000000E+01  0.00000000E+00
  1.40000000E+02  2.00000000E+01  0.00000000E+00
  1.40000000E+02  1.80000000E+01  0.00000000E+00
  1.40000000E+02  1.60000000E+01  0.00000000E+00
  1.40000000E+02  1.40000000E+01  0.00000000E+00
  1.40000000E+02  1.20000000E+01  0.00000000E+00
  1.40000000E+02  1.00000000E+01  0.00000000E+00
  1.40000000E+02  8.00000000E+00  0.00000000E+00
  1.40000000E+02  6.00000000E+00  0.00000000E+00
  1.40000000E+02  4.00000000E+00  0.00000000E+00
  1.40000000E+02  2.00000000E+00  0.00000000E+00
  1.40000000E+02 -3.33066907E-14  0.00000000E+00
  1.50000000E+02  1.00000000E+02  0.00000000E+00
  1.50000000E+02  9.80000000E+01  0.00000000E+00
  1.50000000E+02  9.60000000E+01  0.00000000E+00
  1.50000000E+02  9.40000000E+01  0.00000000E+00
  1.50000000E+02  9.20000000E+01  0.00000000E+00
  1.50000000E+02  9.00000000E+01  0.00000000E+00
  1.50000000E+02  8.80000000E+01  0.00000000E+00
  1.50000000E+02  8.60000000E+01  0.00000000E+00
  1.50000000E+02  8.40000000E+01  0.00000000E+00
  1.50000000E+02  8.20000000E+01  0.00000000E+00
  1.50000000E+02  8.00000000E+01  0.00000000E+00
  1.50000000E+02  7.80000000E+01  0.00000000E+00
  1.50000000E+02  7.60000000E+01  0.00000000E+00
  1.50000000E+02  7.40000000E+01  0.00000000E+00
  1.50000000E+02  7.20000000E+01  0.00000000E+00
  1.50000000E+02  7.00000000E+01  0.00000000E+00
  1.50000000E+02  6.80000000E+01  0.00000000E+00
  1.50000000E+02  6.60000000E+01  0.00000000E+00
  1.50000000E+02  6.40000000E+01  0.00000000E+00
  1.50000000E+02  6.20000000E+01  0.00000000E+00
  1.50000000E+02  6.00000000E+01  0.00000000E+00
  1.50000000E+02  5.80000000E+01  0.00000000E+00
  1.50000000E+02  5.60000000E+01  0.00000000E+00
  1.50000000E+02  5.40000000E+01  0.00000000E+00
  1.50000000E+02  5.20000000E+01  0.00000000E+00
  1.50000000E+02  5.00000000E+01  0.00000000E+00
  1.50000000E+02  4.80000000E+01  0.00000000E+00
  1.50000000E+02  4.60000000E+01  0.00000000E+00
  1.50000000E+02  4.40000000E+01  0.00000000E+00
  1.50000000E+02  4.20000000E+01  0.00000000E+00
  1.50000000E+02  4.00000000E+01  0.00000000E+00
  1.50000000E+02  3.80000000E+01  0.00000000E+00
  1.50000000E+02  3.60000000E+01  0.00000000E+00
  1.50000000E+02  3.40000000E+01  0.00000000E+00
  1.50000000E+02  3.20000000E+01  0.00000000E+00
  1.50000000E+02  3.00000000E+01  0.00000000E+00
  1.50000000E+02  2.80000000E+01  0.00000000E+00
  1.50000000E+02  2.60000000E+01  0.00000000E+00
  1.50000000E+02  2.40000000E+01  0.00000000E+00
  1.50000000E+02  2.20000000E+01  0.00000000E+00
  1.50000000E+02  2.00000000E+01  0.00000000E+00
  1.50000000E+02  1.80000000E+01  0.00000000E+00
  1.50000000E+02  1.60000000E+01  0.00000000E+00
  1.50000000E+02  1.40000000E+01  0.00000000E+00
  1.50000000E+02  1.20000000E+01  0.00000000E+00
  1.50000000E+02  1.00000000E+01  0.00000000E+00
  1.50000000E+02  8.00000000E+00  0.00000000E+00
  1.50000000E+02  6.00000000E+00  0.00000000E+00
  1.50000000E+02  4.00000000E+00  0.00000000E+00
  1.50000000E+02  2.00000000E+00  0.00000000E+00
  1.50000000E+02 -3.33066907E-14  0.00000000E+00
  1.60000000E+02  1.00000000E+02  0.00000000E+00
  1.60000000E+02  9.80000000E+01  0.00000000E+00
  1.60000000E+02  9.60000000E+01  0.00000000E+00
  1.60000000E+02  9.40000000E+01  0.00000000E+00
  1.60000000E+02  9.20000000E+01  0.00000000E+00
  1.60000000E+02  9.00000000E+01  0.00000000E+00
  1.60000000E+02  8.80000000E+01  0.00000000E+00
  1.60000000E+02  8.60000000E+01  0.00000000E+00
  1.60000000E+02  8.40000000E+01  0.00000000E+00
  1.60000000E+02  8.20000000E+01  0.00000000E+00
  1.60000000E+02  8.00000000E+01  0.00000000E+00
  1.60000000E+02  7.80000000E+01  0.00000000E+00
  1.60000000E+02  7.60000000E+01  0.00000000E+00
  1.60000000E+02  7.40000000E+01  0.00000000E+00
  1.60000000E+02  7.20000000E+01  0.00000000E+00
  1.60000000E+02  7.00000000E+01  0.00000000E+00
  1.60000000E+02  6.80000000E+01  0.00000000E+00
  1.60000000E+02  6.60000000E+01  0.00000000E+00
  1.60000000E+02  6.40000000E+01  0.00000000E+00
  1.60000000E+02  6.20000000E+01  0.00000000E+00
  1.60000000E+02  6.00000000E+01  0.00000000E+00
  1.60000000E+02  5.80000000E+01  0.00000000E+00
  1.60000000E+02  5.60000000E+01  0.00000000E+00
  1.60000000E+02  5.40000000E+01  0.00000000E+00
  1.60000000E+02  5.20000000E+01  0.00000000E+00
  1.60000000E+02  5.00000000E+01  0.00000000E+00
  1.60000000E+02  4.80000000E+01  0.00000000E+00
  1.60000000E+02  4.60000000E+01  0.00000000E+00
  1.60000000E+02  4.40000000E+01  0.00000000E+00
  1.60000000E+02  4.20000000E+01  0.00000000E+00
  1.60000000E+02  4.00000000E+01  0.00000000E+00
  1.60000000E+02  3.80000000E+01  0.00000000E+00
  1.60000000E+02  3.60000000E+01  0.00000000E+00
  1.60000000E+02  3.40000000E+01  0.00000000E+00
  1.60000000E+02  3.20000000E+01  0.00000000E+00
  1.60000000E+02  3.00000000E+01  0.00000000E+00
  1.60000000E+02  2.80000000E+01  0.00000000E+00
  1.60000000E+02  2.60000000E+01  0.00000000E+00
  1.60000000E+02  2.40000000E+01  0.00000000E+00
  1.60000000E+02  2.20000000E+01  0.00000000E+00
  1.60000000E+02  2.00000000E+01  0.00000000E+00
  1.60000000E+02  1.80000000E+01  0.00000000E+00
  1.60000000E+02  1.60000000E+01  0.00000000E+00
  1.60000000E+02  1.40000000E+01  0.00000000E+00
  1.60000000E+02  1.20000000E+01  0.00000000E+00
  1.60000000E+02  1.00000000E+01  0.00000000E+00
  1.60000000E+02  8.00000000E+00  0.00000000E+00
  1.60000000E+02  6.00000000E+00  0.00000000E+00
  1.60000000E+02  4.00000000E+00  0.00000000E+00
  1.60000000E+02  2.00000000E+00  0.00000000E+00
  1.60000000E+02 -3.33066907E-14  0.00000000E+00
  1.70000000E+02  1.00000000E+02  0.00000000E+00
  1.70000000E+02  9.80000000E+01  0.00000000E+00
  1.70000000E+02  9.60000000E+01  0.00000000E+00
  1.70000000E+02  9.40000000E+01  0.00000000E+00
  1.70000000E+02  9.20000000E+01  0.00000000E+00
  1.70000000E+02  9.00000000E+01  0.00000000E+00
  1.70000000E+02  8.80000000E+01  0.00000000E+00
  1.70000000E+02  8.60000000E+01  0.00000000E+00
  1.70000000E+02  8.40000000E+01  0.00000000E+00
  1.70000000E+02  8.20000000E+01  0.00000000E+00
  1.70000000E+02  8.00000000E+01  0.00000000E+00
  1.70000000E+02  7.80000000E+01  0.00000000E+00
  1.70000000E+02  7.60000000E+01  0.00000000E+00
  1.70000000E+02  7.40000000E+01  0.00000000E+00
  1.70000000E+02  7.20000000E+01  0.00000000E+00
  1.70000000E+02  7.00000000E+01  0.00000000E+00
  1.70000000E+02  6.80000000E+01  0.00000000E+00
  1.70000000E+02  6.60000000E+01  0.00000000E+00
  1.70000000E+02  6.40000000E+01  0.00000000E+00
  1.70000000E+02  6.20000000E+01  0.00000000E+00
  1.70000000E+02  6.00000000E+01  0.00000000E+00
  1.70000000E+02  5.80000000E+01  0.00000000E+00
  1.70000000E+02  5.60000000E+01  0.00000000E+00
  1.70000000E+02  5.40000000E+01  0.00000000E+00
  1.70000000E+02  5.20000000E+01  0.00000000E+00
  1.70000000E+02  5.00000000E+01  0.00000000E+00
  1.70000000E+02  4.80000000E+01  0.00000000E+00
  1.70000000E+02  4.60000000E+01  0.00000000E+00
  1.70000000E+02  4.40000000E+01  0.00000000E+00
  1.70000000E+02  4.20000000E+01  0.00000000E+00
  1.70000000E+02  4.00000000E+01  0.00000000E+00
  1.70000000E+02  3.80000000E+01  0.00000000E+00
  1.70000000E+02  3.60000000E+01  0.00000000E+00
  1.70000000E+02  3.40000000E+01  0.00000000E+00
  1.70000000E+02  3.20000000E+01  0.00000000E+00
  1.70000000E+02  3.00000000E+01  0.00000000E+00
  1.70000000E+02  2.80000000E+01  0.00000000E+00
  1.70000000E+02  2.60000000E+01  0.00000000E+00
  1.70000000E+02  2.40000000E+01  0.00000000E+00
  1.70000000E+02  2.20000000E+01  0.00000000E+00
  1.70000000E+02  2.00000000E+01  0.00000000E+00
  1.70000000E+02  1.80000000E+01  0.00000000E+00
  1.70000000E+02  1.60000000E+01  0.00000000E+00
  1.70000000E+02  1.40000000E+01  0.00000000E+00
  1.70000000E+02  1.20000000E+01  0.00000000E+00
  1.70000000E+02  1.00000000E+01  0.00000000E+00
  1.70000000E+02  8.00000000E+00  0.00000000E+00
  1.70000000E+02  6.00000000E+00  0.00000000E+00
  1.70000000E+02  4.00000000E+00  0.00000000E+00
  1.70000000E+02  2.00000000E+00  0.00000000E+00
  1.70000000E+02 -3.33066907E-14  0.00000000E+00
  1.80000000E+02  1.00000000E+02  0.00000000E+00
  1.80000000E+02  9.80000000E+01  0.00000000E+00
  1.80000000E+02  9.60000000E+01  0.00000000E+00
  1.80000000E+02  9.40000000E+01  0.00000000E+00
  1.80000000E+02  9.20000000E+01  0.00000000E+00
  1.80000000E+02  9.00000000E+01  0.00000000E+00
  1.80000000E+02  8.80000000E+01  0.00000000E+00
  1.80000000E+02  8.60000000E+01  0.00000000E+00
  1.80000000E+02  8.40000000E+01  0.00000000E+00
  1.80000000E+02  8.20000000E+01  0.00000000E+00
  1.80000000E+02  8.00000000E+01  0.00000000E+00
  1.80000000E+02  7.80000000E+01  0.00000000E+00
  1.80000000E+02  7.60000000E+01  0.00000000E+00
  1.80000000E+02  7.40000000E+01  0.00000000E+00
  1.80000000E+02  7.20000000E+01  0.00000000E+00
  1.80000000E+02  7.00000000E+01  0.00000000E+00
  1.80000000E+02  6.80000000E+01  0.00000000E+00
  1.80000000E+02  6.60000000E+01  0.00000000E+00
  1.80000000E+02  6.40000000E+01  0.00000000E+00
  1.80000000E+02  6.20000000E+01  0.00000000E+00
  1.80000000E+02  6.00000000E+01  0.00000000E+00
  1.80000000E+02  5.80000000E+01  0.00000000E+00
  1.80000000E+02  5.60000000E+01  0.00000000E+00
  1.80000000E+02  5.40000000E+01  0.00000000E+00
  1.80000000E+02  5.20000000E+01  0.00000000E+00
  1.80000000E+02  5.00000000E+01  0.00000000E+00
  1.80000000E+02  4.80000000E+01  0.00000000E+00
  1.80000000E+02  4.60000000E+01  0.00000000E+00
  1.80000000E+02  4.40000000E+01  0.00000000E+00
  1.80000000E+02  4.20000000E+01  0.00000000E+00
  1.80000000E+02  4.00000000E+01  0.00000000E+00
  1.80000000E+02  3.80000000E+01  0.00000000E+00
  1.80000000E+02  3.60000000E+01  0.00000000E+00
  1.80000000E+02  3.40000000E+01  0.00000000E+00
  1.80000000E+02  3.20000000E+01  0.00000000E+00
  1.80000000E+02  3.00000000E+01  0.00000000E+00
  1.80000000E+02  2.80000000E+01  0.00000000E+00
  1.80000000E+02  2.60000000E+01  0.00000000E+00
  1.80000000E+02  2.40000000E+01  0.00000000E+00
  1.80000000E+02  2.20000000E+01  0.00000000E+00
  1.80000000E+02  2.00000000E+01  0.00000000E+00
  1.80000000E+02  1.80000000E+01  0.00000000E+00
  1.80000000E+02  1.60000000E+01  0.00000000E+00
  1.80000000E+02  1.40000000E+01  0.00000000E+00
  1.80000000E+02  1.20000000E+01  0.00000000E+00
  1.80000000E+02  1.00000000E+01  0.00000000E+00
  1.80000000E+02  8.00000000E+00  0.00000000E+00
  1.80000000E+02  6.00000000E+00  0.00000000E+00
  1.80000000E+02  4.00000000E+00  0.00000000E+00
  1.80000000E+02  2.00000000E+00  0.00000000E+00
  1.80000000E+02 -3.33066907E-14  0.00000000E+00
  1.90000000E+02  1.00000000E+02  0.00000000E+00
  1.90000000E+02  9.80000000E+01  0.00000000E+00
  1.90000000E+02  9.60000000E+01  0.00000000E+00
  1.90000000E+02  9.40000000E+01  0.00000000E+00
  1.90000000E+02  9.20000000E+01  0.00000000E+00
  1.90000000E+02  9.00000000E+01  0.00000000E+00
  1.90000000E+02  8.80000000E+01  0.00000000E+00
  1.90000000E+02  8.60000000E+01  0.00000000E+00
  1.90000000E+02  8.40000000E+01  0.00000000E+00
  1.90000000E+02  8.20000000E+01  0.00000000E+00
  1.90000000E+02  8.00000000E+01  0.00000000E+00
  1.90000000E+02  7.80000000E+01  0.00000000E+00
  1.90000000E+02  7.60000000E+01  0.00000000E+00
  1.90000000E+02  7.40000000E+01  0.00000000E+00
  1.90000000E+02  7.20000000E+01  0.00000000E+00
  1.90000000E+02  7.00000000E+01  0.00000000E+00
  1.90000000E+02  6.80000000E+01  0.00000000E+00
  1.90000000E+02  6.60000000E+01  0.00000000E+00
  1.90000000E+02  6.40000000E+01  0.00000000E+00
  1.90000000E+02  6.20000000E+01  0.00000000E+00
  1.90000000E+02  6.00000000E+01  0.00000000E+00
  1.90000000E+02  5.80000000E+01  0.00000000E+00
  1.90000000E+02  5.60000000E+01  0.00000000E+00
  1.90000000E+02  5.40000000E+01  0.00000000E+00
  1.90000000E+02  5.20000000E+01  0.00000000E+00
  1.90000000E+02  5.00000000E+01  0.00000000E+00
  1.90000000E+02  4.80000000E+01  0.00000000E+00
  1.90000000E+02  4.60000000E+01  0.00000000E+00
  1.90000000E+02  4.40000000E+01  0.00000000E+00
  1.90000000E+02  4.20000000E+01  0.00000000E+00
  1.90000000E+02  4.00000000E+01  0.00000000E+00
  1.90000000E+02  3.80000000E+01  0.00000000E+00
  1.90000000E+02  3.60000000E+01  0.00000000E+00
  1.90000000E+02  3.40000000E+01  0.00000000E+00
  1.90000000E+02  3.20000000E+01  0.00000000E+00
  1.90000000E+02  3.00000000E+01  0.00000000E+00
  1.90000000E+02  2.80000000E+01  0.00000000E+00
  1.90000000E+02  2.60000000E+01  0.00000000E+00
  1.90000000E+02  2.40000000E+01  0.00000000E+00
  1.90000000E+02  2.20000000E+01  0.00000000E+00
  1.90000000E+02  2.00000000E+01  0.00000000E+00
  1.90000000E+02  1.80000000E+01  0.00000000E+00
  1.90000000E+02  1.60000000E+01  0.00000000E+00
  1.90000000E+02  1.40000000E+01  0.00000000E+00
  1.90000000E+02  1.20000000E+01  0.00000000E+00
  1.90000000E+02  1.00000000E+01  0.00000000E+00
  1.90000000E+02  8.00000000E+00  0.00000000E+00
  1.90000000E+02  6.00000000E+00  0.00000000E+00
  1.90000000E+02  4.00000000E+00  0.00000000E+00
  1.90000000E+02  2.00000000E+00  0.00000000E+00
  1.90000000E+02 -3.33066907E-14  0.00000000E+00
  2.00000000E+02  1.00000000E+02  0.00000000E+00
  2.00000000E+02  9.80000000E+01  0.00000000E+00
  2.00000000E+02  9.60000000E+01  0.00000000E+00
  2.00000000E+02  9.40000000E+01  0.00000000E+00
  2.00000000E+02  9.20000000E+01  0.00000000E+00
  2.00000000E+02  9.00000000E+01  0.00000000E+00
  2.00000000E+02  8.80000000E+01  0.00000000E+00
  2.00000000E+02  8.60000000E+01  0.00000000E+00
  2.00000000E+02  8.40000000E+01  0.00000000E+00
  2.00000000E+02  8.20000000E+01  0.00000000E+00
  2.00000000E+02  8.00000000E+01  0.00000000E+00
  2.00000000E+02  7.80000000E+01  0.00000000E+00
  2.00000000E+02  7.60000000E+01  0.00000000E+00
  2.00000000E+02  7.40000000E+01  0.00000000E+00
  2.00000000E+02  7.20000000E+01  0.00000000E+00
  2.00000000E+02  7.00000000E+01  0.00000000E+00
  2.00000000E+02  6.80000000E+01  0.00000000E+00
  2.00000000E+02  6.60000000E+01  0.00000000E+00
  2.00000000E+02  6.40000000E+01  0.00000000E+00
  2.00000000E+02  6.20000000E+01  0.00000000E+00
  2.00000000E+02  6.00000000E+01  0.00000000E+00
  2.00000000E+02  5.80000000E+01  0.00000000E+00
  2.00000000E+02  5.60000000E+01  0.00000000E+00
  2.00000000E+02  5.40000000E+01  0.00000000E+00
  2.00000000E+02  5.20000000E+01  0.00000000E+00
  2.00000000E+02  5.00000000E+01  0.00000000E+00
  2.00000000E+02  4.80000000E+01  0.00000000E+00
  2.00000000E+02  4.60000000E+01  0.00000000E+00
  2.00000000E+02  4.40000000E+01  0.00000000E+00
  2.00000000E+02  4.20000000E+01  0.00000000E+00
  2.00000000E+02  4.00000000E+01  0.00000000E+00
  2.00000000E+02  3.80000000E+01  0.00000000E+00
  2.00000000E+02  3.60000000E+01  0.00000000E+00
  2.00000000E+02  3.40000000E+01  0.00000000E+00
  2.00000000E+02  3.20000000E+01  0.00000000E+00
  2.00000000E+02  3.00000000E+01  0.00000000E+00
  2.00000000E+02  2.80000000E+01  0.00000000E+00
  2.00000000E+02  2.60000000E+01  0.00000000E+00
  2.00000000E+02  2.40000000E+01  0.00000000E+00
  2.00000000E+02  2.20000000E+01  0.00000000E+00
  2.00000000E+02  2.00000000E+01  0.00000000E+00
  2.00000000E+02  1.80000000E+01  0.00000000E+00
  2.00000000E+02  1.60000000E+01  0.00000000E+00
  2.00000000E+02  1.40000000E+01  0.00000000E+00
  2.00000000E+02  1.20000000E+01  0.00000000E+00
  2.00000000E+02  1.00000000E+01  0.00000000E+00
  2.00000000E+02  8.00000000E+00  0.00000000E+00
  2.00000000E+02  6.00000000E+00  0.00000000E+00
  2.00000000E+02  4.00000000E+00  0.00000000E+00
  2.00000000E+02  2.00000000E+00  0.00000000E+00
  2.00000000E+02 -3.33066907E-14  0.00000000E+00
  2.10000000E+02  1.00000000E+02  0.00000000E+00
  2.10000000E+02  9.80000000E+01  0.00000000E+00
  2.10000000E+02  9.60000000E+01  0.00000000E+00
  2.10000000E+02  9.40000000E+01  0.00000000E+00
  2.10000000E+02  9.20000000E+01  0.00000000E+00
  2.10000000E+02  9.00000000E+01  0.00000000E+00
  2.10000000E+02  8.80000000E+01  0.00000000E+00
  2.10000000E+02  8.60000000E+01  0.00000000E+00
  2.10000000E+02  8.40000000E+01  0.00000000E+00
  2.10000000E+02  8.20000000E+01  0.00000000E+00
  2.10000000E+02  8.00000000E+01  0.00000000E+00
  2.10000000E+02  7.80000000E+01  0.00000000E+00
  2.10000000E+02  7.60000000E+01  0.00000000E+00
  2.10000000E+02  7.40000000E+01  0.00000000E+00
  2.10000000E+02  7.20000000E+01  0.00000000E+00
  2.10000000E+02  7.00000000E+01  0.00000000E+00
  2.10000000E+02  6.80000000E+01  0.00000000E+00
  2.10000000E+02  6.60000000E+01  0.00000000E+00
  2.10000000E+02  6.40000000E+01  0.00000000E+00
  2.10000000E+02  6.20000000E+01  0.00000000E+00
  2.10000000E+02  6.00000000E+01  0.00000000E+00
  2.10000000E+02  5.80000000E+01  0.00000000E+00
  2.10000000E+02  5.60000000E+01  0.00000000E+00
  2.10000000E+02  5.40000000E+01  0.00000000E+00
  2.10000000E+02  5.20000000E+01  0.00000000E+00
  2.10000000E+02  5.00000000E+01  0.00000000E+00
  2.10000000E+02  4.80000000E+01  0.00000000E+00
  2.10000000E+02  4.60000000E+01  0.00000000E+00
  2.10000000E+02  4.40000000E+01  0.00000000E+00
  2.10000000E+02  4.20000000E+01  0.00000000E+00
  2.10000000E+02  4.00000000E+01  0.00000000E+00
  2.10000000E+02  3.80000000E+01  0.00000000E+00
  2.10000000E+02  3.60000000E+01  0.00000000E+00
  2.10000000E+02  3.40000000E+01  0.00000000E+00
  2.10000000E+02  3.20000000E+01  0.00000000E+00
  2.10000000E+02  3.00000000E+01  0.00000000E+00
  2.10000000E+02  2.80000000E+01  0.00000000E+00
  2.10000000E+02  2.60000000E+01  0.00000000E+00
  2.10000000E+02  2.40000000E+01  0.00000000E+00
  2.10000000E+02  2.20000000E+01  0.00000000E+00
  2.10000000E+02  2.00000000E+01  0.00000000E+00
  2.10000000E+02  1.80000000E+01  0.00000000E+00
  2.10000000E+02  1.60000000E+01  0.00000000E+00
  2.10000000E+02  1.40000000E+01  0.00000000E+00
  2.10000000E+02  1.20000000E+01  0.00000000E+00
  2.10000000E+02  1.00000000E+01  0.00000000E+00
  2.10000000E+02  8.00000000E+00  0.00000000E+00
  2.10000000E+02  6.00000000E+00  0.00000000E+00
  2.10000000E+02  4.00000000E+00  0.00000000E+00
  2.10000000E+02  2.00000000E+00  0.00000000E+00
  2.10000000E+02 -3.33066907E-14  0.00000000E+00
  2.20000000E+02  1.00000000E+02  0.00000000E+00
  2.20000000E+02  9.80000000E+01  0.00000000E+00
  2.20000000E+02  9.60000000E+01  0.00000000E+00
  2.20000000E+02  9.40000000E+01  0.00000000E+00
  2.20000000E+02  9.20000000E+01  0.00000000E+00
  2.20000000E+02  9.00000000E+01  0.00000000E+00
  2.20000000E+02  8.80000000E+01  0.00000000E+00
  2.20000000E+02  8.60000000E+01  0.00000000E+00
  2.20000000E+02  8.40000000E+01  0.00000000E+00
  2.20000000E+02  8.20000000E+01  0.00000000E+00
  2.20000000E+02  8.00000000E+01  0.00000000E+00
  2.20000000E+02  7.80000000E+01  0.00000000E+00
  2.20000000E+02  7.60000000E+01  0.00000000E+00
  2.20000000E+02  7.40000000E+01  0.00000000E+00
  2.20000000E+02  7.20000000E+01  0.00000000E+00
  2.20000000E+02  7.00000000E+01  0.00000000E+00
  2.20000000E+02  6.80000000E+01  0.00000000E+00
  2.20000000E+02  6.60000000E+01  0.00000000E+00
  2.20000000E+02  6.40000000E+01  0.00000000E+00
  2.20000000E+02  6.20000000E+01  0.00000000E+00
  2.20000000E+02  6.00000000E+01  0.00000000E+00
  2.20000000E+02  5.80000000E+01  0.00000000E+00
  2.20000000E+02  5.60000000E+01  0.00000000E+00
  2.20000000E+02  5.40000000E+01  0.00000000E+00
  2.20000000E+02  5.20000000E+01  0.00000000E+00
  2.20000000E+02  5.00000000E+01  0.00000000E+00
  2.20000000E+02  4.80000000E+01  0.00000000E+00
  2.20000000E+02  4.60000000E+01  0.00000000E+00
  2.20000000E+02  4.40000000E+01  0.00000000E+00
  2.20000000E+02  4.20000000E+01  0.00000000E+00
  2.20000000E+02  4.00000000E+01  0.00000000E+00
  2.20000000E+02  3.80000000E+01  0.00000000E+00
  2.20000000E+02  3.60000000E+01  0.00000000E+00
  2.20000000E+02  3.40000000E+01  0.00000000E+00
  2.20000000E+02  3.20000000E+01  0.00000000E+00
  2.20000000E+02  3.00000000E+01  0.00000000E+00
  2.20000000E+02  2.80000000E+01  0.00000000E+00
  2.20000000E+02  2.60000000E+01  0.00000000E+00
  2.20000000E+02  2.40000000E+01  0.00000000E+00
  2.20000000E+02  2.20000000E+01  0.00000000E+00
  2.20000000E+02  2.00000000E+01  0.00000000E+00
  2.20000000E+02  1.80000000E+01  0.00000000E+00
  2.20000000E+02  1.60000000E+01  0.00000000E+00
  2.20000000E+02  1.40000000E+01  0.00000000E+00
  2.20000000E+02  1.20000000E+01  0.00000000E+00
  2.20000000E+02  1.00000000E+01  0.00000000E+00
  2.20000000E+02  8.00000000E+00  0.00000000E+00
  2.20000000E+02  6.00000000E+00  0.00000000E+00
  2.20000000E+02  4.00000000E+00  0.00000000E+00
  2.20000000E+02  2.00000000E+00  0.00000000E+00
  2.20000000E+02 -3.33066907E-14  0.00000000E+00
  2.30000000E+02  1.00000000E+02  0.00000000E+00
  2.30000000E+02  9.80000000E+01  0.00000000E+00
  2.30000000E+02  9.60000000E+01  0.00000000E+00
  2.30000000E+02  9.40000000E+01  0.00000000E+00
  2.30000000E+02  9.20000000E+01  0.00000000E+00
  2.30000000E+02  9.00000000E+01  0.00000000E+00
  2.30000000E+02  8.80000000E+01  0.00000000E+00
  2.30000000E+02  8.60000000E+01  0.00000000E+00
  2.30000000E+02  8.40000000E+01  0.00000000E+00
  2.30000000E+02  8.20000000E+01  0.00000000E+00
  2.30000000E+02  8.00000000E+01  0.00000000E+00
  2.30000000E+02  7.80000000E+01  0.00000000E+00
  2.30000000E+02  7.60000000E+01  0.00000000E+00
  2.30000000E+02  7.40000000E+01  0.00000000E+00
  2.30000000E+02  7.20000000E+01  0.00000000E+00
  2.30000000E+02  7.00000000E+01  0.00000000E+00
  2.30000000E+02  6.80000000E+01  0.00000000E+00
  2.30000000E+02  6.60000000E+01  0.00000000E+00
  2.30000000E+02  6.40000000E+01  0.00000000E+00
  2.30000000E+02  6.20000000E+01  0.00000000E+00
  2.30000000E+02  6.00000000E+01  0.00000000E+00
  2.30000000E+02  5.80000000E+01  0.00000000E+00
  2.30000000E+02  5.60000000E+01  0.00000000E+00
  2.30000000E+02  5.40000000E+01  0.00000000E+00
  2.30000000E+02  5.20000000E+01  0.00000000E+00
  2.30000000E+02  5.00000000E+01  0.00000000E+00
  2.30000000E+02  4.80000000E+01  0.00000000E+00
  2.30000000E+02  4.60000000E+01  0.00000000E+00
  2.30000000E+02  4.40000000E+01  0.00000000E+00
  2.30000000E+02  4.20000000E+01  0.00000000E+00
  2.30000000E+02  4.00000000E+01  0.00000000E+00
  2.30000000E+02  3.80000000E+01  0.00000000E+00
  2.30000000E+02  3.60000000E+01  0.00000000E+00
  2.30000000E+02  3.40000000E+01  0.00000000E+00
  2.30000000E+02  3.20000000E+01  0.00000000E+00
  2.30000000E+02  3.00000000E+01  0.00000000E+00
  2.30000000E+02  2.80000000E+01  0.00000000E+00
  2.30000000E+02  2.60000000E+01  0.00000000E+00
  2.30000000E+02  2.40000000E+01  0.00000000E+00
  2.30000000E+02  2.20000000E+01  0.00000000E+00
  2.30000000E+02  2.00000000E+01  0.00000000E+00
  2.30000000E+02  1.80000000E+01  0.00000000E+00
  2.30000000E+02  1.60000000E+01  0.00000000E+00
  2.30000000E+02  1.40000000E+01  0.00000000E+00
  2.30000000E+02  1.20000000E+01  0.00000000E+00
  2.30000000E+02  1.00000000E+01  0.00000000E+00
  2.30000000E+02  8.00000000E+00  0.00000000E+00
  2.30000000E+02  6.00000000E+00  0.00000000E+00
  2.30000000E+02  4.00000000E+00  0.00000000E+00
  2.30000000E+02  2.00000000E+00  0.00000000E+00
  2.30000000E+02 -3.33066907E-14  0.00000000E+00
  2.40000000E+02  1.00000000E+02  0.00000000E+00
  2.40000000E+02  9.80000000E+01  0.00000000E+00
  2.40000000E+02  9.60000000E+01  0.00000000E+00
  2.40000000E+02  9.40000000E+01  0.00000000E+00
  2.40000000E+02  9.20000000E+01  0.00000000E+00
  2.40000000E+02  9.00000000E+01  0.00000000E+00
  2.40000000E+02  8.80000000E+01  0.00000000E+00
  2.40000000E+02  8.60000000E+01  0.00000000E+00
  2.40000000E+02  8.40000000E+01  0.00000000E+00
  2.40000000E+02  8.20000000E+01  0.00000000E+00
  2.40000000E+02  8.00000000E+01  0.00000000E+00
  2.40000000E+02  7.80000000E+01  0.00000000E+00
  2.40000000E+02  7.60000000E+01  0.00000000E+00
  2.40000000E+02  7.40000000E+01  0.00000000E+00
  2.40000000E+02  7.20000000E+01  0.00000000E+00
  2.40000000E+02  7.00000000E+01  0.00000000E+00
  2.40000000E+02  6.80000000E+01  0.00000000E+00
  2.40000000E+02  6.60000000E+01  0.00000000E+00
  2.40000000E+02  6.40000000E+01  0.00000000E+00
  2.40000000E+02  6.20000000E+01  0.00000000E+00
  2.40000000E+02  6.00000000E+01  0.00000000E+00
  2.40000000E+02  5.80000000E+01  0.00000000E+00
  2.40000000E+02  5.60000000E+01  0.00000000E+00
  2.40000000E+02  5.40000000E+01  0.00000000E+00
  2.40000000E+02  5.20000000E+01  0.00000000E+00
  2.40000000E+02  5.00000000E+01  0.00000000E+00
  2.40000000E+02  4.80000000E+01  0.00000000E+00
  2.40000000E+02  4.60000000E+01  0.00000000E+00
  2.40000000E+02  4.40000000E+01  0.00000000E+00
  2.40000000E+02  4.20000000E+01  0.00000000E+00
  2.40000000E+02  4.00000000E+01  0.00000000E+00
  2.40000000E+02  3.80000000E+01  0.00000000E+00
  2.40000000E+02  3.60000000E+01  0.00000000E+00
  2.40000000E+02  3.40000000E+01  0.00000000E+00
  2.40000000E+02  3.20000000E+01  0.00000000E+00
  2.40000000E+02  3.00000000E+01  0.00000000E+00
  2.40000000E+02  2.80000000E+01  0.00000000E+00
  2.40000000E+02  2.60000000E+01  0.00000000E+00
  2.40000000E+02  2.40000000E+01  0.00000000E+00
  2.40000000E+02  2.20000000E+01  0.00000000E+00
  2.40000000E+02  2.00000000E+01  0.00000000E+00
  2.40000000E+02  1.80000000E+01  0.00000000E+00
  2.40000000E+02  1.60000000E+01  0.00000000E+00
  2.40000000E+02  1.40000000E+01  0.00000000E+00
  2.40000000E+02  1.20000000E+01  0.00000000E+00
  2.40000000E+02  1.00000000E+01  0.00000000E+00
  2.40000000E+02  8.00000000E+00  0.00000000E+00
  2.40000000E+02  6.00000000E+00  0.00000000E+00
  2.40000000E+02  4.00000000E+00  0.00000000E+00
  2.40000000E+02  2.00000000E+00  0.00000000E+00
  2.40000000E+02 -3.33066907E-14  0.00000000E+00
  2.50000000E+02  1.00000000E+02  0.00000000E+00
  2.50000000E+02  9.80000000E+01  0.00000000E+00
  2.50000000E+02  9.60000000E+01  0.00000000E+00
  2.50000000E+02  9.40000000E+01  0.00000000E+00
  2.50000000E+02  9.20000000E+01  0.00000000E+00
  2.50000000E+02  9.00000000E+01  0.00000000E+00
  2.50000000E+02  8.80000000E+01  0.00000000E+00
  2.50000000E+02  8.60000000E+01  0.00000000E+00
  2.50000000E+02  8.40000000E+01  0.00000000E+00
  2.50000000E+02  8.20000000E+01  0.00000000E+00
  2.50000000E+02  8.00000000E+01  0.00000000E+00
  2.50000000E+02  7.80000000E+01  0.00000000E+00
  2.50000000E+02  7.60000000E+01  0.00000000E+00
  2.50000000E+02  7.40000000E+01  0.00000000E+00
  2.50000000E+02  7.20000000E+01  0.00000000E+00
  2.50000000E+02  7.00000000E+01  0.00000000E+00
  2.50000000E+02  6.80000000E+01  0.00000000E+00
  2.50000000E+02  6.60000000E+01  0.00000000E+00
  2.50000000E+02  6.40000000E+01  0.00000000E+00
  2.50000000E+02  6.20000000E+01  0.00000000E+00
  2.50000000E+02  6.00000000E+01  0.00000000E+00
  2.50000000E+02  5.80000000E+01  0.00000000E+00
  2.50000000E+02  5.60000000E+01  0.00000000E+00
  2.50000000E+02  5.40000000E+01  0.00000000E+00
  2.50000000E+02  5.20000000E+01  0.00000000E+00
  2.50000000E+02  5.00000000E+01  0.00000000E+00
  2.50000000E+02  4.80000000E+01  0.00000000E+00
  2.50000000E+02  4.60000000E+01  0.00000000E+00
  2.50000000E+02  4.40000000E+01  0.00000000E+00
  2.50000000E+02  4.20000000E+01  0.00000000E+00
  2.50000000E+02  4.00000000E+01  0.00000000E+00
  2.50000000E+02  3.80000000E+01  0.00000000E+00
  2.50000000E+02  3.60000000E+01  0.00000000E+00
  2.50000000E+02  3.40000000E+01  0.00000000E+00
  2.50000000E+02  3.20000000E+01  0.00000000E+00
  2.50000000E+02  3.00000000E+01  0.00000000E+00
  2.50000000E+02  2.80000000E+01  0.00000000E+00
  2.50000000E+02  2.60000000E+01  0.00000000E+00
  2.50000000E+02  2.40000000E+01  0.00000000E+00
  2.50000000E+02  2.20000000E+01  0.00000000E+00
  2.50000000E+02  2.00000000E+01  0.00000000E+00
  2.50000000E+02  1.80000000E+01  0.00000000E+00
  2.50000000E+02  1.60000000E+01  0.00000000E+00
  2.50000000E+02  1.40000000E+01  0.00000000E+00
  2.50000000E+02  1.20000000E+01  0.00000000E+00
  2.50000000E+02  1.00000000E+01  0.00000000E+00
  2.50000000E+02  8.00000000E+00  0.00000000E+00
  2.50000000E+02  6.00000000E+00  0.00000000E+00
  2.50000000E+02  4.00000000E+00  0.00000000E+00
  2.50000000E+02  2.00000000E+00  0.00000000E+00
  2.50000000E+02 -3.33066907E-14  0.00000000E+00
  2.60000000E+02  1.00000000E+02  0.00000000E+00
  2.60000000E+02  9.80000000E+01  0.00000000E+00
  2.60000000E+02  9.60000000E+01  0.00000000E+00
  2.60000000E+02  9.40000000E+01  0.00000000E+00
  2.60000000E+02  9.20000000E+01  0.00000000E+00
  2.60000000E+02  9.00000000E+01  0.00000000E+00
  2.60000000E+02  8.80000000E+01  0.00000000E+00
  2.60000000E+02  8.60000000E+01  0.00000000E+00
  2.60000000E+02  8.40000000E+01  0.00000000E+00
  2.60000000E+02  8.20000000E+01  0.00000000E+00
  2.60000000E+02  8.00000000E+01  0.00000000E+00
  2.60000000E+02  7.80000000E+01  0.00000000E+00
  2.60000000E+02  7.60000000E+01  0.00000000E+00
  2.60000000E+02  7.40000000E+01  0.00000000E+00
  2.60000000E+02  7.20000000E+01  0.00000000E+00
  2.60000000E+02  7.00000000E+01  0.00000000E+00
  2.60000000E+02  6.80000000E+01  0.00000000E+00
  2.60000000E+02  6.60000000E+01  0.00000000E+00
  2.60000000E+02  6.40000000E+01  0.00000000E+00
  2.60000000E+02  6.20000000E+01  0.00000000E+00
  2.60000000E+02  6.00000000E+01  0.00000000E+00
  2.60000000E+02  5.80000000E+01  0.00000000E+00
  2.60000000E+02  5.60000000E+01  0.00000000E+00
  2.60000000E+02  5.40000000E+01  0.00000000E+00
  2.60000000E+02  5.20000000E+01  0.00000000E+00
  2.60000000E+02  5.00000000E+01  0.00000000E+00
  2.60000000E+02  4.80000000E+01  0.00000000E+00
  2.60000000E+02  4.60000000E+01  0.00000000E+00
  2.60000000E+02  4.40000000E+01  0.00000000E+00
  2.60000000E+02  4.20000000E+01  0.00000000E+00
  2.60000000E+02  4.00000000E+01  0.00000000E+00
  2.60000000E+02  3.80000000E+01  0.00000000E+00
  2.60000000E+02  3.60000000E+01  0.00000000E+00
  2.60000000E+02  3.40000000E+01  0.00000000E+00
  2.60000000E+02  3.20000000E+01  0.00000000E+00
  2.60000000E+02  3.00000000E+01  0.00000000E+00
  2.60000000E+02  2.80000000E+01  0.00000000E+00
  2.60000000E+02  2.60000000E+01  0.00000000E+00
  2.60000000E+02  2.40000000E+01  0.00000000E+00
  2.60000000E+02  2.20000000E+01  0.00000000E+00
  2.60000000E+02  2.00000000E+01  0.00000000E+00
  2.60000000E+02  1.80000000E+01  0.00000000E+00
  2.60000000E+02  1.60000000E+01  0.00000000E+00
  2.60000000E+02  1.40000000E+01  0.00000000E+00
  2.60000000E+02  1.20000000E+01  0.00000000E+00
  2.60000000E+02  1.00000000E+01  0.00000000E+00
  2.60000000E+02  8.00000000E+00  0.00000000E+00
  2.60000000E+02  6.00000000E+00  0.00000000E+00
  2.60000000E+02  4.00000000E+00  0.00000000E+00
  2.60000000E+02  2.00000000E+00  0.00000000E+00
  2.60000000E+02 -3.33066907E-14  0.00000000E+00
  2.70000000E+02  1.00000000E+02  0.00000000E+00
  2.70000000E+02  9.80000000E+01  0.00000000E+00
  2.70000000E+02  9.60000000E+01  0.00000000E+00
  2.70000000E+02  9.40000000E+01  0.00000000E+00
  2.70000000E+02  9.20000000E+01  0.00000000E+00
  2.70000000E+02  9.00000000E+01  0.00000000E+00
  2.70000000E+02  8.80000000E+01  0.00000000E+00
  2.70000000E+02  8.60000000E+01  0.00000000E+00
  2.70000000E+02  8.40000000E+01  0.00000000E+00
  2.70000000E+02  8.20000000E+01  0.00000000E+00
  2.70000000E+02  8.00000000E+01  0.00000000E+00
  2.70000000E+02  7.80000000E+01  0.00000000E+00
  2.70000000E+02  7.60000000E+01  0.00000000E+00
  2.70000000E+02  7.40000000E+01  0.00000000E+00
  2.70000000E+02  7.20000000E+01  0.00000000E+00
  2.70000000E+02  7.00000000E+01  0.00000000E+00
  2.70000000E+02  6.80000000E+01  0.00000000E+00
  2.70000000E+02  6.60000000E+01  0.00000000E+00
  2.70000000E+02  6.40000000E+01  0.00000000E+00
  2.70000000E+02  6.20000000E+01  0.00000000E+00
  2.70000000E+02  6.00000000E+01  0.00000000E+00
  2.70000000E+02  5.80000000E+01  0.00000000E+00
  2.70000000E+02  5.60000000E+01  0.00000000E+00
  2.70000000E+02  5.40000000E+01  0.00000000E+00
  2.70000000E+02  5.20000000E+01  0.00000000E+00
  2.70000000E+02  5.00000000E+01  0.00000000E+00
  2.70000000E+02  4.80000000E+01  0.00000000E+00
  2.70000000E+02  4.60000000E+01  0.00000000E+00
  2.70000000E+02  4.40000000E+01  0.00000000E+00
  2.70000000E+02  4.20000000E+01  0.00000000E+00
  2.70000000E+02  4.00000000E+01  0.00000000E+00
  2.70000000E+02  3.80000000E+01  0.00000000E+00
  2.70000000E+02  3.60000000E+01  0.00000000E+00
  2.70000000E+02  3.40000000E+01  0.00000000E+00
  2.70000000E+02  3.20000000E+01  0.00000000E+00
  2.70000000E+02  3.00000000E+01  0.00000000E+00
  2.70000000E+02  2.80000000E+01  0.00000000E+00
  2.70000000E+02  2.60000000E+01  0.00000000E+00
  2.70000000E+02  2.40000000E+01  0.00000000E+00
  2.70000000E+02  2.20000000E+01  0.00000000E+00
  2.70000000E+02  2.00000000E+01  0.00000000E+00
  2.70000000E+02  1.80000000E+01  0.00000000E+00
  2.70000000E+02  1.60000000E+01  0.00000000E+00
  2.70000000E+02  1.40000000E+01  0.00000000E+00
  2.70000000E+02  1.20000000E+01  0.00000000E+00
  2.70000000E+02  1.00000000E+01  0.00000000E+00
  2.70000000E+02  8.00000000E+00  0.00000000E+00
  2.70000000E+02  6.00000000E+00  0.00000000E+00
  2.70000000E+02  4.00000000E+00  0.00000000E+00
  2.70000000E+02  2.00000000E+00  0.00000000E+00
  2.70000000E+02 -3.33066907E-14  0.00000000E+00
  2.80000000E+02  1.00000000E+02  0.00000000E+00
  2.80000000E+02  9.80000000E+01  0.00000000E+00
  2.80000000E+02  9.60000000E+01  0.00000000E+00
  2.80000000E+02  9.40000000E+01  0.00000000E+00
  2.80000000E+02  9.20000000E+01  0.00000000E+00
  2.80000000E+02  9.00000000E+01  0.00000000E+00
  2.80000000E+02  8.80000000E+01  0.00000000E+00
  2.80000000E+02  8.60000000E+01  0.00000000E+00
  2.80000000E+02  8.40000000E+01  0.00000000E+00
  2.80000000E+02  8.20000000E+01  0.00000000E+00
  2.80000000E+02  8.00000000E+01  0.00000000E+00
  2.80000000E+02  7.80000000E+01  0.00000000E+00
  2.80000000E+02  7.60000000E+01  0.00000000E+00
  2.80000000E+02  7.40000000E+01  0.00000000E+00
  2.80000000E+02  7.20000000E+01  0.00000000E+00
  2.80000000E+02  7.00000000E+01  0.00000000E+00
  2.80000000E+02  6.80000000E+01  0.00000000E+00
  2.80000000E+02  6.60000000E+01  0.00000000E+00
  2.80000000E+02  6.40000000E+01  0.00000000E+00
  2.80000000E+02  6.20000000E+01  0.00000000E+00
  2.80000000E+02  6.00000000E+01  0.00000000E+00
  2.80000000E+02  5.80000000E+01  0.00000000E+00
  2.80000000E+02  5.60000000E+01  0.00000000E+00
  2.80000000E+02  5.40000000E+01  0.00000000E+00
  2.80000000E+02  5.20000000E+01  0.00000000E+00
  2.80000000E+02  5.00000000E+01  0.00000000E+00
  2.80000000E+02  4.80000000E+01  0.00000000E+00
  2.80000000E+02  4.60000000E+01  0.00000000E+00
  2.80000000E+02  4.40000000E+01  0.00000000E+00
  2.80000000E+02  4.20000000E+01  0.00000000E+00
  2.80000000E+02  4.00000000E+01  0.00000000E+00
  2.80000000E+02  3.80000000E+01  0.00000000E+00
  2.80000000E+02  3.60000000E+01  0.00000000E+00
  2.80000000E+02  3.40000000E+01  0.00000000E+00
  2.80000000E+02  3.20000000E+01  0.00000000E+00
  2.80000000E+02  3.00000000E+01  0.00000000E+00
  2.80000000E+02  2.80000000E+01  0.00000000E+00
  2.80000000E+02  2.60000000E+01  0.00000000E+00
  2.80000000E+02  2.40000000E+01  0.00000000E+00
  2.80000000E+02  2.20000000E+01  0.00000000E+00
  2.80000000E+02  2.00000000E+01  0.00000000E+00
  2.80000000E+02  1.80000000E+01  0.00000000E+00
  2.80000000E+02  1.60000000E+01  0.00000000E+00
  2.80000000E+02  1.40000000E+01  0.00000000E+00
  2.80000000E+02  1.20000000E+01  0.00000000E+00
  2.80000000E+02  1.00000000E+01  0.00000000E+00
  2.80000000E+02  8.00000000E+00  0.00000000E+00
  2.80000000E+02  6.00000000E+00  0.00000000E+00
  2.80000000E+02  4.00000000E+00  0.00000000E+00
  2.80000000E+02  2.00000000E+00  0.00000000E+00
  2.80000000E+02 -3.33066907E-14  0.00000000E+00
  2.90000000E+02  1.00000000E+02  0.00000000E+00
  2.90000000E+02  9.80000000E+01  0.00000000E+00
  2.90000000E+02  9.60000000E+01  0.00000000E+00
  2.90000000E+02  9.40000000E+01  0.00000000E+00
  2.90000000E+02  9.20000000E+01  0.00000000E+00
  2.90000000E+02  9.00000000E+01  0.00000000E+00
  2.90000000E+02  8.80000000E+01  0.00000000E+00
  2.90000000E+02  8.60000000E+01  0.00000000E+00
  2.90000000E+02  8.40000000E+01  0.00000000E+00
  2.90000000E+02  8.20000000E+01  0.00000000E+00
  2.90000000E+02  8.00000000E+01  0.00000000E+00
  2.90000000E+02  7.80000000E+01  0.00000000E+00
  2.90000000E+02  7.60000000E+01  0.00000000E+00
  2.90000000E+02  7.40000000E+01  0.00000000E+00
  2.90000000E+02  7.20000000E+01  0.00000000E+00
  2.90000000E+02  7.00000000E+01  0.00000000E+00
  2.90000000E+02  6.80000000E+01  0.00000000E+00
  2.90000000E+02  6.60000000E+01  0.00000000E+00
  2.90000000E+02  6.40000000E+01  0.00000000E+00
  2.90000000E+02  6.20000000E+01  0.00000000E+00
  2.90000000E+02  6.00000000E+01  0.00000000E+00
  2.90000000E+02  5.80000000E+01  0.00000000E+00
  2.90000000E+02  5.60000000E+01  0.00000000E+00
  2.90000000E+02  5.40000000E+01  0.00000000E+00
  2.90000000E+02  5.20000000E+01  0.00000000E+00
  2.90000000E+02  5.00000000E+01  0.00000000E+00
  2.90000000E+02  4.80000000E+01  0.00000000E+00
  2.90000000E+02  4.60000000E+01  0.00000000E+00
  2.90000000E+02  4.40000000E+01  0.00000000E+00
  2.90000000E+02  4.20000000E+01  0.00000000E+00
  2.90000000E+02  4.00000000E+01  0.00000000E+00
  2.90000000E+02  3.80000000E+01  0.00000000E+00
  2.90000000E+02  3.60000000E+01  0.00000000E+00
  2.90000000E+02  3.40000000E+01  0.00000000E+00
  2.90000000E+02  3.20000000E+01  0.00000000E+00
  2.90000000E+02  3.00000000E+01  0.00000000E+00
  2.90000000E+02  2.80000000E+01  0.00000000E+00
  2.90000000E+02  2.60000000E+01  0.00000000E+00
  2.90000000E+02  2.40000000E+01  0.00000000E+00
  2.90000000E+02  2.20000000E+01  0.00000000E+00
  2.90000000E+02  2.00000000E+01  0.00000000E+00
  2.90000000E+02  1.80000000E+01  0.00000000E+00
  2.90000000E+02  1.60000000E+01  0.00000000E+00
  2.90000000E+02  1.40000000E+01  0.00000000E+00
  2.90000000E+02  1.20000000E+01  0.00000000E+00
  2.90000000E+02  1.00000000E+01  0.00000000E+00
  2.90000000E+02  8.00000000E+00  0.00000000E+00
  2.90000000E+02  6.00000000E+00  0.00000000E+00
  2.90000000E+02  4.00000000E+00  0.00000000E+00
  2.90000000E+02  2.00000000E+00  0.00000000E+00
  2.90000000E+02 -3.33066907E-14  0.00000000E+00
  3.00000000E+02  1.00000000E+02  0.00000000E+00
  3.00000000E+02  9.80000000E+01  0.00000000E+00
  3.00000000E+02  9.60000000E+01  0.00000000E+00
  3.00000000E+02  9.40000000E+01  0.00000000E+00
  3.00000000E+02  9.20000000E+01  0.00000000E+00
  3.00000000E+02  9.00000000E+01  0.00000000E+00
  3.00000000E+02  8.80000000E+01  0.00000000E+00
  3.00000000E+02  8.60000000E+01  0.00000000E+00
  3.00000000E+02  8.40000000E+01  0.00000000E+00
  3.00000000E+02  8.20000000E+01  0.00000000E+00
  3.00000000E+02  8.00000000E+01  0.00000000E+00
  3.00000000E+02  7.80000000E+01  0.00000000E+00
  3.00000000E+02  7.60000000E+01  0.00000000E+00
  3.00000000E+02  7.40000000E+01  0.00000000E+00
  3.00000000E+02  7.20000000E+01  0.00000000E+00
  3.00000000E+02  7.00000000E+01  0.00000000E+00
  3.00000000E+02  6.80000000E+01  0.00000000E+00
  3.00000000E+02  6.60000000E+01  0.00000000E+00
  3.00000000E+02  6.40000000E+01  0.00000000E+00
  3.00000000E+02  6.20000000E+01  0.00000000E+00
  3.00000000E+02  6.00000000E+01  0.00000000E+00
  3.00000000E+02  5.80000000E+01  0.00000000E+00
  3.00000000E+02  5.60000000E+01  0.00000000E+00
  3.00000000E+02  5.40000000E+01  0.00000000E+00
  3.00000000E+02  5.20000000E+01  0.00000000E+00
  3.00000000E+02  5.00000000E+01  0.00000000E+00
  3.00000000E+02  4.80000000E+01  0.00000000E+00
  3.00000000E+02  4.60000000E+01  0.00000000E+00
  3.00000000E+02  4.40000000E+01  0.00000000E+00
  3.00000000E+02  4.20000000E+01  0.00000000E+00
  3.00000000E+02  4.00000000E+01  0.00000000E+00
  3.00000000E+02  3.80000000E+01  0.00000000E+00
  3.00000000E+02  3.60000000E+01  0.00000000E+00
  3.00000000E+02  3.40000000E+01  0.00000000E+00
  3.00000000E+02  3.20000000E+01  0.00000000E+00
  3.00000000E+02  3.00000000E+01  0.00000000E+00
  3.00000000E+02  2.80000000E+01  0.00000000E+00
  3.00000000E+02  2.60000000E+01  0.00000000E+00
  3.00000000E+02  2.40000000E+01  0.00000000E+00
  3.00000000E+02  2.20000000E+01  0.00000000E+00
  3.00000000E+02  2.00000000E+01  0.00000000E+00
  3.00000000E+02  1.80000000E+01  0.00000000E+00
  3.00000000E+02  1.60000000E+01  0.00000000E+00
  3.00000000E+02  1.40000000E+01  0.00000000E+00
  3.00000000E+02  1.20000000E+01  0.00000000E+00
  3.00000000E+02  1.00000000E+01  0.00000000E+00
  3.00000000E+02  8.00000000E+00  0.00000000E+00
  3.00000000E+02  6.00000000E+00  0.00000000E+00
  3.00000000E+02  4.00000000E+00  0.00000000E+00
  3.00000000E+02  2.00000000E+00  0.00000000E+00
  3.00000000E+02 -3.33066907E-14  0.00000000E+00
  3.10000000E+02  1.00000000E+02  0.00000000E+00
  3.10000000E+02  9.80000000E+01  0.00000000E+00
  3.10000000E+02  9.60000000E+01  0.00000000E+00
  3.10000000E+02  9.40000000E+01  0.00000000E+00
  3.10000000E+02  9.20000000E+01  0.00000000E+00
  3.10000000E+02  9.00000000E+01  0.00000000E+00
  3.10000000E+02  8.80000000E+01  0.00000000E+00
  3.10000000E+02  8.60000000E+01  0.00000000E+00
  3.10000000E+02  8.40000000E+01  0.00000000E+00
  3.10000000E+02  8.20000000E+01  0.00000000E+00
  3.10000000E+02  8.00000000E+01  0.00000000E+00
  3.10000000E+02  7.80000000E+01  0.00000000E+00
  3.10000000E+02  7.60000000E+01  0.00000000E+00
  3.10000000E+02  7.40000000E+01  0.00000000E+00
  3.10000000E+02  7.20000000E+01  0.00000000E+00
  3.10000000E+02  7.00000000E+01  0.00000000E+00
  3.10000000E+02  6.80000000E+01  0.00000000E+00
  3.10000000E+02  6.60000000E+01  0.00000000E+00
  3.10000000E+02  6.40000000E+01  0.00000000E+00
  3.10000000E+02  6.20000000E+01  0.00000000E+00
  3.10000000E+02  6.00000000E+01  0.00000000E+00
  3.10000000E+02  5.80000000E+01  0.00000000E+00
  3.10000000E+02  5.60000000E+01  0.00000000E+00
  3.10000000E+02  5.40000000E+01  0.00000000E+00
  3.10000000E+02  5.20000000E+01  0.00000000E+00
  3.10000000E+02  5.00000000E+01  0.00000000E+00
  3.10000000E+02  4.80000000E+01  0.00000000E+00
  3.10000000E+02  4.60000000E+01  0.00000000E+00
  3.10000000E+02  4.40000000E+01  0.00000000E+00
  3.10000000E+02  4.20000000E+01  0.00000000E+00
  3.10000000E+02  4.00000000E+01  0.00000000E+00
  3.10000000E+02  3.80000000E+01  0.00000000E+00
  3.10000000E+02  3.60000000E+01  0.00000000E+00
  3.10000000E+02  3.40000000E+01  0.00000000E+00
  3.10000000E+02  3.20000000E+01  0.00000000E+00
  3.10000000E+02  3.00000000E+01  0.00000000E+00
  3.10000000E+02  2.80000000E+01  0.00000000E+00
  3.10000000E+02  2.60000000E+01  0.00000000E+00
  3.10000000E+02  2.40000000E+01  0.00000000E+00
  3.10000000E+02  2.20000000E+01  0.00000000E+00
  3.10000000E+02  2.00000000E+01  0.00000000E+00
  3.10000000E+02  1.80000000E+01  0.00000000E+00
  3.10000000E+02  1.60000000E+01  0.00000000E+00
  3.10000000E+02  1.40000000E+01  0.00000000E+00
  3.10000000E+02  1.20000000E+01  0.00000000E+00
  3.10000000E+02  1.00000000E+01  0.00000000E+00
  3.10000000E+02  8.00000000E+00  0.00000000E+00
  3.10000000E+02  6.00000000E+00  0.00000000E+00
  3.10000000E+02  4.00000000E+00  0.00000000E+00
  3.10000000E+02  2.00000000E+00  0.00000000E+00
  3.10000000E+02 -3.33066907E-14  0.00000000E+00
  3.20000000E+02  1.00000000E+02  0.00000000E+00
  3.20000000E+02  9.80000000E+01  0.00000000E+00
  3.20000000E+02  9.60000000E+01  0.00000000E+00
  3.20000000E+02  9.40000000E+01  0.00000000E+00
  3.20000000E+02  9.20000000E+01  0.00000000E+00
  3.20000000E+02  9.00000000E+01  0.00000000E+00
  3.20000000E+02  8.80000000E+01  0.00000000E+00
  3.20000000E+02  8.60000000E+01  0.00000000E+00
  3.20000000E+02  8.40000000E+01  0.00000000E+00
  3.20000000E+02  8.20000000E+01  0.00000000E+00
  3.20000000E+02  8.00000000E+01  0.00000000E+00
  3.20000000E+02  7.80000000E+01  0.00000000E+00
  3.20000000E+02  7.60000000E+01  0.00000000E+00
  3.20000000E+02  7.40000000E+01  0.00000000E+00
  3.20000000E+02  7.20000000E+01  0.00000000E+00
  3.20000000E+02  7.00000000E+01  0.00000000E+00
  3.20000000E+02  6.80000000E+01  0.00000000E+00
  3.20000000E+02  6.60000000E+01  0.00000000E+00
  3.20000000E+02  6.40000000E+01  0.00000000E+00
  3.20000000E+02  6.20000000E+01  0.00000000E+00
  3.20000000E+02  6.00000000E+01  0.00000000E+00
  3.20000000E+02  5.80000000E+01  0.00000000E+00
  3.20000000E+02  5.60000000E+01  0.00000000E+00
  3.20000000E+02  5.40000000E+01  0.00000000E+00
  3.20000000E+02  5.20000000E+01  0.00000000E+00
  3.20000000E+02  5.00000000E+01  0.00000000E+00
  3.20000000E+02  4.80000000E+01  0.00000000E+00
  3.20000000E+02  4.60000000E+01  0.00000000E+00
  3.20000000E+02  4.40000000E+01  0.00000000E+00
  3.20000000E+02  4.20000000E+01  0.00000000E+00
  3.20000000E+02  4.00000000E+01  0.00000000E+00
  3.20000000E+02  3.80000000E+01  0.00000000E+00
  3.20000000E+02  3.60000000E+01  0.00000000E+00
  3.20000000E+02  3.40000000E+01  0.00000000E+00
  3.20000000E+02  3.20000000E+01  0.00000000E+00
  3.20000000E+02  3.00000000E+01  0.00000000E+00
  3.20000000E+02  2.80000000E+01  0.00000000E+00
  3.20000000E+02  2.60000000E+01  0.00000000E+00
  3.20000000E+02  2.40000000E+01  0.00000000E+00
  3.20000000E+02  2.20000000E+01  0.00000000E+00
  3.20000000E+02  2.00000000E+01  0.00000000E+00
  3.20000000E+02  1.80000000E+01  0.00000000E+00
  3.20000000E+02  1.60000000E+01  0.00000000E+00
  3.20000000E+02  1.40000000E+01  0.00000000E+00
  3.20000000E+02  1.20000000E+01  0.00000000E+00
  3.20000000E+02  1.00000000E+01  0.00000000E+00
  3.20000000E+02  8.00000000E+00  0.00000000E+00
  3.20000000E+02  6.00000000E+00  0.00000000E+00
  3.20000000E+02  4.00000000E+00  0.00000000E+00
  3.20000000E+02  2.00000000E+00  0.00000000E+00
  3.20000000E+02 -3.33066907E-14  0.00000000E+00
  3.30000000E+02  1.00000000E+02  0.00000000E+00
  3.30000000E+02  9.80000000E+01  0.00000000E+00
  3.30000000E+02  9.60000000E+01  0.00000000E+00
  3.30000000E+02  9.40000000E+01  0.00000000E+00
  3.30000000E+02  9.20000000E+01  0.00000000E+00
  3.30000000E+02  9.00000000E+01  0.00000000E+00
  3.30000000E+02  8.80000000E+01  0.00000000E+00
  3.30000000E+02  8.60000000E+01  0.00000000E+00
  3.30000000E+02  8.40000000E+01  0.00000000E+00
  3.30000000E+02  8.20000000E+01  0.00000000E+00
  3.30000000E+02  8.00000000E+01  0.00000000E+00
  3.30000000E+02  7.80000000E+01  0.00000000E+00
  3.30000000E+02  7.60000000E+01  0.00000000E+00
  3.30000000E+02  7.40000000E+01  0.00000000E+00
  3.30000000E+02  7.20000000E+01  0.00000000E+00
  3.30000000E+02  7.00000000E+01  0.00000000E+00
  3.30000000E+02  6.80000000E+01  0.00000000E+00
  3.30000000E+02  6.60000000E+01  0.00000000E+00
  3.30000000E+02  6.40000000E+01  0.00000000E+00
  3.30000000E+02  6.20000000E+01  0.00000000E+00
  3.30000000E+02  6.00000000E+01  0.00000000E+00
  3.30000000E+02  5.80000000E+01  0.00000000E+00
  3.30000000E+02  5.60000000E+01  0.00000000E+00
  3.30000000E+02  5.40000000E+01  0.00000000E+00
  3.30000000E+02  5.20000000E+01  0.00000000E+00
  3.30000000E+02  5.00000000E+01  0.00000000E+00
  3.30000000E+02  4.80000000E+01  0.00000000E+00
  3.30000000E+02  4.60000000E+01  0.00000000E+00
  3.30000000E+02  4.40000000E+01  0.00000000E+00
  3.30000000E+02  4.20000000E+01  0.00000000E+00
  3.30000000E+02  4.00000000E+01  0.00000000E+00
  3.30000000E+02  3.80000000E+01  0.00000000E+00
  3.30000000E+02  3.60000000E+01  0.00000000E+00
  3.30000000E+02  3.40000000E+01  0.00000000E+00
  3.30000000E+02  3.20000000E+01  0.00000000E+00
  3.30000000E+02  3.00000000E+01  0.00000000E+00
  3.30000000E+02  2.80000000E+01  0.00000000E+00
  3.30000000E+02  2.60000000E+01  0.00000000E+00
  3.30000000E+02  2.40000000E+01  0.00000000E+00
  3.30000000E+02  2.20000000E+01  0.00000000E+00
  3.30000000E+02  2.00000000E+01  0.00000000E+00
  3.30000000E+02  1.80000000E+01  0.00000000E+00
  3.30000000E+02  1.60000000E+01  0.00000000E+00
  3.30000000E+02  1.40000000E+01  0.00000000E+00
  3.30000000E+02  1.20000000E+01  0.00000000E+00
  3.30000000E+02  1.00000000E+01  0.00000000E+00
  3.30000000E+02  8.00000000E+00  0.00000000E+00
  3.30000000E+02  6.00000000E+00  0.00000000E+00
  3.30000000E+02  4.00000000E+00  0.00000000E+00
  3.30000000E+02  2.00000000E+00  0.00000000E+00
  3.30000000E+02 -3.33066907E-14  0.00000000E+00
  3.40000000E+02  1.00000000E+02  0.00000000E+00
  3.40000000E+02  9.80000000E+01  0.00000000E+00
  3.40000000E+02  9.60000000E+01  0.00000000E+00
  3.40000000E+02  9.40000000E+01  0.00000000E+00
  3.40000000E+02  9.20000000E+01  0.00000000E+00
  3.40000000E+02  9.00000000E+01  0.00000000E+00
  3.40000000E+02  8.80000000E+01  0.00000000E+00
  3.40000000E+02  8.60000000E+01  0.00000000E+00
  3.40000000E+02  8.40000000E+01  0.00000000E+00
  3.40000000E+02  8.20000000E+01  0.00000000E+00
  3.40000000E+02  8.00000000E+01  0.00000000E+00
  3.40000000E+02  7.80000000E+01  0.00000000E+00
  3.40000000E+02  7.60000000E+01  0.00000000E+00
  3.40000000E+02  7.40000000E+01  0.00000000E+00
  3.40000000E+02  7.20000000E+01  0.00000000E+00
  3.40000000E+02  7.00000000E+01  0.00000000E+00
  3.40000000E+02  6.80000000E+01  0.00000000E+00
  3.40000000E+02  6.60000000E+01  0.00000000E+00
  3.40000000E+02  6.40000000E+01  0.00000000E+00
  3.40000000E+02  6.20000000E+01  0.00000000E+00
  3.40000000E+02  6.00000000E+01  0.00000000E+00
  3.40000000E+02  5.80000000E+01  0.00000000E+00
  3.40000000E+02  5.60000000E+01  0.00000000E+00
  3.40000000E+02  5.40000000E+01  0.00000000E+00
  3.40000000E+02  5.20000000E+01  0.00000000E+00
  3.40000000E+02  5.00000000E+01  0.00000000E+00
  3.40000000E+02  4.80000000E+01  0.00000000E+00
  3.40000000E+02  4.60000000E+01  0.00000000E+00
  3.40000000E+02  4.40000000E+01  0.00000000E+00
  3.40000000E+02  4.20000000E+01  0.00000000E+00
  3.40000000E+02  4.00000000E+01  0.00000000E+00
  3.40000000E+02  3.80000000E+01  0.00000000E+00
  3.40000000E+02  3.60000000E+01  0.00000000E+00
  3.40000000E+02  3.40000000E+01  0.00000000E+00
  3.40000000E+02  3.20000000E+01  0.00000000E+00
  3.40000000E+02  3.00000000E+01  0.00000000E+00
  3.40000000E+02  2.80000000E+01  0.00000000E+00
  3.40000000E+02  2.60000000E+01  0.00000000E+00
  3.40000000E+02  2.40000000E+01  0.00000000E+00
  3.40000000E+02  2.20000000E+01  0.00000000E+00
  3.40000000E+02  2.00000000E+01  0.00000000E+00
  3.40000000E+02  1.80000000E+01  0.00000000E+00
  3.40000000E+02  1.60000000E+01  0.00000000E+00
  3.40000000E+02  1.40000000E+01  0.00000000E+00
  3.40000000E+02  1.20000000E+01  0.00000000E+00
  3.40000000E+02  1.00000000E+01  0.00000000E+00
  3.40000000E+02  8.00000000E+00  0.00000000E+00
  3.40000000E+02  6.00000000E+00  0.00000000E+00
  3.40000000E+02  4.00000000E+00  0.00000000E+00
  3.40000000E+02  2.00000000E+00  0.00000000E+00
  3.40000000E+02 -3.33066907E-14  0.00000000E+00
  3.50000000E+02  1.00000000E+02  0.00000000E+00
  3.50000000E+02  9.80000000E+01  0.00000000E+00
  3.50000000E+02  9.60000000E+01  0.00000000E+00
  3.50000000E+02  9.40000000E+01  0.00000000E+00
  3.50000000E+02  9.20000000E+01  0.00000000E+00
  3.50000000E+02  9.00000000E+01  0.00000000E+00
  3.50000000E+02  8.80000000E+01  0.00000000E+00
  3.50000000E+02  8.60000000E+01  0.00000000E+00
  3.50000000E+02  8.40000000E+01  0.00000000E+00
  3.50000000E+02  8.20000000E+01  0.00000000E+00
  3.50000000E+02  8.00000000E+01  0.00000000E+00
  3.50000000E+02  7.80000000E+01  0.00000000E+00
  3.50000000E+02  7.60000000E+01  0.00000000E+00
  3.50000000E+02  7.40000000E+01  0.00000000E+00
  3.50000000E+02  7.20000000E+01  0.00000000E+00
  3.50000000E+02  7.00000000E+01  0.00000000E+00
  3.50000000E+02  6.80000000E+01  0.00000000E+00
  3.50000000E+02  6.60000000E+01  0.00000000E+00
  3.50000000E+02  6.40000000E+01  0.00000000E+00
  3.50000000E+02  6.20000000E+01  0.00000000E+00
  3.50000000E+02  6.00000000E+01  0.00000000E+00
  3.50000000E+02  5.80000000E+01  0.00000000E+00
  3.50000000E+02  5.60000000E+01  0.00000000E+00
  3.50000000E+02  5.40000000E+01  0.00000000E+00
  3.50000000E+02  5.20000000E+01  0.00000000E+00
  3.50000000E+02  5.00000000E+01  0.00000000E+00
  3.50000000E+02  4.80000000E+01  0.00000000E+00
  3.50000000E+02  4.60000000E+01  0.00000000E+00
  3.50000000E+02  4.40000000E+01  0.00000000E+00
  3.50000000E+02  4.20000000E+01  0.00000000E+00
  3.50000000E+02  4.00000000E+01  0.00000000E+00
  3.50000000E+02  3.80000000E+01  0.00000000E+00
  3.50000000E+02  3.60000000E+01  0.00000000E+00
  3.50000000E+02  3.40000000E+01  0.00000000E+00
  3.50000000E+02  3.20000000E+01  0.00000000E+00
  3.50000000E+02  3.00000000E+01  0.00000000E+00
  3.50000000E+02  2.80000000E+01  0.00000000E+00
  3.50000000E+02  2.60000000E+01  0.00000000E+00
  3.50000000E+02  2.40000000E+01  0.00000000E+00
  3.50000000E+02  2.20000000E+01  0.00000000E+00
  3.50000000E+02  2.00000000E+01  0.00000000E+00
  3.50000000E+02  1.80000000E+01  0.00000000E+00
  3.50000000E+02  1.60000000E+01  0.00000000E+00
  3.50000000E+02  1.40000000E+01  0.00000000E+00
  3.50000000E+02  1.20000000E+01  0.00000000E+00
  3.50000000E+02  1.00000000E+01  0.00000000E+00
  3.50000000E+02  8.00000000E+00  0.00000000E+00
  3.50000000E+02  6.00000000E+00  0.00000000E+00
  3.50000000E+02  4.00000000E+00  0.00000000E+00
  3.50000000E+02  2.00000000E+00  0.00000000E+00
  3.50000000E+02 -3.33066907E-14  0.00000000E+00
  3.60000000E+02  1.00000000E+02  0.00000000E+00
  3.60000000E+02  9.80000000E+01  0.00000000E+00
  3.60000000E+02  9.60000000E+01  0.00000000E+00
  3.60000000E+02  9.40000000E+01  0.00000000E+00
  3.60000000E+02  9.20000000E+01  0.00000000E+00
  3.60000000E+02  9.00000000E+01  0.00000000E+00
  3.60000000E+02  8.80000000E+01  0.00000000E+00
  3.60000000E+02  8.60000000E+01  0.00000000E+00
  3.60000000E+02  8.40000000E+01  0.00000000E+00
  3.60000000E+02  8.20000000E+01  0.00000000E+00
  3.60000000E+02  8.00000000E+01  0.00000000E+00
  3.60000000E+02  7.80000000E+01  0.00000000E+00
  3.60000000E+02  7.60000000E+01  0.00000000E+00
  3.60000000E+02  7.40000000E+01  0.00000000E+00
  3.60000000E+02  7.20000000E+01  0.00000000E+00
  3.60000000E+02  7.00000000E+01  0.00000000E+00
  3.60000000E+02  6.80000000E+01  0.00000000E+00
  3.60000000E+02  6.60000000E+01  0.00000000E+00
  3.60000000E+02  6.40000000E+01  0.00000000E+00
  3.60000000E+02  6.20000000E+01  0.00000000E+00
  3.60000000E+02  6.00000000E+01  0.00000000E+00
  3.60000000E+02  5.80000000E+01  0.00000000E+00
  3.60000000E+02  5.60000000E+01  0.00000000E+00
  3.60000000E+02  5.40000000E+01  0.00000000E+00
  3.60000000E+02  5.20000000E+01  0.00000000E+00
  3.60000000E+02  5.00000000E+01  0.00000000E+00
  3.60000000E+02  4.80000000E+01  0.00000000E+00
  3.60000000E+02  4.60000000E+01  0.00000000E+00
  3.60000000E+02  4.40000000E+01  0.00000000E+00
  3.60000000E+02  4.20000000E+01  0.00000000E+00
  3.60000000E+02  4.00000000E+01  0.00000000E+00
  3.60000000E+02  3.80000000E+01  0.00000000E+00
  3.60000000E+02  3.60000000E+01  0.00000000E+00
  3.60000000E+02  3.40000000E+01  0.00000000E+00
  3.60000000E+02  3.20000000E+01  0.00000000E+00
  3.60000000E+02  3.00000000E+01  0.00000000E+00
  3.60000000E+02  2.80000000E+01  0.00000000E+00
  3.60000000E+02  2.60000000E+01  0.00000000E+00
  3.60000000E+02  2.40000000E+01  0.00000000E+00
  3.60000000E+02  2.20000000E+01  0.00000000E+00
  3.60000000E+02  2.00000000E+01  0.00000000E+00
  3.60000000E+02  1.80000000E+01  0.00000000E+00
  3.60000000E+02  1.60000000E+01  0.00000000E+00
  3.60000000E+02  1.40000000E+01  0.00000000E+00
  3.60000000E+02  1.20000000E+01  0.00000000E+00
  3.60000000E+02  1.00000000E+01  0.00000000E+00
  3.60000000E+02  8.00000000E+00  0.00000000E+00
  3.60000000E+02  6.00000000E+00  0.00000000E+00
  3.60000000E+02  4.00000000E+00  0.00000000E+00
  3.60000000E+02  2.00000000E+00  0.00000000E+00
  3.60000000E+02 -3.33066907E-14  0.00000000E+00
  3.70000000E+02  1.00000000E+02  0.00000000E+00
  3.70000000E+02  9.80000000E+01  0.00000000E+00
  3.70000000E+02  9.60000000E+01  0.00000000E+00
  3.70000000E+02  9.40000000E+01  0.00000000E+00
  3.70000000E+02  9.20000000E+01  0.00000000E+00
  3.70000000E+02  9.00000000E+01  0.00000000E+00
  3.70000000E+02  8.80000000E+01  0.00000000E+00
  3.70000000E+02  8.60000000E+01  0.00000000E+00
  3.70000000E+02  8.40000000E+01  0.00000000E+00
  3.70000000E+02  8.20000000E+01  0.00000000E+00
  3.70000000E+02  8.00000000E+01  0.00000000E+00
  3.70000000E+02  7.80000000E+01  0.00000000E+00
  3.70000000E+02  7.60000000E+01  0.00000000E+00
  3.70000000E+02  7.40000000E+01  0.00000000E+00
  3.70000000E+02  7.20000000E+01  0.00000000E+00
  3.70000000E+02  7.00000000E+01  0.00000000E+00
  3.70000000E+02  6.80000000E+01  0.00000000E+00
  3.70000000E+02  6.60000000E+01  0.00000000E+00
  3.70000000E+02  6.40000000E+01  0.00000000E+00
  3.70000000E+02  6.20000000E+01  0.00000000E+00
  3.70000000E+02  6.00000000E+01  0.00000000E+00
  3.70000000E+02  5.80000000E+01  0.00000000E+00
  3.70000000E+02  5.60000000E+01  0.00000000E+00
  3.70000000E+02  5.40000000E+01  0.00000000E+00
  3.70000000E+02  5.20000000E+01  0.00000000E+00
  3.70000000E+02  5.00000000E+01  0.00000000E+00
  3.70000000E+02  4.80000000E+01  0.00000000E+00
  3.70000000E+02  4.60000000E+01  0.00000000E+00
  3.70000000E+02  4.40000000E+01  0.00000000E+00
  3.70000000E+02  4.20000000E+01  0.00000000E+00
  3.70000000E+02  4.00000000E+01  0.00000000E+00
  3.70000000E+02  3.80000000E+01  0.00000000E+00
  3.70000000E+02  3.60000000E+01  0.00000000E+00
  3.70000000E+02  3.40000000E+01  0.00000000E+00
  3.70000000E+02  3.20000000E+01  0.00000000E+00
  3.70000000E+02  3.00000000E+01  0.00000000E+00
  3.70000000E+02  2.80000000E+01  0.00000000E+00
  3.70000000E+02  2.60000000E+01  0.00000000E+00
  3.70000000E+02  2.40000000E+01  0.00000000E+00
  3.70000000E+02  2.20000000E+01  0.00000000E+00
  3.70000000E+02  2.00000000E+01  0.00000000E+00
  3.70000000E+02  1.80000000E+01  0.00000000E+00
  3.70000000E+02  1.60000000E+01  0.00000000E+00
  3.70000000E+02  1.40000000E+01  0.00000000E+00
  3.70000000E+02  1.20000000E+01  0.00000000E+00
  3.70000000E+02  1.00000000E+01  0.00000000E+00
  3.70000000E+02  8.00000000E+00  0.00000000E+00
  3.70000000E+02  6.00000000E+00  0.00000000E+00
  3.70000000E+02  4.00000000E+00  0.00000000E+00
  3.70000000E+02  2.00000000E+00  0.00000000E+00
  3.70000000E+02 -3.33066907E-14  0.00000000E+00
  3.80000000E+02  1.00000000E+02  0.00000000E+00
  3.80000000E+02  9.80000000E+01  0.00000000E+00
  3.80000000E+02  9.60000000E+01  0.00000000E+00
  3.80000000E+02  9.40000000E+01  0.00000000E+00
  3.80000000E+02  9.20000000E+01  0.00000000E+00
  3.80000000E+02  9.00000000E+01  0.00000000E+00
  3.80000000E+02  8.80000000E+01  0.00000000E+00
  3.80000000E+02  8.60000000E+01  0.00000000E+00
  3.80000000E+02  8.40000000E+01  0.00000000E+00
  3.80000000E+02  8.20000000E+01  0.00000000E+00
  3.80000000E+02  8.00000000E+01  0.00000000E+00
  3.80000000E+02  7.80000000E+01  0.00000000E+00
  3.80000000E+02  7.60000000E+01  0.00000000E+00
  3.80000000E+02  7.40000000E+01  0.00000000E+00
  3.80000000E+02  7.20000000E+01  0.00000000E+00
  3.80000000E+02  7.00000000E+01  0.00000000E+00
  3.80000000E+02  6.80000000E+01  0.00000000E+00
  3.80000000E+02  6.60000000E+01  0.00000000E+00
  3.80000000E+02  6.40000000E+01  0.00000000E+00
  3.80000000E+02  6.20000000E+01  0.00000000E+00
  3.80000000E+02  6.00000000E+01  0.00000000E+00
  3.80000000E+02  5.80000000E+01  0.00000000E+00
  3.80000000E+02  5.60000000E+01  0.00000000E+00
  3.80000000E+02  5.40000000E+01  0.00000000E+00
  3.80000000E+02  5.20000000E+01  0.00000000E+00
  3.80000000E+02  5.00000000E+01  0.00000000E+00
  3.80000000E+02  4.80000000E+01  0.00000000E+00
  3.80000000E+02  4.60000000E+01  0.00000000E+00
  3.80000000E+02  4.40000000E+01  0.00000000E+00
  3.80000000E+02  4.20000000E+01  0.00000000E+00
  3.80000000E+02  4.00000000E+01  0.00000000E+00
  3.80000000E+02  3.80000000E+01  0.00000000E+00
  3.80000000E+02  3.60000000E+01  0.00000000E+00
  3.80000000E+02  3.40000000E+01  0.00000000E+00
  3.80000000E+02  3.20000000E+01  0.00000000E+00
  3.80000000E+02  3.00000000E+01  0.00000000E+00
  3.80000000E+02  2.80000000E+01  0.00000000E+00
  3.80000000E+02  2.60000000E+01  0.00000000E+00
  3.80000000E+02  2.40000000E+01  0.00000000E+00
  3.80000000E+02  2.20000000E+01  0.00000000E+00
  3.80000000E+02  2.00000000E+01  0.00000000E+00
  3.80000000E+02  1.80000000E+01  0.00000000E+00
  3.80000000E+02  1.60000000E+01  0.00000000E+00
  3.80000000E+02  1.40000000E+01  0.00000000E+00
  3.80000000E+02  1.20000000E+01  0.00000000E+00
  3.80000000E+02  1.00000000E+01  0.00000000E+00
  3.80000000E+02  8.00000000E+00  0.00000000E+00
  3.80000000E+02  6.00000000E+00  0.00000000E+00
  3.80000000E+02  4.00000000E+00  0.00000000E+00
  3.80000000E+02  2.00000000E+00  0.00000000E+00
  3.80000000E+02 -3.33066907E-14  0.00000000E+00
  3.90000000E+02  1.00000000E+02  0.00000000E+00
  3.90000000E+02  9.80000000E+01  0.00000000E+00
  3.90000000E+02  9.60000000E+01  0.00000000E+00
  3.90000000E+02  9.40000000E+01  0.00000000E+00
  3.90000000E+02  9.20000000E+01  0.00000000E+00
  3.90000000E+02  9.00000000E+01  0.00000000E+00
  3.90000000E+02  8.80000000E+01  0.00000000E+00
  3.90000000E+02  8.60000000E+01  0.00000000E+00
  3.90000000E+02  8.40000000E+01  0.00000000E+00
  3.90000000E+02  8.20000000E+01  0.00000000E+00
  3.90000000E+02  8.00000000E+01  0.00000000E+00
  3.90000000E+02  7.80000000E+01  0.00000000E+00
  3.90000000E+02  7.60000000E+01  0.00000000E+00
  3.90000000E+02  7.40000000E+01  0.00000000E+00
  3.90000000E+02  7.20000000E+01  0.00000000E+00
  3.90000000E+02  7.00000000E+01  0.00000000E+00
  3.90000000E+02  6.80000000E+01  0.00000000E+00
  3.90000000E+02  6.60000000E+01  0.00000000E+00
  3.90000000E+02  6.40000000E+01  0.00000000E+00
  3.90000000E+02  6.20000000E+01  0.00000000E+00
  3.90000000E+02  6.00000000E+01  0.00000000E+00
  3.90000000E+02  5.80000000E+01  0.00000000E+00
  3.90000000E+02  5.60000000E+01  0.00000000E+00
  3.90000000E+02  5.40000000E+01  0.00000000E+00
  3.90000000E+02  5.20000000E+01  0.00000000E+00
  3.90000000E+02  5.00000000E+01  0.00000000E+00
  3.90000000E+02  4.80000000E+01  0.00000000E+00
  3.90000000E+02  4.60000000E+01  0.00000000E+00
  3.90000000E+02  4.40000000E+01  0.00000000E+00
  3.90000000E+02  4.20000000E+01  0.00000000E+00
  3.90000000E+02  4.00000000E+01  0.00000000E+00
  3.90000000E+02  3.80000000E+01  0.00000000E+00
  3.90000000E+02  3.60000000E+01  0.00000000E+00
  3.90000000E+02  3.40000000E+01  0.00000000E+00
  3.90000000E+02  3.20000000E+01  0.00000000E+00
  3.90000000E+02  3.00000000E+01  0.00000000E+00
  3.90000000E+02  2.80000000E+01  0.00000000E+00
  3.90000000E+02  2.60000000E+01  0.00000000E+00
  3.90000000E+02  2.40000000E+01  0.00000000E+00
  3.90000000E+02  2.20000000E+01  0.00000000E+00
  3.90000000E+02  2.00000000E+01  0.00000000E+00
  3.90000000E+02  1.80000000E+01  0.00000000E+00
  3.90000000E+02  1.60000000E+01  0.00000000E+00
  3.90000000E+02  1.40000000E+01  0.00000000E+00
  3.90000000E+02  1.20000000E+01  0.00000000E+00
  3.90000000E+02  1.00000000E+01  0.00000000E+00
  3.90000000E+02  8.00000000E+00  0.00000000E+00
  3.90000000E+02  6.00000000E+00  0.00000000E+00
  3.90000000E+02  4.00000000E+00  0.00000000E+00
  3.90000000E+02  2.00000000E+00  0.00000000E+00
  3.90000000E+02 -3.33066907E-14  0.00000000E+00
  4.00000000E+02  1.00000000E+02  0.00000000E+00
  4.00000000E+02  9.80000000E+01  0.00000000E+00
  4.00000000E+02  9.60000000E+01  0.00000000E+00
  4.00000000E+02  9.40000000E+01  0.00000000E+00
  4.00000000E+02  9.20000000E+01  0.00000000E+00
  4.00000000E+02  9.00000000E+01  0.00000000E+00
  4.00000000E+02  8.80000000E+01  0.00000000E+00
  4.00000000E+02  8.60000000E+01  0.00000000E+00
  4.00000000E+02  8.40000000E+01  0.00000000E+00
  4.00000000E+02  8.20000000E+01  0.00000000E+00
  4.00000000E+02  8.00000000E+01  0.00000000E+00
  4.00000000E+02  7.80000000E+01  0.00000000E+00
  4.00000000E+02  7.60000000E+01  0.00000000E+00
  4.00000000E+02  7.40000000E+01  0.00000000E+00
  4.00000000E+02  7.20000000E+01  0.00000000E+00
  4.00000000E+02  7.00000000E+01  0.00000000E+00
  4.00000000E+02  6.80000000E+01  0.00000000E+00
  4.00000000E+02  6.60000000E+01  0.00000000E+00
  4.00000000E+02  6.40000000E+01  0.00000000E+00
  4.00000000E+02  6.20000000E+01  0.00000000E+00
  4.00000000E+02  6.00000000E+01  0.00000000E+00
  4.00000000E+02  5.80000000E+01  0.00000000E+00
  4.00000000E+02  5.60000000E+01  0.00000000E+00
  4.00000000E+02  5.40000000E+01  0.00000000E+00
  4.00000000E+02  5.20000000E+01  0.00000000E+00
  4.00000000E+02  5.00000000E+01  0.00000000E+00
  4.00000000E+02  4.80000000E+01  0.00000000E+00
  4.00000000E+02  4.60000000E+01  0.00000000E+00
  4.00000000E+02  4.40000000E+01  0.00000000E+00
  4.00000000E+02  4.20000000E+01  0.00000000E+00
  4.00000000E+02  4.00000000E+01  0.00000000E+00
  4.00000000E+02  3.80000000E+01  0.00000000E+00
  4.00000000E+02  3.60000000E+01  0.00000000E+00
  4.00000000E+02  3.40000000E+01  0.00000000E+00
  4.00000000E+02  3.20000000E+01  0.00000000E+00
  4.00000000E+02  3.00000000E+01  0.00000000E+00
  4.00000000E+02  2.80000000E+01  0.00000000E+00
  4.00000000E+02  2.60000000E+01  0.00000000E+00
  4.00000000E+02  2.40000000E+01  0.00000000E+00
  4.00000000E+02  2.20000000E+01  0.00000000E+00
  4.00000000E+02  2.00000000E+01  0.00000000E+00
  4.00000000E+02  1.80000000E+01  0.00000000E+00
  4.00000000E+02  1.60000000E+01  0.00000000E+00
  4.00000000E+02  1.40000000E+01  0.00000000E+00
  4.00000000E+02  1.20000000E+01  0.00000000E+00
  4.00000000E+02  1.00000000E+01  0.00000000E+00
  4.00000000E+02  8.00000000E+00  0.00000000E+00
  4.00000000E+02  6.00000000E+00  0.00000000E+00
  4.00000000E+02  4.00000000E+00  0.00000000E+00
  4.00000000E+02  2.00000000E+00  0.00000000E+00
  4.00000000E+02 -3.33066907E-14  0.00000000E+00
  4.10000000E+02  1.00000000E+02  0.00000000E+00
  4.10000000E+02  9.80000000E+01  0.00000000E+00
  4.10000000E+02  9.60000000E+01  0.00000000E+00
  4.10000000E+02  9.40000000E+01  0.00000000E+00
  4.10000000E+02  9.20000000E+01  0.00000000E+00
  4.10000000E+02  9.00000000E+01  0.00000000E+00
  4.10000000E+02  8.80000000E+01  0.00000000E+00
  4.10000000E+02  8.60000000E+01  0.00000000E+00
  4.10000000E+02  8.40000000E+01  0.00000000E+00
  4.10000000E+02  8.20000000E+01  0.00000000E+00
  4.10000000E+02  8.00000000E+01  0.00000000E+00
  4.10000000E+02  7.80000000E+01  0.00000000E+00
  4.10000000E+02  7.60000000E+01  0.00000000E+00
  4.10000000E+02  7.40000000E+01  0.00000000E+00
  4.10000000E+02  7.20000000E+01  0.00000000E+00
  4.10000000E+02  7.00000000E+01  0.00000000E+00
  4.10000000E+02  6.80000000E+01  0.00000000E+00
  4.10000000E+02  6.60000000E+01  0.00000000E+00
  4.10000000E+02  6.40000000E+01  0.00000000E+00
  4.10000000E+02  6.20000000E+01  0.00000000E+00
  4.10000000E+02  6.00000000E+01  0.00000000E+00
  4.10000000E+02  5.80000000E+01  0.00000000E+00
  4.10000000E+02  5.60000000E+01  0.00000000E+00
  4.10000000E+02  5.40000000E+01  0.00000000E+00
  4.10000000E+02  5.20000000E+01  0.00000000E+00
  4.10000000E+02  5.00000000E+01  0.00000000E+00
  4.10000000E+02  4.80000000E+01  0.00000000E+00
  4.10000000E+02  4.60000000E+01  0.00000000E+00
  4.10000000E+02  4.40000000E+01  0.00000000E+00
  4.10000000E+02  4.20000000E+01  0.00000000E+00
  4.10000000E+02  4.00000000E+01  0.00000000E+00
  4.10000000E+02  3.80000000E+01  0.00000000E+00
  4.10000000E+02  3.60000000E+01  0.00000000E+00
  4.10000000E+02  3.40000000E+01  0.00000000E+00
  4.10000000E+02  3.20000000E+01  0.00000000E+00
  4.10000000E+02  3.00000000E+01  0.00000000E+00
  4.10000000E+02  2.80000000E+01  0.00000000E+00
  4.10000000E+02  2.60000000E+01  0.00000000E+00
  4.10000000E+02  2.40000000E+01  0.00000000E+00
  4.10000000E+02  2.20000000E+01  0.00000000E+00
  4.10000000E+02  2.00000000E+01  0.00000000E+00
  4.10000000E+02  1.80000000E+01  0.00000000E+00
  4.10000000E+02  1.60000000E+01  0.00000000E+00
  4.10000000E+02  1.40000000E+01  0.00000000E+00
  4.10000000E+02  1.20000000E+01  0.00000000E+00
  4.10000000E+02  1.00000000E+01  0.00000000E+00
  4.10000000E+02  8.00000000E+00  0.00000000E+00
  4.10000000E+02  6.00000000E+00  0.00000000E+00
  4.10000000E+02  4.00000000E+00  0.00000000E+00
  4.10000000E+02  2.00000000E+00  0.00000000E+00
  4.10000000E+02 -3.33066907E-14  0.00000000E+00
  4.20000000E+02  1.00000000E+02  0.00000000E+00
  4.20000000E+02  9.80000000E+01  0.00000000E+00
  4.20000000E+02  9.60000000E+01  0.00000000E+00
  4.20000000E+02  9.40000000E+01  0.00000000E+00
  4.20000000E+02  9.20000000E+01  0.00000000E+00
  4.20000000E+02  9.00000000E+01  0.00000000E+00
  4.20000000E+02  8.80000000E+01  0.00000000E+00
  4.20000000E+02  8.60000000E+01  0.00000000E+00
  4.20000000E+02  8.40000000E+01  0.00000000E+00
  4.20000000E+02  8.20000000E+01  0.00000000E+00
  4.20000000E+02  8.00000000E+01  0.00000000E+00
  4.20000000E+02  7.80000000E+01  0.00000000E+00
  4.20000000E+02  7.60000000E+01  0.00000000E+00
  4.20000000E+02  7.40000000E+01  0.00000000E+00
  4.20000000E+02  7.20000000E+01  0.00000000E+00
  4.20000000E+02  7.00000000E+01  0.00000000E+00
  4.20000000E+02  6.80000000E+01  0.00000000E+00
  4.20000000E+02  6.60000000E+01  0.00000000E+00
  4.20000000E+02  6.40000000E+01  0.00000000E+00
  4.20000000E+02  6.20000000E+01  0.00000000E+00
  4.20000000E+02  6.00000000E+01  0.00000000E+00
  4.20000000E+02  5.80000000E+01  0.00000000E+00
  4.20000000E+02  5.60000000E+01  0.00000000E+00
  4.20000000E+02  5.40000000E+01  0.00000000E+00
  4.20000000E+02  5.20000000E+01  0.00000000E+00
  4.20000000E+02  5.00000000E+01  0.00000000E+00
  4.20000000E+02  4.80000000E+01  0.00000000E+00
  4.20000000E+02  4.60000000E+01  0.00000000E+00
  4.20000000E+02  4.40000000E+01  0.00000000E+00
  4.20000000E+02  4.20000000E+01  0.00000000E+00
  4.20000000E+02  4.00000000E+01  0.00000000E+00
  4.20000000E+02  3.80000000E+01  0.00000000E+00
  4.20000000E+02  3.60000000E+01  0.00000000E+00
  4.20000000E+02  3.40000000E+01  0.00000000E+00
  4.20000000E+02  3.20000000E+01  0.00000000E+00
  4.20000000E+02  3.00000000E+01  0.00000000E+00
  4.20000000E+02  2.80000000E+01  0.00000000E+00
  4.20000000E+02  2.60000000E+01  0.00000000E+00
  4.20000000E+02  2.40000000E+01  0.00000000E+00
  4.20000000E+02  2.20000000E+01  0.00000000E+00
  4.20000000E+02  2.00000000E+01  0.00000000E+00
  4.20000000E+02  1.80000000E+01  0.00000000E+00
  4.20000000E+02  1.60000000E+01  0.00000000E+00
  4.20000000E+02  1.40000000E+01  0.00000000E+00
  4.20000000E+02  1.20000000E+01  0.00000000E+00
  4.20000000E+02  1.00000000E+01  0.00000000E+00
  4.20000000E+02  8.00000000E+00  0.00000000E+00
  4.20000000E+02  6.00000000E+00  0.00000000E+00
  4.20000000E+02  4.00000000E+00  0.00000000E+00
  4.20000000E+02  2.00000000E+00  0.00000000E+00
  4.20000000E+02 -3.33066907E-14  0.00000000E+00
  4.30000000E+02  1.00000000E+02  0.00000000E+00
  4.30000000E+02  9.80000000E+01  0.00000000E+00
  4.30000000E+02  9.60000000E+01  0.00000000E+00
  4.30000000E+02  9.40000000E+01  0.00000000E+00
  4.30000000E+02  9.20000000E+01  0.00000000E+00
  4.30000000E+02  9.00000000E+01  0.00000000E+00
  4.30000000E+02  8.80000000E+01  0.00000000E+00
  4.30000000E+02  8.60000000E+01  0.00000000E+00
  4.30000000E+02  8.40000000E+01  0.00000000E+00
  4.30000000E+02  8.20000000E+01  0.00000000E+00
  4.30000000E+02  8.00000000E+01  0.00000000E+00
  4.30000000E+02  7.80000000E+01  0.00000000E+00
  4.30000000E+02  7.60000000E+01  0.00000000E+00
  4.30000000E+02  7.40000000E+01  0.00000000E+00
  4.30000000E+02  7.20000000E+01  0.00000000E+00
  4.30000000E+02  7.00000000E+01  0.00000000E+00
  4.30000000E+02  6.80000000E+01  0.00000000E+00
  4.30000000E+02  6.60000000E+01  0.00000000E+00
  4.30000000E+02  6.40000000E+01  0.00000000E+00
  4.30000000E+02  6.20000000E+01  0.00000000E+00
  4.30000000E+02  6.00000000E+01  0.00000000E+00
  4.30000000E+02  5.80000000E+01  0.00000000E+00
  4.30000000E+02  5.60000000E+01  0.00000000E+00
  4.30000000E+02  5.40000000E+01  0.00000000E+00
  4.30000000E+02  5.20000000E+01  0.00000000E+00
  4.30000000E+02  5.00000000E+01  0.00000000E+00
  4.30000000E+02  4.80000000E+01  0.00000000E+00
  4.30000000E+02  4.60000000E+01  0.00000000E+00
  4.30000000E+02  4.40000000E+01  0.00000000E+00
  4.30000000E+02  4.20000000E+01  0.00000000E+00
  4.30000000E+02  4.00000000E+01  0.00000000E+00
  4.30000000E+02  3.80000000E+01  0.00000000E+00
  4.30000000E+02  3.60000000E+01  0.00000000E+00
  4.30000000E+02  3.40000000E+01  0.00000000E+00
  4.30000000E+02  3.20000000E+01  0.00000000E+00
  4.30000000E+02  3.00000000E+01  0.00000000E+00
  4.30000000E+02  2.80000000E+01  0.00000000E+00
  4.30000000E+02  2.60000000E+01  0.00000000E+00
  4.30000000E+02  2.40000000E+01  0.00000000E+00
  4.30000000E+02  2.20000000E+01  0.00000000E+00
  4.30000000E+02  2.00000000E+01  0.00000000E+00
  4.30000000E+02  1.80000000E+01  0.00000000E+00
  4.30000000E+02  1.60000000E+01  0.00000000E+00
  4.30000000E+02  1.40000000E+01  0.00000000E+00
  4.30000000E+02  1.20000000E+01  0.00000000E+00
  4.30000000E+02  1.00000000E+01  0.00000000E+00
  4.30000000E+02  8.00000000E+00  0.00000000E+00
  4.30000000E+02  6.00000000E+00  0.00000000E+00
  4.30000000E+02  4.00000000E+00  0.00000000E+00
  4.30000000E+02  2.00000000E+00  0.00000000E+00
  4.30000000E+02 -3.33066907E-14  0.00000000E+00
  4.40000000E+02  1.00000000E+02  0.00000000E+00
  4.40000000E+02  9.80000000E+01  0.00000000E+00
  4.40000000E+02  9.60000000E+01  0.00000000E+00
  4.40000000E+02  9.40000000E+01  0.00000000E+00
  4.40000000E+02  9.20000000E+01  0.00000000E+00
  4.40000000E+02  9.00000000E+01  0.00000000E+00
  4.40000000E+02  8.80000000E+01  0.00000000E+00
  4.40000000E+02  8.60000000E+01  0.00000000E+00
  4.40000000E+02  8.40000000E+01  0.00000000E+00
  4.40000000E+02  8.20000000E+01  0.00000000E+00
  4.40000000E+02  8.00000000E+01  0.00000000E+00
  4.40000000E+02  7.80000000E+01  0.00000000E+00
  4.40000000E+02  7.60000000E+01  0.00000000E+00
  4.40000000E+02  7.40000000E+01  0.00000000E+00
  4.40000000E+02  7.20000000E+01  0.00000000E+00
  4.40000000E+02  7.00000000E+01  0.00000000E+00
  4.40000000E+02  6.80000000E+01  0.00000000E+00
  4.40000000E+02  6.60000000E+01  0.00000000E+00
  4.40000000E+02  6.40000000E+01  0.00000000E+00
  4.40000000E+02  6.20000000E+01  0.00000000E+00
  4.40000000E+02  6.00000000E+01  0.00000000E+00
  4.40000000E+02  5.80000000E+01  0.00000000E+00
  4.40000000E+02  5.60000000E+01  0.00000000E+00
  4.40000000E+02  5.40000000E+01  0.00000000E+00
  4.40000000E+02  5.20000000E+01  0.00000000E+00
  4.40000000E+02  5.00000000E+01  0.00000000E+00
  4.40000000E+02  4.80000000E+01  0.00000000E+00
  4.40000000E+02  4.60000000E+01  0.00000000E+00
  4.40000000E+02  4.40000000E+01  0.00000000E+00
  4.40000000E+02  4.20000000E+01  0.00000000E+00
  4.40000000E+02  4.00000000E+01  0.00000000E+00
  4.40000000E+02  3.80000000E+01  0.00000000E+00
  4.40000000E+02  3.60000000E+01  0.00000000E+00
  4.40000000E+02  3.40000000E+01  0.00000000E+00
  4.40000000E+02  3.20000000E+01  0.00000000E+00
  4.40000000E+02  3.00000000E+01  0.00000000E+00
  4.40000000E+02  2.80000000E+01  0.00000000E+00
  4.40000000E+02  2.60000000E+01  0.00000000E+00
  4.40000000E+02  2.40000000E+01  0.00000000E+00
  4.40000000E+02  2.20000000E+01  0.00000000E+00
  4.40000000E+02  2.00000000E+01  0.00000000E+00
  4.40000000E+02  1.80000000E+01  0.00000000E+00
  4.40000000E+02  1.60000000E+01  0.00000000E+00
  4.40000000E+02  1.40000000E+01  0.00000000E+00
  4.40000000E+02  1.20000000E+01  0.00000000E+00
  4.40000000E+02  1.00000000E+01  0.00000000E+00
  4.40000000E+02  8.00000000E+00  0.00000000E+00
  4.40000000E+02  6.00000000E+00  0.00000000E+00
  4.40000000E+02  4.00000000E+00  0.00000000E+00
  4.40000000E+02  2.00000000E+00  0.00000000E+00
  4.40000000E+02 -3.33066907E-14  0.00000000E+00
  4.50000000E+02  1.00000000E+02  0.00000000E+00
  4.50000000E+02  9.80000000E+01  0.00000000E+00
  4.50000000E+02  9.60000000E+01  0.00000000E+00
  4.50000000E+02  9.40000000E+01  0.00000000E+00
  4.50000000E+02  9.20000000E+01  0.00000000E+00
  4.50000000E+02  9.00000000E+01  0.00000000E+00
  4.50000000E+02  8.80000000E+01  0.00000000E+00
  4.50000000E+02  8.60000000E+01  0.00000000E+00
  4.50000000E+02  8.40000000E+01  0.00000000E+00
  4.50000000E+02  8.20000000E+01  0.00000000E+00
  4.50000000E+02  8.00000000E+01  0.00000000E+00
  4.50000000E+02  7.80000000E+01  0.00000000E+00
  4.50000000E+02  7.60000000E+01  0.00000000E+00
  4.50000000E+02  7.40000000E+01  0.00000000E+00
  4.50000000E+02  7.20000000E+01  0.00000000E+00
  4.50000000E+02  7.00000000E+01  0.00000000E+00
  4.50000000E+02  6.80000000E+01  0.00000000E+00
  4.50000000E+02  6.60000000E+01  0.00000000E+00
  4.50000000E+02  6.40000000E+01  0.00000000E+00
  4.50000000E+02  6.20000000E+01  0.00000000E+00
  4.50000000E+02  6.00000000E+01  0.00000000E+00
  4.50000000E+02  5.80000000E+01  0.00000000E+00
  4.50000000E+02  5.60000000E+01  0.00000000E+00
  4.50000000E+02  5.40000000E+01  0.00000000E+00
  4.50000000E+02  5.20000000E+01  0.00000000E+00
  4.50000000E+02  5.00000000E+01  0.00000000E+00
  4.50000000E+02  4.80000000E+01  0.00000000E+00
  4.50000000E+02  4.60000000E+01  0.00000000E+00
  4.50000000E+02  4.40000000E+01  0.00000000E+00
  4.50000000E+02  4.20000000E+01  0.00000000E+00
  4.50000000E+02  4.00000000E+01  0.00000000E+00
  4.50000000E+02  3.80000000E+01  0.00000000E+00
  4.50000000E+02  3.60000000E+01  0.00000000E+00
  4.50000000E+02  3.40000000E+01  0.00000000E+00
  4.50000000E+02  3.20000000E+01  0.00000000E+00
  4.50000000E+02  3.00000000E+01  0.00000000E+00
  4.50000000E+02  2.80000000E+01  0.00000000E+00
  4.50000000E+02  2.60000000E+01  0.00000000E+00
  4.50000000E+02  2.40000000E+01  0.00000000E+00
  4.50000000E+02  2.20000000E+01  0.00000000E+00
  4.50000000E+02  2.00000000E+01  0.00000000E+00
  4.50000000E+02  1.80000000E+01  0.00000000E+00
  4.50000000E+02  1.60000000E+01  0.00000000E+00
  4.50000000E+02  1.40000000E+01  0.00000000E+00
  4.50000000E+02  1.20000000E+01  0.00000000E+00
  4.50000000E+02  1.00000000E+01  0.00000000E+00
  4.50000000E+02  8.00000000E+00  0.00000000E+00
  4.50000000E+02  6.00000000E+00  0.00000000E+00
  4.50000000E+02  4.00000000E+00  0.00000000E+00
  4.50000000E+02  2.00000000E+00  0.00000000E+00
  4.50000000E+02 -3.33066907E-14  0.00000000E+00
  4.60000000E+02  1.00000000E+02  0.00000000E+00
  4.60000000E+02  9.80000000E+01  0.00000000E+00
  4.60000000E+02  9.60000000E+01  0.00000000E+00
  4.60000000E+02  9.40000000E+01  0.00000000E+00
  4.60000000E+02  9.20000000E+01  0.00000000E+00
  4.60000000E+02  9.00000000E+01  0.00000000E+00
  4.60000000E+02  8.80000000E+01  0.00000000E+00
  4.60000000E+02  8.60000000E+01  0.00000000E+00
  4.60000000E+02  8.40000000E+01  0.00000000E+00
  4.60000000E+02  8.20000000E+01  0.00000000E+00
  4.60000000E+02  8.00000000E+01  0.00000000E+00
  4.60000000E+02  7.80000000E+01  0.00000000E+00
  4.60000000E+02  7.60000000E+01  0.00000000E+00
  4.60000000E+02  7.40000000E+01  0.00000000E+00
  4.60000000E+02  7.20000000E+01  0.00000000E+00
  4.60000000E+02  7.00000000E+01  0.00000000E+00
  4.60000000E+02  6.80000000E+01  0.00000000E+00
  4.60000000E+02  6.60000000E+01  0.00000000E+00
  4.60000000E+02  6.40000000E+01  0.00000000E+00
  4.60000000E+02  6.20000000E+01  0.00000000E+00
  4.60000000E+02  6.00000000E+01  0.00000000E+00
  4.60000000E+02  5.80000000E+01  0.00000000E+00
  4.60000000E+02  5.60000000E+01  0.00000000E+00
  4.60000000E+02  5.40000000E+01  0.00000000E+00
  4.60000000E+02  5.20000000E+01  0.00000000E+00
  4.60000000E+02  5.00000000E+01  0.00000000E+00
  4.60000000E+02  4.80000000E+01  0.00000000E+00
  4.60000000E+02  4.60000000E+01  0.00000000E+00
  4.60000000E+02  4.40000000E+01  0.00000000E+00
  4.60000000E+02  4.20000000E+01  0.00000000E+00
  4.60000000E+02  4.00000000E+01  0.00000000E+00
  4.60000000E+02  3.80000000E+01  0.00000000E+00
  4.60000000E+02  3.60000000E+01  0.00000000E+00
  4.60000000E+02  3.40000000E+01  0.00000000E+00
  4.60000000E+02  3.20000000E+01  0.00000000E+00
  4.60000000E+02  3.00000000E+01  0.00000000E+00
  4.60000000E+02  2.80000000E+01  0.00000000E+00
  4.60000000E+02  2.60000000E+01  0.00000000E+00
  4.60000000E+02  2.40000000E+01  0.00000000E+00
  4.60000000E+02  2.20000000E+01  0.00000000E+00
  4.60000000E+02  2.00000000E+01  0.00000000E+00
  4.60000000E+02  1.80000000E+01  0.00000000E+00
  4.60000000E+02  1.60000000E+01  0.00000000E+00
  4.60000000E+02  1.40000000E+01  0.00000000E+00
  4.60000000E+02  1.20000000E+01  0.00000000E+00
  4.60000000E+02  1.00000000E+01  0.00000000E+00
  4.60000000E+02  8.00000000E+00  0.00000000E+00
  4.60000000E+02  6.00000000E+00  0.00000000E+00
  4.60000000E+02  4.00000000E+00  0.00000000E+00
  4.60000000E+02  2.00000000E+00  0.00000000E+00
  4.60000000E+02 -3.33066907E-14  0.00000000E+00
  4.70000000E+02  1.00000000E+02  0.00000000E+00
  4.70000000E+02  9.80000000E+01  0.00000000E+00
  4.70000000E+02  9.60000000E+01  0.00000000E+00
  4.70000000E+02  9.40000000E+01  0.00000000E+00
  4.70000000E+02  9.20000000E+01  0.00000000E+00
  4.70000000E+02  9.00000000E+01  0.00000000E+00
  4.70000000E+02  8.80000000E+01  0.00000000E+00
  4.70000000E+02  8.60000000E+01  0.00000000E+00
  4.70000000E+02  8.40000000E+01  0.00000000E+00
  4.70000000E+02  8.20000000E+01  0.00000000E+00
  4.70000000E+02  8.00000000E+01  0.00000000E+00
  4.70000000E+02  7.80000000E+01  0.00000000E+00
  4.70000000E+02  7.60000000E+01  0.00000000E+00
  4.70000000E+02  7.40000000E+01  0.00000000E+00
  4.70000000E+02  7.20000000E+01  0.00000000E+00
  4.70000000E+02  7.00000000E+01  0.00000000E+00
  4.70000000E+02  6.80000000E+01  0.00000000E+00
  4.70000000E+02  6.60000000E+01  0.00000000E+00
  4.70000000E+02  6.40000000E+01  0.00000000E+00
  4.70000000E+02  6.20000000E+01  0.00000000E+00
  4.70000000E+02  6.00000000E+01  0.00000000E+00
  4.70000000E+02  5.80000000E+01  0.00000000E+00
  4.70000000E+02  5.60000000E+01  0.00000000E+00
  4.70000000E+02  5.40000000E+01  0.00000000E+00
  4.70000000E+02  5.20000000E+01  0.00000000E+00
  4.70000000E+02  5.00000000E+01  0.00000000E+00
  4.70000000E+02  4.80000000E+01  0.00000000E+00
  4.70000000E+02  4.60000000E+01  0.00000000E+00
  4.70000000E+02  4.40000000E+01  0.00000000E+00
  4.70000000E+02  4.20000000E+01  0.00000000E+00
  4.70000000E+02  4.00000000E+01  0.00000000E+00
  4.70000000E+02  3.80000000E+01  0.00000000E+00
  4.70000000E+02  3.60000000E+01  0.00000000E+00
  4.70000000E+02  3.40000000E+01  0.00000000E+00
  4.70000000E+02  3.20000000E+01  0.00000000E+00
  4.70000000E+02  3.00000000E+01  0.00000000E+00
  4.70000000E+02  2.80000000E+01  0.00000000E+00
  4.70000000E+02  2.60000000E+01  0.00000000E+00
  4.70000000E+02  2.40000000E+01  0.00000000E+00
  4.70000000E+02  2.20000000E+01  0.00000000E+00
  4.70000000E+02  2.00000000E+01  0.00000000E+00
  4.70000000E+02  1.80000000E+01  0.00000000E+00
  4.70000000E+02  1.60000000E+01  0.00000000E+00
  4.70000000E+02  1.40000000E+01  0.00000000E+00
  4.70000000E+02  1.20000000E+01  0.00000000E+00
  4.70000000E+02  1.00000000E+01  0.00000000E+00
  4.70000000E+02  8.00000000E+00  0.00000000E+00
  4.70000000E+02  6.00000000E+00  0.00000000E+00
  4.70000000E+02  4.00000000E+00  0.00000000E+00
  4.70000000E+02  2.00000000E+00  0.00000000E+00
  4.70000000E+02 -3.33066907E-14  0.00000000E+00
  4.80000000E+02  1.00000000E+02  0.00000000E+00
  4.80000000E+02  9.80000000E+01  0.00000000E+00
  4.80000000E+02  9.60000000E+01  0.00000000E+00
  4.80000000E+02  9.40000000E+01  0.00000000E+00
  4.80000000E+02  9.20000000E+01  0.00000000E+00
  4.80000000E+02  9.00000000E+01  0.00000000E+00
  4.80000000E+02  8.80000000E+01  0.00000000E+00
  4.80000000E+02  8.60000000E+01  0.00000000E+00
  4.80000000E+02  8.40000000E+01  0.00000000E+00
  4.80000000E+02  8.20000000E+01  0.00000000E+00
  4.80000000E+02  8.00000000E+01  0.00000000E+00
  4.80000000E+02  7.80000000E+01  0.00000000E+00
  4.80000000E+02  7.60000000E+01  0.00000000E+00
  4.80000000E+02  7.40000000E+01  0.00000000E+00
  4.80000000E+02  7.20000000E+01  0.00000000E+00
  4.80000000E+02  7.00000000E+01  0.00000000E+00
  4.80000000E+02  6.80000000E+01  0.00000000E+00
  4.80000000E+02  6.60000000E+01  0.00000000E+00
  4.80000000E+02  6.40000000E+01  0.00000000E+00
  4.80000000E+02  6.20000000E+01  0.00000000E+00
  4.80000000E+02  6.00000000E+01  0.00000000E+00
  4.80000000E+02  5.80000000E+01  0.00000000E+00
  4.80000000E+02  5.60000000E+01  0.00000000E+00
  4.80000000E+02  5.40000000E+01  0.00000000E+00
  4.80000000E+02  5.20000000E+01  0.00000000E+00
  4.80000000E+02  5.00000000E+01  0.00000000E+00
  4.80000000E+02  4.80000000E+01  0.00000000E+00
  4.80000000E+02  4.60000000E+01  0.00000000E+00
  4.80000000E+02  4.40000000E+01  0.00000000E+00
  4.80000000E+02  4.20000000E+01  0.00000000E+00
  4.80000000E+02  4.00000000E+01  0.00000000E+00
  4.80000000E+02  3.80000000E+01  0.00000000E+00
  4.80000000E+02  3.60000000E+01  0.00000000E+00
  4.80000000E+02  3.40000000E+01  0.00000000E+00
  4.80000000E+02  3.20000000E+01  0.00000000E+00
  4.80000000E+02  3.00000000E+01  0.00000000E+00
  4.80000000E+02  2.80000000E+01  0.00000000E+00
  4.80000000E+02  2.60000000E+01  0.00000000E+00
  4.80000000E+02  2.40000000E+01  0.00000000E+00
  4.80000000E+02  2.20000000E+01  0.00000000E+00
  4.80000000E+02  2.00000000E+01  0.00000000E+00
  4.80000000E+02  1.80000000E+01  0.00000000E+00
  4.80000000E+02  1.60000000E+01  0.00000000E+00
  4.80000000E+02  1.40000000E+01  0.00000000E+00
  4.80000000E+02  1.20000000E+01  0.00000000E+00
  4.80000000E+02  1.00000000E+01  0.00000000E+00
  4.80000000E+02  8.00000000E+00  0.00000000E+00
  4.80000000E+02  6.00000000E+00  0.00000000E+00
  4.80000000E+02  4.00000000E+00  0.00000000E+00
  4.80000000E+02  2.00000000E+00  0.00000000E+00
  4.80000000E+02 -3.33066907E-14  0.00000000E+00
  4.90000000E+02  1.00000000E+02  0.00000000E+00
  4.90000000E+02  9.80000000E+01  0.00000000E+00
  4.90000000E+02  9.60000000E+01  0.00000000E+00
  4.90000000E+02  9.40000000E+01  0.00000000E+00
  4.90000000E+02  9.20000000E+01  0.00000000E+00
  4.90000000E+02  9.00000000E+01  0.00000000E+00
  4.90000000E+02  8.80000000E+01  0.00000000E+00
  4.90000000E+02  8.60000000E+01  0.00000000E+00
  4.90000000E+02  8.40000000E+01  0.00000000E+00
  4.90000000E+02  8.20000000E+01  0.00000000E+00
  4.90000000E+02  8.00000000E+01  0.00000000E+00
  4.90000000E+02  7.80000000E+01  0.00000000E+00
  4.90000000E+02  7.60000000E+01  0.00000000E+00
  4.90000000E+02  7.40000000E+01  0.00000000E+00
  4.90000000E+02  7.20000000E+01  0.00000000E+00
  4.90000000E+02  7.00000000E+01  0.00000000E+00
  4.90000000E+02  6.80000000E+01  0.00000000E+00
  4.90000000E+02  6.60000000E+01  0.00000000E+00
  4.90000000E+02  6.40000000E+01  0.00000000E+00
  4.90000000E+02  6.20000000E+01  0.00000000E+00
  4.90000000E+02  6.00000000E+01  0.00000000E+00
  4.90000000E+02  5.80000000E+01  0.00000000E+00
  4.90000000E+02  5.60000000E+01  0.00000000E+00
  4.90000000E+02  5.40000000E+01  0.00000000E+00
  4.90000000E+02  5.20000000E+01  0.00000000E+00
  4.90000000E+02  5.00000000E+01  0.00000000E+00
  4.90000000E+02  4.80000000E+01  0.00000000E+00
  4.90000000E+02  4.60000000E+01  0.00000000E+00
  4.90000000E+02  4.40000000E+01  0.00000000E+00
  4.90000000E+02  4.20000000E+01  0.00000000E+00
  4.90000000E+02  4.00000000E+01  0.00000000E+00
  4.90000000E+02  3.80000000E+01  0.00000000E+00
  4.90000000E+02  3.60000000E+01  0.00000000E+00
  4.90000000E+02  3.40000000E+01  0.00000000E+00
  4.90000000E+02  3.20000000E+01  0.00000000E+00
  4.90000000E+02  3.00000000E+01  0.00000000E+00
  4.90000000E+02  2.80000000E+01  0.00000000E+00
  4.90000000E+02  2.60000000E+01  0.00000000E+00
  4.90000000E+02  2.40000000E+01  0.00000000E+00
  4.90000000E+02  2.20000000E+01  0.00000000E+00
  4.90000000E+02  2.00000000E+01  0.00000000E+00
  4.90000000E+02  1.80000000E+01  0.00000000E+00
  4.90000000E+02  1.60000000E+01  0.00000000E+00
  4.90000000E+02  1.40000000E+01  0.00000000E+00
  4.90000000E+02  1.20000000E+01  0.00000000E+00
  4.90000000E+02  1.00000000E+01  0.00000000E+00
  4.90000000E+02  8.00000000E+00  0.00000000E+00
  4.90000000E+02  6.00000000E+00  0.00000000E+00
  4.90000000E+02  4.00000000E+00  0.00000000E+00
  4.90000000E+02  2.00000000E+00  0.00000000E+00
  4.90000000E+02 -3.33066907E-14  0.00000000E+00
  5.00000000E+02  1.00000000E+02  0.00000000E+00
  5.00000000E+02  9.80000000E+01  0.00000000E+00
  5.00000000E+02  9.60000000E+01  0.00000000E+00
  5.00000000E+02  9.40000000E+01  0.00000000E+00
  5.00000000E+02  9.20000000E+01  0.00000000E+00
  5.00000000E+02  9.00000000E+01  0.00000000E+00
  5.00000000E+02  8.80000000E+01  0.00000000E+00
  5.00000000E+02  8.60000000E+01  0.00000000E+00
  5.00000000E+02  8.40000000E+01  0.00000000E+00
  5.00000000E+02  8.20000000E+01  0.00000000E+00
  5.00000000E+02  8.00000000E+01  0.00000000E+00
  5.00000000E+02  7.80000000E+01  0.00000000E+00
  5.00000000E+02  7.60000000E+01  0.00000000E+00
  5.00000000E+02  7.40000000E+01  0.00000000E+00
  5.00000000E+02  7.20000000E+01  0.00000000E+00
  5.00000000E+02  7.00000000E+01  0.00000000E+00
  5.00000000E+02  6.80000000E+01  0.00000000E+00
  5.00000000E+02  6.60000000E+01  0.00000000E+00
  5.00000000E+02  6.40000000E+01  0.00000000E+00
  5.00000000E+02  6.20000000E+01  0.00000000E+00
  5.00000000E+02  6.00000000E+01  0.00000000E+00
  5.00000000E+02  5.80000000E+01  0.00000000E+00
  5.00000000E+02  5.60000000E+01  0.00000000E+00
  5.00000000E+02  5.40000000E+01  0.00000000E+00
  5.00000000E+02  5.20000000E+01  0.00000000E+00
  5.00000000E+02  5.00000000E+01  0.00000000E+00
  5.00000000E+02  4.80000000E+01  0.00000000E+00
  5.00000000E+02  4.60000000E+01  0.00000000E+00
  5.00000000E+02  4.40000000E+01  0.00000000E+00
  5.00000000E+02  4.20000000E+01  0.00000000E+00
  5.00000000E+02  4.00000000E+01  0.00000000E+00
  5.00000000E+02  3.80000000E+01  0.00000000E+00
  5.00000000E+02  3.60000000E+01  0.00000000E+00
  5.00000000E+02  3.40000000E+01  0.00000000E+00
  5.00000000E+02  3.20000000E+01  0.00000000E+00
  5.00000000E+02  3.00000000E+01  0.00000000E+00
  5.00000000E+02  2.80000000E+01  0.00000000E+00
  5.00000000E+02  2.60000000E+01  0.00000000E+00
  5.00000000E+02  2.40000000E+01  0.00000000E+00
  5.00000000E+02  2.20000000E+01  0.00000000E+00
  5.00000000E+02  2.00000000E+01  0.00000000E+00
  5.00000000E+02  1.80000000E+01  0.00000000E+00
  5.00000000E+02  1.60000000E+01  0.00000000E+00
  5.00000000E+02  1.40000000E+01  0.00000000E+00
  5.00000000E+02  1.20000000E+01  0.00000000E+00
  5.00000000E+02  1.00000000E+01  0.00000000E+00
  5.00000000E+02  8.00000000E+00  0.00000000E+00
  5.00000000E+02  6.00000000E+00  0.00000000E+00
  5.00000000E+02  4.00000000E+00  0.00000000E+00
  5.00000000E+02  2.00000000E+00  0.00000000E+00
  5.00000000E+02 -3.33066907E-14  0.00000000E+00
  5.10000000E+02  1.00000000E+02  0.00000000E+00
  5.10000000E+02  9.80000000E+01  0.00000000E+00
  5.10000000E+02  9.60000000E+01  0.00000000E+00
  5.10000000E+02  9.40000000E+01  0.00000000E+00
  5.10000000E+02  9.20000000E+01  0.00000000E+00
  5.10000000E+02  9.00000000E+01  0.00000000E+00
  5.10000000E+02  8.80000000E+01  0.00000000E+00
  5.10000000E+02  8.60000000E+01  0.00000000E+00
  5.10000000E+02  8.40000000E+01  0.00000000E+00
  5.10000000E+02  8.20000000E+01  0.00000000E+00
  5.10000000E+02  8.00000000E+01  0.00000000E+00
  5.10000000E+02  7.80000000E+01  0.00000000E+00
  5.10000000E+02  7.60000000E+01  0.00000000E+00
  5.10000000E+02  7.40000000E+01  0.00000000E+00
  5.10000000E+02  7.20000000E+01  0.00000000E+00
  5.10000000E+02  7.00000000E+01  0.00000000E+00
  5.10000000E+02  6.80000000E+01  0.00000000E+00
  5.10000000E+02  6.60000000E+01  0.00000000E+00
  5.10000000E+02  6.40000000E+01  0.00000000E+00
  5.10000000E+02  6.20000000E+01  0.00000000E+00
  5.10000000E+02  6.00000000E+01  0.00000000E+00
  5.10000000E+02  5.80000000E+01  0.00000000E+00
  5.10000000E+02  5.60000000E+01  0.00000000E+00
  5.10000000E+02  5.40000000E+01  0.00000000E+00
  5.10000000E+02  5.20000000E+01  0.00000000E+00
  5.10000000E+02  5.00000000E+01  0.00000000E+00
  5.10000000E+02  4.80000000E+01  0.00000000E+00
  5.10000000E+02  4.60000000E+01  0.00000000E+00
  5.10000000E+02  4.40000000E+01  0.00000000E+00
  5.10000000E+02  4.20000000E+01  0.00000000E+00
  5.10000000E+02  4.00000000E+01  0.00000000E+00
  5.10000000E+02  3.80000000E+01  0.00000000E+00
  5.10000000E+02  3.60000000E+01  0.00000000E+00
  5.10000000E+02  3.40000000E+01  0.00000000E+00
  5.10000000E+02  3.20000000E+01  0.00000000E+00
  5.10000000E+02  3.00000000E+01  0.00000000E+00
  5.10000000E+02  2.80000000E+01  0.00000000E+00
  5.10000000E+02  2.60000000E+01  0.00000000E+00
  5.10000000E+02  2.40000000E+01  0.00000000E+00
  5.10000000E+02  2.20000000E+01  0.00000000E+00
  5.10000000E+02  2.00000000E+01  0.00000000E+00
  5.10000000E+02  1.80000000E+01  0.00000000E+00
  5.10000000E+02  1.60000000E+01  0.00000000E+00
  5.10000000E+02  1.40000000E+01  0.00000000E+00
  5.10000000E+02  1.20000000E+01  0.00000000E+00
  5.10000000E+02  1.00000000E+01  0.00000000E+00
  5.10000000E+02  8.00000000E+00  0.00000000E+00
  5.10000000E+02  6.00000000E+00  0.00000000E+00
  5.10000000E+02  4.00000000E+00  0.00000000E+00
  5.10000000E+02  2.00000000E+00  0.00000000E+00
  5.10000000E+02 -3.33066907E-14  0.00000000E+00
  5.20000000E+02  1.00000000E+02  0.00000000E+00
  5.20000000E+02  9.80000000E+01  0.00000000E+00
  5.20000000E+02  9.60000000E+01  0.00000000E+00
  5.20000000E+02  9.40000000E+01  0.00000000E+00
  5.20000000E+02  9.20000000E+01  0.00000000E+00
  5.20000000E+02  9.00000000E+01  0.00000000E+00
  5.20000000E+02  8.80000000E+01  0.00000000E+00
  5.20000000E+02  8.60000000E+01  0.00000000E+00
  5.20000000E+02  8.40000000E+01  0.00000000E+00
  5.20000000E+02  8.20000000E+01  0.00000000E+00
  5.20000000E+02  8.00000000E+01  0.00000000E+00
  5.20000000E+02  7.80000000E+01  0.00000000E+00
  5.20000000E+02  7.60000000E+01  0.00000000E+00
  5.20000000E+02  7.40000000E+01  0.00000000E+00
  5.20000000E+02  7.20000000E+01  0.00000000E+00
  5.20000000E+02  7.00000000E+01  0.00000000E+00
  5.20000000E+02  6.80000000E+01  0.00000000E+00
  5.20000000E+02  6.60000000E+01  0.00000000E+00
  5.20000000E+02  6.40000000E+01  0.00000000E+00
  5.20000000E+02  6.20000000E+01  0.00000000E+00
  5.20000000E+02  6.00000000E+01  0.00000000E+00
  5.20000000E+02  5.80000000E+01  0.00000000E+00
  5.20000000E+02  5.60000000E+01  0.00000000E+00
  5.20000000E+02  5.40000000E+01  0.00000000E+00
  5.20000000E+02  5.20000000E+01  0.00000000E+00
  5.20000000E+02  5.00000000E+01  0.00000000E+00
  5.20000000E+02  4.80000000E+01  0.00000000E+00
  5.20000000E+02  4.60000000E+01  0.00000000E+00
  5.20000000E+02  4.40000000E+01  0.00000000E+00
  5.20000000E+02  4.20000000E+01  0.00000000E+00
  5.20000000E+02  4.00000000E+01  0.00000000E+00
  5.20000000E+02  3.80000000E+01  0.00000000E+00
  5.20000000E+02  3.60000000E+01  0.00000000E+00
  5.20000000E+02  3.40000000E+01  0.00000000E+00
  5.20000000E+02  3.20000000E+01  0.00000000E+00
  5.20000000E+02  3.00000000E+01  0.00000000E+00
  5.20000000E+02  2.80000000E+01  0.00000000E+00
  5.20000000E+02  2.60000000E+01  0.00000000E+00
  5.20000000E+02  2.40000000E+01  0.00000000E+00
  5.20000000E+02  2.20000000E+01  0.00000000E+00
  5.20000000E+02  2.00000000E+01  0.00000000E+00
  5.20000000E+02  1.80000000E+01  0.00000000E+00
  5.20000000E+02  1.60000000E+01  0.00000000E+00
  5.20000000E+02  1.40000000E+01  0.00000000E+00
  5.20000000E+02  1.20000000E+01  0.00000000E+00
  5.20000000E+02  1.00000000E+01  0.00000000E+00
  5.20000000E+02  8.00000000E+00  0.00000000E+00
  5.20000000E+02  6.00000000E+00  0.00000000E+00
  5.20000000E+02  4.00000000E+00  0.00000000E+00
  5.20000000E+02  2.00000000E+00  0.00000000E+00
  5.20000000E+02 -3.33066907E-14  0.00000000E+00
  5.30000000E+02  1.00000000E+02  0.00000000E+00
  5.30000000E+02  9.80000000E+01  0.00000000E+00
  5.30000000E+02  9.60000000E+01  0.00000000E+00
  5.30000000E+02  9.40000000E+01  0.00000000E+00
  5.30000000E+02  9.20000000E+01  0.00000000E+00
  5.30000000E+02  9.00000000E+01  0.00000000E+00
  5.30000000E+02  8.80000000E+01  0.00000000E+00
  5.30000000E+02  8.60000000E+01  0.00000000E+00
  5.30000000E+02  8.40000000E+01  0.00000000E+00
  5.30000000E+02  8.20000000E+01  0.00000000E+00
  5.30000000E+02  8.00000000E+01  0.00000000E+00
  5.30000000E+02  7.80000000E+01  0.00000000E+00
  5.30000000E+02  7.60000000E+01  0.00000000E+00
  5.30000000E+02  7.40000000E+01  0.00000000E+00
  5.30000000E+02  7.20000000E+01  0.00000000E+00
  5.30000000E+02  7.00000000E+01  0.00000000E+00
  5.30000000E+02  6.80000000E+01  0.00000000E+00
  5.30000000E+02  6.60000000E+01  0.00000000E+00
  5.30000000E+02  6.40000000E+01  0.00000000E+00
  5.30000000E+02  6.20000000E+01  0.00000000E+00
  5.30000000E+02  6.00000000E+01  0.00000000E+00
  5.30000000E+02  5.80000000E+01  0.00000000E+00
  5.30000000E+02  5.60000000E+01  0.00000000E+00
  5.30000000E+02  5.40000000E+01  0.00000000E+00
  5.30000000E+02  5.20000000E+01  0.00000000E+00
  5.30000000E+02  5.00000000E+01  0.00000000E+00
  5.30000000E+02  4.80000000E+01  0.00000000E+00
  5.30000000E+02  4.60000000E+01  0.00000000E+00
  5.30000000E+02  4.40000000E+01  0.00000000E+00
  5.30000000E+02  4.20000000E+01  0.00000000E+00
  5.30000000E+02  4.00000000E+01  0.00000000E+00
  5.30000000E+02  3.80000000E+01  0.00000000E+00
  5.30000000E+02  3.60000000E+01  0.00000000E+00
  5.30000000E+02  3.40000000E+01  0.00000000E+00
  5.30000000E+02  3.20000000E+01  0.00000000E+00
  5.30000000E+02  3.00000000E+01  0.00000000E+00
  5.30000000E+02  2.80000000E+01  0.00000000E+00
  5.30000000E+02  2.60000000E+01  0.00000000E+00
  5.30000000E+02  2.40000000E+01  0.00000000E+00
  5.30000000E+02  2.20000000E+01  0.00000000E+00
  5.30000000E+02  2.00000000E+01  0.00000000E+00
  5.30000000E+02  1.80000000E+01  0.00000000E+00
  5.30000000E+02  1.60000000E+01  0.00000000E+00
  5.30000000E+02  1.40000000E+01  0.00000000E+00
  5.30000000E+02  1.20000000E+01  0.00000000E+00
  5.30000000E+02  1.00000000E+01  0.00000000E+00
  5.30000000E+02  8.00000000E+00  0.00000000E+00
  5.30000000E+02  6.00000000E+00  0.00000000E+00
  5.30000000E+02  4.00000000E+00  0.00000000E+00
  5.30000000E+02  2.00000000E+00  0.00000000E+00
  5.30000000E+02 -3.33066907E-14  0.00000000E+00
  5.40000000E+02  1.00000000E+02  0.00000000E+00
  5.40000000E+02  9.80000000E+01  0.00000000E+00
  5.40000000E+02  9.60000000E+01  0.00000000E+00
  5.40000000E+02  9.40000000E+01  0.00000000E+00
  5.40000000E+02  9.20000000E+01  0.00000000E+00
  5.40000000E+02  9.00000000E+01  0.00000000E+00
  5.40000000E+02  8.80000000E+01  0.00000000E+00
  5.40000000E+02  8.60000000E+01  0.00000000E+00
  5.40000000E+02  8.40000000E+01  0.00000000E+00
  5.40000000E+02  8.20000000E+01  0.00000000E+00
  5.40000000E+02  8.00000000E+01  0.00000000E+00
  5.40000000E+02  7.80000000E+01  0.00000000E+00
  5.40000000E+02  7.60000000E+01  0.00000000E+00
  5.40000000E+02  7.40000000E+01  0.00000000E+00
  5.40000000E+02  7.20000000E+01  0.00000000E+00
  5.40000000E+02  7.00000000E+01  0.00000000E+00
  5.40000000E+02  6.80000000E+01  0.00000000E+00
  5.40000000E+02  6.60000000E+01  0.00000000E+00
  5.40000000E+02  6.40000000E+01  0.00000000E+00
  5.40000000E+02  6.20000000E+01  0.00000000E+00
  5.40000000E+02  6.00000000E+01  0.00000000E+00
  5.40000000E+02  5.80000000E+01  0.00000000E+00
  5.40000000E+02  5.60000000E+01  0.00000000E+00
  5.40000000E+02  5.40000000E+01  0.00000000E+00
  5.40000000E+02  5.20000000E+01  0.00000000E+00
  5.40000000E+02  5.00000000E+01  0.00000000E+00
  5.40000000E+02  4.80000000E+01  0.00000000E+00
  5.40000000E+02  4.60000000E+01  0.00000000E+00
  5.40000000E+02  4.40000000E+01  0.00000000E+00
  5.40000000E+02  4.20000000E+01  0.00000000E+00
  5.40000000E+02  4.00000000E+01  0.00000000E+00
  5.40000000E+02  3.80000000E+01  0.00000000E+00
  5.40000000E+02  3.60000000E+01  0.00000000E+00
  5.40000000E+02  3.40000000E+01  0.00000000E+00
  5.40000000E+02  3.20000000E+01  0.00000000E+00
  5.40000000E+02  3.00000000E+01  0.00000000E+00
  5.40000000E+02  2.80000000E+01  0.00000000E+00
  5.40000000E+02  2.60000000E+01  0.00000000E+00
  5.40000000E+02  2.40000000E+01  0.00000000E+00
  5.40000000E+02  2.20000000E+01  0.00000000E+00
  5.40000000E+02  2.00000000E+01  0.00000000E+00
  5.40000000E+02  1.80000000E+01  0.00000000E+00
  5.40000000E+02  1.60000000E+01  0.00000000E+00
  5.40000000E+02  1.40000000E+01  0.00000000E+00
  5.40000000E+02  1.20000000E+01  0.00000000E+00
  5.40000000E+02  1.00000000E+01  0.00000000E+00
  5.40000000E+02  8.00000000E+00  0.00000000E+00
  5.40000000E+02  6.00000000E+00  0.00000000E+00
  5.40000000E+02  4.00000000E+00  0.00000000E+00
  5.40000000E+02  2.00000000E+00  0.00000000E+00
  5.40000000E+02 -3.33066907E-14  0.00000000E+00
  5.50000000E+02  1.00000000E+02  0.00000000E+00
  5.50000000E+02  9.80000000E+01  0.00000000E+00
  5.50000000E+02  9.60000000E+01  0.00000000E+00
  5.50000000E+02  9.40000000E+01  0.00000000E+00
  5.50000000E+02  9.20000000E+01  0.00000000E+00
  5.50000000E+02  9.00000000E+01  0.00000000E+00
  5.50000000E+02  8.80000000E+01  0.00000000E+00
  5.50000000E+02  8.60000000E+01  0.00000000E+00
  5.50000000E+02  8.40000000E+01  0.00000000E+00
  5.50000000E+02  8.20000000E+01  0.00000000E+00
  5.50000000E+02  8.00000000E+01  0.00000000E+00
  5.50000000E+02  7.80000000E+01  0.00000000E+00
  5.50000000E+02  7.60000000E+01  0.00000000E+00
  5.50000000E+02  7.40000000E+01  0.00000000E+00
  5.50000000E+02  7.20000000E+01  0.00000000E+00
  5.50000000E+02  7.00000000E+01  0.00000000E+00
  5.50000000E+02  6.80000000E+01  0.00000000E+00
  5.50000000E+02  6.60000000E+01  0.00000000E+00
  5.50000000E+02  6.40000000E+01  0.00000000E+00
  5.50000000E+02  6.20000000E+01  0.00000000E+00
  5.50000000E+02  6.00000000E+01  0.00000000E+00
  5.50000000E+02  5.80000000E+01  0.00000000E+00
  5.50000000E+02  5.60000000E+01  0.00000000E+00
  5.50000000E+02  5.40000000E+01  0.00000000E+00
  5.50000000E+02  5.20000000E+01  0.00000000E+00
  5.50000000E+02  5.00000000E+01  0.00000000E+00
  5.50000000E+02  4.80000000E+01  0.00000000E+00
  5.50000000E+02  4.60000000E+01  0.00000000E+00
  5.50000000E+02  4.40000000E+01  0.00000000E+00
  5.50000000E+02  4.20000000E+01  0.00000000E+00
  5.50000000E+02  4.00000000E+01  0.00000000E+00
  5.50000000E+02  3.80000000E+01  0.00000000E+00
  5.50000000E+02  3.60000000E+01  0.00000000E+00
  5.50000000E+02  3.40000000E+01  0.00000000E+00
  5.50000000E+02  3.20000000E+01  0.00000000E+00
  5.50000000E+02  3.00000000E+01  0.00000000E+00
  5.50000000E+02  2.80000000E+01  0.00000000E+00
  5.50000000E+02  2.60000000E+01  0.00000000E+00
  5.50000000E+02  2.40000000E+01  0.00000000E+00
  5.50000000E+02  2.20000000E+01  0.00000000E+00
  5.50000000E+02  2.00000000E+01  0.00000000E+00
  5.50000000E+02  1.80000000E+01  0.00000000E+00
  5.50000000E+02  1.60000000E+01  0.00000000E+00
  5.50000000E+02  1.40000000E+01  0.00000000E+00
  5.50000000E+02  1.20000000E+01  0.00000000E+00
  5.50000000E+02  1.00000000E+01  0.00000000E+00
  5.50000000E+02  8.00000000E+00  0.00000000E+00
  5.50000000E+02  6.00000000E+00  0.00000000E+00
  5.50000000E+02  4.00000000E+00  0.00000000E+00
  5.50000000E+02  2.00000000E+00  0.00000000E+00
  5.50000000E+02 -3.33066907E-14  0.00000000E+00
  5.60000000E+02  1.00000000E+02  0.00000000E+00
  5.60000000E+02  9.80000000E+01  0.00000000E+00
  5.60000000E+02  9.60000000E+01  0.00000000E+00
  5.60000000E+02  9.40000000E+01  0.00000000E+00
  5.60000000E+02  9.20000000E+01  0.00000000E+00
  5.60000000E+02  9.00000000E+01  0.00000000E+00
  5.60000000E+02  8.80000000E+01  0.00000000E+00
  5.60000000E+02  8.60000000E+01  0.00000000E+00
  5.60000000E+02  8.40000000E+01  0.00000000E+00
  5.60000000E+02  8.20000000E+01  0.00000000E+00
  5.60000000E+02  8.00000000E+01  0.00000000E+00
  5.60000000E+02  7.80000000E+01  0.00000000E+00
  5.60000000E+02  7.60000000E+01  0.00000000E+00
  5.60000000E+02  7.40000000E+01  0.00000000E+00
  5.60000000E+02  7.20000000E+01  0.00000000E+00
  5.60000000E+02  7.00000000E+01  0.00000000E+00
  5.60000000E+02  6.80000000E+01  0.00000000E+00
  5.60000000E+02  6.60000000E+01  0.00000000E+00
  5.60000000E+02  6.40000000E+01  0.00000000E+00
  5.60000000E+02  6.20000000E+01  0.00000000E+00
  5.60000000E+02  6.00000000E+01  0.00000000E+00
  5.60000000E+02  5.80000000E+01  0.00000000E+00
  5.60000000E+02  5.60000000E+01  0.00000000E+00
  5.60000000E+02  5.40000000E+01  0.00000000E+00
  5.60000000E+02  5.20000000E+01  0.00000000E+00
  5.60000000E+02  5.00000000E+01  0.00000000E+00
  5.60000000E+02  4.80000000E+01  0.00000000E+00
  5.60000000E+02  4.60000000E+01  0.00000000E+00
  5.60000000E+02  4.40000000E+01  0.00000000E+00
  5.60000000E+02  4.20000000E+01  0.00000000E+00
  5.60000000E+02  4.00000000E+01  0.00000000E+00
  5.60000000E+02  3.80000000E+01  0.00000000E+00
  5.60000000E+02  3.60000000E+01  0.00000000E+00
  5.60000000E+02  3.40000000E+01  0.00000000E+00
  5.60000000E+02  3.20000000E+01  0.00000000E+00
  5.60000000E+02  3.00000000E+01  0.00000000E+00
  5.60000000E+02  2.80000000E+01  0.00000000E+00
  5.60000000E+02  2.60000000E+01  0.00000000E+00
  5.60000000E+02  2.40000000E+01  0.00000000E+00
  5.60000000E+02  2.20000000E+01  0.00000000E+00
  5.60000000E+02  2.00000000E+01  0.00000000E+00
  5.60000000E+02  1.80000000E+01  0.00000000E+00
  5.60000000E+02  1.60000000E+01  0.00000000E+00
  5.60000000E+02  1.40000000E+01  0.00000000E+00
  5.60000000E+02  1.20000000E+01  0.00000000E+00
  5.60000000E+02  1.00000000E+01  0.00000000E+00
  5.60000000E+02  8.00000000E+00  0.00000000E+00
  5.60000000E+02  6.00000000E+00  0.00000000E+00
  5.60000000E+02  4.00000000E+00  0.00000000E+00
  5.60000000E+02  2.00000000E+00  0.00000000E+00
  5.60000000E+02 -3.33066907E-14  0.00000000E+00
  5.70000000E+02  1.00000000E+02  0.00000000E+00
  5.70000000E+02  9.80000000E+01  0.00000000E+00
  5.70000000E+02  9.60000000E+01  0.00000000E+00
  5.70000000E+02  9.40000000E+01  0.00000000E+00
  5.70000000E+02  9.20000000E+01  0.00000000E+00
  5.70000000E+02  9.00000000E+01  0.00000000E+00
  5.70000000E+02  8.80000000E+01  0.00000000E+00
  5.70000000E+02  8.60000000E+01  0.00000000E+00
  5.70000000E+02  8.40000000E+01  0.00000000E+00
  5.70000000E+02  8.20000000E+01  0.00000000E+00
  5.70000000E+02  8.00000000E+01  0.00000000E+00
  5.70000000E+02  7.80000000E+01  0.00000000E+00
  5.70000000E+02  7.60000000E+01  0.00000000E+00
  5.70000000E+02  7.40000000E+01  0.00000000E+00
  5.70000000E+02  7.20000000E+01  0.00000000E+00
  5.70000000E+02  7.00000000E+01  0.00000000E+00
  5.70000000E+02  6.80000000E+01  0.00000000E+00
  5.70000000E+02  6.60000000E+01  0.00000000E+00
  5.70000000E+02  6.40000000E+01  0.00000000E+00
  5.70000000E+02  6.20000000E+01  0.00000000E+00
  5.70000000E+02  6.00000000E+01  0.00000000E+00
  5.70000000E+02  5.80000000E+01  0.00000000E+00
  5.70000000E+02  5.60000000E+01  0.00000000E+00
  5.70000000E+02  5.40000000E+01  0.00000000E+00
  5.70000000E+02  5.20000000E+01  0.00000000E+00
  5.70000000E+02  5.00000000E+01  0.00000000E+00
  5.70000000E+02  4.80000000E+01  0.00000000E+00
  5.70000000E+02  4.60000000E+01  0.00000000E+00
  5.70000000E+02  4.40000000E+01  0.00000000E+00
  5.70000000E+02  4.20000000E+01  0.00000000E+00
  5.70000000E+02  4.00000000E+01  0.00000000E+00
  5.70000000E+02  3.80000000E+01  0.00000000E+00
  5.70000000E+02  3.60000000E+01  0.00000000E+00
  5.70000000E+02  3.40000000E+01  0.00000000E+00
  5.70000000E+02  3.20000000E+01  0.00000000E+00
  5.70000000E+02  3.00000000E+01  0.00000000E+00
  5.70000000E+02  2.80000000E+01  0.00000000E+00
  5.70000000E+02  2.60000000E+01  0.00000000E+00
  5.70000000E+02  2.40000000E+01  0.00000000E+00
  5.70000000E+02  2.20000000E+01  0.00000000E+00
  5.70000000E+02  2.00000000E+01  0.00000000E+00
  5.70000000E+02  1.80000000E+01  0.00000000E+00
  5.70000000E+02  1.60000000E+01  0.00000000E+00
  5.70000000E+02  1.40000000E+01  0.00000000E+00
  5.70000000E+02  1.20000000E+01  0.00000000E+00
  5.70000000E+02  1.00000000E+01  0.00000000E+00
  5.70000000E+02  8.00000000E+00  0.00000000E+00
  5.70000000E+02  6.00000000E+00  0.00000000E+00
  5.70000000E+02  4.00000000E+00  0.00000000E+00
  5.70000000E+02  2.00000000E+00  0.00000000E+00
  5.70000000E+02 -3.33066907E-14  0.00000000E+00
  5.80000000E+02  1.00000000E+02  0.00000000E+00
  5.80000000E+02  9.80000000E+01  0.00000000E+00
  5.80000000E+02  9.60000000E+01  0.00000000E+00
  5.80000000E+02  9.40000000E+01  0.00000000E+00
  5.80000000E+02  9.20000000E+01  0.00000000E+00
  5.80000000E+02  9.00000000E+01  0.00000000E+00
  5.80000000E+02  8.80000000E+01  0.00000000E+00
  5.80000000E+02  8.60000000E+01  0.00000000E+00
  5.80000000E+02  8.40000000E+01  0.00000000E+00
  5.80000000E+02  8.20000000E+01  0.00000000E+00
  5.80000000E+02  8.00000000E+01  0.00000000E+00
  5.80000000E+02  7.80000000E+01  0.00000000E+00
  5.80000000E+02  7.60000000E+01  0.00000000E+00
  5.80000000E+02  7.40000000E+01  0.00000000E+00
  5.80000000E+02  7.20000000E+01  0.00000000E+00
  5.80000000E+02  7.00000000E+01  0.00000000E+00
  5.80000000E+02  6.80000000E+01  0.00000000E+00
  5.80000000E+02  6.60000000E+01  0.00000000E+00
  5.80000000E+02  6.40000000E+01  0.00000000E+00
  5.80000000E+02  6.20000000E+01  0.00000000E+00
  5.80000000E+02  6.00000000E+01  0.00000000E+00
  5.80000000E+02  5.80000000E+01  0.00000000E+00
  5.80000000E+02  5.60000000E+01  0.00000000E+00
  5.80000000E+02  5.40000000E+01  0.00000000E+00
  5.80000000E+02  5.20000000E+01  0.00000000E+00
  5.80000000E+02  5.00000000E+01  0.00000000E+00
  5.80000000E+02  4.80000000E+01  0.00000000E+00
  5.80000000E+02  4.60000000E+01  0.00000000E+00
  5.80000000E+02  4.40000000E+01  0.00000000E+00
  5.80000000E+02  4.20000000E+01  0.00000000E+00
  5.80000000E+02  4.00000000E+01  0.00000000E+00
  5.80000000E+02  3.80000000E+01  0.00000000E+00
  5.80000000E+02  3.60000000E+01  0.00000000E+00
  5.80000000E+02  3.40000000E+01  0.00000000E+00
  5.80000000E+02  3.20000000E+01  0.00000000E+00
  5.80000000E+02  3.00000000E+01  0.00000000E+00
  5.80000000E+02  2.80000000E+01  0.00000000E+00
  5.80000000E+02  2.60000000E+01  0.00000000E+00
  5.80000000E+02  2.40000000E+01  0.00000000E+00
  5.80000000E+02  2.20000000E+01  0.00000000E+00
  5.80000000E+02  2.00000000E+01  0.00000000E+00
  5.80000000E+02  1.80000000E+01  0.00000000E+00
  5.80000000E+02  1.60000000E+01  0.00000000E+00
  5.80000000E+02  1.40000000E+01  0.00000000E+00
  5.80000000E+02  1.20000000E+01  0.00000000E+00
  5.80000000E+02  1.00000000E+01  0.00000000E+00
  5.80000000E+02  8.00000000E+00  0.00000000E+00
  5.80000000E+02  6.00000000E+00  0.00000000E+00
  5.80000000E+02  4.00000000E+00  0.00000000E+00
  5.80000000E+02  2.00000000E+00  0.00000000E+00
  5.80000000E+02 -3.33066907E-14  0.00000000E+00
  5.90000000E+02  1.00000000E+02  0.00000000E+00
  5.90000000E+02  9.80000000E+01  0.00000000E+00
  5.90000000E+02  9.60000000E+01  0.00000000E+00
  5.90000000E+02  9.40000000E+01  0.00000000E+00
  5.90000000E+02  9.20000000E+01  0.00000000E+00
  5.90000000E+02  9.00000000E+01  0.00000000E+00
  5.90000000E+02  8.80000000E+01  0.00000000E+00
  5.90000000E+02  8.60000000E+01  0.00000000E+00
  5.90000000E+02  8.40000000E+01  0.00000000E+00
  5.90000000E+02  8.20000000E+01  0.00000000E+00
  5.90000000E+02  8.00000000E+01  0.00000000E+00
  5.90000000E+02  7.80000000E+01  0.00000000E+00
  5.90000000E+02  7.60000000E+01  0.00000000E+00
  5.90000000E+02  7.40000000E+01  0.00000000E+00
  5.90000000E+02  7.20000000E+01  0.00000000E+00
  5.90000000E+02  7.00000000E+01  0.00000000E+00
  5.90000000E+02  6.80000000E+01  0.00000000E+00
  5.90000000E+02  6.60000000E+01  0.00000000E+00
  5.90000000E+02  6.40000000E+01  0.00000000E+00
  5.90000000E+02  6.20000000E+01  0.00000000E+00
  5.90000000E+02  6.00000000E+01  0.00000000E+00
  5.90000000E+02  5.80000000E+01  0.00000000E+00
  5.90000000E+02  5.60000000E+01  0.00000000E+00
  5.90000000E+02  5.40000000E+01  0.00000000E+00
  5.90000000E+02  5.20000000E+01  0.00000000E+00
  5.90000000E+02  5.00000000E+01  0.00000000E+00
  5.90000000E+02  4.80000000E+01  0.00000000E+00
  5.90000000E+02  4.60000000E+01  0.00000000E+00
  5.90000000E+02  4.40000000E+01  0.00000000E+00
  5.90000000E+02  4.20000000E+01  0.00000000E+00
  5.90000000E+02  4.00000000E+01  0.00000000E+00
  5.90000000E+02  3.80000000E+01  0.00000000E+00
  5.90000000E+02  3.60000000E+01  0.00000000E+00
  5.90000000E+02  3.40000000E+01  0.00000000E+00
  5.90000000E+02  3.20000000E+01  0.00000000E+00
  5.90000000E+02  3.00000000E+01  0.00000000E+00
  5.90000000E+02  2.80000000E+01  0.00000000E+00
  5.90000000E+02  2.60000000E+01  0.00000000E+00
  5.90000000E+02  2.40000000E+01  0.00000000E+00
  5.90000000E+02  2.20000000E+01  0.00000000E+00
  5.90000000E+02  2.00000000E+01  0.00000000E+00
  5.90000000E+02  1.80000000E+01  0.00000000E+00
  5.90000000E+02  1.60000000E+01  0.00000000E+00
  5.90000000E+02  1.40000000E+01  0.00000000E+00
  5.90000000E+02  1.20000000E+01  0.00000000E+00
  5.90000000E+02  1.00000000E+01  0.00000000E+00
  5.90000000E+02  8.00000000E+00  0.00000000E+00
  5.90000000E+02  6.00000000E+00  0.00000000E+00
  5.90000000E+02  4.00000000E+00  0.00000000E+00
  5.90000000E+02  2.00000000E+00  0.00000000E+00
  5.90000000E+02 -3.33066907E-14  0.00000000E+00
  6.00000000E+02  1.00000000E+02  0.00000000E+00
  6.00000000E+02  9.80000000E+01  0.00000000E+00
  6.00000000E+02  9.60000000E+01  0.00000000E+00
  6.00000000E+02  9.40000000E+01  0.00000000E+00
  6.00000000E+02  9.20000000E+01  0.00000000E+00
  6.00000000E+02  9.00000000E+01  0.00000000E+00
  6.00000000E+02  8.80000000E+01  0.00000000E+00
  6.00000000E+02  8.60000000E+01  0.00000000E+00
  6.00000000E+02  8.40000000E+01  0.00000000E+00
  6.00000000E+02  8.20000000E+01  0.00000000E+00
  6.00000000E+02  8.00000000E+01  0.00000000E+00
  6.00000000E+02  7.80000000E+01  0.00000000E+00
  6.00000000E+02  7.60000000E+01  0.00000000E+00
  6.00000000E+02  7.40000000E+01  0.00000000E+00
  6.00000000E+02  7.20000000E+01  0.00000000E+00
  6.00000000E+02  7.00000000E+01  0.00000000E+00
  6.00000000E+02  6.80000000E+01  0.00000000E+00
  6.00000000E+02  6.60000000E+01  0.00000000E+00
  6.00000000E+02  6.40000000E+01  0.00000000E+00
  6.00000000E+02  6.20000000E+01  0.00000000E+00
  6.00000000E+02  6.00000000E+01  0.00000000E+00
  6.00000000E+02  5.80000000E+01  0.00000000E+00
  6.00000000E+02  5.60000000E+01  0.00000000E+00
  6.00000000E+02  5.40000000E+01  0.00000000E+00
  6.00000000E+02  5.20000000E+01  0.00000000E+00
  6.00000000E+02  5.00000000E+01  0.00000000E+00
  6.00000000E+02  4.80000000E+01  0.00000000E+00
  6.00000000E+02  4.60000000E+01  0.00000000E+00
  6.00000000E+02  4.40000000E+01  0.00000000E+00
  6.00000000E+02  4.20000000E+01  0.00000000E+00
  6.00000000E+02  4.00000000E+01  0.00000000E+00
  6.00000000E+02  3.80000000E+01  0.00000000E+00
  6.00000000E+02  3.60000000E+01  0.00000000E+00
  6.00000000E+02  3.40000000E+01  0.00000000E+00
  6.00000000E+02  3.20000000E+01  0.00000000E+00
  6.00000000E+02  3.00000000E+01  0.00000000E+00
  6.00000000E+02  2.80000000E+01  0.00000000E+00
  6.00000000E+02  2.60000000E+01  0.00000000E+00
  6.00000000E+02  2.40000000E+01  0.00000000E+00
  6.00000000E+02  2.20000000E+01  0.00000000E+00
  6.00000000E+02  2.00000000E+01  0.00000000E+00
  6.00000000E+02  1.80000000E+01  0.00000000E+00
  6.00000000E+02  1.60000000E+01  0.00000000E+00
  6.00000000E+02  1.40000000E+01  0.00000000E+00
  6.00000000E+02  1.20000000E+01  0.00000000E+00
  6.00000000E+02  1.00000000E+01  0.00000000E+00
  6.00000000E+02  8.00000000E+00  0.00000000E+00
  6.00000000E+02  6.00000000E+00  0.00000000E+00
  6.00000000E+02  4.00000000E+00  0.00000000E+00
  6.00000000E+02  2.00000000E+00  0.00000000E+00
  6.00000000E+02 -3.33066907E-14  0.00000000E+00
  6.10000000E+02  1.00000000E+02  0.00000000E+00
  6.10000000E+02  9.80000000E+01  0.00000000E+00
  6.10000000E+02  9.60000000E+01  0.00000000E+00
  6.10000000E+02  9.40000000E+01  0.00000000E+00
  6.10000000E+02  9.20000000E+01  0.00000000E+00
  6.10000000E+02  9.00000000E+01  0.00000000E+00
  6.10000000E+02  8.80000000E+01  0.00000000E+00
  6.10000000E+02  8.60000000E+01  0.00000000E+00
  6.10000000E+02  8.40000000E+01  0.00000000E+00
  6.10000000E+02  8.20000000E+01  0.00000000E+00
  6.10000000E+02  8.00000000E+01  0.00000000E+00
  6.10000000E+02  7.80000000E+01  0.00000000E+00
  6.10000000E+02  7.60000000E+01  0.00000000E+00
  6.10000000E+02  7.40000000E+01  0.00000000E+00
  6.10000000E+02  7.20000000E+01  0.00000000E+00
  6.10000000E+02  7.00000000E+01  0.00000000E+00
  6.10000000E+02  6.80000000E+01  0.00000000E+00
  6.10000000E+02  6.60000000E+01  0.00000000E+00
  6.10000000E+02  6.40000000E+01  0.00000000E+00
  6.10000000E+02  6.20000000E+01  0.00000000E+00
  6.10000000E+02  6.00000000E+01  0.00000000E+00
  6.10000000E+02  5.80000000E+01  0.00000000E+00
  6.10000000E+02  5.60000000E+01  0.00000000E+00
  6.10000000E+02  5.40000000E+01  0.00000000E+00
  6.10000000E+02  5.20000000E+01  0.00000000E+00
  6.10000000E+02  5.00000000E+01  0.00000000E+00
  6.10000000E+02  4.80000000E+01  0.00000000E+00
  6.10000000E+02  4.60000000E+01  0.00000000E+00
  6.10000000E+02  4.40000000E+01  0.00000000E+00
  6.10000000E+02  4.20000000E+01  0.00000000E+00
  6.10000000E+02  4.00000000E+01  0.00000000E+00
  6.10000000E+02  3.80000000E+01  0.00000000E+00
  6.10000000E+02  3.60000000E+01  0.00000000E+00
  6.10000000E+02  3.40000000E+01  0.00000000E+00
  6.10000000E+02  3.20000000E+01  0.00000000E+00
  6.10000000E+02  3.00000000E+01  0.00000000E+00
  6.10000000E+02  2.80000000E+01  0.00000000E+00
  6.10000000E+02  2.60000000E+01  0.00000000E+00
  6.10000000E+02  2.40000000E+01  0.00000000E+00
  6.10000000E+02  2.20000000E+01  0.00000000E+00
  6.10000000E+02  2.00000000E+01  0.00000000E+00
  6.10000000E+02  1.80000000E+01  0.00000000E+00
  6.10000000E+02  1.60000000E+01  0.00000000E+00
  6.10000000E+02  1.40000000E+01  0.00000000E+00
  6.10000000E+02  1.20000000E+01  0.00000000E+00
  6.10000000E+02  1.00000000E+01  0.00000000E+00
  6.10000000E+02  8.00000000E+00  0.00000000E+00
  6.10000000E+02  6.00000000E+00  0.00000000E+00
  6.10000000E+02  4.00000000E+00  0.00000000E+00
  6.10000000E+02  2.00000000E+00  0.00000000E+00
  6.10000000E+02 -3.33066907E-14  0.00000000E+00
  6.20000000E+02  1.00000000E+02  0.00000000E+00
  6.20000000E+02  9.80000000E+01  0.00000000E+00
  6.20000000E+02  9.60000000E+01  0.00000000E+00
  6.20000000E+02  9.40000000E+01  0.00000000E+00
  6.20000000E+02  9.20000000E+01  0.00000000E+00
  6.20000000E+02  9.00000000E+01  0.00000000E+00
  6.20000000E+02  8.80000000E+01  0.00000000E+00
  6.20000000E+02  8.60000000E+01  0.00000000E+00
  6.20000000E+02  8.40000000E+01  0.00000000E+00
  6.20000000E+02  8.20000000E+01  0.00000000E+00
  6.20000000E+02  8.00000000E+01  0.00000000E+00
  6.20000000E+02  7.80000000E+01  0.00000000E+00
  6.20000000E+02  7.60000000E+01  0.00000000E+00
  6.20000000E+02  7.40000000E+01  0.00000000E+00
  6.20000000E+02  7.20000000E+01  0.00000000E+00
  6.20000000E+02  7.00000000E+01  0.00000000E+00
  6.20000000E+02  6.80000000E+01  0.00000000E+00
  6.20000000E+02  6.60000000E+01  0.00000000E+00
  6.20000000E+02  6.40000000E+01  0.00000000E+00
  6.20000000E+02  6.20000000E+01  0.00000000E+00
  6.20000000E+02  6.00000000E+01  0.00000000E+00
  6.20000000E+02  5.80000000E+01  0.00000000E+00
  6.20000000E+02  5.60000000E+01  0.00000000E+00
  6.20000000E+02  5.40000000E+01  0.00000000E+00
  6.20000000E+02  5.20000000E+01  0.00000000E+00
  6.20000000E+02  5.00000000E+01  0.00000000E+00
  6.20000000E+02  4.80000000E+01  0.00000000E+00
  6.20000000E+02  4.60000000E+01  0.00000000E+00
  6.20000000E+02  4.40000000E+01  0.00000000E+00
  6.20000000E+02  4.20000000E+01  0.00000000E+00
  6.20000000E+02  4.00000000E+01  0.00000000E+00
  6.20000000E+02  3.80000000E+01  0.00000000E+00
  6.20000000E+02  3.60000000E+01  0.00000000E+00
  6.20000000E+02  3.40000000E+01  0.00000000E+00
  6.20000000E+02  3.20000000E+01  0.00000000E+00
  6.20000000E+02  3.00000000E+01  0.00000000E+00
  6.20000000E+02  2.80000000E+01  0.00000000E+00
  6.20000000E+02  2.60000000E+01  0.00000000E+00
  6.20000000E+02  2.40000000E+01  0.00000000E+00
  6.20000000E+02  2.20000000E+01  0.00000000E+00
  6.20000000E+02  2.00000000E+01  0.00000000E+00
  6.20000000E+02  1.80000000E+01  0.00000000E+00
  6.20000000E+02  1.60000000E+01  0.00000000E+00
  6.20000000E+02  1.40000000E+01  0.00000000E+00
  6.20000000E+02  1.20000000E+01  0.00000000E+00
  6.20000000E+02  1.00000000E+01  0.00000000E+00
  6.20000000E+02  8.00000000E+00  0.00000000E+00
  6.20000000E+02  6.00000000E+00  0.00000000E+00
  6.20000000E+02  4.00000000E+00  0.00000000E+00
  6.20000000E+02  2.00000000E+00  0.00000000E+00
  6.20000000E+02 -3.33066907E-14  0.00000000E+00
  6.30000000E+02  1.00000000E+02  0.00000000E+00
  6.30000000E+02  9.80000000E+01  0.00000000E+00
  6.30000000E+02  9.60000000E+01  0.00000000E+00
  6.30000000E+02  9.40000000E+01  0.00000000E+00
  6.30000000E+02  9.20000000E+01  0.00000000E+00
  6.30000000E+02  9.00000000E+01  0.00000000E+00
  6.30000000E+02  8.80000000E+01  0.00000000E+00
  6.30000000E+02  8.60000000E+01  0.00000000E+00
  6.30000000E+02  8.40000000E+01  0.00000000E+00
  6.30000000E+02  8.20000000E+01  0.00000000E+00
  6.30000000E+02  8.00000000E+01  0.00000000E+00
  6.30000000E+02  7.80000000E+01  0.00000000E+00
  6.30000000E+02  7.60000000E+01  0.00000000E+00
  6.30000000E+02  7.40000000E+01  0.00000000E+00
  6.30000000E+02  7.20000000E+01  0.00000000E+00
  6.30000000E+02  7.00000000E+01  0.00000000E+00
  6.30000000E+02  6.80000000E+01  0.00000000E+00
  6.30000000E+02  6.60000000E+01  0.00000000E+00
  6.30000000E+02  6.40000000E+01  0.00000000E+00
  6.30000000E+02  6.20000000E+01  0.00000000E+00
  6.30000000E+02  6.00000000E+01  0.00000000E+00
  6.30000000E+02  5.80000000E+01  0.00000000E+00
  6.30000000E+02  5.60000000E+01  0.00000000E+00
  6.30000000E+02  5.40000000E+01  0.00000000E+00
  6.30000000E+02  5.20000000E+01  0.00000000E+00
  6.30000000E+02  5.00000000E+01  0.00000000E+00
  6.30000000E+02  4.80000000E+01  0.00000000E+00
  6.30000000E+02  4.60000000E+01  0.00000000E+00
  6.30000000E+02  4.40000000E+01  0.00000000E+00
  6.30000000E+02  4.20000000E+01  0.00000000E+00
  6.30000000E+02  4.00000000E+01  0.00000000E+00
  6.30000000E+02  3.80000000E+01  0.00000000E+00
  6.30000000E+02  3.60000000E+01  0.00000000E+00
  6.30000000E+02  3.40000000E+01  0.00000000E+00
  6.30000000E+02  3.20000000E+01  0.00000000E+00
  6.30000000E+02  3.00000000E+01  0.00000000E+00
  6.30000000E+02  2.80000000E+01  0.00000000E+00
  6.30000000E+02  2.60000000E+01  0.00000000E+00
  6.30000000E+02  2.40000000E+01  0.00000000E+00
  6.30000000E+02  2.20000000E+01  0.00000000E+00
  6.30000000E+02  2.00000000E+01  0.00000000E+00
  6.30000000E+02  1.80000000E+01  0.00000000E+00
  6.30000000E+02  1.60000000E+01  0.00000000E+00
  6.30000000E+02  1.40000000E+01  0.00000000E+00
  6.30000000E+02  1.20000000E+01  0.00000000E+00
  6.30000000E+02  1.00000000E+01  0.00000000E+00
  6.30000000E+02  8.00000000E+00  0.00000000E+00
  6.30000000E+02  6.00000000E+00  0.00000000E+00
  6.30000000E+02  4.00000000E+00  0.00000000E+00
  6.30000000E+02  2.00000000E+00  0.00000000E+00
  6.30000000E+02 -3.33066907E-14  0.00000000E+00
  6.40000000E+02  1.00000000E+02  0.00000000E+00
  6.40000000E+02  9.80000000E+01  0.00000000E+00
  6.40000000E+02  9.60000000E+01  0.00000000E+00
  6.40000000E+02  9.40000000E+01  0.00000000E+00
  6.40000000E+02  9.20000000E+01  0.00000000E+00
  6.40000000E+02  9.00000000E+01  0.00000000E+00
  6.40000000E+02  8.80000000E+01  0.00000000E+00
  6.40000000E+02  8.60000000E+01  0.00000000E+00
  6.40000000E+02  8.40000000E+01  0.00000000E+00
  6.40000000E+02  8.20000000E+01  0.00000000E+00
  6.40000000E+02  8.00000000E+01  0.00000000E+00
  6.40000000E+02  7.80000000E+01  0.00000000E+00
  6.40000000E+02  7.60000000E+01  0.00000000E+00
  6.40000000E+02  7.40000000E+01  0.00000000E+00
  6.40000000E+02  7.20000000E+01  0.00000000E+00
  6.40000000E+02  7.00000000E+01  0.00000000E+00
  6.40000000E+02  6.80000000E+01  0.00000000E+00
  6.40000000E+02  6.60000000E+01  0.00000000E+00
  6.40000000E+02  6.40000000E+01  0.00000000E+00
  6.40000000E+02  6.20000000E+01  0.00000000E+00
  6.40000000E+02  6.00000000E+01  0.00000000E+00
  6.40000000E+02  5.80000000E+01  0.00000000E+00
  6.40000000E+02  5.60000000E+01  0.00000000E+00
  6.40000000E+02  5.40000000E+01  0.00000000E+00
  6.40000000E+02  5.20000000E+01  0.00000000E+00
  6.40000000E+02  5.00000000E+01  0.00000000E+00
  6.40000000E+02  4.80000000E+01  0.00000000E+00
  6.40000000E+02  4.60000000E+01  0.00000000E+00
  6.40000000E+02  4.40000000E+01  0.00000000E+00
  6.40000000E+02  4.20000000E+01  0.00000000E+00
  6.40000000E+02  4.00000000E+01  0.00000000E+00
  6.40000000E+02  3.80000000E+01  0.00000000E+00
  6.40000000E+02  3.60000000E+01  0.00000000E+00
  6.40000000E+02  3.40000000E+01  0.00000000E+00
  6.40000000E+02  3.20000000E+01  0.00000000E+00
  6.40000000E+02  3.00000000E+01  0.00000000E+00
  6.40000000E+02  2.80000000E+01  0.00000000E+00
  6.40000000E+02  2.60000000E+01  0.00000000E+00
  6.40000000E+02  2.40000000E+01  0.00000000E+00
  6.40000000E+02  2.20000000E+01  0.00000000E+00
  6.40000000E+02  2.00000000E+01  0.00000000E+00
  6.40000000E+02  1.80000000E+01  0.00000000E+00
  6.40000000E+02  1.60000000E+01  0.00000000E+00
  6.40000000E+02  1.40000000E+01  0.00000000E+00
  6.40000000E+02  1.20000000E+01  0.00000000E+00
  6.40000000E+02  1.00000000E+01  0.00000000E+00
  6.40000000E+02  8.00000000E+00  0.00000000E+00
  6.40000000E+02  6.00000000E+00  0.00000000E+00
  6.40000000E+02  4.00000000E+00  0.00000000E+00
  6.40000000E+02  2.00000000E+00  0.00000000E+00
  6.40000000E+02 -3.33066907E-14  0.00000000E+00
  6.50000000E+02  1.00000000E+02  0.00000000E+00
  6.50000000E+02  9.80000000E+01  0.00000000E+00
  6.50000000E+02  9.60000000E+01  0.00000000E+00
  6.50000000E+02  9.40000000E+01  0.00000000E+00
  6.50000000E+02  9.20000000E+01  0.00000000E+00
  6.50000000E+02  9.00000000E+01  0.00000000E+00
  6.50000000E+02  8.80000000E+01  0.00000000E+00
  6.50000000E+02  8.60000000E+01  0.00000000E+00
  6.50000000E+02  8.40000000E+01  0.00000000E+00
  6.50000000E+02  8.20000000E+01  0.00000000E+00
  6.50000000E+02  8.00000000E+01  0.00000000E+00
  6.50000000E+02  7.80000000E+01  0.00000000E+00
  6.50000000E+02  7.60000000E+01  0.00000000E+00
  6.50000000E+02  7.40000000E+01  0.00000000E+00
  6.50000000E+02  7.20000000E+01  0.00000000E+00
  6.50000000E+02  7.00000000E+01  0.00000000E+00
  6.50000000E+02  6.80000000E+01  0.00000000E+00
  6.50000000E+02  6.60000000E+01  0.00000000E+00
  6.50000000E+02  6.40000000E+01  0.00000000E+00
  6.50000000E+02  6.20000000E+01  0.00000000E+00
  6.50000000E+02  6.00000000E+01  0.00000000E+00
  6.50000000E+02  5.80000000E+01  0.00000000E+00
  6.50000000E+02  5.60000000E+01  0.00000000E+00
  6.50000000E+02  5.40000000E+01  0.00000000E+00
  6.50000000E+02  5.20000000E+01  0.00000000E+00
  6.50000000E+02  5.00000000E+01  0.00000000E+00
  6.50000000E+02  4.80000000E+01  0.00000000E+00
  6.50000000E+02  4.60000000E+01  0.00000000E+00
  6.50000000E+02  4.40000000E+01  0.00000000E+00
  6.50000000E+02  4.20000000E+01  0.00000000E+00
  6.50000000E+02  4.00000000E+01  0.00000000E+00
  6.50000000E+02  3.80000000E+01  0.00000000E+00
  6.50000000E+02  3.60000000E+01  0.00000000E+00
  6.50000000E+02  3.40000000E+01  0.00000000E+00
  6.50000000E+02  3.20000000E+01  0.00000000E+00
  6.50000000E+02  3.00000000E+01  0.00000000E+00
  6.50000000E+02  2.80000000E+01  0.00000000E+00
  6.50000000E+02  2.60000000E+01  0.00000000E+00
  6.50000000E+02  2.40000000E+01  0.00000000E+00
  6.50000000E+02  2.20000000E+01  0.00000000E+00
  6.50000000E+02  2.00000000E+01  0.00000000E+00
  6.50000000E+02  1.80000000E+01  0.00000000E+00
  6.50000000E+02  1.60000000E+01  0.00000000E+00
  6.50000000E+02  1.40000000E+01  0.00000000E+00
  6.50000000E+02  1.20000000E+01  0.00000000E+00
  6.50000000E+02  1.00000000E+01  0.00000000E+00
  6.50000000E+02  8.00000000E+00  0.00000000E+00
  6.50000000E+02  6.00000000E+00  0.00000000E+00
  6.50000000E+02  4.00000000E+00  0.00000000E+00
  6.50000000E+02  2.00000000E+00  0.00000000E+00
  6.50000000E+02 -3.33066907E-14  0.00000000E+00
  6.60000000E+02  1.00000000E+02  0.00000000E+00
  6.60000000E+02  9.80000000E+01  0.00000000E+00
  6.60000000E+02  9.60000000E+01  0.00000000E+00
  6.60000000E+02  9.40000000E+01  0.00000000E+00
  6.60000000E+02  9.20000000E+01  0.00000000E+00
  6.60000000E+02  9.00000000E+01  0.00000000E+00
  6.60000000E+02  8.80000000E+01  0.00000000E+00
  6.60000000E+02  8.60000000E+01  0.00000000E+00
  6.60000000E+02  8.40000000E+01  0.00000000E+00
  6.60000000E+02  8.20000000E+01  0.00000000E+00
  6.60000000E+02  8.00000000E+01  0.00000000E+00
  6.60000000E+02  7.80000000E+01  0.00000000E+00
  6.60000000E+02  7.60000000E+01  0.00000000E+00
  6.60000000E+02  7.40000000E+01  0.00000000E+00
  6.60000000E+02  7.20000000E+01  0.00000000E+00
  6.60000000E+02  7.00000000E+01  0.00000000E+00
  6.60000000E+02  6.80000000E+01  0.00000000E+00
  6.60000000E+02  6.60000000E+01  0.00000000E+00
  6.60000000E+02  6.40000000E+01  0.00000000E+00
  6.60000000E+02  6.20000000E+01  0.00000000E+00
  6.60000000E+02  6.00000000E+01  0.00000000E+00
  6.60000000E+02  5.80000000E+01  0.00000000E+00
  6.60000000E+02  5.60000000E+01  0.00000000E+00
  6.60000000E+02  5.40000000E+01  0.00000000E+00
  6.60000000E+02  5.20000000E+01  0.00000000E+00
  6.60000000E+02  5.00000000E+01  0.00000000E+00
  6.60000000E+02  4.80000000E+01  0.00000000E+00
  6.60000000E+02  4.60000000E+01  0.00000000E+00
  6.60000000E+02  4.40000000E+01  0.00000000E+00
  6.60000000E+02  4.20000000E+01  0.00000000E+00
  6.60000000E+02  4.00000000E+01  0.00000000E+00
  6.60000000E+02  3.80000000E+01  0.00000000E+00
  6.60000000E+02  3.60000000E+01  0.00000000E+00
  6.60000000E+02  3.40000000E+01  0.00000000E+00
  6.60000000E+02  3.20000000E+01  0.00000000E+00
  6.60000000E+02  3.00000000E+01  0.00000000E+00
  6.60000000E+02  2.80000000E+01  0.00000000E+00
  6.60000000E+02  2.60000000E+01  0.00000000E+00
  6.60000000E+02  2.40000000E+01  0.00000000E+00
  6.60000000E+02  2.20000000E+01  0.00000000E+00
  6.60000000E+02  2.00000000E+01  0.00000000E+00
  6.60000000E+02  1.80000000E+01  0.00000000E+00
  6.60000000E+02  1.60000000E+01  0.00000000E+00
  6.60000000E+02  1.40000000E+01  0.00000000E+00
  6.60000000E+02  1.20000000E+01  0.00000000E+00
  6.60000000E+02  1.00000000E+01  0.00000000E+00
  6.60000000E+02  8.00000000E+00  0.00000000E+00
  6.60000000E+02  6.00000000E+00  0.00000000E+00
  6.60000000E+02  4.00000000E+00  0.00000000E+00
  6.60000000E+02  2.00000000E+00  0.00000000E+00
  6.60000000E+02 -3.33066907E-14  0.00000000E+00
  6.70000000E+02  1.00000000E+02  0.00000000E+00
  6.70000000E+02  9.80000000E+01  0.00000000E+00
  6.70000000E+02  9.60000000E+01  0.00000000E+00
  6.70000000E+02  9.40000000E+01  0.00000000E+00
  6.70000000E+02  9.20000000E+01  0.00000000E+00
  6.70000000E+02  9.00000000E+01  0.00000000E+00
  6.70000000E+02  8.80000000E+01  0.00000000E+00
  6.70000000E+02  8.60000000E+01  0.00000000E+00
  6.70000000E+02  8.40000000E+01  0.00000000E+00
  6.70000000E+02  8.20000000E+01  0.00000000E+00
  6.70000000E+02  8.00000000E+01  0.00000000E+00
  6.70000000E+02  7.80000000E+01  0.00000000E+00
  6.70000000E+02  7.60000000E+01  0.00000000E+00
  6.70000000E+02  7.40000000E+01  0.00000000E+00
  6.70000000E+02  7.20000000E+01  0.00000000E+00
  6.70000000E+02  7.00000000E+01  0.00000000E+00
  6.70000000E+02  6.80000000E+01  0.00000000E+00
  6.70000000E+02  6.60000000E+01  0.00000000E+00
  6.70000000E+02  6.40000000E+01  0.00000000E+00
  6.70000000E+02  6.20000000E+01  0.00000000E+00
  6.70000000E+02  6.00000000E+01  0.00000000E+00
  6.70000000E+02  5.80000000E+01  0.00000000E+00
  6.70000000E+02  5.60000000E+01  0.00000000E+00
  6.70000000E+02  5.40000000E+01  0.00000000E+00
  6.70000000E+02  5.20000000E+01  0.00000000E+00
  6.70000000E+02  5.00000000E+01  0.00000000E+00
  6.70000000E+02  4.80000000E+01  0.00000000E+00
  6.70000000E+02  4.60000000E+01  0.00000000E+00
  6.70000000E+02  4.40000000E+01  0.00000000E+00
  6.70000000E+02  4.20000000E+01  0.00000000E+00
  6.70000000E+02  4.00000000E+01  0.00000000E+00
  6.70000000E+02  3.80000000E+01  0.00000000E+00
  6.70000000E+02  3.60000000E+01  0.00000000E+00
  6.70000000E+02  3.40000000E+01  0.00000000E+00
  6.70000000E+02  3.20000000E+01  0.00000000E+00
  6.70000000E+02  3.00000000E+01  0.00000000E+00
  6.70000000E+02  2.80000000E+01  0.00000000E+00
  6.70000000E+02  2.60000000E+01  0.00000000E+00
  6.70000000E+02  2.40000000E+01  0.00000000E+00
  6.70000000E+02  2.20000000E+01  0.00000000E+00
  6.70000000E+02  2.00000000E+01  0.00000000E+00
  6.70000000E+02  1.80000000E+01  0.00000000E+00
  6.70000000E+02  1.60000000E+01  0.00000000E+00
  6.70000000E+02  1.40000000E+01  0.00000000E+00
  6.70000000E+02  1.20000000E+01  0.00000000E+00
  6.70000000E+02  1.00000000E+01  0.00000000E+00
  6.70000000E+02  8.00000000E+00  0.00000000E+00
  6.70000000E+02  6.00000000E+00  0.00000000E+00
  6.70000000E+02  4.00000000E+00  0.00000000E+00
  6.70000000E+02  2.00000000E+00  0.00000000E+00
  6.70000000E+02 -3.33066907E-14  0.00000000E+00
  6.80000000E+02  1.00000000E+02  0.00000000E+00
  6.80000000E+02  9.80000000E+01  0.00000000E+00
  6.80000000E+02  9.60000000E+01  0.00000000E+00
  6.80000000E+02  9.40000000E+01  0.00000000E+00
  6.80000000E+02  9.20000000E+01  0.00000000E+00
  6.80000000E+02  9.00000000E+01  0.00000000E+00
  6.80000000E+02  8.80000000E+01  0.00000000E+00
  6.80000000E+02  8.60000000E+01  0.00000000E+00
  6.80000000E+02  8.40000000E+01  0.00000000E+00
  6.80000000E+02  8.20000000E+01  0.00000000E+00
  6.80000000E+02  8.00000000E+01  0.00000000E+00
  6.80000000E+02  7.80000000E+01  0.00000000E+00
  6.80000000E+02  7.60000000E+01  0.00000000E+00
  6.80000000E+02  7.40000000E+01  0.00000000E+00
  6.80000000E+02  7.20000000E+01  0.00000000E+00
  6.80000000E+02  7.00000000E+01  0.00000000E+00
  6.80000000E+02  6.80000000E+01  0.00000000E+00
  6.80000000E+02  6.60000000E+01  0.00000000E+00
  6.80000000E+02  6.40000000E+01  0.00000000E+00
  6.80000000E+02  6.20000000E+01  0.00000000E+00
  6.80000000E+02  6.00000000E+01  0.00000000E+00
  6.80000000E+02  5.80000000E+01  0.00000000E+00
  6.80000000E+02  5.60000000E+01  0.00000000E+00
  6.80000000E+02  5.40000000E+01  0.00000000E+00
  6.80000000E+02  5.20000000E+01  0.00000000E+00
  6.80000000E+02  5.00000000E+01  0.00000000E+00
  6.80000000E+02  4.80000000E+01  0.00000000E+00
  6.80000000E+02  4.60000000E+01  0.00000000E+00
  6.80000000E+02  4.40000000E+01  0.00000000E+00
  6.80000000E+02  4.20000000E+01  0.00000000E+00
  6.80000000E+02  4.00000000E+01  0.00000000E+00
  6.80000000E+02  3.80000000E+01  0.00000000E+00
  6.80000000E+02  3.60000000E+01  0.00000000E+00
  6.80000000E+02  3.40000000E+01  0.00000000E+00
  6.80000000E+02  3.20000000E+01  0.00000000E+00
  6.80000000E+02  3.00000000E+01  0.00000000E+00
  6.80000000E+02  2.80000000E+01  0.00000000E+00
  6.80000000E+02  2.60000000E+01  0.00000000E+00
  6.80000000E+02  2.40000000E+01  0.00000000E+00
  6.80000000E+02  2.20000000E+01  0.00000000E+00
  6.80000000E+02  2.00000000E+01  0.00000000E+00
  6.80000000E+02  1.80000000E+01  0.00000000E+00
  6.80000000E+02  1.60000000E+01  0.00000000E+00
  6.80000000E+02  1.40000000E+01  0.00000000E+00
  6.80000000E+02  1.20000000E+01  0.00000000E+00
  6.80000000E+02  1.00000000E+01  0.00000000E+00
  6.80000000E+02  8.00000000E+00  0.00000000E+00
  6.80000000E+02  6.00000000E+00  0.00000000E+00
  6.80000000E+02  4.00000000E+00  0.00000000E+00
  6.80000000E+02  2.00000000E+00  0.00000000E+00
  6.80000000E+02 -3.33066907E-14  0.00000000E+00
  6.90000000E+02  1.00000000E+02  0.00000000E+00
  6.90000000E+02  9.80000000E+01  0.00000000E+00
  6.90000000E+02  9.60000000E+01  0.00000000E+00
  6.90000000E+02  9.40000000E+01  0.00000000E+00
  6.90000000E+02  9.20000000E+01  0.00000000E+00
  6.90000000E+02  9.00000000E+01  0.00000000E+00
  6.90000000E+02  8.80000000E+01  0.00000000E+00
  6.90000000E+02  8.60000000E+01  0.00000000E+00
  6.90000000E+02  8.40000000E+01  0.00000000E+00
  6.90000000E+02  8.20000000E+01  0.00000000E+00
  6.90000000E+02  8.00000000E+01  0.00000000E+00
  6.90000000E+02  7.80000000E+01  0.00000000E+00
  6.90000000E+02  7.60000000E+01  0.00000000E+00
  6.90000000E+02  7.40000000E+01  0.00000000E+00
  6.90000000E+02  7.20000000E+01  0.00000000E+00
  6.90000000E+02  7.00000000E+01  0.00000000E+00
  6.90000000E+02  6.80000000E+01  0.00000000E+00
  6.90000000E+02  6.60000000E+01  0.00000000E+00
  6.90000000E+02  6.40000000E+01  0.00000000E+00
  6.90000000E+02  6.20000000E+01  0.00000000E+00
  6.90000000E+02  6.00000000E+01  0.00000000E+00
  6.90000000E+02  5.80000000E+01  0.00000000E+00
  6.90000000E+02  5.60000000E+01  0.00000000E+00
  6.90000000E+02  5.40000000E+01  0.00000000E+00
  6.90000000E+02  5.20000000E+01  0.00000000E+00
  6.90000000E+02  5.00000000E+01  0.00000000E+00
  6.90000000E+02  4.80000000E+01  0.00000000E+00
  6.90000000E+02  4.60000000E+01  0.00000000E+00
  6.90000000E+02  4.40000000E+01  0.00000000E+00
  6.90000000E+02  4.20000000E+01  0.00000000E+00
  6.90000000E+02  4.00000000E+01  0.00000000E+00
  6.90000000E+02  3.80000000E+01  0.00000000E+00
  6.90000000E+02  3.60000000E+01  0.00000000E+00
  6.90000000E+02  3.40000000E+01  0.00000000E+00
  6.90000000E+02  3.20000000E+01  0.00000000E+00
  6.90000000E+02  3.00000000E+01  0.00000000E+00
  6.90000000E+02  2.80000000E+01  0.00000000E+00
  6.90000000E+02  2.60000000E+01  0.00000000E+00
  6.90000000E+02  2.40000000E+01  0.00000000E+00
  6.90000000E+02  2.20000000E+01  0.00000000E+00
  6.90000000E+02  2.00000000E+01  0.00000000E+00
  6.90000000E+02  1.80000000E+01  0.00000000E+00
  6.90000000E+02  1.60000000E+01  0.00000000E+00
  6.90000000E+02  1.40000000E+01  0.00000000E+00
  6.90000000E+02  1.20000000E+01  0.00000000E+00
  6.90000000E+02  1.00000000E+01  0.00000000E+00
  6.90000000E+02  8.00000000E+00  0.00000000E+00
  6.90000000E+02  6.00000000E+00  0.00000000E+00
  6.90000000E+02  4.00000000E+00  0.00000000E+00
  6.90000000E+02  2.00000000E+00  0.00000000E+00
  6.90000000E+02 -3.33066907E-14  0.00000000E+00
  7.00000000E+02  1.00000000E+02  0.00000000E+00
  7.00000000E+02  9.80000000E+01  0.00000000E+00
  7.00000000E+02  9.60000000E+01  0.00000000E+00
  7.00000000E+02  9.40000000E+01  0.00000000E+00
  7.00000000E+02  9.20000000E+01  0.00000000E+00
  7.00000000E+02  9.00000000E+01  0.00000000E+00
  7.00000000E+02  8.80000000E+01  0.00000000E+00
  7.00000000E+02  8.60000000E+01  0.00000000E+00
  7.00000000E+02  8.40000000E+01  0.00000000E+00
  7.00000000E+02  8.20000000E+01  0.00000000E+00
  7.00000000E+02  8.00000000E+01  0.00000000E+00
  7.00000000E+02  7.80000000E+01  0.00000000E+00
  7.00000000E+02  7.60000000E+01  0.00000000E+00
  7.00000000E+02  7.40000000E+01  0.00000000E+00
  7.00000000E+02  7.20000000E+01  0.00000000E+00
  7.00000000E+02  7.00000000E+01  0.00000000E+00
  7.00000000E+02  6.80000000E+01  0.00000000E+00
  7.00000000E+02  6.60000000E+01  0.00000000E+00
  7.00000000E+02  6.40000000E+01  0.00000000E+00
  7.00000000E+02  6.20000000E+01  0.00000000E+00
  7.00000000E+02  6.00000000E+01  0.00000000E+00
  7.00000000E+02  5.80000000E+01  0.00000000E+00
  7.00000000E+02  5.60000000E+01  0.00000000E+00
  7.00000000E+02  5.40000000E+01  0.00000000E+00
  7.00000000E+02  5.20000000E+01  0.00000000E+00
  7.00000000E+02  5.00000000E+01  0.00000000E+00
  7.00000000E+02  4.80000000E+01  0.00000000E+00
  7.00000000E+02  4.60000000E+01  0.00000000E+00
  7.00000000E+02  4.40000000E+01  0.00000000E+00
  7.00000000E+02  4.20000000E+01  0.00000000E+00
  7.00000000E+02  4.00000000E+01  0.00000000E+00
  7.00000000E+02  3.80000000E+01  0.00000000E+00
  7.00000000E+02  3.60000000E+01  0.00000000E+00
  7.00000000E+02  3.40000000E+01  0.00000000E+00
  7.00000000E+02  3.20000000E+01  0.00000000E+00
  7.00000000E+02  3.00000000E+01  0.00000000E+00
  7.00000000E+02  2.80000000E+01  0.00000000E+00
  7.00000000E+02  2.60000000E+01  0.00000000E+00
  7.00000000E+02  2.40000000E+01  0.00000000E+00
  7.00000000E+02  2.20000000E+01  0.00000000E+00
  7.00000000E+02  2.00000000E+01  0.00000000E+00
  7.00000000E+02  1.80000000E+01  0.00000000E+00
  7.00000000E+02  1.60000000E+01  0.00000000E+00
  7.00000000E+02  1.40000000E+01  0.00000000E+00
  7.00000000E+02  1.20000000E+01  0.00000000E+00
  7.00000000E+02  1.00000000E+01  0.00000000E+00
  7.00000000E+02  8.00000000E+00  0.00000000E+00
  7.00000000E+02  6.00000000E+00  0.00000000E+00
  7.00000000E+02  4.00000000E+00  0.00000000E+00
  7.00000000E+02  2.00000000E+00  0.00000000E+00
  7.00000000E+02 -3.33066907E-14  0.00000000E+00
  7.10000000E+02  1.00000000E+02  0.00000000E+00
  7.10000000E+02  9.80000000E+01  0.00000000E+00
  7.10000000E+02  9.60000000E+01  0.00000000E+00
  7.10000000E+02  9.40000000E+01  0.00000000E+00
  7.10000000E+02  9.20000000E+01  0.00000000E+00
  7.10000000E+02  9.00000000E+01  0.00000000E+00
  7.10000000E+02  8.80000000E+01  0.00000000E+00
  7.10000000E+02  8.60000000E+01  0.00000000E+00
  7.10000000E+02  8.40000000E+01  0.00000000E+00
  7.10000000E+02  8.20000000E+01  0.00000000E+00
  7.10000000E+02  8.00000000E+01  0.00000000E+00
  7.10000000E+02  7.80000000E+01  0.00000000E+00
  7.10000000E+02  7.60000000E+01  0.00000000E+00
  7.10000000E+02  7.40000000E+01  0.00000000E+00
  7.10000000E+02  7.20000000E+01  0.00000000E+00
  7.10000000E+02  7.00000000E+01  0.00000000E+00
  7.10000000E+02  6.80000000E+01  0.00000000E+00
  7.10000000E+02  6.60000000E+01  0.00000000E+00
  7.10000000E+02  6.40000000E+01  0.00000000E+00
  7.10000000E+02  6.20000000E+01  0.00000000E+00
  7.10000000E+02  6.00000000E+01  0.00000000E+00
  7.10000000E+02  5.80000000E+01  0.00000000E+00
  7.10000000E+02  5.60000000E+01  0.00000000E+00
  7.10000000E+02  5.40000000E+01  0.00000000E+00
  7.10000000E+02  5.20000000E+01  0.00000000E+00
  7.10000000E+02  5.00000000E+01  0.00000000E+00
  7.10000000E+02  4.80000000E+01  0.00000000E+00
  7.10000000E+02  4.60000000E+01  0.00000000E+00
  7.10000000E+02  4.40000000E+01  0.00000000E+00
  7.10000000E+02  4.20000000E+01  0.00000000E+00
  7.10000000E+02  4.00000000E+01  0.00000000E+00
  7.10000000E+02  3.80000000E+01  0.00000000E+00
  7.10000000E+02  3.60000000E+01  0.00000000E+00
  7.10000000E+02  3.40000000E+01  0.00000000E+00
  7.10000000E+02  3.20000000E+01  0.00000000E+00
  7.10000000E+02  3.00000000E+01  0.00000000E+00
  7.10000000E+02  2.80000000E+01  0.00000000E+00
  7.10000000E+02  2.60000000E+01  0.00000000E+00
  7.10000000E+02  2.40000000E+01  0.00000000E+00
  7.10000000E+02  2.20000000E+01  0.00000000E+00
  7.10000000E+02  2.00000000E+01  0.00000000E+00
  7.10000000E+02  1.80000000E+01  0.00000000E+00
  7.10000000E+02  1.60000000E+01  0.00000000E+00
  7.10000000E+02  1.40000000E+01  0.00000000E+00
  7.10000000E+02  1.20000000E+01  0.00000000E+00
  7.10000000E+02  1.00000000E+01  0.00000000E+00
  7.10000000E+02  8.00000000E+00  0.00000000E+00
  7.10000000E+02  6.00000000E+00  0.00000000E+00
  7.10000000E+02  4.00000000E+00  0.00000000E+00
  7.10000000E+02  2.00000000E+00  0.00000000E+00
  7.10000000E+02 -3.33066907E-14  0.00000000E+00
  7.20000000E+02  1.00000000E+02  0.00000000E+00
  7.20000000E+02  9.80000000E+01  0.00000000E+00
  7.20000000E+02  9.60000000E+01  0.00000000E+00
  7.20000000E+02  9.40000000E+01  0.00000000E+00
  7.20000000E+02  9.20000000E+01  0.00000000E+00
  7.20000000E+02  9.00000000E+01  0.00000000E+00
  7.20000000E+02  8.80000000E+01  0.00000000E+00
  7.20000000E+02  8.60000000E+01  0.00000000E+00
  7.20000000E+02  8.40000000E+01  0.00000000E+00
  7.20000000E+02  8.20000000E+01  0.00000000E+00
  7.20000000E+02  8.00000000E+01  0.00000000E+00
  7.20000000E+02  7.80000000E+01  0.00000000E+00
  7.20000000E+02  7.60000000E+01  0.00000000E+00
  7.20000000E+02  7.40000000E+01  0.00000000E+00
  7.20000000E+02  7.20000000E+01  0.00000000E+00
  7.20000000E+02  7.00000000E+01  0.00000000E+00
  7.20000000E+02  6.80000000E+01  0.00000000E+00
  7.20000000E+02  6.60000000E+01  0.00000000E+00
  7.20000000E+02  6.40000000E+01  0.00000000E+00
  7.20000000E+02  6.20000000E+01  0.00000000E+00
  7.20000000E+02  6.00000000E+01  0.00000000E+00
  7.20000000E+02  5.80000000E+01  0.00000000E+00
  7.20000000E+02  5.60000000E+01  0.00000000E+00
  7.20000000E+02  5.40000000E+01  0.00000000E+00
  7.20000000E+02  5.20000000E+01  0.00000000E+00
  7.20000000E+02  5.00000000E+01  0.00000000E+00
  7.20000000E+02  4.80000000E+01  0.00000000E+00
  7.20000000E+02  4.60000000E+01  0.00000000E+00
  7.20000000E+02  4.40000000E+01  0.00000000E+00
  7.20000000E+02  4.20000000E+01  0.00000000E+00
  7.20000000E+02  4.00000000E+01  0.00000000E+00
  7.20000000E+02  3.80000000E+01  0.00000000E+00
  7.20000000E+02  3.60000000E+01  0.00000000E+00
  7.20000000E+02  3.40000000E+01  0.00000000E+00
  7.20000000E+02  3.20000000E+01  0.00000000E+00
  7.20000000E+02  3.00000000E+01  0.00000000E+00
  7.20000000E+02  2.80000000E+01  0.00000000E+00
  7.20000000E+02  2.60000000E+01  0.00000000E+00
  7.20000000E+02  2.40000000E+01  0.00000000E+00
  7.20000000E+02  2.20000000E+01  0.00000000E+00
  7.20000000E+02  2.00000000E+01  0.00000000E+00
  7.20000000E+02  1.80000000E+01  0.00000000E+00
  7.20000000E+02  1.60000000E+01  0.00000000E+00
  7.20000000E+02  1.40000000E+01  0.00000000E+00
  7.20000000E+02  1.20000000E+01  0.00000000E+00
  7.20000000E+02  1.00000000E+01  0.00000000E+00
  7.20000000E+02  8.00000000E+00  0.00000000E+00
  7.20000000E+02  6.00000000E+00  0.00000000E+00
  7.20000000E+02  4.00000000E+00  0.00000000E+00
  7.20000000E+02  2.00000000E+00  0.00000000E+00
  7.20000000E+02 -3.33066907E-14  0.00000000E+00
  7.30000000E+02  1.00000000E+02  0.00000000E+00
  7.30000000E+02  9.80000000E+01  0.00000000E+00
  7.30000000E+02  9.60000000E+01  0.00000000E+00
  7.30000000E+02  9.40000000E+01  0.00000000E+00
  7.30000000E+02  9.20000000E+01  0.00000000E+00
  7.30000000E+02  9.00000000E+01  0.00000000E+00
  7.30000000E+02  8.80000000E+01  0.00000000E+00
  7.30000000E+02  8.60000000E+01  0.00000000E+00
  7.30000000E+02  8.40000000E+01  0.00000000E+00
  7.30000000E+02  8.20000000E+01  0.00000000E+00
  7.30000000E+02  8.00000000E+01  0.00000000E+00
  7.30000000E+02  7.80000000E+01  0.00000000E+00
  7.30000000E+02  7.60000000E+01  0.00000000E+00
  7.30000000E+02  7.40000000E+01  0.00000000E+00
  7.30000000E+02  7.20000000E+01  0.00000000E+00
  7.30000000E+02  7.00000000E+01  0.00000000E+00
  7.30000000E+02  6.80000000E+01  0.00000000E+00
  7.30000000E+02  6.60000000E+01  0.00000000E+00
  7.30000000E+02  6.40000000E+01  0.00000000E+00
  7.30000000E+02  6.20000000E+01  0.00000000E+00
  7.30000000E+02  6.00000000E+01  0.00000000E+00
  7.30000000E+02  5.80000000E+01  0.00000000E+00
  7.30000000E+02  5.60000000E+01  0.00000000E+00
  7.30000000E+02  5.40000000E+01  0.00000000E+00
  7.30000000E+02  5.20000000E+01  0.00000000E+00
  7.30000000E+02  5.00000000E+01  0.00000000E+00
  7.30000000E+02  4.80000000E+01  0.00000000E+00
  7.30000000E+02  4.60000000E+01  0.00000000E+00
  7.30000000E+02  4.40000000E+01  0.00000000E+00
  7.30000000E+02  4.20000000E+01  0.00000000E+00
  7.30000000E+02  4.00000000E+01  0.00000000E+00
  7.30000000E+02  3.80000000E+01  0.00000000E+00
  7.30000000E+02  3.60000000E+01  0.00000000E+00
  7.30000000E+02  3.40000000E+01  0.00000000E+00
  7.30000000E+02  3.20000000E+01  0.00000000E+00
  7.30000000E+02  3.00000000E+01  0.00000000E+00
  7.30000000E+02  2.80000000E+01  0.00000000E+00
  7.30000000E+02  2.60000000E+01  0.00000000E+00
  7.30000000E+02  2.40000000E+01  0.00000000E+00
  7.30000000E+02  2.20000000E+01  0.00000000E+00
  7.30000000E+02  2.00000000E+01  0.00000000E+00
  7.30000000E+02  1.80000000E+01  0.00000000E+00
  7.30000000E+02  1.60000000E+01  0.00000000E+00
  7.30000000E+02  1.40000000E+01  0.00000000E+00
  7.30000000E+02  1.20000000E+01  0.00000000E+00
  7.30000000E+02  1.00000000E+01  0.00000000E+00
  7.30000000E+02  8.00000000E+00  0.00000000E+00
  7.30000000E+02  6.00000000E+00  0.00000000E+00
  7.30000000E+02  4.00000000E+00  0.00000000E+00
  7.30000000E+02  2.00000000E+00  0.00000000E+00
  7.30000000E+02 -3.33066907E-14  0.00000000E+00
  7.40000000E+02  1.00000000E+02  0.00000000E+00
  7.40000000E+02  9.80000000E+01  0.00000000E+00
  7.40000000E+02  9.60000000E+01  0.00000000E+00
  7.40000000E+02  9.40000000E+01  0.00000000E+00
  7.40000000E+02  9.20000000E+01  0.00000000E+00
  7.40000000E+02  9.00000000E+01  0.00000000E+00
  7.40000000E+02  8.80000000E+01  0.00000000E+00
  7.40000000E+02  8.60000000E+01  0.00000000E+00
  7.40000000E+02  8.40000000E+01  0.00000000E+00
  7.40000000E+02  8.20000000E+01  0.00000000E+00
  7.40000000E+02  8.00000000E+01  0.00000000E+00
  7.40000000E+02  7.80000000E+01  0.00000000E+00
  7.40000000E+02  7.60000000E+01  0.00000000E+00
  7.40000000E+02  7.40000000E+01  0.00000000E+00
  7.40000000E+02  7.20000000E+01  0.00000000E+00
  7.40000000E+02  7.00000000E+01  0.00000000E+00
  7.40000000E+02  6.80000000E+01  0.00000000E+00
  7.40000000E+02  6.60000000E+01  0.00000000E+00
  7.40000000E+02  6.40000000E+01  0.00000000E+00
  7.40000000E+02  6.20000000E+01  0.00000000E+00
  7.40000000E+02  6.00000000E+01  0.00000000E+00
  7.40000000E+02  5.80000000E+01  0.00000000E+00
  7.40000000E+02  5.60000000E+01  0.00000000E+00
  7.40000000E+02  5.40000000E+01  0.00000000E+00
  7.40000000E+02  5.20000000E+01  0.00000000E+00
  7.40000000E+02  5.00000000E+01  0.00000000E+00
  7.40000000E+02  4.80000000E+01  0.00000000E+00
  7.40000000E+02  4.60000000E+01  0.00000000E+00
  7.40000000E+02  4.40000000E+01  0.00000000E+00
  7.40000000E+02  4.20000000E+01  0.00000000E+00
  7.40000000E+02  4.00000000E+01  0.00000000E+00
  7.40000000E+02  3.80000000E+01  0.00000000E+00
  7.40000000E+02  3.60000000E+01  0.00000000E+00
  7.40000000E+02  3.40000000E+01  0.00000000E+00
  7.40000000E+02  3.20000000E+01  0.00000000E+00
  7.40000000E+02  3.00000000E+01  0.00000000E+00
  7.40000000E+02  2.80000000E+01  0.00000000E+00
  7.40000000E+02  2.60000000E+01  0.00000000E+00
  7.40000000E+02  2.40000000E+01  0.00000000E+00
  7.40000000E+02  2.20000000E+01  0.00000000E+00
  7.40000000E+02  2.00000000E+01  0.00000000E+00
  7.40000000E+02  1.80000000E+01  0.00000000E+00
  7.40000000E+02  1.60000000E+01  0.00000000E+00
  7.40000000E+02  1.40000000E+01  0.00000000E+00
  7.40000000E+02  1.20000000E+01  0.00000000E+00
  7.40000000E+02  1.00000000E+01  0.00000000E+00
  7.40000000E+02  8.00000000E+00  0.00000000E+00
  7.40000000E+02  6.00000000E+00  0.00000000E+00
  7.40000000E+02  4.00000000E+00  0.00000000E+00
  7.40000000E+02  2.00000000E+00  0.00000000E+00
  7.40000000E+02 -3.33066907E-14  0.00000000E+00
  7.50000000E+02  1.00000000E+02  0.00000000E+00
  7.50000000E+02  9.80000000E+01  0.00000000E+00
  7.50000000E+02  9.60000000E+01  0.00000000E+00
  7.50000000E+02  9.40000000E+01  0.00000000E+00
  7.50000000E+02  9.20000000E+01  0.00000000E+00
  7.50000000E+02  9.00000000E+01  0.00000000E+00
  7.50000000E+02  8.80000000E+01  0.00000000E+00
  7.50000000E+02  8.60000000E+01  0.00000000E+00
  7.50000000E+02  8.40000000E+01  0.00000000E+00
  7.50000000E+02  8.20000000E+01  0.00000000E+00
  7.50000000E+02  8.00000000E+01  0.00000000E+00
  7.50000000E+02  7.80000000E+01  0.00000000E+00
  7.50000000E+02  7.60000000E+01  0.00000000E+00
  7.50000000E+02  7.40000000E+01  0.00000000E+00
  7.50000000E+02  7.20000000E+01  0.00000000E+00
  7.50000000E+02  7.00000000E+01  0.00000000E+00
  7.50000000E+02  6.80000000E+01  0.00000000E+00
  7.50000000E+02  6.60000000E+01  0.00000000E+00
  7.50000000E+02  6.40000000E+01  0.00000000E+00
  7.50000000E+02  6.20000000E+01  0.00000000E+00
  7.50000000E+02  6.00000000E+01  0.00000000E+00
  7.50000000E+02  5.80000000E+01  0.00000000E+00
  7.50000000E+02  5.60000000E+01  0.00000000E+00
  7.50000000E+02  5.40000000E+01  0.00000000E+00
  7.50000000E+02  5.20000000E+01  0.00000000E+00
  7.50000000E+02  5.00000000E+01  0.00000000E+00
  7.50000000E+02  4.80000000E+01  0.00000000E+00
  7.50000000E+02  4.60000000E+01  0.00000000E+00
  7.50000000E+02  4.40000000E+01  0.00000000E+00
  7.50000000E+02  4.20000000E+01  0.00000000E+00
  7.50000000E+02  4.00000000E+01  0.00000000E+00
  7.50000000E+02  3.80000000E+01  0.00000000E+00
  7.50000000E+02  3.60000000E+01  0.00000000E+00
  7.50000000E+02  3.40000000E+01  0.00000000E+00
  7.50000000E+02  3.20000000E+01  0.00000000E+00
  7.50000000E+02  3.00000000E+01  0.00000000E+00
  7.50000000E+02  2.80000000E+01  0.00000000E+00
  7.50000000E+02  2.60000000E+01  0.00000000E+00
  7.50000000E+02  2.40000000E+01  0.00000000E+00
  7.50000000E+02  2.20000000E+01  0.00000000E+00
  7.50000000E+02  2.00000000E+01  0.00000000E+00
  7.50000000E+02  1.80000000E+01  0.00000000E+00
  7.50000000E+02  1.60000000E+01  0.00000000E+00
  7.50000000E+02  1.40000000E+01  0.00000000E+00
  7.50000000E+02  1.20000000E+01  0.00000000E+00
  7.50000000E+02  1.00000000E+01  0.00000000E+00
  7.50000000E+02  8.00000000E+00  0.00000000E+00
  7.50000000E+02  6.00000000E+00  0.00000000E+00
  7.50000000E+02  4.00000000E+00  0.00000000E+00
  7.50000000E+02  2.00000000E+00  0.00000000E+00
  7.50000000E+02 -3.33066907E-14  0.00000000E+00
  7.60000000E+02  1.00000000E+02  0.00000000E+00
  7.60000000E+02  9.80000000E+01  0.00000000E+00
  7.60000000E+02  9.60000000E+01  0.00000000E+00
  7.60000000E+02  9.40000000E+01  0.00000000E+00
  7.60000000E+02  9.20000000E+01  0.00000000E+00
  7.60000000E+02  9.00000000E+01  0.00000000E+00
  7.60000000E+02  8.80000000E+01  0.00000000E+00
  7.60000000E+02  8.60000000E+01  0.00000000E+00
  7.60000000E+02  8.40000000E+01  0.00000000E+00
  7.60000000E+02  8.20000000E+01  0.00000000E+00
  7.60000000E+02  8.00000000E+01  0.00000000E+00
  7.60000000E+02  7.80000000E+01  0.00000000E+00
  7.60000000E+02  7.60000000E+01  0.00000000E+00
  7.60000000E+02  7.40000000E+01  0.00000000E+00
  7.60000000E+02  7.20000000E+01  0.00000000E+00
  7.60000000E+02  7.00000000E+01  0.00000000E+00
  7.60000000E+02  6.80000000E+01  0.00000000E+00
  7.60000000E+02  6.60000000E+01  0.00000000E+00
  7.60000000E+02  6.40000000E+01  0.00000000E+00
  7.60000000E+02  6.20000000E+01  0.00000000E+00
  7.60000000E+02  6.00000000E+01  0.00000000E+00
  7.60000000E+02  5.80000000E+01  0.00000000E+00
  7.60000000E+02  5.60000000E+01  0.00000000E+00
  7.60000000E+02  5.40000000E+01  0.00000000E+00
  7.60000000E+02  5.20000000E+01  0.00000000E+00
  7.60000000E+02  5.00000000E+01  0.00000000E+00
  7.60000000E+02  4.80000000E+01  0.00000000E+00
  7.60000000E+02  4.60000000E+01  0.00000000E+00
  7.60000000E+02  4.40000000E+01  0.00000000E+00
  7.60000000E+02  4.20000000E+01  0.00000000E+00
  7.60000000E+02  4.00000000E+01  0.00000000E+00
  7.60000000E+02  3.80000000E+01  0.00000000E+00
  7.60000000E+02  3.60000000E+01  0.00000000E+00
  7.60000000E+02  3.40000000E+01  0.00000000E+00
  7.60000000E+02  3.20000000E+01  0.00000000E+00
  7.60000000E+02  3.00000000E+01  0.00000000E+00
  7.60000000E+02  2.80000000E+01  0.00000000E+00
  7.60000000E+02  2.60000000E+01  0.00000000E+00
  7.60000000E+02  2.40000000E+01  0.00000000E+00
  7.60000000E+02  2.20000000E+01  0.00000000E+00
  7.60000000E+02  2.00000000E+01  0.00000000E+00
  7.60000000E+02  1.80000000E+01  0.00000000E+00
  7.60000000E+02  1.60000000E+01  0.00000000E+00
  7.60000000E+02  1.40000000E+01  0.00000000E+00
  7.60000000E+02  1.20000000E+01  0.00000000E+00
  7.60000000E+02  1.00000000E+01  0.00000000E+00
  7.60000000E+02  8.00000000E+00  0.00000000E+00
  7.60000000E+02  6.00000000E+00  0.00000000E+00
  7.60000000E+02  4.00000000E+00  0.00000000E+00
  7.60000000E+02  2.00000000E+00  0.00000000E+00
  7.60000000E+02 -3.33066907E-14  0.00000000E+00
  7.70000000E+02  1.00000000E+02  0.00000000E+00
  7.70000000E+02  9.80000000E+01  0.00000000E+00
  7.70000000E+02  9.60000000E+01  0.00000000E+00
  7.70000000E+02  9.40000000E+01  0.00000000E+00
  7.70000000E+02  9.20000000E+01  0.00000000E+00
  7.70000000E+02  9.00000000E+01  0.00000000E+00
  7.70000000E+02  8.80000000E+01  0.00000000E+00
  7.70000000E+02  8.60000000E+01  0.00000000E+00
  7.70000000E+02  8.40000000E+01  0.00000000E+00
  7.70000000E+02  8.20000000E+01  0.00000000E+00
  7.70000000E+02  8.00000000E+01  0.00000000E+00
  7.70000000E+02  7.80000000E+01  0.00000000E+00
  7.70000000E+02  7.60000000E+01  0.00000000E+00
  7.70000000E+02  7.40000000E+01  0.00000000E+00
  7.70000000E+02  7.20000000E+01  0.00000000E+00
  7.70000000E+02  7.00000000E+01  0.00000000E+00
  7.70000000E+02  6.80000000E+01  0.00000000E+00
  7.70000000E+02  6.60000000E+01  0.00000000E+00
  7.70000000E+02  6.40000000E+01  0.00000000E+00
  7.70000000E+02  6.20000000E+01  0.00000000E+00
  7.70000000E+02  6.00000000E+01  0.00000000E+00
  7.70000000E+02  5.80000000E+01  0.00000000E+00
  7.70000000E+02  5.60000000E+01  0.00000000E+00
  7.70000000E+02  5.40000000E+01  0.00000000E+00
  7.70000000E+02  5.20000000E+01  0.00000000E+00
  7.70000000E+02  5.00000000E+01  0.00000000E+00
  7.70000000E+02  4.80000000E+01  0.00000000E+00
  7.70000000E+02  4.60000000E+01  0.00000000E+00
  7.70000000E+02  4.40000000E+01  0.00000000E+00
  7.70000000E+02  4.20000000E+01  0.00000000E+00
  7.70000000E+02  4.00000000E+01  0.00000000E+00
  7.70000000E+02  3.80000000E+01  0.00000000E+00
  7.70000000E+02  3.60000000E+01  0.00000000E+00
  7.70000000E+02  3.40000000E+01  0.00000000E+00
  7.70000000E+02  3.20000000E+01  0.00000000E+00
  7.70000000E+02  3.00000000E+01  0.00000000E+00
  7.70000000E+02  2.80000000E+01  0.00000000E+00
  7.70000000E+02  2.60000000E+01  0.00000000E+00
  7.70000000E+02  2.40000000E+01  0.00000000E+00
  7.70000000E+02  2.20000000E+01  0.00000000E+00
  7.70000000E+02  2.00000000E+01  0.00000000E+00
  7.70000000E+02  1.80000000E+01  0.00000000E+00
  7.70000000E+02  1.60000000E+01  0.00000000E+00
  7.70000000E+02  1.40000000E+01  0.00000000E+00
  7.70000000E+02  1.20000000E+01  0.00000000E+00
  7.70000000E+02  1.00000000E+01  0.00000000E+00
  7.70000000E+02  8.00000000E+00  0.00000000E+00
  7.70000000E+02  6.00000000E+00  0.00000000E+00
  7.70000000E+02  4.00000000E+00  0.00000000E+00
  7.70000000E+02  2.00000000E+00  0.00000000E+00
  7.70000000E+02 -3.33066907E-14  0.00000000E+00
  7.80000000E+02  1.00000000E+02  0.00000000E+00
  7.80000000E+02  9.80000000E+01  0.00000000E+00
  7.80000000E+02  9.60000000E+01  0.00000000E+00
  7.80000000E+02  9.40000000E+01  0.00000000E+00
  7.80000000E+02  9.20000000E+01  0.00000000E+00
  7.80000000E+02  9.00000000E+01  0.00000000E+00
  7.80000000E+02  8.80000000E+01  0.00000000E+00
  7.80000000E+02  8.60000000E+01  0.00000000E+00
  7.80000000E+02  8.40000000E+01  0.00000000E+00
  7.80000000E+02  8.20000000E+01  0.00000000E+00
  7.80000000E+02  8.00000000E+01  0.00000000E+00
  7.80000000E+02  7.80000000E+01  0.00000000E+00
  7.80000000E+02  7.60000000E+01  0.00000000E+00
  7.80000000E+02  7.40000000E+01  0.00000000E+00
  7.80000000E+02  7.20000000E+01  0.00000000E+00
  7.80000000E+02  7.00000000E+01  0.00000000E+00
  7.80000000E+02  6.80000000E+01  0.00000000E+00
  7.80000000E+02  6.60000000E+01  0.00000000E+00
  7.80000000E+02  6.40000000E+01  0.00000000E+00
  7.80000000E+02  6.20000000E+01  0.00000000E+00
  7.80000000E+02  6.00000000E+01  0.00000000E+00
  7.80000000E+02  5.80000000E+01  0.00000000E+00
  7.80000000E+02  5.60000000E+01  0.00000000E+00
  7.80000000E+02  5.40000000E+01  0.00000000E+00
  7.80000000E+02  5.20000000E+01  0.00000000E+00
  7.80000000E+02  5.00000000E+01  0.00000000E+00
  7.80000000E+02  4.80000000E+01  0.00000000E+00
  7.80000000E+02  4.60000000E+01  0.00000000E+00
  7.80000000E+02  4.40000000E+01  0.00000000E+00
  7.80000000E+02  4.20000000E+01  0.00000000E+00
  7.80000000E+02  4.00000000E+01  0.00000000E+00
  7.80000000E+02  3.80000000E+01  0.00000000E+00
  7.80000000E+02  3.60000000E+01  0.00000000E+00
  7.80000000E+02  3.40000000E+01  0.00000000E+00
  7.80000000E+02  3.20000000E+01  0.00000000E+00
  7.80000000E+02  3.00000000E+01  0.00000000E+00
  7.80000000E+02  2.80000000E+01  0.00000000E+00
  7.80000000E+02  2.60000000E+01  0.00000000E+00
  7.80000000E+02  2.40000000E+01  0.00000000E+00
  7.80000000E+02  2.20000000E+01  0.00000000E+00
  7.80000000E+02  2.00000000E+01  0.00000000E+00
  7.80000000E+02  1.80000000E+01  0.00000000E+00
  7.80000000E+02  1.60000000E+01  0.00000000E+00
  7.80000000E+02  1.40000000E+01  0.00000000E+00
  7.80000000E+02  1.20000000E+01  0.00000000E+00
  7.80000000E+02  1.00000000E+01  0.00000000E+00
  7.80000000E+02  8.00000000E+00  0.00000000E+00
  7.80000000E+02  6.00000000E+00  0.00000000E+00
  7.80000000E+02  4.00000000E+00  0.00000000E+00
  7.80000000E+02  2.00000000E+00  0.00000000E+00
  7.80000000E+02 -3.33066907E-14  0.00000000E+00
  7.90000000E+02  1.00000000E+02  0.00000000E+00
  7.90000000E+02  9.80000000E+01  0.00000000E+00
  7.90000000E+02  9.60000000E+01  0.00000000E+00
  7.90000000E+02  9.40000000E+01  0.00000000E+00
  7.90000000E+02  9.20000000E+01  0.00000000E+00
  7.90000000E+02  9.00000000E+01  0.00000000E+00
  7.90000000E+02  8.80000000E+01  0.00000000E+00
  7.90000000E+02  8.60000000E+01  0.00000000E+00
  7.90000000E+02  8.40000000E+01  0.00000000E+00
  7.90000000E+02  8.20000000E+01  0.00000000E+00
  7.90000000E+02  8.00000000E+01  0.00000000E+00
  7.90000000E+02  7.80000000E+01  0.00000000E+00
  7.90000000E+02  7.60000000E+01  0.00000000E+00
  7.90000000E+02  7.40000000E+01  0.00000000E+00
  7.90000000E+02  7.20000000E+01  0.00000000E+00
  7.90000000E+02  7.00000000E+01  0.00000000E+00
  7.90000000E+02  6.80000000E+01  0.00000000E+00
  7.90000000E+02  6.60000000E+01  0.00000000E+00
  7.90000000E+02  6.40000000E+01  0.00000000E+00
  7.90000000E+02  6.20000000E+01  0.00000000E+00
  7.90000000E+02  6.00000000E+01  0.00000000E+00
  7.90000000E+02  5.80000000E+01  0.00000000E+00
  7.90000000E+02  5.60000000E+01  0.00000000E+00
  7.90000000E+02  5.40000000E+01  0.00000000E+00
  7.90000000E+02  5.20000000E+01  0.00000000E+00
  7.90000000E+02  5.00000000E+01  0.00000000E+00
  7.90000000E+02  4.80000000E+01  0.00000000E+00
  7.90000000E+02  4.60000000E+01  0.00000000E+00
  7.90000000E+02  4.40000000E+01  0.00000000E+00
  7.90000000E+02  4.20000000E+01  0.00000000E+00
  7.90000000E+02  4.00000000E+01  0.00000000E+00
  7.90000000E+02  3.80000000E+01  0.00000000E+00
  7.90000000E+02  3.60000000E+01  0.00000000E+00
  7.90000000E+02  3.40000000E+01  0.00000000E+00
  7.90000000E+02  3.20000000E+01  0.00000000E+00
  7.90000000E+02  3.00000000E+01  0.00000000E+00
  7.90000000E+02  2.80000000E+01  0.00000000E+00
  7.90000000E+02  2.60000000E+01  0.00000000E+00
  7.90000000E+02  2.40000000E+01  0.00000000E+00
  7.90000000E+02  2.20000000E+01  0.00000000E+00
  7.90000000E+02  2.00000000E+01  0.00000000E+00
  7.90000000E+02  1.80000000E+01  0.00000000E+00
  7.90000000E+02  1.60000000E+01  0.00000000E+00
  7.90000000E+02  1.40000000E+01  0.00000000E+00
  7.90000000E+02  1.20000000E+01  0.00000000E+00
  7.90000000E+02  1.00000000E+01  0.00000000E+00
  7.90000000E+02  8.00000000E+00  0.00000000E+00
  7.90000000E+02  6.00000000E+00  0.00000000E+00
  7.90000000E+02  4.00000000E+00  0.00000000E+00
  7.90000000E+02  2.00000000E+00  0.00000000E+00
  7.90000000E+02 -3.33066907E-14  0.00000000E+00
  8.00000000E+02  1.00000000E+02  0.00000000E+00
  8.00000000E+02  9.80000000E+01  0.00000000E+00
  8.00000000E+02  9.60000000E+01  0.00000000E+00
  8.00000000E+02  9.40000000E+01  0.00000000E+00
  8.00000000E+02  9.20000000E+01  0.00000000E+00
  8.00000000E+02  9.00000000E+01  0.00000000E+00
  8.00000000E+02  8.80000000E+01  0.00000000E+00
  8.00000000E+02  8.60000000E+01  0.00000000E+00
  8.00000000E+02  8.40000000E+01  0.00000000E+00
  8.00000000E+02  8.20000000E+01  0.00000000E+00
  8.00000000E+02  8.00000000E+01  0.00000000E+00
  8.00000000E+02  7.80000000E+01  0.00000000E+00
  8.00000000E+02  7.60000000E+01  0.00000000E+00
  8.00000000E+02  7.40000000E+01  0.00000000E+00
  8.00000000E+02  7.20000000E+01  0.00000000E+00
  8.00000000E+02  7.00000000E+01  0.00000000E+00
  8.00000000E+02  6.80000000E+01  0.00000000E+00
  8.00000000E+02  6.60000000E+01  0.00000000E+00
  8.00000000E+02  6.40000000E+01  0.00000000E+00
  8.00000000E+02  6.20000000E+01  0.00000000E+00
  8.00000000E+02  6.00000000E+01  0.00000000E+00
  8.00000000E+02  5.80000000E+01  0.00000000E+00
  8.00000000E+02  5.60000000E+01  0.00000000E+00
  8.00000000E+02  5.40000000E+01  0.00000000E+00
  8.00000000E+02  5.20000000E+01  0.00000000E+00
  8.00000000E+02  5.00000000E+01  0.00000000E+00
  8.00000000E+02  4.80000000E+01  0.00000000E+00
  8.00000000E+02  4.60000000E+01  0.00000000E+00
  8.00000000E+02  4.40000000E+01  0.00000000E+00
  8.00000000E+02  4.20000000E+01  0.00000000E+00
  8.00000000E+02  4.00000000E+01  0.00000000E+00
  8.00000000E+02  3.80000000E+01  0.00000000E+00
  8.00000000E+02  3.60000000E+01  0.00000000E+00
  8.00000000E+02  3.40000000E+01  0.00000000E+00
  8.00000000E+02  3.20000000E+01  0.00000000E+00
  8.00000000E+02  3.00000000E+01  0.00000000E+00
  8.00000000E+02  2.80000000E+01  0.00000000E+00
  8.00000000E+02  2.60000000E+01  0.00000000E+00
  8.00000000E+02  2.40000000E+01  0.00000000E+00
  8.00000000E+02  2.20000000E+01  0.00000000E+00
  8.00000000E+02  2.00000000E+01  0.00000000E+00
  8.00000000E+02  1.80000000E+01  0.00000000E+00
  8.00000000E+02  1.60000000E+01  0.00000000E+00
  8.00000000E+02  1.40000000E+01  0.00000000E+00
  8.00000000E+02  1.20000000E+01  0.00000000E+00
  8.00000000E+02  1.00000000E+01  0.00000000E+00
  8.00000000E+02  8.00000000E+00  0.00000000E+00
  8.00000000E+02  6.00000000E+00  0.00000000E+00
  8.00000000E+02  4.00000000E+00  0.00000000E+00
  8.00000000E+02  2.00000000E+00  0.00000000E+00
  8.00000000E+02 -3.33066907E-14  0.00000000E+00
  8.10000000E+02  1.00000000E+02  0.00000000E+00
  8.10000000E+02  9.80000000E+01  0.00000000E+00
  8.10000000E+02  9.60000000E+01  0.00000000E+00
  8.10000000E+02  9.40000000E+01  0.00000000E+00
  8.10000000E+02  9.20000000E+01  0.00000000E+00
  8.10000000E+02  9.00000000E+01  0.00000000E+00
  8.10000000E+02  8.80000000E+01  0.00000000E+00
  8.10000000E+02  8.60000000E+01  0.00000000E+00
  8.10000000E+02  8.40000000E+01  0.00000000E+00
  8.10000000E+02  8.20000000E+01  0.00000000E+00
  8.10000000E+02  8.00000000E+01  0.00000000E+00
  8.10000000E+02  7.80000000E+01  0.00000000E+00
  8.10000000E+02  7.60000000E+01  0.00000000E+00
  8.10000000E+02  7.40000000E+01  0.00000000E+00
  8.10000000E+02  7.20000000E+01  0.00000000E+00
  8.10000000E+02  7.00000000E+01  0.00000000E+00
  8.10000000E+02  6.80000000E+01  0.00000000E+00
  8.10000000E+02  6.60000000E+01  0.00000000E+00
  8.10000000E+02  6.40000000E+01  0.00000000E+00
  8.10000000E+02  6.20000000E+01  0.00000000E+00
  8.10000000E+02  6.00000000E+01  0.00000000E+00
  8.10000000E+02  5.80000000E+01  0.00000000E+00
  8.10000000E+02  5.60000000E+01  0.00000000E+00
  8.10000000E+02  5.40000000E+01  0.00000000E+00
  8.10000000E+02  5.20000000E+01  0.00000000E+00
  8.10000000E+02  5.00000000E+01  0.00000000E+00
  8.10000000E+02  4.80000000E+01  0.00000000E+00
  8.10000000E+02  4.60000000E+01  0.00000000E+00
  8.10000000E+02  4.40000000E+01  0.00000000E+00
  8.10000000E+02  4.20000000E+01  0.00000000E+00
  8.10000000E+02  4.00000000E+01  0.00000000E+00
  8.10000000E+02  3.80000000E+01  0.00000000E+00
  8.10000000E+02  3.60000000E+01  0.00000000E+00
  8.10000000E+02  3.40000000E+01  0.00000000E+00
  8.10000000E+02  3.20000000E+01  0.00000000E+00
  8.10000000E+02  3.00000000E+01  0.00000000E+00
  8.10000000E+02  2.80000000E+01  0.00000000E+00
  8.10000000E+02  2.60000000E+01  0.00000000E+00
  8.10000000E+02  2.40000000E+01  0.00000000E+00
  8.10000000E+02  2.20000000E+01  0.00000000E+00
  8.10000000E+02  2.00000000E+01  0.00000000E+00
  8.10000000E+02  1.80000000E+01  0.00000000E+00
  8.10000000E+02  1.60000000E+01  0.00000000E+00
  8.10000000E+02  1.40000000E+01  0.00000000E+00
  8.10000000E+02  1.20000000E+01  0.00000000E+00
  8.10000000E+02  1.00000000E+01  0.00000000E+00
  8.10000000E+02  8.00000000E+00  0.00000000E+00
  8.10000000E+02  6.00000000E+00  0.00000000E+00
  8.10000000E+02  4.00000000E+00  0.00000000E+00
  8.10000000E+02  2.00000000E+00  0.00000000E+00
  8.10000000E+02 -3.33066907E-14  0.00000000E+00
  8.20000000E+02  1.00000000E+02  0.00000000E+00
  8.20000000E+02  9.80000000E+01  0.00000000E+00
  8.20000000E+02  9.60000000E+01  0.00000000E+00
  8.20000000E+02  9.40000000E+01  0.00000000E+00
  8.20000000E+02  9.20000000E+01  0.00000000E+00
  8.20000000E+02  9.00000000E+01  0.00000000E+00
  8.20000000E+02  8.80000000E+01  0.00000000E+00
  8.20000000E+02  8.60000000E+01  0.00000000E+00
  8.20000000E+02  8.40000000E+01  0.00000000E+00
  8.20000000E+02  8.20000000E+01  0.00000000E+00
  8.20000000E+02  8.00000000E+01  0.00000000E+00
  8.20000000E+02  7.80000000E+01  0.00000000E+00
  8.20000000E+02  7.60000000E+01  0.00000000E+00
  8.20000000E+02  7.40000000E+01  0.00000000E+00
  8.20000000E+02  7.20000000E+01  0.00000000E+00
  8.20000000E+02  7.00000000E+01  0.00000000E+00
  8.20000000E+02  6.80000000E+01  0.00000000E+00
  8.20000000E+02  6.60000000E+01  0.00000000E+00
  8.20000000E+02  6.40000000E+01  0.00000000E+00
  8.20000000E+02  6.20000000E+01  0.00000000E+00
  8.20000000E+02  6.00000000E+01  0.00000000E+00
  8.20000000E+02  5.80000000E+01  0.00000000E+00
  8.20000000E+02  5.60000000E+01  0.00000000E+00
  8.20000000E+02  5.40000000E+01  0.00000000E+00
  8.20000000E+02  5.20000000E+01  0.00000000E+00
  8.20000000E+02  5.00000000E+01  0.00000000E+00
  8.20000000E+02  4.80000000E+01  0.00000000E+00
  8.20000000E+02  4.60000000E+01  0.00000000E+00
  8.20000000E+02  4.40000000E+01  0.00000000E+00
  8.20000000E+02  4.20000000E+01  0.00000000E+00
  8.20000000E+02  4.00000000E+01  0.00000000E+00
  8.20000000E+02  3.80000000E+01  0.00000000E+00
  8.20000000E+02  3.60000000E+01  0.00000000E+00
  8.20000000E+02  3.40000000E+01  0.00000000E+00
  8.20000000E+02  3.20000000E+01  0.00000000E+00
  8.20000000E+02  3.00000000E+01  0.00000000E+00
  8.20000000E+02  2.80000000E+01  0.00000000E+00
  8.20000000E+02  2.60000000E+01  0.00000000E+00
  8.20000000E+02  2.40000000E+01  0.00000000E+00
  8.20000000E+02  2.20000000E+01  0.00000000E+00
  8.20000000E+02  2.00000000E+01  0.00000000E+00
  8.20000000E+02  1.80000000E+01  0.00000000E+00
  8.20000000E+02  1.60000000E+01  0.00000000E+00
  8.20000000E+02  1.40000000E+01  0.00000000E+00
  8.20000000E+02  1.20000000E+01  0.00000000E+00
  8.20000000E+02  1.00000000E+01  0.00000000E+00
  8.20000000E+02  8.00000000E+00  0.00000000E+00
  8.20000000E+02  6.00000000E+00  0.00000000E+00
  8.20000000E+02  4.00000000E+00  0.00000000E+00
  8.20000000E+02  2.00000000E+00  0.00000000E+00
  8.20000000E+02 -3.33066907E-14  0.00000000E+00
  8.30000000E+02  1.00000000E+02  0.00000000E+00
  8.30000000E+02  9.80000000E+01  0.00000000E+00
  8.30000000E+02  9.60000000E+01  0.00000000E+00
  8.30000000E+02  9.40000000E+01  0.00000000E+00
  8.30000000E+02  9.20000000E+01  0.00000000E+00
  8.30000000E+02  9.00000000E+01  0.00000000E+00
  8.30000000E+02  8.80000000E+01  0.00000000E+00
  8.30000000E+02  8.60000000E+01  0.00000000E+00
  8.30000000E+02  8.40000000E+01  0.00000000E+00
  8.30000000E+02  8.20000000E+01  0.00000000E+00
  8.30000000E+02  8.00000000E+01  0.00000000E+00
  8.30000000E+02  7.80000000E+01  0.00000000E+00
  8.30000000E+02  7.60000000E+01  0.00000000E+00
  8.30000000E+02  7.40000000E+01  0.00000000E+00
  8.30000000E+02  7.20000000E+01  0.00000000E+00
  8.30000000E+02  7.00000000E+01  0.00000000E+00
  8.30000000E+02  6.80000000E+01  0.00000000E+00
  8.30000000E+02  6.60000000E+01  0.00000000E+00
  8.30000000E+02  6.40000000E+01  0.00000000E+00
  8.30000000E+02  6.20000000E+01  0.00000000E+00
  8.30000000E+02  6.00000000E+01  0.00000000E+00
  8.30000000E+02  5.80000000E+01  0.00000000E+00
  8.30000000E+02  5.60000000E+01  0.00000000E+00
  8.30000000E+02  5.40000000E+01  0.00000000E+00
  8.30000000E+02  5.20000000E+01  0.00000000E+00
  8.30000000E+02  5.00000000E+01  0.00000000E+00
  8.30000000E+02  4.80000000E+01  0.00000000E+00
  8.30000000E+02  4.60000000E+01  0.00000000E+00
  8.30000000E+02  4.40000000E+01  0.00000000E+00
  8.30000000E+02  4.20000000E+01  0.00000000E+00
  8.30000000E+02  4.00000000E+01  0.00000000E+00
  8.30000000E+02  3.80000000E+01  0.00000000E+00
  8.30000000E+02  3.60000000E+01  0.00000000E+00
  8.30000000E+02  3.40000000E+01  0.00000000E+00
  8.30000000E+02  3.20000000E+01  0.00000000E+00
  8.30000000E+02  3.00000000E+01  0.00000000E+00
  8.30000000E+02  2.80000000E+01  0.00000000E+00
  8.30000000E+02  2.60000000E+01  0.00000000E+00
  8.30000000E+02  2.40000000E+01  0.00000000E+00
  8.30000000E+02  2.20000000E+01  0.00000000E+00
  8.30000000E+02  2.00000000E+01  0.00000000E+00
  8.30000000E+02  1.80000000E+01  0.00000000E+00
  8.30000000E+02  1.60000000E+01  0.00000000E+00
  8.30000000E+02  1.40000000E+01  0.00000000E+00
  8.30000000E+02  1.20000000E+01  0.00000000E+00
  8.30000000E+02  1.00000000E+01  0.00000000E+00
  8.30000000E+02  8.00000000E+00  0.00000000E+00
  8.30000000E+02  6.00000000E+00  0.00000000E+00
  8.30000000E+02  4.00000000E+00  0.00000000E+00
  8.30000000E+02  2.00000000E+00  0.00000000E+00
  8.30000000E+02 -3.33066907E-14  0.00000000E+00
  8.40000000E+02  1.00000000E+02  0.00000000E+00
  8.40000000E+02  9.80000000E+01  0.00000000E+00
  8.40000000E+02  9.60000000E+01  0.00000000E+00
  8.40000000E+02  9.40000000E+01  0.00000000E+00
  8.40000000E+02  9.20000000E+01  0.00000000E+00
  8.40000000E+02  9.00000000E+01  0.00000000E+00
  8.40000000E+02  8.80000000E+01  0.00000000E+00
  8.40000000E+02  8.60000000E+01  0.00000000E+00
  8.40000000E+02  8.40000000E+01  0.00000000E+00
  8.40000000E+02  8.20000000E+01  0.00000000E+00
  8.40000000E+02  8.00000000E+01  0.00000000E+00
  8.40000000E+02  7.80000000E+01  0.00000000E+00
  8.40000000E+02  7.60000000E+01  0.00000000E+00
  8.40000000E+02  7.40000000E+01  0.00000000E+00
  8.40000000E+02  7.20000000E+01  0.00000000E+00
  8.40000000E+02  7.00000000E+01  0.00000000E+00
  8.40000000E+02  6.80000000E+01  0.00000000E+00
  8.40000000E+02  6.60000000E+01  0.00000000E+00
  8.40000000E+02  6.40000000E+01  0.00000000E+00
  8.40000000E+02  6.20000000E+01  0.00000000E+00
  8.40000000E+02  6.00000000E+01  0.00000000E+00
  8.40000000E+02  5.80000000E+01  0.00000000E+00
  8.40000000E+02  5.60000000E+01  0.00000000E+00
  8.40000000E+02  5.40000000E+01  0.00000000E+00
  8.40000000E+02  5.20000000E+01  0.00000000E+00
  8.40000000E+02  5.00000000E+01  0.00000000E+00
  8.40000000E+02  4.80000000E+01  0.00000000E+00
  8.40000000E+02  4.60000000E+01  0.00000000E+00
  8.40000000E+02  4.40000000E+01  0.00000000E+00
  8.40000000E+02  4.20000000E+01  0.00000000E+00
  8.40000000E+02  4.00000000E+01  0.00000000E+00
  8.40000000E+02  3.80000000E+01  0.00000000E+00
  8.40000000E+02  3.60000000E+01  0.00000000E+00
  8.40000000E+02  3.40000000E+01  0.00000000E+00
  8.40000000E+02  3.20000000E+01  0.00000000E+00
  8.40000000E+02  3.00000000E+01  0.00000000E+00
  8.40000000E+02  2.80000000E+01  0.00000000E+00
  8.40000000E+02  2.60000000E+01  0.00000000E+00
  8.40000000E+02  2.40000000E+01  0.00000000E+00
  8.40000000E+02  2.20000000E+01  0.00000000E+00
  8.40000000E+02  2.00000000E+01  0.00000000E+00
  8.40000000E+02  1.80000000E+01  0.00000000E+00
  8.40000000E+02  1.60000000E+01  0.00000000E+00
  8.40000000E+02  1.40000000E+01  0.00000000E+00
  8.40000000E+02  1.20000000E+01  0.00000000E+00
  8.40000000E+02  1.00000000E+01  0.00000000E+00
  8.40000000E+02  8.00000000E+00  0.00000000E+00
  8.40000000E+02  6.00000000E+00  0.00000000E+00
  8.40000000E+02  4.00000000E+00  0.00000000E+00
  8.40000000E+02  2.00000000E+00  0.00000000E+00
  8.40000000E+02 -3.33066907E-14  0.00000000E+00
  8.50000000E+02  1.00000000E+02  0.00000000E+00
  8.50000000E+02  9.80000000E+01  0.00000000E+00
  8.50000000E+02  9.60000000E+01  0.00000000E+00
  8.50000000E+02  9.40000000E+01  0.00000000E+00
  8.50000000E+02  9.20000000E+01  0.00000000E+00
  8.50000000E+02  9.00000000E+01  0.00000000E+00
  8.50000000E+02  8.80000000E+01  0.00000000E+00
  8.50000000E+02  8.60000000E+01  0.00000000E+00
  8.50000000E+02  8.40000000E+01  0.00000000E+00
  8.50000000E+02  8.20000000E+01  0.00000000E+00
  8.50000000E+02  8.00000000E+01  0.00000000E+00
  8.50000000E+02  7.80000000E+01  0.00000000E+00
  8.50000000E+02  7.60000000E+01  0.00000000E+00
  8.50000000E+02  7.40000000E+01  0.00000000E+00
  8.50000000E+02  7.20000000E+01  0.00000000E+00
  8.50000000E+02  7.00000000E+01  0.00000000E+00
  8.50000000E+02  6.80000000E+01  0.00000000E+00
  8.50000000E+02  6.60000000E+01  0.00000000E+00
  8.50000000E+02  6.40000000E+01  0.00000000E+00
  8.50000000E+02  6.20000000E+01  0.00000000E+00
  8.50000000E+02  6.00000000E+01  0.00000000E+00
  8.50000000E+02  5.80000000E+01  0.00000000E+00
  8.50000000E+02  5.60000000E+01  0.00000000E+00
  8.50000000E+02  5.40000000E+01  0.00000000E+00
  8.50000000E+02  5.20000000E+01  0.00000000E+00
  8.50000000E+02  5.00000000E+01  0.00000000E+00
  8.50000000E+02  4.80000000E+01  0.00000000E+00
  8.50000000E+02  4.60000000E+01  0.00000000E+00
  8.50000000E+02  4.40000000E+01  0.00000000E+00
  8.50000000E+02  4.20000000E+01  0.00000000E+00
  8.50000000E+02  4.00000000E+01  0.00000000E+00
  8.50000000E+02  3.80000000E+01  0.00000000E+00
  8.50000000E+02  3.60000000E+01  0.00000000E+00
  8.50000000E+02  3.40000000E+01  0.00000000E+00
  8.50000000E+02  3.20000000E+01  0.00000000E+00
  8.50000000E+02  3.00000000E+01  0.00000000E+00
  8.50000000E+02  2.80000000E+01  0.00000000E+00
  8.50000000E+02  2.60000000E+01  0.00000000E+00
  8.50000000E+02  2.40000000E+01  0.00000000E+00
  8.50000000E+02  2.20000000E+01  0.00000000E+00
  8.50000000E+02  2.00000000E+01  0.00000000E+00
  8.50000000E+02  1.80000000E+01  0.00000000E+00
  8.50000000E+02  1.60000000E+01  0.00000000E+00
  8.50000000E+02  1.40000000E+01  0.00000000E+00
  8.50000000E+02  1.20000000E+01  0.00000000E+00
  8.50000000E+02  1.00000000E+01  0.00000000E+00
  8.50000000E+02  8.00000000E+00  0.00000000E+00
  8.50000000E+02  6.00000000E+00  0.00000000E+00
  8.50000000E+02  4.00000000E+00  0.00000000E+00
  8.50000000E+02  2.00000000E+00  0.00000000E+00
  8.50000000E+02 -3.33066907E-14  0.00000000E+00
  8.60000000E+02  1.00000000E+02  0.00000000E+00
  8.60000000E+02  9.80000000E+01  0.00000000E+00
  8.60000000E+02  9.60000000E+01  0.00000000E+00
  8.60000000E+02  9.40000000E+01  0.00000000E+00
  8.60000000E+02  9.20000000E+01  0.00000000E+00
  8.60000000E+02  9.00000000E+01  0.00000000E+00
  8.60000000E+02  8.80000000E+01  0.00000000E+00
  8.60000000E+02  8.60000000E+01  0.00000000E+00
  8.60000000E+02  8.40000000E+01  0.00000000E+00
  8.60000000E+02  8.20000000E+01  0.00000000E+00
  8.60000000E+02  8.00000000E+01  0.00000000E+00
  8.60000000E+02  7.80000000E+01  0.00000000E+00
  8.60000000E+02  7.60000000E+01  0.00000000E+00
  8.60000000E+02  7.40000000E+01  0.00000000E+00
  8.60000000E+02  7.20000000E+01  0.00000000E+00
  8.60000000E+02  7.00000000E+01  0.00000000E+00
  8.60000000E+02  6.80000000E+01  0.00000000E+00
  8.60000000E+02  6.60000000E+01  0.00000000E+00
  8.60000000E+02  6.40000000E+01  0.00000000E+00
  8.60000000E+02  6.20000000E+01  0.00000000E+00
  8.60000000E+02  6.00000000E+01  0.00000000E+00
  8.60000000E+02  5.80000000E+01  0.00000000E+00
  8.60000000E+02  5.60000000E+01  0.00000000E+00
  8.60000000E+02  5.40000000E+01  0.00000000E+00
  8.60000000E+02  5.20000000E+01  0.00000000E+00
  8.60000000E+02  5.00000000E+01  0.00000000E+00
  8.60000000E+02  4.80000000E+01  0.00000000E+00
  8.60000000E+02  4.60000000E+01  0.00000000E+00
  8.60000000E+02  4.40000000E+01  0.00000000E+00
  8.60000000E+02  4.20000000E+01  0.00000000E+00
  8.60000000E+02  4.00000000E+01  0.00000000E+00
  8.60000000E+02  3.80000000E+01  0.00000000E+00
  8.60000000E+02  3.60000000E+01  0.00000000E+00
  8.60000000E+02  3.40000000E+01  0.00000000E+00
  8.60000000E+02  3.20000000E+01  0.00000000E+00
  8.60000000E+02  3.00000000E+01  0.00000000E+00
  8.60000000E+02  2.80000000E+01  0.00000000E+00
  8.60000000E+02  2.60000000E+01  0.00000000E+00
  8.60000000E+02  2.40000000E+01  0.00000000E+00
  8.60000000E+02  2.20000000E+01  0.00000000E+00
  8.60000000E+02  2.00000000E+01  0.00000000E+00
  8.60000000E+02  1.80000000E+01  0.00000000E+00
  8.60000000E+02  1.60000000E+01  0.00000000E+00
  8.60000000E+02  1.40000000E+01  0.00000000E+00
  8.60000000E+02  1.20000000E+01  0.00000000E+00
  8.60000000E+02  1.00000000E+01  0.00000000E+00
  8.60000000E+02  8.00000000E+00  0.00000000E+00
  8.60000000E+02  6.00000000E+00  0.00000000E+00
  8.60000000E+02  4.00000000E+00  0.00000000E+00
  8.60000000E+02  2.00000000E+00  0.00000000E+00
  8.60000000E+02 -3.33066907E-14  0.00000000E+00
  8.70000000E+02  1.00000000E+02  0.00000000E+00
  8.70000000E+02  9.80000000E+01  0.00000000E+00
  8.70000000E+02  9.60000000E+01  0.00000000E+00
  8.70000000E+02  9.40000000E+01  0.00000000E+00
  8.70000000E+02  9.20000000E+01  0.00000000E+00
  8.70000000E+02  9.00000000E+01  0.00000000E+00
  8.70000000E+02  8.80000000E+01  0.00000000E+00
  8.70000000E+02  8.60000000E+01  0.00000000E+00
  8.70000000E+02  8.40000000E+01  0.00000000E+00
  8.70000000E+02  8.20000000E+01  0.00000000E+00
  8.70000000E+02  8.00000000E+01  0.00000000E+00
  8.70000000E+02  7.80000000E+01  0.00000000E+00
  8.70000000E+02  7.60000000E+01  0.00000000E+00
  8.70000000E+02  7.40000000E+01  0.00000000E+00
  8.70000000E+02  7.20000000E+01  0.00000000E+00
  8.70000000E+02  7.00000000E+01  0.00000000E+00
  8.70000000E+02  6.80000000E+01  0.00000000E+00
  8.70000000E+02  6.60000000E+01  0.00000000E+00
  8.70000000E+02  6.40000000E+01  0.00000000E+00
  8.70000000E+02  6.20000000E+01  0.00000000E+00
  8.70000000E+02  6.00000000E+01  0.00000000E+00
  8.70000000E+02  5.80000000E+01  0.00000000E+00
  8.70000000E+02  5.60000000E+01  0.00000000E+00
  8.70000000E+02  5.40000000E+01  0.00000000E+00
  8.70000000E+02  5.20000000E+01  0.00000000E+00
  8.70000000E+02  5.00000000E+01  0.00000000E+00
  8.70000000E+02  4.80000000E+01  0.00000000E+00
  8.70000000E+02  4.60000000E+01  0.00000000E+00
  8.70000000E+02  4.40000000E+01  0.00000000E+00
  8.70000000E+02  4.20000000E+01  0.00000000E+00
  8.70000000E+02  4.00000000E+01  0.00000000E+00
  8.70000000E+02  3.80000000E+01  0.00000000E+00
  8.70000000E+02  3.60000000E+01  0.00000000E+00
  8.70000000E+02  3.40000000E+01  0.00000000E+00
  8.70000000E+02  3.20000000E+01  0.00000000E+00
  8.70000000E+02  3.00000000E+01  0.00000000E+00
  8.70000000E+02  2.80000000E+01  0.00000000E+00
  8.70000000E+02  2.60000000E+01  0.00000000E+00
  8.70000000E+02  2.40000000E+01  0.00000000E+00
  8.70000000E+02  2.20000000E+01  0.00000000E+00
  8.70000000E+02  2.00000000E+01  0.00000000E+00
  8.70000000E+02  1.80000000E+01  0.00000000E+00
  8.70000000E+02  1.60000000E+01  0.00000000E+00
  8.70000000E+02  1.40000000E+01  0.00000000E+00
  8.70000000E+02  1.20000000E+01  0.00000000E+00
  8.70000000E+02  1.00000000E+01  0.00000000E+00
  8.70000000E+02  8.00000000E+00  0.00000000E+00
  8.70000000E+02  6.00000000E+00  0.00000000E+00
  8.70000000E+02  4.00000000E+00  0.00000000E+00
  8.70000000E+02  2.00000000E+00  0.00000000E+00
  8.70000000E+02 -3.33066907E-14  0.00000000E+00
  8.80000000E+02  1.00000000E+02  0.00000000E+00
  8.80000000E+02  9.80000000E+01  0.00000000E+00
  8.80000000E+02  9.60000000E+01  0.00000000E+00
  8.80000000E+02  9.40000000E+01  0.00000000E+00
  8.80000000E+02  9.20000000E+01  0.00000000E+00
  8.80000000E+02  9.00000000E+01  0.00000000E+00
  8.80000000E+02  8.80000000E+01  0.00000000E+00
  8.80000000E+02  8.60000000E+01  0.00000000E+00
  8.80000000E+02  8.40000000E+01  0.00000000E+00
  8.80000000E+02  8.20000000E+01  0.00000000E+00
  8.80000000E+02  8.00000000E+01  0.00000000E+00
  8.80000000E+02  7.80000000E+01  0.00000000E+00
  8.80000000E+02  7.60000000E+01  0.00000000E+00
  8.80000000E+02  7.40000000E+01  0.00000000E+00
  8.80000000E+02  7.20000000E+01  0.00000000E+00
  8.80000000E+02  7.00000000E+01  0.00000000E+00
  8.80000000E+02  6.80000000E+01  0.00000000E+00
  8.80000000E+02  6.60000000E+01  0.00000000E+00
  8.80000000E+02  6.40000000E+01  0.00000000E+00
  8.80000000E+02  6.20000000E+01  0.00000000E+00
  8.80000000E+02  6.00000000E+01  0.00000000E+00
  8.80000000E+02  5.80000000E+01  0.00000000E+00
  8.80000000E+02  5.60000000E+01  0.00000000E+00
  8.80000000E+02  5.40000000E+01  0.00000000E+00
  8.80000000E+02  5.20000000E+01  0.00000000E+00
  8.80000000E+02  5.00000000E+01  0.00000000E+00
  8.80000000E+02  4.80000000E+01  0.00000000E+00
  8.80000000E+02  4.60000000E+01  0.00000000E+00
  8.80000000E+02  4.40000000E+01  0.00000000E+00
  8.80000000E+02  4.20000000E+01  0.00000000E+00
  8.80000000E+02  4.00000000E+01  0.00000000E+00
  8.80000000E+02  3.80000000E+01  0.00000000E+00
  8.80000000E+02  3.60000000E+01  0.00000000E+00
  8.80000000E+02  3.40000000E+01  0.00000000E+00
  8.80000000E+02  3.20000000E+01  0.00000000E+00
  8.80000000E+02  3.00000000E+01  0.00000000E+00
  8.80000000E+02  2.80000000E+01  0.00000000E+00
  8.80000000E+02  2.60000000E+01  0.00000000E+00
  8.80000000E+02  2.40000000E+01  0.00000000E+00
  8.80000000E+02  2.20000000E+01  0.00000000E+00
  8.80000000E+02  2.00000000E+01  0.00000000E+00
  8.80000000E+02  1.80000000E+01  0.00000000E+00
  8.80000000E+02  1.60000000E+01  0.00000000E+00
  8.80000000E+02  1.40000000E+01  0.00000000E+00
  8.80000000E+02  1.20000000E+01  0.00000000E+00
  8.80000000E+02  1.00000000E+01  0.00000000E+00
  8.80000000E+02  8.00000000E+00  0.00000000E+00
  8.80000000E+02  6.00000000E+00  0.00000000E+00
  8.80000000E+02  4.00000000E+00  0.00000000E+00
  8.80000000E+02  2.00000000E+00  0.00000000E+00
  8.80000000E+02 -3.33066907E-14  0.00000000E+00
  8.90000000E+02  1.00000000E+02  0.00000000E+00
  8.90000000E+02  9.80000000E+01  0.00000000E+00
  8.90000000E+02  9.60000000E+01  0.00000000E+00
  8.90000000E+02  9.40000000E+01  0.00000000E+00
  8.90000000E+02  9.20000000E+01  0.00000000E+00
  8.90000000E+02  9.00000000E+01  0.00000000E+00
  8.90000000E+02  8.80000000E+01  0.00000000E+00
  8.90000000E+02  8.60000000E+01  0.00000000E+00
  8.90000000E+02  8.40000000E+01  0.00000000E+00
  8.90000000E+02  8.20000000E+01  0.00000000E+00
  8.90000000E+02  8.00000000E+01  0.00000000E+00
  8.90000000E+02  7.80000000E+01  0.00000000E+00
  8.90000000E+02  7.60000000E+01  0.00000000E+00
  8.90000000E+02  7.40000000E+01  0.00000000E+00
  8.90000000E+02  7.20000000E+01  0.00000000E+00
  8.90000000E+02  7.00000000E+01  0.00000000E+00
  8.90000000E+02  6.80000000E+01  0.00000000E+00
  8.90000000E+02  6.60000000E+01  0.00000000E+00
  8.90000000E+02  6.40000000E+01  0.00000000E+00
  8.90000000E+02  6.20000000E+01  0.00000000E+00
  8.90000000E+02  6.00000000E+01  0.00000000E+00
  8.90000000E+02  5.80000000E+01  0.00000000E+00
  8.90000000E+02  5.60000000E+01  0.00000000E+00
  8.90000000E+02  5.40000000E+01  0.00000000E+00
  8.90000000E+02  5.20000000E+01  0.00000000E+00
  8.90000000E+02  5.00000000E+01  0.00000000E+00
  8.90000000E+02  4.80000000E+01  0.00000000E+00
  8.90000000E+02  4.60000000E+01  0.00000000E+00
  8.90000000E+02  4.40000000E+01  0.00000000E+00
  8.90000000E+02  4.20000000E+01  0.00000000E+00
  8.90000000E+02  4.00000000E+01  0.00000000E+00
  8.90000000E+02  3.80000000E+01  0.00000000E+00
  8.90000000E+02  3.60000000E+01  0.00000000E+00
  8.90000000E+02  3.40000000E+01  0.00000000E+00
  8.90000000E+02  3.20000000E+01  0.00000000E+00
  8.90000000E+02  3.00000000E+01  0.00000000E+00
  8.90000000E+02  2.80000000E+01  0.00000000E+00
  8.90000000E+02  2.60000000E+01  0.00000000E+00
  8.90000000E+02  2.40000000E+01  0.00000000E+00
  8.90000000E+02  2.20000000E+01  0.00000000E+00
  8.90000000E+02  2.00000000E+01  0.00000000E+00
  8.90000000E+02  1.80000000E+01  0.00000000E+00
  8.90000000E+02  1.60000000E+01  0.00000000E+00
  8.90000000E+02  1.40000000E+01  0.00000000E+00
  8.90000000E+02  1.20000000E+01  0.00000000E+00
  8.90000000E+02  1.00000000E+01  0.00000000E+00
  8.90000000E+02  8.00000000E+00  0.00000000E+00
  8.90000000E+02  6.00000000E+00  0.00000000E+00
  8.90000000E+02  4.00000000E+00  0.00000000E+00
  8.90000000E+02  2.00000000E+00  0.00000000E+00
  8.90000000E+02 -3.33066907E-14  0.00000000E+00
  9.00000000E+02  1.00000000E+02  0.00000000E+00
  9.00000000E+02  9.80000000E+01  0.00000000E+00
  9.00000000E+02  9.60000000E+01  0.00000000E+00
  9.00000000E+02  9.40000000E+01  0.00000000E+00
  9.00000000E+02  9.20000000E+01  0.00000000E+00
  9.00000000E+02  9.00000000E+01  0.00000000E+00
  9.00000000E+02  8.80000000E+01  0.00000000E+00
  9.00000000E+02  8.60000000E+01  0.00000000E+00
  9.00000000E+02  8.40000000E+01  0.00000000E+00
  9.00000000E+02  8.20000000E+01  0.00000000E+00
  9.00000000E+02  8.00000000E+01  0.00000000E+00
  9.00000000E+02  7.80000000E+01  0.00000000E+00
  9.00000000E+02  7.60000000E+01  0.00000000E+00
  9.00000000E+02  7.40000000E+01  0.00000000E+00
  9.00000000E+02  7.20000000E+01  0.00000000E+00
  9.00000000E+02  7.00000000E+01  0.00000000E+00
  9.00000000E+02  6.80000000E+01  0.00000000E+00
  9.00000000E+02  6.60000000E+01  0.00000000E+00
  9.00000000E+02  6.40000000E+01  0.00000000E+00
  9.00000000E+02  6.20000000E+01  0.00000000E+00
  9.00000000E+02  6.00000000E+01  0.00000000E+00
  9.00000000E+02  5.80000000E+01  0.00000000E+00
  9.00000000E+02  5.60000000E+01  0.00000000E+00
  9.00000000E+02  5.40000000E+01  0.00000000E+00
  9.00000000E+02  5.20000000E+01  0.00000000E+00
  9.00000000E+02  5.00000000E+01  0.00000000E+00
  9.00000000E+02  4.80000000E+01  0.00000000E+00
  9.00000000E+02  4.60000000E+01  0.00000000E+00
  9.00000000E+02  4.40000000E+01  0.00000000E+00
  9.00000000E+02  4.20000000E+01  0.00000000E+00
  9.00000000E+02  4.00000000E+01  0.00000000E+00
  9.00000000E+02  3.80000000E+01  0.00000000E+00
  9.00000000E+02  3.60000000E+01  0.00000000E+00
  9.00000000E+02  3.40000000E+01  0.00000000E+00
  9.00000000E+02  3.20000000E+01  0.00000000E+00
  9.00000000E+02  3.00000000E+01  0.00000000E+00
  9.00000000E+02  2.80000000E+01  0.00000000E+00
  9.00000000E+02  2.60000000E+01  0.00000000E+00
  9.00000000E+02  2.40000000E+01  0.00000000E+00
  9.00000000E+02  2.20000000E+01  0.00000000E+00
  9.00000000E+02  2.00000000E+01  0.00000000E+00
  9.00000000E+02  1.80000000E+01  0.00000000E+00
  9.00000000E+02  1.60000000E+01  0.00000000E+00
  9.00000000E+02  1.40000000E+01  0.00000000E+00
  9.00000000E+02  1.20000000E+01  0.00000000E+00
  9.00000000E+02  1.00000000E+01  0.00000000E+00
  9.00000000E+02  8.00000000E+00  0.00000000E+00
  9.00000000E+02  6.00000000E+00  0.00000000E+00
  9.00000000E+02  4.00000000E+00  0.00000000E+00
  9.00000000E+02  2.00000000E+00  0.00000000E+00
  9.00000000E+02 -3.33066907E-14  0.00000000E+00
  9.10000000E+02  1.00000000E+02  0.00000000E+00
  9.10000000E+02  9.80000000E+01  0.00000000E+00
  9.10000000E+02  9.60000000E+01  0.00000000E+00
  9.10000000E+02  9.40000000E+01  0.00000000E+00
  9.10000000E+02  9.20000000E+01  0.00000000E+00
  9.10000000E+02  9.00000000E+01  0.00000000E+00
  9.10000000E+02  8.80000000E+01  0.00000000E+00
  9.10000000E+02  8.60000000E+01  0.00000000E+00
  9.10000000E+02  8.40000000E+01  0.00000000E+00
  9.10000000E+02  8.20000000E+01  0.00000000E+00
  9.10000000E+02  8.00000000E+01  0.00000000E+00
  9.10000000E+02  7.80000000E+01  0.00000000E+00
  9.10000000E+02  7.60000000E+01  0.00000000E+00
  9.10000000E+02  7.40000000E+01  0.00000000E+00
  9.10000000E+02  7.20000000E+01  0.00000000E+00
  9.10000000E+02  7.00000000E+01  0.00000000E+00
  9.10000000E+02  6.80000000E+01  0.00000000E+00
  9.10000000E+02  6.60000000E+01  0.00000000E+00
  9.10000000E+02  6.40000000E+01  0.00000000E+00
  9.10000000E+02  6.20000000E+01  0.00000000E+00
  9.10000000E+02  6.00000000E+01  0.00000000E+00
  9.10000000E+02  5.80000000E+01  0.00000000E+00
  9.10000000E+02  5.60000000E+01  0.00000000E+00
  9.10000000E+02  5.40000000E+01  0.00000000E+00
  9.10000000E+02  5.20000000E+01  0.00000000E+00
  9.10000000E+02  5.00000000E+01  0.00000000E+00
  9.10000000E+02  4.80000000E+01  0.00000000E+00
  9.10000000E+02  4.60000000E+01  0.00000000E+00
  9.10000000E+02  4.40000000E+01  0.00000000E+00
  9.10000000E+02  4.20000000E+01  0.00000000E+00
  9.10000000E+02  4.00000000E+01  0.00000000E+00
  9.10000000E+02  3.80000000E+01  0.00000000E+00
  9.10000000E+02  3.60000000E+01  0.00000000E+00
  9.10000000E+02  3.40000000E+01  0.00000000E+00
  9.10000000E+02  3.20000000E+01  0.00000000E+00
  9.10000000E+02  3.00000000E+01  0.00000000E+00
  9.10000000E+02  2.80000000E+01  0.00000000E+00
  9.10000000E+02  2.60000000E+01  0.00000000E+00
  9.10000000E+02  2.40000000E+01  0.00000000E+00
  9.10000000E+02  2.20000000E+01  0.00000000E+00
  9.10000000E+02  2.00000000E+01  0.00000000E+00
  9.10000000E+02  1.80000000E+01  0.00000000E+00
  9.10000000E+02  1.60000000E+01  0.00000000E+00
  9.10000000E+02  1.40000000E+01  0.00000000E+00
  9.10000000E+02  1.20000000E+01  0.00000000E+00
  9.10000000E+02  1.00000000E+01  0.00000000E+00
  9.10000000E+02  8.00000000E+00  0.00000000E+00
  9.10000000E+02  6.00000000E+00  0.00000000E+00
  9.10000000E+02  4.00000000E+00  0.00000000E+00
  9.10000000E+02  2.00000000E+00  0.00000000E+00
  9.10000000E+02 -3.33066907E-14  0.00000000E+00
  9.20000000E+02  1.00000000E+02  0.00000000E+00
  9.20000000E+02  9.80000000E+01  0.00000000E+00
  9.20000000E+02  9.60000000E+01  0.00000000E+00
  9.20000000E+02  9.40000000E+01  0.00000000E+00
  9.20000000E+02  9.20000000E+01  0.00000000E+00
  9.20000000E+02  9.00000000E+01  0.00000000E+00
  9.20000000E+02  8.80000000E+01  0.00000000E+00
  9.20000000E+02  8.60000000E+01  0.00000000E+00
  9.20000000E+02  8.40000000E+01  0.00000000E+00
  9.20000000E+02  8.20000000E+01  0.00000000E+00
  9.20000000E+02  8.00000000E+01  0.00000000E+00
  9.20000000E+02  7.80000000E+01  0.00000000E+00
  9.20000000E+02  7.60000000E+01  0.00000000E+00
  9.20000000E+02  7.40000000E+01  0.00000000E+00
  9.20000000E+02  7.20000000E+01  0.00000000E+00
  9.20000000E+02  7.00000000E+01  0.00000000E+00
  9.20000000E+02  6.80000000E+01  0.00000000E+00
  9.20000000E+02  6.60000000E+01  0.00000000E+00
  9.20000000E+02  6.40000000E+01  0.00000000E+00
  9.20000000E+02  6.20000000E+01  0.00000000E+00
  9.20000000E+02  6.00000000E+01  0.00000000E+00
  9.20000000E+02  5.80000000E+01  0.00000000E+00
  9.20000000E+02  5.60000000E+01  0.00000000E+00
  9.20000000E+02  5.40000000E+01  0.00000000E+00
  9.20000000E+02  5.20000000E+01  0.00000000E+00
  9.20000000E+02  5.00000000E+01  0.00000000E+00
  9.20000000E+02  4.80000000E+01  0.00000000E+00
  9.20000000E+02  4.60000000E+01  0.00000000E+00
  9.20000000E+02  4.40000000E+01  0.00000000E+00
  9.20000000E+02  4.20000000E+01  0.00000000E+00
  9.20000000E+02  4.00000000E+01  0.00000000E+00
  9.20000000E+02  3.80000000E+01  0.00000000E+00
  9.20000000E+02  3.60000000E+01  0.00000000E+00
  9.20000000E+02  3.40000000E+01  0.00000000E+00
  9.20000000E+02  3.20000000E+01  0.00000000E+00
  9.20000000E+02  3.00000000E+01  0.00000000E+00
  9.20000000E+02  2.80000000E+01  0.00000000E+00
  9.20000000E+02  2.60000000E+01  0.00000000E+00
  9.20000000E+02  2.40000000E+01  0.00000000E+00
  9.20000000E+02  2.20000000E+01  0.00000000E+00
  9.20000000E+02  2.00000000E+01  0.00000000E+00
  9.20000000E+02  1.80000000E+01  0.00000000E+00
  9.20000000E+02  1.60000000E+01  0.00000000E+00
  9.20000000E+02  1.40000000E+01  0.00000000E+00
  9.20000000E+02  1.20000000E+01  0.00000000E+00
  9.20000000E+02  1.00000000E+01  0.00000000E+00
  9.20000000E+02  8.00000000E+00  0.00000000E+00
  9.20000000E+02  6.00000000E+00  0.00000000E+00
  9.20000000E+02  4.00000000E+00  0.00000000E+00
  9.20000000E+02  2.00000000E+00  0.00000000E+00
  9.20000000E+02 -3.33066907E-14  0.00000000E+00
  9.30000000E+02  1.00000000E+02  0.00000000E+00
  9.30000000E+02  9.80000000E+01  0.00000000E+00
  9.30000000E+02  9.60000000E+01  0.00000000E+00
  9.30000000E+02  9.40000000E+01  0.00000000E+00
  9.30000000E+02  9.20000000E+01  0.00000000E+00
  9.30000000E+02  9.00000000E+01  0.00000000E+00
  9.30000000E+02  8.80000000E+01  0.00000000E+00
  9.30000000E+02  8.60000000E+01  0.00000000E+00
  9.30000000E+02  8.40000000E+01  0.00000000E+00
  9.30000000E+02  8.20000000E+01  0.00000000E+00
  9.30000000E+02  8.00000000E+01  0.00000000E+00
  9.30000000E+02  7.80000000E+01  0.00000000E+00
  9.30000000E+02  7.60000000E+01  0.00000000E+00
  9.30000000E+02  7.40000000E+01  0.00000000E+00
  9.30000000E+02  7.20000000E+01  0.00000000E+00
  9.30000000E+02  7.00000000E+01  0.00000000E+00
  9.30000000E+02  6.80000000E+01  0.00000000E+00
  9.30000000E+02  6.60000000E+01  0.00000000E+00
  9.30000000E+02  6.40000000E+01  0.00000000E+00
  9.30000000E+02  6.20000000E+01  0.00000000E+00
  9.30000000E+02  6.00000000E+01  0.00000000E+00
  9.30000000E+02  5.80000000E+01  0.00000000E+00
  9.30000000E+02  5.60000000E+01  0.00000000E+00
  9.30000000E+02  5.40000000E+01  0.00000000E+00
  9.30000000E+02  5.20000000E+01  0.00000000E+00
  9.30000000E+02  5.00000000E+01  0.00000000E+00
  9.30000000E+02  4.80000000E+01  0.00000000E+00
  9.30000000E+02  4.60000000E+01  0.00000000E+00
  9.30000000E+02  4.40000000E+01  0.00000000E+00
  9.30000000E+02  4.20000000E+01  0.00000000E+00
  9.30000000E+02  4.00000000E+01  0.00000000E+00
  9.30000000E+02  3.80000000E+01  0.00000000E+00
  9.30000000E+02  3.60000000E+01  0.00000000E+00
  9.30000000E+02  3.40000000E+01  0.00000000E+00
  9.30000000E+02  3.20000000E+01  0.00000000E+00
  9.30000000E+02  3.00000000E+01  0.00000000E+00
  9.30000000E+02  2.80000000E+01  0.00000000E+00
  9.30000000E+02  2.60000000E+01  0.00000000E+00
  9.30000000E+02  2.40000000E+01  0.00000000E+00
  9.30000000E+02  2.20000000E+01  0.00000000E+00
  9.30000000E+02  2.00000000E+01  0.00000000E+00
  9.30000000E+02  1.80000000E+01  0.00000000E+00
  9.30000000E+02  1.60000000E+01  0.00000000E+00
  9.30000000E+02  1.40000000E+01  0.00000000E+00
  9.30000000E+02  1.20000000E+01  0.00000000E+00
  9.30000000E+02  1.00000000E+01  0.00000000E+00
  9.30000000E+02  8.00000000E+00  0.00000000E+00
  9.30000000E+02  6.00000000E+00  0.00000000E+00
  9.30000000E+02  4.00000000E+00  0.00000000E+00
  9.30000000E+02  2.00000000E+00  0.00000000E+00
  9.30000000E+02 -3.33066907E-14  0.00000000E+00
  9.40000000E+02  1.00000000E+02  0.00000000E+00
  9.40000000E+02  9.80000000E+01  0.00000000E+00
  9.40000000E+02  9.60000000E+01  0.00000000E+00
  9.40000000E+02  9.40000000E+01  0.00000000E+00
  9.40000000E+02  9.20000000E+01  0.00000000E+00
  9.40000000E+02  9.00000000E+01  0.00000000E+00
  9.40000000E+02  8.80000000E+01  0.00000000E+00
  9.40000000E+02  8.60000000E+01  0.00000000E+00
  9.40000000E+02  8.40000000E+01  0.00000000E+00
  9.40000000E+02  8.20000000E+01  0.00000000E+00
  9.40000000E+02  8.00000000E+01  0.00000000E+00
  9.40000000E+02  7.80000000E+01  0.00000000E+00
  9.40000000E+02  7.60000000E+01  0.00000000E+00
  9.40000000E+02  7.40000000E+01  0.00000000E+00
  9.40000000E+02  7.20000000E+01  0.00000000E+00
  9.40000000E+02  7.00000000E+01  0.00000000E+00
  9.40000000E+02  6.80000000E+01  0.00000000E+00
  9.40000000E+02  6.60000000E+01  0.00000000E+00
  9.40000000E+02  6.40000000E+01  0.00000000E+00
  9.40000000E+02  6.20000000E+01  0.00000000E+00
  9.40000000E+02  6.00000000E+01  0.00000000E+00
  9.40000000E+02  5.80000000E+01  0.00000000E+00
  9.40000000E+02  5.60000000E+01  0.00000000E+00
  9.40000000E+02  5.40000000E+01  0.00000000E+00
  9.40000000E+02  5.20000000E+01  0.00000000E+00
  9.40000000E+02  5.00000000E+01  0.00000000E+00
  9.40000000E+02  4.80000000E+01  0.00000000E+00
  9.40000000E+02  4.60000000E+01  0.00000000E+00
  9.40000000E+02  4.40000000E+01  0.00000000E+00
  9.40000000E+02  4.20000000E+01  0.00000000E+00
  9.40000000E+02  4.00000000E+01  0.00000000E+00
  9.40000000E+02  3.80000000E+01  0.00000000E+00
  9.40000000E+02  3.60000000E+01  0.00000000E+00
  9.40000000E+02  3.40000000E+01  0.00000000E+00
  9.40000000E+02  3.20000000E+01  0.00000000E+00
  9.40000000E+02  3.00000000E+01  0.00000000E+00
  9.40000000E+02  2.80000000E+01  0.00000000E+00
  9.40000000E+02  2.60000000E+01  0.00000000E+00
  9.40000000E+02  2.40000000E+01  0.00000000E+00
  9.40000000E+02  2.20000000E+01  0.00000000E+00
  9.40000000E+02  2.00000000E+01  0.00000000E+00
  9.40000000E+02  1.80000000E+01  0.00000000E+00
  9.40000000E+02  1.60000000E+01  0.00000000E+00
  9.40000000E+02  1.40000000E+01  0.00000000E+00
  9.40000000E+02  1.20000000E+01  0.00000000E+00
  9.40000000E+02  1.00000000E+01  0.00000000E+00
  9.40000000E+02  8.00000000E+00  0.00000000E+00
  9.40000000E+02  6.00000000E+00  0.00000000E+00
  9.40000000E+02  4.00000000E+00  0.00000000E+00
  9.40000000E+02  2.00000000E+00  0.00000000E+00
  9.40000000E+02 -3.33066907E-14  0.00000000E+00
  9.50000000E+02  1.00000000E+02  0.00000000E+00
  9.50000000E+02  9.80000000E+01  0.00000000E+00
  9.50000000E+02  9.60000000E+01  0.00000000E+00
  9.50000000E+02  9.40000000E+01  0.00000000E+00
  9.50000000E+02  9.20000000E+01  0.00000000E+00
  9.50000000E+02  9.00000000E+01  0.00000000E+00
  9.50000000E+02  8.80000000E+01  0.00000000E+00
  9.50000000E+02  8.60000000E+01  0.00000000E+00
  9.50000000E+02  8.40000000E+01  0.00000000E+00
  9.50000000E+02  8.20000000E+01  0.00000000E+00
  9.50000000E+02  8.00000000E+01  0.00000000E+00
  9.50000000E+02  7.80000000E+01  0.00000000E+00
  9.50000000E+02  7.60000000E+01  0.00000000E+00
  9.50000000E+02  7.40000000E+01  0.00000000E+00
  9.50000000E+02  7.20000000E+01  0.00000000E+00
  9.50000000E+02  7.00000000E+01  0.00000000E+00
  9.50000000E+02  6.80000000E+01  0.00000000E+00
  9.50000000E+02  6.60000000E+01  0.00000000E+00
  9.50000000E+02  6.40000000E+01  0.00000000E+00
  9.50000000E+02  6.20000000E+01  0.00000000E+00
  9.50000000E+02  6.00000000E+01  0.00000000E+00
  9.50000000E+02  5.80000000E+01  0.00000000E+00
  9.50000000E+02  5.60000000E+01  0.00000000E+00
  9.50000000E+02  5.40000000E+01  0.00000000E+00
  9.50000000E+02  5.20000000E+01  0.00000000E+00
  9.50000000E+02  5.00000000E+01  0.00000000E+00
  9.50000000E+02  4.80000000E+01  0.00000000E+00
  9.50000000E+02  4.60000000E+01  0.00000000E+00
  9.50000000E+02  4.40000000E+01  0.00000000E+00
  9.50000000E+02  4.20000000E+01  0.00000000E+00
  9.50000000E+02  4.00000000E+01  0.00000000E+00
  9.50000000E+02  3.80000000E+01  0.00000000E+00
  9.50000000E+02  3.60000000E+01  0.00000000E+00
  9.50000000E+02  3.40000000E+01  0.00000000E+00
  9.50000000E+02  3.20000000E+01  0.00000000E+00
  9.50000000E+02  3.00000000E+01  0.00000000E+00
  9.50000000E+02  2.80000000E+01  0.00000000E+00
  9.50000000E+02  2.60000000E+01  0.00000000E+00
  9.50000000E+02  2.40000000E+01  0.00000000E+00
  9.50000000E+02  2.20000000E+01  0.00000000E+00
  9.50000000E+02  2.00000000E+01  0.00000000E+00
  9.50000000E+02  1.80000000E+01  0.00000000E+00
  9.50000000E+02  1.60000000E+01  0.00000000E+00
  9.50000000E+02  1.40000000E+01  0.00000000E+00
  9.50000000E+02  1.20000000E+01  0.00000000E+00
  9.50000000E+02  1.00000000E+01  0.00000000E+00
  9.50000000E+02  8.00000000E+00  0.00000000E+00
  9.50000000E+02  6.00000000E+00  0.00000000E+00
  9.50000000E+02  4.00000000E+00  0.00000000E+00
  9.50000000E+02  2.00000000E+00  0.00000000E+00
  9.50000000E+02 -3.33066907E-14  0.00000000E+00
  9.60000000E+02  1.00000000E+02  0.00000000E+00
  9.60000000E+02  9.80000000E+01  0.00000000E+00
  9.60000000E+02  9.60000000E+01  0.00000000E+00
  9.60000000E+02  9.40000000E+01  0.00000000E+00
  9.60000000E+02  9.20000000E+01  0.00000000E+00
  9.60000000E+02  9.00000000E+01  0.00000000E+00
  9.60000000E+02  8.80000000E+01  0.00000000E+00
  9.60000000E+02  8.60000000E+01  0.00000000E+00
  9.60000000E+02  8.40000000E+01  0.00000000E+00
  9.60000000E+02  8.20000000E+01  0.00000000E+00
  9.60000000E+02  8.00000000E+01  0.00000000E+00
  9.60000000E+02  7.80000000E+01  0.00000000E+00
  9.60000000E+02  7.60000000E+01  0.00000000E+00
  9.60000000E+02  7.40000000E+01  0.00000000E+00
  9.60000000E+02  7.20000000E+01  0.00000000E+00
  9.60000000E+02  7.00000000E+01  0.00000000E+00
  9.60000000E+02  6.80000000E+01  0.00000000E+00
  9.60000000E+02  6.60000000E+01  0.00000000E+00
  9.60000000E+02  6.40000000E+01  0.00000000E+00
  9.60000000E+02  6.20000000E+01  0.00000000E+00
  9.60000000E+02  6.00000000E+01  0.00000000E+00
  9.60000000E+02  5.80000000E+01  0.00000000E+00
  9.60000000E+02  5.60000000E+01  0.00000000E+00
  9.60000000E+02  5.40000000E+01  0.00000000E+00
  9.60000000E+02  5.20000000E+01  0.00000000E+00
  9.60000000E+02  5.00000000E+01  0.00000000E+00
  9.60000000E+02  4.80000000E+01  0.00000000E+00
  9.60000000E+02  4.60000000E+01  0.00000000E+00
  9.60000000E+02  4.40000000E+01  0.00000000E+00
  9.60000000E+02  4.20000000E+01  0.00000000E+00
  9.60000000E+02  4.00000000E+01  0.00000000E+00
  9.60000000E+02  3.80000000E+01  0.00000000E+00
  9.60000000E+02  3.60000000E+01  0.00000000E+00
  9.60000000E+02  3.40000000E+01  0.00000000E+00
  9.60000000E+02  3.20000000E+01  0.00000000E+00
  9.60000000E+02  3.00000000E+01  0.00000000E+00
  9.60000000E+02  2.80000000E+01  0.00000000E+00
  9.60000000E+02  2.60000000E+01  0.00000000E+00
  9.60000000E+02  2.40000000E+01  0.00000000E+00
  9.60000000E+02  2.20000000E+01  0.00000000E+00
  9.60000000E+02  2.00000000E+01  0.00000000E+00
  9.60000000E+02  1.80000000E+01  0.00000000E+00
  9.60000000E+02  1.60000000E+01  0.00000000E+00
  9.60000000E+02  1.40000000E+01  0.00000000E+00
  9.60000000E+02  1.20000000E+01  0.00000000E+00
  9.60000000E+02  1.00000000E+01  0.00000000E+00
  9.60000000E+02  8.00000000E+00  0.00000000E+00
  9.60000000E+02  6.00000000E+00  0.00000000E+00
  9.60000000E+02  4.00000000E+00  0.00000000E+00
  9.60000000E+02  2.00000000E+00  0.00000000E+00
  9.60000000E+02 -3.33066907E-14  0.00000000E+00
  9.70000000E+02  1.00000000E+02  0.00000000E+00
  9.70000000E+02  9.80000000E+01  0.00000000E+00
  9.70000000E+02  9.60000000E+01  0.00000000E+00
  9.70000000E+02  9.40000000E+01  0.00000000E+00
  9.70000000E+02  9.20000000E+01  0.00000000E+00
  9.70000000E+02  9.00000000E+01  0.00000000E+00
  9.70000000E+02  8.80000000E+01  0.00000000E+00
  9.70000000E+02  8.60000000E+01  0.00000000E+00
  9.70000000E+02  8.40000000E+01  0.00000000E+00
  9.70000000E+02  8.20000000E+01  0.00000000E+00
  9.70000000E+02  8.00000000E+01  0.00000000E+00
  9.70000000E+02  7.80000000E+01  0.00000000E+00
  9.70000000E+02  7.60000000E+01  0.00000000E+00
  9.70000000E+02  7.40000000E+01  0.00000000E+00
  9.70000000E+02  7.20000000E+01  0.00000000E+00
  9.70000000E+02  7.00000000E+01  0.00000000E+00
  9.70000000E+02  6.80000000E+01  0.00000000E+00
  9.70000000E+02  6.60000000E+01  0.00000000E+00
  9.70000000E+02  6.40000000E+01  0.00000000E+00
  9.70000000E+02  6.20000000E+01  0.00000000E+00
  9.70000000E+02  6.00000000E+01  0.00000000E+00
  9.70000000E+02  5.80000000E+01  0.00000000E+00
  9.70000000E+02  5.60000000E+01  0.00000000E+00
  9.70000000E+02  5.40000000E+01  0.00000000E+00
  9.70000000E+02  5.20000000E+01  0.00000000E+00
  9.70000000E+02  5.00000000E+01  0.00000000E+00
  9.70000000E+02  4.80000000E+01  0.00000000E+00
  9.70000000E+02  4.60000000E+01  0.00000000E+00
  9.70000000E+02  4.40000000E+01  0.00000000E+00
  9.70000000E+02  4.20000000E+01  0.00000000E+00
  9.70000000E+02  4.00000000E+01  0.00000000E+00
  9.70000000E+02  3.80000000E+01  0.00000000E+00
  9.70000000E+02  3.60000000E+01  0.00000000E+00
  9.70000000E+02  3.40000000E+01  0.00000000E+00
  9.70000000E+02  3.20000000E+01  0.00000000E+00
  9.70000000E+02  3.00000000E+01  0.00000000E+00
  9.70000000E+02  2.80000000E+01  0.00000000E+00
  9.70000000E+02  2.60000000E+01  0.00000000E+00
  9.70000000E+02  2.40000000E+01  0.00000000E+00
  9.70000000E+02  2.20000000E+01  0.00000000E+00
  9.70000000E+02  2.00000000E+01  0.00000000E+00
  9.70000000E+02  1.80000000E+01  0.00000000E+00
  9.70000000E+02  1.60000000E+01  0.00000000E+00
  9.70000000E+02  1.40000000E+01  0.00000000E+00
  9.70000000E+02  1.20000000E+01  0.00000000E+00
  9.70000000E+02  1.00000000E+01  0.00000000E+00
  9.70000000E+02  8.00000000E+00  0.00000000E+00
  9.70000000E+02  6.00000000E+00  0.00000000E+00
  9.70000000E+02  4.00000000E+00  0.00000000E+00
  9.70000000E+02  2.00000000E+00  0.00000000E+00
  9.70000000E+02 -3.33066907E-14  0.00000000E+00
  9.80000000E+02  1.00000000E+02  0.00000000E+00
  9.80000000E+02  9.80000000E+01  0.00000000E+00
  9.80000000E+02  9.60000000E+01  0.00000000E+00
  9.80000000E+02  9.40000000E+01  0.00000000E+00
  9.80000000E+02  9.20000000E+01  0.00000000E+00
  9.80000000E+02  9.00000000E+01  0.00000000E+00
  9.80000000E+02  8.80000000E+01  0.00000000E+00
  9.80000000E+02  8.60000000E+01  0.00000000E+00
  9.80000000E+02  8.40000000E+01  0.00000000E+00
  9.80000000E+02  8.20000000E+01  0.00000000E+00
  9.80000000E+02  8.00000000E+01  0.00000000E+00
  9.80000000E+02  7.80000000E+01  0.00000000E+00
  9.80000000E+02  7.60000000E+01  0.00000000E+00
  9.80000000E+02  7.40000000E+01  0.00000000E+00
  9.80000000E+02  7.20000000E+01  0.00000000E+00
  9.80000000E+02  7.00000000E+01  0.00000000E+00
  9.80000000E+02  6.80000000E+01  0.00000000E+00
  9.80000000E+02  6.60000000E+01  0.00000000E+00
  9.80000000E+02  6.40000000E+01  0.00000000E+00
  9.80000000E+02  6.20000000E+01  0.00000000E+00
  9.80000000E+02  6.00000000E+01  0.00000000E+00
  9.80000000E+02  5.80000000E+01  0.00000000E+00
  9.80000000E+02  5.60000000E+01  0.00000000E+00
  9.80000000E+02  5.40000000E+01  0.00000000E+00
  9.80000000E+02  5.20000000E+01  0.00000000E+00
  9.80000000E+02  5.00000000E+01  0.00000000E+00
  9.80000000E+02  4.80000000E+01  0.00000000E+00
  9.80000000E+02  4.60000000E+01  0.00000000E+00
  9.80000000E+02  4.40000000E+01  0.00000000E+00
  9.80000000E+02  4.20000000E+01  0.00000000E+00
  9.80000000E+02  4.00000000E+01  0.00000000E+00
  9.80000000E+02  3.80000000E+01  0.00000000E+00
  9.80000000E+02  3.60000000E+01  0.00000000E+00
  9.80000000E+02  3.40000000E+01  0.00000000E+00
  9.80000000E+02  3.20000000E+01  0.00000000E+00
  9.80000000E+02  3.00000000E+01  0.00000000E+00
  9.80000000E+02  2.80000000E+01  0.00000000E+00
  9.80000000E+02  2.60000000E+01  0.00000000E+00
  9.80000000E+02  2.40000000E+01  0.00000000E+00
  9.80000000E+02  2.20000000E+01  0.00000000E+00
  9.80000000E+02  2.00000000E+01  0.00000000E+00
  9.80000000E+02  1.80000000E+01  0.00000000E+00
  9.80000000E+02  1.60000000E+01  0.00000000E+00
  9.80000000E+02  1.40000000E+01  0.00000000E+00
  9.80000000E+02  1.20000000E+01  0.00000000E+00
  9.80000000E+02  1.00000000E+01  0.00000000E+00
  9.80000000E+02  8.00000000E+00  0.00000000E+00
  9.80000000E+02  6.00000000E+00  0.00000000E+00
  9.80000000E+02  4.00000000E+00  0.00000000E+00
  9.80000000E+02  2.00000000E+00  0.00000000E+00
  9.80000000E+02 -3.33066907E-14  0.00000000E+00
  9.90000000E+02  1.00000000E+02  0.00000000E+00
  9.90000000E+02  9.80000000E+01  0.00000000E+00
  9.90000000E+02  9.60000000E+01  0.00000000E+00
  9.90000000E+02  9.40000000E+01  0.00000000E+00
  9.90000000E+02  9.20000000E+01  0.00000000E+00
  9.90000000E+02  9.00000000E+01  0.00000000E+00
  9.90000000E+02  8.80000000E+01  0.00000000E+00
  9.90000000E+02  8.60000000E+01  0.00000000E+00
  9.90000000E+02  8.40000000E+01  0.00000000E+00
  9.90000000E+02  8.20000000E+01  0.00000000E+00
  9.90000000E+02  8.00000000E+01  0.00000000E+00
  9.90000000E+02  7.80000000E+01  0.00000000E+00
  9.90000000E+02  7.60000000E+01  0.00000000E+00
  9.90000000E+02  7.40000000E+01  0.00000000E+00
  9.90000000E+02  7.20000000E+01  0.00000000E+00
  9.90000000E+02  7.00000000E+01  0.00000000E+00
  9.90000000E+02  6.80000000E+01  0.00000000E+00
  9.90000000E+02  6.60000000E+01  0.00000000E+00
  9.90000000E+02  6.40000000E+01  0.00000000E+00
  9.90000000E+02  6.20000000E+01  0.00000000E+00
  9.90000000E+02  6.00000000E+01  0.00000000E+00
  9.90000000E+02  5.80000000E+01  0.00000000E+00
  9.90000000E+02  5.60000000E+01  0.00000000E+00
  9.90000000E+02  5.40000000E+01  0.00000000E+00
  9.90000000E+02  5.20000000E+01  0.00000000E+00
  9.90000000E+02  5.00000000E+01  0.00000000E+00
  9.90000000E+02  4.80000000E+01  0.00000000E+00
  9.90000000E+02  4.60000000E+01  0.00000000E+00
  9.90000000E+02  4.40000000E+01  0.00000000E+00
  9.90000000E+02  4.20000000E+01  0.00000000E+00
  9.90000000E+02  4.00000000E+01  0.00000000E+00
  9.90000000E+02  3.80000000E+01  0.00000000E+00
  9.90000000E+02  3.60000000E+01  0.00000000E+00
  9.90000000E+02  3.40000000E+01  0.00000000E+00
  9.90000000E+02  3.20000000E+01  0.00000000E+00
  9.90000000E+02  3.00000000E+01  0.00000000E+00
  9.90000000E+02  2.80000000E+01  0.00000000E+00
  9.90000000E+02  2.60000000E+01  0.00000000E+00
  9.90000000E+02  2.40000000E+01  0.00000000E+00
  9.90000000E+02  2.20000000E+01  0.00000000E+00
  9.90000000E+02  2.00000000E+01  0.00000000E+00
  9.90000000E+02  1.80000000E+01  0.00000000E+00
  9.90000000E+02  1.60000000E+01  0.00000000E+00
  9.90000000E+02  1.40000000E+01  0.00000000E+00
  9.90000000E+02  1.20000000E+01  0.00000000E+00
  9.90000000E+02  1.00000000E+01  0.00000000E+00
  9.90000000E+02  8.00000000E+00  0.00000000E+00
  9.90000000E+02  6.00000000E+00  0.00000000E+00
  9.90000000E+02  4.00000000E+00  0.00000000E+00
  9.90000000E+02  2.00000000E+00  0.00000000E+00
  9.90000000E+02 -3.33066907E-14  0.00000000E+00
  1.00000000E+03  1.00000000E+02  0.00000000E+00
  1.00000000E+03  9.80000000E+01  0.00000000E+00
  1.00000000E+03  9.60000000E+01  0.00000000E+00
  1.00000000E+03  9.40000000E+01  0.00000000E+00
  1.00000000E+03  9.20000000E+01  0.00000000E+00
  1.00000000E+03  9.00000000E+01  0.00000000E+00
  1.00000000E+03  8.80000000E+01  0.00000000E+00
  1.00000000E+03  8.60000000E+01  0.00000000E+00
  1.00000000E+03  8.40000000E+01  0.00000000E+00
  1.00000000E+03  8.20000000E+01  0.00000000E+00
  1.00000000E+03  8.00000000E+01  0.00000000E+00
  1.00000000E+03  7.80000000E+01  0.00000000E+00
  1.00000000E+03  7.60000000E+01  0.00000000E+00
  1.00000000E+03  7.40000000E+01  0.00000000E+00
  1.00000000E+03  7.20000000E+01  0.00000000E+00
  1.00000000E+03  7.00000000E+01  0.00000000E+00
  1.00000000E+03  6.80000000E+01  0.00000000E+00
  1.00000000E+03  6.60000000E+01  0.00000000E+00
  1.00000000E+03  6.40000000E+01  0.00000000E+00
  1.00000000E+03  6.20000000E+01  0.00000000E+00
  1.00000000E+03  6.00000000E+01  0.00000000E+00
  1.00000000E+03  5.80000000E+01  0.00000000E+00
  1.00000000E+03  5.60000000E+01  0.00000000E+00
  1.00000000E+03  5.40000000E+01  0.00000000E+00
  1.00000000E+03  5.20000000E+01  0.00000000E+00
  1.00000000E+03  5.00000000E+01  0.00000000E+00
  1.00000000E+03  4.80000000E+01  0.00000000E+00
  1.00000000E+03  4.60000000E+01  0.00000000E+00
  1.00000000E+03  4.40000000E+01  0.00000000E+00
  1.00000000E+03  4.20000000E+01  0.00000000E+00
  1.00000000E+03  4.00000000E+01  0.00000000E+00
  1.00000000E+03  3.80000000E+01  0.00000000E+00
  1.00000000E+03  3.60000000E+01  0.00000000E+00
  1.00000000E+03  3.40000000E+01  0.00000000E+00
  1.00000000E+03  3.20000000E+01  0.00000000E+00
  1.00000000E+03  3.00000000E+01  0.00000000E+00
  1.00000000E+03  2.80000000E+01  0.00000000E+00
  1.00000000E+03  2.60000000E+01  0.00000000E+00
  1.00000000E+03  2.40000000E+01  0.00000000E+00
  1.00000000E+03  2.20000000E+01  0.00000000E+00
  1.00000000E+03  2.00000000E+01  0.00000000E+00
  1.00000000E+03  1.80000000E+01  0.00000000E+00
  1.00000000E+03  1.60000000E+01  0.00000000E+00
  1.00000000E+03  1.40000000E+01  0.00000000E+00
  1.00000000E+03  1.20000000E+01  0.00000000E+00
  1.00000000E+03  1.00000000E+01  0.00000000E+00
  1.00000000E+03  8.00000000E+00  0.00000000E+00
  1.00000000E+03  6.00000000E+00  0.00000000E+00
  1.00000000E+03  4.00000000E+00  0.00000000E+00
  1.00000000E+03  2.00000000E+00  0.00000000E+00
  1.00000000E+03 -3.33066907E-14  0.00000000E+00
CELLS      5000     25000
         4           0           1          52          51
         4           1           2          53          52
         4           2           3          54          53
         4           3           4          55          54
         4           4           5          56          55
         4           5           6          57          56
         4           6           7          58          57
         4           7           8          59          58
         4           8           9          60          59
         4           9          10          61          60
         4          10          11          62          61
         4          11          12          63          62
         4          12          13          64          63
         4          13          14          65          64
         4          14          15          66          65
         4          15          16          67          66
         4          16          17          68          67
         4          17          18          69          68
         4          18          19          70          69
         4          19          20          71          70
         4          20          21          72          71
         4          21          22          73          72
         4          22          23          74          73
         4          23          24          75          74
         4          24          25          76          75
         4          25          26          77          76
         4          26          27          78          77
         4          27          28          79          78
         4          28          29          80          79
         4          29          30          81          80
         4          30          31          82          81
         4          31          32          83          82
         4          32          33          84          83
         4          33          34          85          84
         4          34          35          86          85
         4          35          36          87          86
         4          36          37          88          87
         4          37          38          89          88
         4          38          39          90          89
         4          39          40          91          90
         4          40          41          92          91
         4          41          42          93          92
         4          42          43          94          93
         4          43          44          95          94
         4          44          45          96          95
         4          45          46          97          96
         4          46          47          98          97
         4          47          48          99          98
         4          48          49         100          99
         4          49          50         101         100
         4          51          52         103         102
         4          52          53         104         103
         4          53          54         105         104
         4          54          55         106         105
         4          55          56         107         106
         4          56          57         108         107
         4          57          58         109         108
         4          58          59         110         109
         4          59          60         111         110
         4          60          61         112         111
         4          61          62         113         112
         4          62          63         114         113
         4          63          64         115         114
         4          64          65         116         115
         4          65          66         117         116
         4          66          67         118         117
         4          67          68         119         118
         4          68          69         120         119
         4          69          70         121         120
         4          70          71         122         121
         4          71          72         123         122
         4          72          73         124         123
         4          73          74         125         124
         4          74          75         126         125
         4          75          76         127         126
         4          76          77         128         127
         4          77          78         129         128
         4          78          79         130         129
         4          79          80         131         130
         4          80          81         132         131
         4          81          82         133         132
         4          82          83         134         133
         4          83          84         135         134
         4          84          85         136         135
         4          85          86         137         136
         4          86          87         138         137
         4          87          88         139         138
         4          88          89         140         139
         4          89          90         141         140
         4          90          91         142         141
         4          91          92         143         142
         4          92          93         144         143
         4          93          94         145         144
         4          94          95         146         145
         4          95          96         147         146
         4          96          97         148         147
         4          97          98         149         148
         4          98          99         150         149
         4          99         100         151         150
         4         100         101         152         151
         4         102         103         154         153
         4         103         104         155         154
         4         104         105         156         155
         4         105         106         157         156
         4         106         107         158         157
         4         107         108         159         158
         4         108         109         160         159
         4         109         110         161         160
         4         110         111         162         161
         4         111         112         163         162
         4         112         113         164         163
         4         113         114         165         164
         4         114         115         166         165
         4         115         116         167         166
         4         116         117         168         167
         4         117         118         169         168
         4         118         119         170         169
         4         119         120         171         170
         4         120         121         172         171
         4         121         122         173         172
         4         122         123         174         173
         4         123         124         175         174
         4         124         125         176         175
         4         125         126         177         176
         4         126         127         178         177
         4         127         128         179         178
         4         128         129         180         179
         4         129         130         181         180
         4         130         131         182         181
         4         131         132         183         182
         4         132         133         184         183
         4         133         134         185         184
         4         134         135         186         185
         4         135         136         187         186
         4         136         137         188         187
         4         137         138         189         188
         4         138         139         190         189
         4         139         140         191         190
         4         140         141         192         191
         4         141         142         193         192
         4         142         143         194         193
         4         143         144         195         194
         4         144         145         196         195
         4         145         146         197         196
         4         146         147         198         197
         4         147         148         199         198
         4         148         149         200         199
         4         149         150         201         200
         4         150         151         202         201
         4         151         152         203         202
         4         153         154         205         204
         4         154         155         206         205
         4         155         156         207         206
         4         156         157         208         207
         4         157         158         209         208
         4         158         159         210         209
         4         159         160         211         210
         4         160         161         212         211
         4         161         162         213         212
         4         162         163         214         213
         4         163         164         215         214
         4         164         165         216         215
         4         165         166         217         216
         4         166         167         218         217
         4         167         168         219         218
         4         168         169         220         219
         4         169         170         221         220
         4         170         171         222         221
         4         171         172         223         222
         4         172         173         224         223
         4         173         174         225         224
         4         174         175         226         225
         4         175         176         227         226
         4         176         177         228         227
         4         177         178         229         228
         4         178         179         230         229
         4         179         180         231         230
         4         180         181         232         231
         4         181         182         233         232
         4         182         183         234         233
         4         183         184         235         234
         4         184         185         236         235
         4         185         186         237         236
         4         186         187         238         237
         4         187         188         239         238
         4         188         189         240         239
         4         189         190         241         240
         4         190         191         242         241
         4         191         192         243         242
         4         192         193         244         243
         4         193         194         245         244
         4         194         195         246         245
         4         195         196         247         246
         4         196         197         248         247
         4         197         198         249         248
         4         198         199         250         249
         4         199         200         251         250
         4         200         201         252         251
         4         201         202         253         252
         4         202         203         254         253
         4         204         205         256         255
         4         205         206         257         256
         4         206         207         258         257
         4         207         208         259         258
         4         208         209         260         259
         4         209         210         261         260
         4         210         211         262         261
         4         211         212         263         262
         4         212         213         264         263
         4         213         214         265         264
         4         214         215         266         265
         4         215         216         267         266
         4         216         217         268         267
         4         217         218         269         268
         4         218         219         270         269
         4         219         220         271         270
         4         220         221         272         271
         4         221         222         273         272
         4         222         223         274         273
         4         223         224         275         274
         4         224         225         276         275
         4         225         226         277         276
         4         226         227         278         277
         4         227         228         279         278
         4         228         229         280         279
         4         229         230         281         280
         4         230         231         282         281
         4         231         232         283         282
         4         232         233         284         283
         4         233         234         285         284
         4         234         235         286         285
         4         235         236         287         286
         4         236         237         288         287
         4         237         238         289         288
         4         238         239         290         289
         4         239         240         291         290
         4         240         241         292         291
         4         241         242         293         292
         4         242         243         294         293
         4         243         244         295         294
         4         244         245         296         295
         4         245         246         297         296
         4         246         247         298         297
         4         247         248         299         298
         4         248         249         300         299
         4         249         250         301         300
         4         250         251         302         301
         4         251         252         303         302
         4         252         253         304         303
         4         253         254         305         304
         4         255         256         307         306
         4         256         257         308         307
         4         257         258         309         308
         4         258         259         310         309
         4         259         260         311         310
         4         260         261         312         311
         4         261         262         313         312
         4         262         263         314         313
         4         263         264         315         314
         4         264         265         316         315
         4         265         266         317         316
         4         266         267         318         317
         4         267         268         319         318
         4         268         269         320         319
         4         269         270         321         320
         4         270         271         322         321
         4         271         272         323         322
         4         272         273         324         323
         4         273         274         325         324
         4         274         275         326         325
         4         275         276         327         326
         4         276         277         328         327
         4         277         278         329         328
         4         278         279         330         329
         4         279         280         331         330
         4         280         281         332         331
         4         281         282         333         332
         4         282         283         334         333
         4         283         284         335         334
         4         284         285         336         335
         4         285         286         337         336
         4         286         287         338         337
         4         287         288         339         338
         4         288         289         340         339
         4         289         290         341         340
         4         290         291         342         341
         4         291         292         343         342
         4         292         293         344         343
         4         293         294         345         344
         4         294         295         346         345
         4         295         296         347         346
         4         296         297         348         347
         4         297         298         349         348
         4         298         299         350         349
         4         299         300         351         350
         4         300         301         352         351
         4         301         302         353         352
         4         302         303         354         353
         4         303         304         355         354
         4         304         305         356         355
         4         306         307         358         357
         4         307         308         359         358
         4         308         309         360         359
         4         309         310         361         360
         4         310         311         362         361
         4         311         312         363         362
         4         312         313         364         363
         4         313         314         365         364
         4         314         315         366         365
         4         315         316         367         366
         4         316         317         368         367
         4         317         318         369         368
         4         318         319         370         369
         4         319         320         371         370
         4         320         321         372         371
         4         321         322         373         372
         4         322         323         374         373
         4         323         324         375         374
         4         324         325         376         375
         4         325         326         377         376
         4         326         327         378         377
         4         327         328         379         378
         4         328         329         380         379
         4         329         330         381         380
         4         330         331         382         381
         4         331         332         383         382
         4         332         333         384         383
         4         333         334         385         384
         4         334         335         386         385
         4         335         336         387         386
         4         336         337         388         387
         4         337         338         389         388
         4         338         339         390         389
         4         339         340         391         390
         4         340         341         392         391
         4         341         342         393         392
         4         342         343         394         393
         4         343         344         395         394
         4         344         345         396         395
         4         345         346         397         396
         4         346         347         398         397
         4         347         348         399         398
         4         348         349         400         399
         4         349         350         401         400
         4         350         351         402         401
         4         351         352         403         402
         4         352         353         404         403
         4         353         354         405         404
         4         354         355         406         405
         4         355         356         407         406
         4         357         358         409         408
         4         358         359         410         409
         4         359         360         411         410
         4         360         361         412         411
         4         361         362         413         412
         4         362         363         414         413
         4         363         364         415         414
         4         364         365         416         415
         4         365         366         417         416
         4         366         367         418         417
         4         367         368         419         418
         4         368         369         420         419
         4         369         370         421         420
         4         370         371         422         421
         4         371         372         423         422
         4         372         373         424         423
         4         373         374         425         424
         4         374         375         426         425
         4         375         376         427         426
         4         376         377         428         427
         4         377         378         429         428
         4         378         379         430         429
         4         379         380         431         430
         4         380         381         432         431
         4         381         382         433         432
         4         382         383         434         433
         4         383         384         435         434
         4         384         385         436         435
         4         385         386         437         436
         4         386         387         438         437
         4         387         388         439         438
         4         388         389         440         439
         4         389         390         441         440
         4         390         391         442         441
         4         391         392         443         442
         4         392         393         444         443
         4         393         394         445         444
         4         394         395         446         445
         4         395         396         447         446
         4         396         397         448         447
         4         397         398         449         448
         4         398         399         450         449
         4         399         400         451         450
         4         400         401         452         451
         4         401         402         453         452
         4         402         403         454         453
         4         403         404         455         454
         4         404         405         456         455
         4         405         406         457         456
         4         406         407         458         457
         4         408         409         460         459
         4         409         410         461         460
         4         410         411         462         461
         4         411         412         463         462
         4         412         413         464         463
         4         413         414         465         464
         4         414         415         466         465
         4         415         416         467         466
         4         416         417         468         467
         4         417         418         469         468
         4         418         419         470         469
         4         419         420         471         470
         4         420         421         472         471
         4         421         422         473         472
         4         422         423         474         473
         4         423         424         475         474
         4         424         425         476         475
         4         425         426         477         476
         4         426         427         478         477
         4         427         428         479         478
         4         428         429         480         479
         4         429         430         481         480
         4         430         431         482         481
         4         431         432         483         482
         4         432         433         484         483
         4         433         434         485         484
         4         434         435         486         485
         4         435         436         487         486
         4         436         437         488         487
         4         437         438         489         488
         4         438         439         490         489
         4         439         440         491         490
         4         440         441         492         491
         4         441         442         493         492
         4         442         443         494         493
         4         443         444         495         494
         4         444         445         496         495
         4         445         446         497         496
         4         446         447         498         497
         4         447         448         499         498
         4         448         449         500         499
         4         449         450         501         500
         4         450         451         502         501
         4         451         452         503         502
         4         452         453         504         503
         4         453         454         505         504
         4         454         455         506         505
         4         455         456         507         506
         4         456         457         508         507
         4         457         458         509         508
         4         459         460         511         510
         4         460         461         512         511
         4         461         462         513         512
         4         462         463         514         513
         4         463         464         515         514
         4         464         465         516         515
         4         465         466         517         516
         4         466         467         518         517
         4         467         468         519         518
         4         468         469         520         519
         4         469         470         521         520
         4         470         471         522         521
         4         471         472         523         522
         4         472         473         524         523
         4         473         474         525         524
         4         474         475         526         525
         4         475         476         527         526
         4         476         477         528         527
         4         477         478         529         528
         4         478         479         530         529
         4         479         480         531         530
         4         480         481         532         531
         4         481         482         533         532
         4         482         483         534         533
         4         483         484         535         534
         4         484         485         536         535
         4         485         486         537         536
         4         486         487         538         537
         4         487         488         539         538
         4         488         489         540         539
         4         489         490         541         540
         4         490         491         542         541
         4         491         492         543         542
         4         492         493         544         543
         4         493         494         545         544
         4         494         495         546         545
         4         495         496         547         546
         4         496         497         548         547
         4         497         498         549         548
         4         498         499         550         549
         4         499         500         551         550
         4         500         501         552         551
         4         501         502         553         552
         4         502         503         554         553
         4         503         504         555         554
         4         504         505         556         555
         4         505         506         557         556
         4         506         507         558         557
         4         507         508         559         558
         4         508         509         560         559
         4         510         511         562         561
         4         511         512         563         562
         4         512         513         564         563
         4         513         514         565         564
         4         514         515         566         565
         4         515         516         567         566
         4         516         517         568         567
         4         517         518         569         568
         4         518         519         570         569
         4         519         520         571         570
         4         520         521         572         571
         4         521         522         573         572
         4         522         523         574         573
         4         523         524         575         574
         4         524         525         576         575
         4         525         526         577         576
         4         526         527         578         577
         4         527         528         579         578
         4         528         529         580         579
         4         529         530         581         580
         4         530         531         582         581
         4         531         532         583         582
         4         532         533         584         583
         4         533         534         585         584
         4         534         535         586         585
         4         535         536         587         586
         4         536         537         588         587
         4         537         538         589         588
         4         538         539         590         589
         4         539         540         591         590
         4         540         541         592         591
         4         541         542         593         592
         4         542         543         594         593
         4         543         544         595         594
         4         544         545         596         595
         4         545         546         597         596
         4         546         547         598         597
         4         547         548         599         598
         4         548         549         600         599
         4         549         550         601         600
         4         550         551         602         601
         4         551         552         603         602
         4         552         553         604         603
         4         553         554         605         604
         4         554         555         606         605
         4         555         556         607         606
         4         556         557         608         607
         4         557         558         609         608
         4         558         559         610         609
         4         559         560         611         610
         4         561         562         613         612
         4         562         563         614         613
         4         563         564         615         614
         4         564         565         616         615
         4         565         566         617         616
         4         566         567         618         617
         4         567         568         619         618
         4         568         569         620         619
         4         569         570         621         620
         4         570         571         622         621
         4         571         572         623         622
         4         572         573         624         623
         4         573         574         625         624
         4         574         575         626         625
         4         575         576         627         626
         4         576         577         628         627
         4         577         578         629         628
         4         578         579         630         629
         4         579         580         631         630
         4         580         581         632         631
         4         581         582         633         632
         4         582         583         634         633
         4         583         584         635         634
         4         584         585         636         635
         4         585         586         637         636
         4         586         587         638         637
         4         587         588         639         638
         4         588         589         640         639
         4         589         590         641         640
         4         590         591         642         641
         4         591         592         643         642
         4         592         593         644         643
         4         593         594         645         644
         4         594         595         646         645
         4         595         596         647         646
         4         596         597         648         647
         4         597         598         649         648
         4         598         599         650         649
         4         599         600         651         650
         4         600         601         652         651
         4         601         602         653         652
         4         602         603         654         653
         4         603         604         655         654
         4         604         605         656         655
         4         605         606         657         656
         4         606         607         658         657
         4         607         608         659         658
         4         608         609         660         659
         4         609         610         661         660
         4         610         611         662         661
         4         612         613         664         663
         4         613         614         665         664
         4         614         615         666         665
         4         615         616         667         666
         4         616         617         668         667
         4         617         618         669         668
         4         618         619         670         669
         4         619         620         671         670
         4         620         621         672         671
         4         621         622         673         672
         4         622         623         674         673
         4         623         624         675         674
         4         624         625         676         675
         4         625         626         677         676
         4         626         627         678         677
         4         627         628         679         678
         4         628         629         680         679
         4         629         630         681         680
         4         630         631         682         681
         4         631         632         683         682
         4         632         633         684         683
         4         633         634         685         684
         4         634         635         686         685
         4         635         636         687         686
         4         636         637         688         687
         4         637         638         689         688
         4         638         639         690         689
         4         639         640         691         690
         4         640         641         692         691
         4         641         642         693         692
         4         642         643         694         693
         4         643         644         695         694
         4         644         645         696         695
         4         645         646         697         696
         4         646         647         698         697
         4         647         648         699         698
         4         648         649         700         699
         4         649         650         701         700
         4         650         651         702         701
         4         651         652         703         702
         4         652         653         704         703
         4         653         654         705         704
         4         654         655         706         705
         4         655         656         707         706
         4         656         657         708         707
         4         657         658         709         708
         4         658         659         710         709
         4         659         660         711         710
         4         660         661         712         711
         4         661         662         713         712
         4         663         664         715         714
         4         664         665         716         715
         4         665         666         717         716
         4         666         667         718         717
         4         667         668         719         718
         4         668         669         720         719
         4         669         670         721         720
         4         670         671         722         721
         4         671         672         723         722
         4         672         673         724         723
         4         673         674         725         724
         4         674         675         726         725
         4         675         676         727         726
         4         676         677         728         727
         4         677         678         729         728
         4         678         679         730         729
         4         679         680         731         730
         4         680         681         732         731
         4         681         682         733         732
         4         682         683         734         733
         4         683         684         735         734
         4         684         685         736         735
         4         685         686         737         736
         4         686         687         738         737
         4         687         688         739         738
         4         688         689         740         739
         4         689         690         741         740
         4         690         691         742         741
         4         691         692         743         742
         4         692         693         744         743
         4         693         694         745         744
         4         694         695         746         745
         4         695         696         747         746
         4         696         697         748         747
         4         697         698         749         748
         4         698         699         750         749
         4         699         700         751         750
         4         700         701         752         751
         4         701         702         753         752
         4         702         703         754         753
         4         703         704         755         754
         4         704         705         756         755
         4         705         706         757         756
         4         706         707         758         757
         4         707         708         759         758
         4         708         709         760         759
         4         709         710         761         760
         4         710         711         762         761
         4         711         712         763         762
         4         712         713         764         763
         4         714         715         766         765
         4         715         716         767         766
         4         716         717         768         767
         4         717         718         769         768
         4         718         719         770         769
         4         719         720         771         770
         4         720         721         772         771
         4         721         722         773         772
         4         722         723         774         773
         4         723         724         775         774
         4         724         725         776         775
         4         725         726         777         776
         4         726         727         778         777
         4         727         728         779         778
         4         728         729         780         779
         4         729         730         781         780
         4         730         731         782         781
         4         731         732         783         782
         4         732         733         784         783
         4         733         734         785         784
         4         734         735         786         785
         4         735         736         787         786
         4         736         737         788         787
         4         737         738         789         788
         4         738         739         790         789
         4         739         740         791         790
         4         740         741         792         791
         4         741         742         793         792
         4         742         743         794         793
         4         743         744         795         794
         4         744         745         796         795
         4         745         746         797         796
         4         746         747         798         797
         4         747         748         799         798
         4         748         749         800         799
         4         749         750         801         800
         4         750         751         802         801
         4         751         752         803         802
         4         752         753         804         803
         4         753         754         805         804
         4         754         755         806         805
         4         755         756         807         806
         4         756         757         808         807
         4         757         758         809         808
         4         758         759         810         809
         4         759         760         811         810
         4         760         761         812         811
         4         761         762         813         812
         4         762         763         814         813
         4         763         764         815         814
         4         765         766         817         816
         4         766         767         818         817
         4         767         768         819         818
         4         768         769         820         819
         4         769         770         821         820
         4         770         771         822         821
         4         771         772         823         822
         4         772         773         824         823
         4         773         774         825         824
         4         774         775         826         825
         4         775         776         827         826
         4         776         777         828         827
         4         777         778         829         828
         4         778         779         830         829
         4         779         780         831         830
         4         780         781         832         831
         4         781         782         833         832
         4         782         783         834         833
         4         783         784         835         834
         4         784         785         836         835
         4         785         786         837         836
         4         786         787         838         837
         4         787         788         839         838
         4         788         789         840         839
         4         789         790         841         840
         4         790         791         842         841
         4         791         792         843         842
         4         792         793         844         843
         4         793         794         845         844
         4         794         795         846         845
         4         795         796         847         846
         4         796         797         848         847
         4         797         798         849         848
         4         798         799         850         849
         4         799         800         851         850
         4         800         801         852         851
         4         801         802         853         852
         4         802         803         854         853
         4         803         804         855         854
         4         804         805         856         855
         4         805         806         857         856
         4         806         807         858         857
         4         807         808         859         858
         4         808         809         860         859
         4         809         810         861         860
         4         810         811         862         861
         4         811         812         863         862
         4         812         813         864         863
         4         813         814         865         864
         4         814         815         866         865
         4         816         817         868         867
         4         817         818         869         868
         4         818         819         870         869
         4         819         820         871         870
         4         820         821         872         871
         4         821         822         873         872
         4         822         823         874         873
         4         823         824         875         874
         4         824         825         876         875
         4         825         826         877         876
         4         826         827         878         877
         4         827         828         879         878
         4         828         829         880         879
         4         829         830         881         880
         4         830         831         882         881
         4         831         832         883         882
         4         832         833         884         883
         4         833         834         885         884
         4         834         835         886         885
         4         835         836         887         886
         4         836         837         888         887
         4         837         838         889         888
         4         838         839         890         889
         4         839         840         891         890
         4         840         841         892         891
         4         841         842         893         892
         4         842         843         894         893
         4         843         844         895         894
         4         844         845         896         895
         4         845         846         897         896
         4         846         847         898         897
         4         847         848         899         898
         4         848         849         900         899
         4         849         850         901         900
         4         850         851         902         901
         4         851         852         903         902
         4         852         853         904         903
         4         853         854         905         904
         4         854         855         906         905
         4         855         856         907         906
         4         856         857         908         907
         4         857         858         909         908
         4         858         859         910         909
         4         859         860         911         910
         4         860         861         912         911
         4         861         862         913         912
         4         862         863         914         913
         4         863         864         915         914
         4         864         865         916         915
         4         865         866         917         916
         4         867         868         919         918
         4         868         869         920         919
         4         869         870         921         920
         4         870         871         922         921
         4         871         872         923         922
         4         872         873         924         923
         4         873         874         925         924
         4         874         875         926         925
         4         875         876         927         926
         4         876         877         928         927
         4         877         878         929         928
         4         878         879         930         929
         4         879         880         931         930
         4         880         881         932         931
         4         881         882         933         932
         4         882         883         934         933
         4         883         884         935         934
         4         884         885         936         935
         4         885         886         937         936
         4         886         887         938         937
         4         887         888         939         938
         4         888         889         940         939
         4         889         890         941         940
         4         890         891         942         941
         4         891         892         943         942
         4         892         893         944         943
         4         893         894         945         944
         4         894         895         946         945
         4         895         896         947         946
         4         896         897         948         947
         4         897         898         949         948
         4         898         899         950         949
         4         899         900         951         950
         4         900         901         952         951
         4         901         902         953         952
         4         902         903         954         953
         4         903         904         955         954
         4         904         905         956         955
         4         905         906         957         956
         4         906         907         958         957
         4         907         908         959         958
         4         908         909         960         959
         4         909         910         961         960
         4         910         911         962         961
         4         911         912         963         962
         4         912         913         964         963
         4         913         914         965         964
         4         914         915         966         965
         4         915         916         967         966
         4         916         917         968         967
         4         918         919         970         969
         4         919         920         971         970
         4         920         921         972         971
         4         921         922         973         972
         4         922         923         974         973
         4         923         924         975         974
         4         924         925         976         975
         4         925         926         977         976
         4         926         927         978         977
         4         927         928         979         978
         4         928         929         980         979
         4         929         930         981         980
         4         930         931         982         981
         4         931         932         983         982
         4         932         933         984         983
         4         933         934         985         984
         4         934         935         986         985
         4         935         936         987         986
         4         936         937         988         987
         4         937         938         989         988
         4         938         939         990         989
         4         939         940         991         990
         4         940         941         992         991
         4         941         942         993         992
         4         942         943         994         993
         4         943         944         995         994
         4         944         945         996         995
         4         945         946         997         996
         4         946         947         998         997
         4         947         948         999         998
         4         948         949        1000         999
         4         949         950        1001        1000
         4         950         951        1002        1001
         4         951         952        1003        1002
         4         952         953        1004        1003
         4         953         954        1005        1004
         4         954         955        1006        1005
         4         955         956        1007        1006
         4         956         957        1008        1007
         4         957         958        1009        1008
         4         958         959        1010        1009
         4         959         960        1011        1010
         4         960         961        1012        1011
         4         961         962        1013        1012
         4         962         963        1014        1013
         4         963         964        1015        1014
         4         964         965        1016        1015
         4         965         966        1017        1016
         4         966         967        1018        1017
         4         967         968        1019        1018
         4         969         970        1021        1020
         4         970         971        1022        1021
         4         971         972        1023        1022
         4         972         973        1024        1023
         4         973         974        1025        1024
         4         974         975        1026        1025
         4         975         976        1027        1026
         4         976         977        1028        1027
         4         977         978        1029        1028
         4         978         979        1030        1029
         4         979         980        1031        1030
         4         980         981        1032        1031
         4         981         982        1033        1032
         4         982         983        1034        1033
         4         983         984        1035        1034
         4         984         985        1036        1035
         4         985         986        1037        1036
         4         986         987        1038        1037
         4         987         988        1039        1038
         4         988         989        1040        1039
         4         989         990        1041        1040
         4         990         991        1042        1041
         4         991         992        1043        1042
         4         992         993        1044        1043
         4         993         994        1045        1044
         4         994         995        1046        1045
         4         995         996        1047        1046
         4         996         997        1048        1047
         4         997         998        1049        1048
         4         998         999        1050        1049
         4         999        1000        1051        1050
         4        1000        1001        1052        1051
         4        1001        1002        1053        1052
         4        1002        1003        1054        1053
         4        1003        1004        1055        1054
         4        1004        1005        1056        1055
         4        1005        1006        1057        1056
         4        1006        1007        1058        1057
         4        1007        1008        1059        1058
         4        1008        1009        1060        1059
         4        1009        1010        1061        1060
         4        1010        1011        1062        1061
         4        1011        1012        1063        1062
         4        1012        1013        1064        1063
         4        1013        1014        1065        1064
         4        1014        1015        1066        1065
         4        1015        1016        1067        1066
         4        1016        1017        1068        1067
         4        1017        1018        1069        1068
         4        1018        1019        1070        1069
         4        1020        1021        1072        1071
         4        1021        1022        1073        1072
         4        1022        1023        1074        1073
         4        1023        1024        1075        1074
         4        1024        1025        1076        1075
         4        1025        1026        1077        1076
         4        1026        1027        1078        1077
         4        1027        1028        1079        1078
         4        1028        1029        1080        1079
         4        1029        1030        1081        1080
         4        1030        1031        1082        1081
         4        1031        1032        1083        1082
         4        1032        1033        1084        1083
         4        1033        1034        1085        1084
         4        1034        1035        1086        1085
         4        1035        1036        1087        1086
         4        1036        1037        1088        1087
         4        1037        1038        1089        1088
         4        1038        1039        1090        1089
         4        1039        1040        1091        1090
         4        1040        1041        1092        1091
         4        1041        1042        1093        1092
         4        1042        1043        1094        1093
         4        1043        1044        1095        1094
         4        1044        1045        1096        1095
         4        1045        1046        1097        1096
         4        1046        1047        1098        1097
         4        1047        1048        1099        1098
         4        1048        1049        1100        1099
         4        1049        1050        1101        1100
         4        1050        1051        1102        1101
         4        1051        1052        1103        1102
         4        1052        1053        1104        1103
         4        1053        1054        1105        1104
         4        1054        1055        1106        1105
         4        1055        1056        1107        1106
         4        1056        1057        1108        1107
         4        1057        1058        1109        1108
         4        1058        1059        1110        1109
         4        1059        1060        1111        1110
         4        1060        1061        1112        1111
         4        1061        1062        1113        1112
         4        1062        1063        1114        1113
         4        1063        1064        1115        1114
         4        1064        1065        1116        1115
         4        1065        1066        1117        1116
         4        1066        1067        1118        1117
         4        1067        1068        1119        1118
         4        1068        1069        1120        1119
         4        1069        1070        1121        1120
         4        1071        1072        1123        1122
         4        1072        1073        1124        1123
         4        1073        1074        1125        1124
         4        1074        1075        1126        1125
         4        1075        1076        1127        1126
         4        1076        1077        1128        1127
         4        1077        1078        1129        1128
         4        1078        1079        1130        1129
         4        1079        1080        1131        1130
         4        1080        1081        1132        1131
         4        1081        1082        1133        1132
         4        1082        1083        1134        1133
         4        1083        1084        1135        1134
         4        1084        1085        1136        1135
         4        1085        1086        1137        1136
         4        1086        1087        1138        1137
         4        1087        1088        1139        1138
         4        1088        1089        1140        1139
         4        1089        1090        1141        1140
         4        1090        1091        1142        1141
         4        1091        1092        1143        1142
         4        1092        1093        1144        1143
         4        1093        1094        1145        1144
         4        1094        1095        1146        1145
         4        1095        1096        1147        1146
         4        1096        1097        1148        1147
         4        1097        1098        1149        1148
         4        1098        1099        1150        1149
         4        1099        1100        1151        1150
         4        1100        1101        1152        1151
         4        1101        1102        1153        1152
         4        1102        1103        1154        1153
         4        1103        1104        1155        1154
         4        1104        1105        1156        1155
         4        1105        1106        1157        1156
         4        1106        1107        1158        1157
         4        1107        1108        1159        1158
         4        1108        1109        1160        1159
         4        1109        1110        1161        1160
         4        1110        1111        1162        1161
         4        1111        1112        1163        1162
         4        1112        1113        1164        1163
         4        1113        1114        1165        1164
         4        1114        1115        1166        1165
         4        1115        1116        1167        1166
         4        1116        1117        1168        1167
         4        1117        1118        1169        1168
         4        1118        1119        1170        1169
         4        1119        1120        1171        1170
         4        1120        1121        1172        1171
         4        1122        1123        1174        1173
         4        1123        1124        1175        1174
         4        1124        1125        1176        1175
         4        1125        1126        1177        1176
         4        1126        1127        1178        1177
         4        1127        1128        1179        1178
         4        1128        1129        1180        1179
         4        1129        1130        1181        1180
         4        1130        1131        1182        1181
         4        1131        1132        1183        1182
         4        1132        1133        1184        1183
         4        1133        1134        1185        1184
         4        1134        1135        1186        1185
         4        1135        1136        1187        1186
         4        1136        1137        1188        1187
         4        1137        1138        1189        1188
         4        1138        1139        1190        1189
         4        1139        1140        1191        1190
         4        1140        1141        1192        1191
         4        1141        1142        1193        1192
         4        1142        1143        1194        1193
         4        1143        1144        1195        1194
         4        1144        1145        1196        1195
         4        1145        1146        1197        1196
         4        1146        1147        1198        1197
         4        1147        1148        1199        1198
         4        1148        1149        1200        1199
         4        1149        1150        1201        1200
         4        1150        1151        1202        1201
         4        1151        1152        1203        1202
         4        1152        1153        1204        1203
         4        1153        1154        1205        1204
         4        1154        1155        1206        1205
         4        1155        1156        1207        1206
         4        1156        1157        1208        1207
         4        1157        1158        1209        1208
         4        1158        1159        1210        1209
         4        1159        1160        1211        1210
         4        1160        1161        1212        1211
         4        1161        1162        1213        1212
         4        1162        1163        1214        1213
         4        1163        1164        1215        1214
         4        1164        1165        1216        1215
         4        1165        1166        1217        1216
         4        1166        1167        1218        1217
         4        1167        1168        1219        1218
         4        1168        1169        1220        1219
         4        1169        1170        1221        1220
         4        1170        1171        1222        1221
         4        1171        1172        1223        1222
         4        1173        1174        1225        1224
         4        1174        1175        1226        1225
         4        1175        1176        1227        1226
         4        1176        1177        1228        1227
         4        1177        1178        1229        1228
         4        1178        1179        1230        1229
         4        1179        1180        1231        1230
         4        1180        1181        1232        1231
         4        1181        1182        1233        1232
         4        1182        1183        1234        1233
         4        1183        1184        1235        1234
         4        1184        1185        1236        1235
         4        1185        1186        1237        1236
         4        1186        1187        1238        1237
         4        1187        1188        1239        1238
         4        1188        1189        1240        1239
         4        1189        1190        1241        1240
         4        1190        1191        1242        1241
         4        1191        1192        1243        1242
         4        1192        1193        1244        1243
         4        1193        1194        1245        1244
         4        1194        1195        1246        1245
         4        1195        1196        1247        1246
         4        1196        1197        1248        1247
         4        1197        1198        1249        1248
         4        1198        1199        1250        1249
         4        1199        1200        1251        1250
         4        1200        1201        1252        1251
         4        1201        1202        1253        1252
         4        1202        1203        1254        1253
         4        1203        1204        1255        1254
         4        1204        1205        1256        1255
         4        1205        1206        1257        1256
         4        1206        1207        1258        1257
         4        1207        1208        1259        1258
         4        1208        1209        1260        1259
         4        1209        1210        1261        1260
         4        1210        1211        1262        1261
         4        1211        1212        1263        1262
         4        1212        1213        1264        1263
         4        1213        1214        1265        1264
         4        1214        1215        1266        1265
         4        1215        1216        1267        1266
         4        1216        1217        1268        1267
         4        1217        1218        1269        1268
         4        1218        1219        1270        1269
         4        1219        1220        1271        1270
         4        1220        1221        1272        1271
         4        1221        1222        1273        1272
         4        1222        1223        1274        1273
         4        1224        1225        1276        1275
         4        1225        1226        1277        1276
         4        1226        1227        1278        1277
         4        1227        1228        1279        1278
         4        1228        1229        1280        1279
         4        1229        1230        1281        1280
         4        1230        1231        1282        1281
         4        1231        1232        1283        1282
         4        1232        1233        1284        1283
         4        1233        1234        1285        1284
         4        1234        1235        1286        1285
         4        1235        1236        1287        1286
         4        1236        1237        1288        1287
         4        1237        1238        1289        1288
         4        1238        1239        1290        1289
         4        1239        1240        1291        1290
         4        1240        1241        1292        1291
         4        1241        1242        1293        1292
         4        1242        1243        1294        1293
         4        1243        1244        1295        1294
         4        1244        1245        1296        1295
         4        1245        1246        1297        1296
         4        1246        1247        1298        1297
         4        1247        1248        1299        1298
         4        1248        1249        1300        1299
         4        1249        1250        1301        1300
         4        1250        1251        1302        1301
         4        1251        1252        1303        1302
         4        1252        1253        1304        1303
         4        1253        1254        1305        1304
         4        1254        1255        1306        1305
         4        1255        1256        1307        1306
         4        1256        1257        1308        1307
         4        1257        1258        1309        1308
         4        1258        1259        1310        1309
         4        1259        1260        1311        1310
         4        1260        1261        1312        1311
         4        1261        1262        1313        1312
         4        1262        1263        1314        1313
         4        1263        1264        1315        1314
         4        1264        1265        1316        1315
         4        1265        1266        1317        1316
         4        1266        1267        1318        1317
         4        1267        1268        1319        1318
         4        1268        1269        1320        1319
         4        1269        1270        1321        1320
         4        1270        1271        1322        1321
         4        1271        1272        1323        1322
         4        1272        1273        1324        1323
         4        1273        1274        1325        1324
         4        1275        1276        1327        1326
         4        1276        1277        1328        1327
         4        1277        1278        1329        1328
         4        1278        1279        1330        1329
         4        1279        1280        1331        1330
         4        1280        1281        1332        1331
         4        1281        1282        1333        1332
         4        1282        1283        1334        1333
         4        1283        1284        1335        1334
         4        1284        1285        1336        1335
         4        1285        1286        1337        1336
         4        1286        1287        1338        1337
         4        1287        1288        1339        1338
         4        1288        1289        1340        1339
         4        1289        1290        1341        1340
         4        1290        1291        1342        1341
         4        1291        1292        1343        1342
         4        1292        1293        1344        1343
         4        1293        1294        1345        1344
         4        1294        1295        1346        1345
         4        1295        1296        1347        1346
         4        1296        1297        1348        1347
         4        1297        1298        1349        1348
         4        1298        1299        1350        1349
         4        1299        1300        1351        1350
         4        1300        1301        1352        1351
         4        1301        1302        1353        1352
         4        1302        1303        1354        1353
         4        1303        1304        1355        1354
         4        1304        1305        1356        1355
         4        1305        1306        1357        1356
         4        1306        1307        1358        1357
         4        1307        1308        1359        1358
         4        1308        1309        1360        1359
         4        1309        1310        1361        1360
         4        1310        1311        1362        1361
         4        1311        1312        1363        1362
         4        1312        1313        1364        1363
         4        1313        1314        1365        1364
         4        1314        1315        1366        1365
         4        1315        1316        1367        1366
         4        1316        1317        1368        1367
         4        1317        1318        1369        1368
         4        1318        1319        1370        1369
         4        1319        1320        1371        1370
         4        1320        1321        1372        1371
         4        1321        1322        1373        1372
         4        1322        1323        1374        1373
         4        1323        1324        1375        1374
         4        1324        1325        1376        1375
         4        1326        1327        1378        1377
         4        1327        1328        1379        1378
         4        1328        1329        1380        1379
         4        1329        1330        1381        1380
         4        1330        1331        1382        1381
         4        1331        1332        1383        1382
         4        1332        1333        1384        1383
         4        1333        1334        1385        1384
         4        1334        1335        1386        1385
         4        1335        1336        1387        1386
         4        1336        1337        1388        1387
         4        1337        1338        1389        1388
         4        1338        1339        1390        1389
         4        1339        1340        1391        1390
         4        1340        1341        1392        1391
         4        1341        1342        1393        1392
         4        1342        1343        1394        1393
         4        1343        1344        1395        1394
         4        1344        1345        1396        1395
         4        1345        1346        1397        1396
         4        1346        1347        1398        1397
         4        1347        1348        1399        1398
         4        1348        1349        1400        1399
         4        1349        1350        1401        1400
         4        1350        1351        1402        1401
         4        1351        1352        1403        1402
         4        1352        1353        1404        1403
         4        1353        1354        1405        1404
         4        1354        1355        1406        1405
         4        1355        1356        1407        1406
         4        1356        1357        1408        1407
         4        1357        1358        1409        1408
         4        1358        1359        1410        1409
         4        1359        1360        1411        1410
         4        1360        1361        1412        1411
         4        1361        1362        1413        1412
         4        1362        1363        1414        1413
         4        1363        1364        1415        1414
         4        1364        1365        1416        1415
         4        1365        1366        1417        1416
         4        1366        1367        1418        1417
         4        1367        1368        1419        1418
         4        1368        1369        1420        1419
         4        1369        1370        1421        1420
         4        1370        1371        1422        1421
         4        1371        1372        1423        1422
         4        1372        1373        1424        1423
         4        1373        1374        1425        1424
         4        1374        1375        1426        1425
         4        1375        1376        1427        1426
         4        1377        1378        1429        1428
         4        1378        1379        1430        1429
         4        1379        1380        1431        1430
         4        1380        1381        1432        1431
         4        1381        1382        1433        1432
         4        1382        1383        1434        1433
         4        1383        1384        1435        1434
         4        1384        1385        1436        1435
         4        1385        1386        1437        1436
         4        1386        1387        1438        1437
         4        1387        1388        1439        1438
         4        1388        1389        1440        1439
         4        1389        1390        1441        1440
         4        1390        1391        1442        1441
         4        1391        1392        1443        1442
         4        1392        1393        1444        1443
         4        1393        1394        1445        1444
         4        1394        1395        1446        1445
         4        1395        1396        1447        1446
         4        1396        1397        1448        1447
         4        1397        1398        1449        1448
         4        1398        1399        1450        1449
         4        1399        1400        1451        1450
         4        1400        1401        1452        1451
         4        1401        1402        1453        1452
         4        1402        1403        1454        1453
         4        1403        1404        1455        1454
         4        1404        1405        1456        1455
         4        1405        1406        1457        1456
         4        1406        1407        1458        1457
         4        1407        1408        1459        1458
         4        1408        1409        1460        1459
         4        1409        1410        1461        1460
         4        1410        1411        1462        1461
         4        1411        1412        1463        1462
         4        1412        1413        1464        1463
         4        1413        1414        1465        1464
         4        1414        1415        1466        1465
         4        1415        1416        1467        1466
         4        1416        1417        1468        1467
         4        1417        1418        1469        1468
         4        1418        1419        1470        1469
         4        1419        1420        1471        1470
         4        1420        1421        1472        1471
         4        1421        1422        1473        1472
         4        1422        1423        1474        1473
         4        1423        1424        1475        1474
         4        1424        1425        1476        1475
         4        1425        1426        1477        1476
         4        1426        1427        1478        1477
         4        1428        1429        1480        1479
         4        1429        1430        1481        1480
         4        1430        1431        1482        1481
         4        1431        1432        1483        1482
         4        1432        1433        1484        1483
         4        1433        1434        1485        1484
         4        1434        1435        1486        1485
         4        1435        1436        1487        1486
         4        1436        1437        1488        1487
         4        1437        1438        1489        1488
         4        1438        1439        1490        1489
         4        1439        1440        1491        1490
         4        1440        1441        1492        1491
         4        1441        1442        1493        1492
         4        1442        1443        1494        1493
         4        1443        1444        1495        1494
         4        1444        1445        1496        1495
         4        1445        1446        1497        1496
         4        1446        1447        1498        1497
         4        1447        1448        1499        1498
         4        1448        1449        1500        1499
         4        1449        1450        1501        1500
         4        1450        1451        1502        1501
         4        1451        1452        1503        1502
         4        1452        1453        1504        1503
         4        1453        1454        1505        1504
         4        1454        1455        1506        1505
         4        1455        1456        1507        1506
         4        1456        1457        1508        1507
         4        1457        1458        1509        1508
         4        1458        1459        1510        1509
         4        1459        1460        1511        1510
         4        1460        1461        1512        1511
         4        1461        1462        1513        1512
         4        1462        1463        1514        1513
         4        1463        1464        1515        1514
         4        1464        1465        1516        1515
         4        1465        1466        1517        1516
         4        1466        1467        1518        1517
         4        1467        1468        1519        1518
         4        1468        1469        1520        1519
         4        1469        1470        1521        1520
         4        1470        1471        1522        1521
         4        1471        1472        1523        1522
         4        1472        1473        1524        1523
         4        1473        1474        1525        1524
         4        1474        1475        1526        1525
         4        1475        1476        1527        1526
         4        1476        1477        1528        1527
         4        1477        1478        1529        1528
         4        1479        1480        1531        1530
         4        1480        1481        1532        1531
         4        1481        1482        1533        1532
         4        1482        1483        1534        1533
         4        1483        1484        1535        1534
         4        1484        1485        1536        1535
         4        1485        1486        1537        1536
         4        1486        1487        1538        1537
         4        1487        1488        1539        1538
         4        1488        1489        1540        1539
         4        1489        1490        1541        1540
         4        1490        1491        1542        1541
         4        1491        1492        1543        1542
         4        1492        1493        1544        1543
         4        1493        1494        1545        1544
         4        1494        1495        1546        1545
         4        1495        1496        1547        1546
         4        1496        1497        1548        1547
         4        1497        1498        1549        1548
         4        1498        1499        1550        1549
         4        1499        1500        1551        1550
         4        1500        1501        1552        1551
         4        1501        1502        1553        1552
         4        1502        1503        1554        1553
         4        1503        1504        1555        1554
         4        1504        1505        1556        1555
         4        1505        1506        1557        1556
         4        1506        1507        1558        1557
         4        1507        1508        1559        1558
         4        1508        1509        1560        1559
         4        1509        1510        1561        1560
         4        1510        1511        1562        1561
         4        1511        1512        1563        1562
         4        1512        1513        1564        1563
         4        1513        1514        1565        1564
         4        1514        1515        1566        1565
         4        1515        1516        1567        1566
         4        1516        1517        1568        1567
         4        1517        1518        1569        1568
         4        1518        1519        1570        1569
         4        1519        1520        1571        1570
         4        1520        1521        1572        1571
         4        1521        1522        1573        1572
         4        1522        1523        1574        1573
         4        1523        1524        1575        1574
         4        1524        1525        1576        1575
         4        1525        1526        1577        1576
         4        1526        1527        1578        1577
         4        1527        1528        1579        1578
         4        1528        1529        1580        1579
         4        1530        1531        1582        1581
         4        1531        1532        1583        1582
         4        1532        1533        1584        1583
         4        1533        1534        1585        1584
         4        1534        1535        1586        1585
         4        1535        1536        1587        1586
         4        1536        1537        1588        1587
         4        1537        1538        1589        1588
         4        1538        1539        1590        1589
         4        1539        1540        1591        1590
         4        1540        1541        1592        1591
         4        1541        1542        1593        1592
         4        1542        1543        1594        1593
         4        1543        1544        1595        1594
         4        1544        1545        1596        1595
         4        1545        1546        1597        1596
         4        1546        1547        1598        1597
         4        1547        1548        1599        1598
         4        1548        1549        1600        1599
         4        1549        1550        1601        1600
         4        1550        1551        1602        1601
         4        1551        1552        1603        1602
         4        1552        1553        1604        1603
         4        1553        1554        1605        1604
         4        1554        1555        1606        1605
         4        1555        1556        1607        1606
         4        1556        1557        1608        1607
         4        1557        1558        1609        1608
         4        1558        1559        1610        1609
         4        1559        1560        1611        1610
         4        1560        1561        1612        1611
         4        1561        1562        1613        1612
         4        1562        1563        1614        1613
         4        1563        1564        1615        1614
         4        1564        1565        1616        1615
         4        1565        1566        1617        1616
         4        1566        1567        1618        1617
         4        1567        1568        1619        1618
         4        1568        1569        1620        1619
         4        1569        1570        1621        1620
         4        1570        1571        1622        1621
         4        1571        1572        1623        1622
         4        1572        1573        1624        1623
         4        1573        1574        1625        1624
         4        1574        1575        1626        1625
         4        1575        1576        1627        1626
         4        1576        1577        1628        1627
         4        1577        1578        1629        1628
         4        1578        1579        1630        1629
         4        1579        1580        1631        1630
         4        1581        1582        1633        1632
         4        1582        1583        1634        1633
         4        1583        1584        1635        1634
         4        1584        1585        1636        1635
         4        1585        1586        1637        1636
         4        1586        1587        1638        1637
         4        1587        1588        1639        1638
         4        1588        1589        1640        1639
         4        1589        1590        1641        1640
         4        1590        1591        1642        1641
         4        1591        1592        1643        1642
         4        1592        1593        1644        1643
         4        1593        1594        1645        1644
         4        1594        1595        1646        1645
         4        1595        1596        1647        1646
         4        1596        1597        1648        1647
         4        1597        1598        1649        1648
         4        1598        1599        1650        1649
         4        1599        1600        1651        1650
         4        1600        1601        1652        1651
         4        1601        1602        1653        1652
         4        1602        1603        1654        1653
         4        1603        1604        1655        1654
         4        1604        1605        1656        1655
         4        1605        1606        1657        1656
         4        1606        1607        1658        1657
         4        1607        1608        1659        1658
         4        1608        1609        1660        1659
         4        1609        1610        1661        1660
         4        1610        1611        1662        1661
         4        1611        1612        1663        1662
         4        1612        1613        1664        1663
         4        1613        1614        1665        1664
         4        1614        1615        1666        1665
         4        1615        1616        1667        1666
         4        1616        1617        1668        1667
         4        1617        1618        1669        1668
         4        1618        1619        1670        1669
         4        1619        1620        1671        1670
         4        1620        1621        1672        1671
         4        1621        1622        1673        1672
         4        1622        1623        1674        1673
         4        1623        1624        1675        1674
         4        1624        1625        1676        1675
         4        1625        1626        1677        1676
         4        1626        1627        1678        1677
         4        1627        1628        1679        1678
         4        1628        1629        1680        1679
         4        1629        1630        1681        1680
         4        1630        1631        1682        1681
         4        1632        1633        1684        1683
         4        1633        1634        1685        1684
         4        1634        1635        1686        1685
         4        1635        1636        1687        1686
         4        1636        1637        1688        1687
         4        1637        1638        1689        1688
         4        1638        1639        1690        1689
         4        1639        1640        1691        1690
         4        1640        1641        1692        1691
         4        1641        1642        1693        1692
         4        1642        1643        1694        1693
         4        1643        1644        1695        1694
         4        1644        1645        1696        1695
         4        1645        1646        1697        1696
         4        1646        1647        1698        1697
         4        1647        1648        1699        1698
         4        1648        1649        1700        1699
         4        1649        1650        1701        1700
         4        1650        1651        1702        1701
         4        1651        1652        1703        1702
         4        1652        1653        1704        1703
         4        1653        1654        1705        1704
         4        1654        1655        1706        1705
         4        1655        1656        1707        1706
         4        1656        1657        1708        1707
         4        1657        1658        1709        1708
         4        1658        1659        1710        1709
         4        1659        1660        1711        1710
         4        1660        1661        1712        1711
         4        1661        1662        1713        1712
         4        1662        1663        1714        1713
         4        1663        1664        1715        1714
         4        1664        1665        1716        1715
         4        1665        1666        1717        1716
         4        1666        1667        1718        1717
         4        1667        1668        1719        1718
         4        1668        1669        1720        1719
         4        1669        1670        1721        1720
         4        1670        1671        1722        1721
         4        1671        1672        1723        1722
         4        1672        1673        1724        1723
         4        1673        1674        1725        1724
         4        1674        1675        1726        1725
         4        1675        1676        1727        1726
         4        1676        1677        1728        1727
         4        1677        1678        1729        1728
         4        1678        1679        1730        1729
         4        1679        1680        1731        1730
         4        1680        1681        1732        1731
         4        1681        1682        1733        1732
         4        1683        1684        1735        1734
         4        1684        1685        1736        1735
         4        1685        1686        1737        1736
         4        1686        1687        1738        1737
         4        1687        1688        1739        1738
         4        1688        1689        1740        1739
         4        1689        1690        1741        1740
         4        1690        1691        1742        1741
         4        1691        1692        1743        1742
         4        1692        1693        1744        1743
         4        1693        1694        1745        1744
         4        1694        1695        1746        1745
         4        1695        1696        1747        1746
         4        1696        1697        1748        1747
         4        1697        1698        1749        1748
         4        1698        1699        1750        1749
         4        1699        1700        1751        1750
         4        1700        1701        1752        1751
         4        1701        1702        1753        1752
         4        1702        1703        1754        1753
         4        1703        1704        1755        1754
         4        1704        1705        1756        1755
         4        1705        1706        1757        1756
         4        1706        1707        1758        1757
         4        1707        1708        1759        1758
         4        1708        1709        1760        1759
         4        1709        1710        1761        1760
         4        1710        1711        1762        1761
         4        1711        1712        1763        1762
         4        1712        1713        1764        1763
         4        1713        1714        1765        1764
         4        1714        1715        1766        1765
         4        1715        1716        1767        1766
         4        1716        1717        1768        1767
         4        1717        1718        1769        1768
         4        1718        1719        1770        1769
         4        1719        1720        1771        1770
         4        1720        1721        1772        1771
         4        1721        1722        1773        1772
         4        1722        1723        1774        1773
         4        1723        1724        1775        1774
         4        1724        1725        1776        1775
         4        1725        1726        1777        1776
         4        1726        1727        1778        1777
         4        1727        1728        1779        1778
         4        1728        1729        1780        1779
         4        1729        1730        1781        1780
         4        1730        1731        1782        1781
         4        1731        1732        1783        1782
         4        1732        1733        1784        1783
         4        1734        1735        1786        1785
         4        1735        1736        1787        1786
         4        1736        1737        1788        1787
         4        1737        1738        1789        1788
         4        1738        1739        1790        1789
         4        1739        1740        1791        1790
         4        1740        1741        1792        1791
         4        1741        1742        1793        1792
         4        1742        1743        1794        1793
         4        1743        1744        1795        1794
         4        1744        1745        1796        1795
         4        1745        1746        1797        1796
         4        1746        1747        1798        1797
         4        1747        1748        1799        1798
         4        1748        1749        1800        1799
         4        1749        1750        1801        1800
         4        1750        1751        1802        1801
         4        1751        1752        1803        1802
         4        1752        1753        1804        1803
         4        1753        1754        1805        1804
         4        1754        1755        1806        1805
         4        1755        1756        1807        1806
         4        1756        1757        1808        1807
         4        1757        1758        1809        1808
         4        1758        1759        1810        1809
         4        1759        1760        1811        1810
         4        1760        1761        1812        1811
         4        1761        1762        1813        1812
         4        1762        1763        1814        1813
         4        1763        1764        1815        1814
         4        1764        1765        1816        1815
         4        1765        1766        1817        1816
         4        1766        1767        1818        1817
         4        1767        1768        1819        1818
         4        1768        1769        1820        1819
         4        1769        1770        1821        1820
         4        1770        1771        1822        1821
         4        1771        1772        1823        1822
         4        1772        1773        1824        1823
         4        1773        1774        1825        1824
         4        1774        1775        1826        1825
         4        1775        1776        1827        1826
         4        1776        1777        1828        1827
         4        1777        1778        1829        1828
         4        1778        1779        1830        1829
         4        1779        1780        1831        1830
         4        1780        1781        1832        1831
         4        1781        1782        1833        1832
         4        1782        1783        1834        1833
         4        1783        1784        1835        1834
         4        1785        1786        1837        1836
         4        1786        1787        1838        1837
         4        1787        1788        1839        1838
         4        1788        1789        1840        1839
         4        1789        1790        1841        1840
         4        1790        1791        1842        1841
         4        1791        1792        1843        1842
         4        1792        1793        1844        1843
         4        1793        1794        1845        1844
         4        1794        1795        1846        1845
         4        1795        1796        1847        1846
         4        1796        1797        1848        1847
         4        1797        1798        1849        1848
         4        1798        1799        1850        1849
         4        1799        1800        1851        1850
         4        1800        1801        1852        1851
         4        1801        1802        1853        1852
         4        1802        1803        1854        1853
         4        1803        1804        1855        1854
         4        1804        1805        1856        1855
         4        1805        1806        1857        1856
         4        1806        1807        1858        1857
         4        1807        1808        1859        1858
         4        1808        1809        1860        1859
         4        1809        1810        1861        1860
         4        1810        1811        1862        1861
         4        1811        1812        1863        1862
         4        1812        1813        1864        1863
         4        1813        1814        1865        1864
         4        1814        1815        1866        1865
         4        1815        1816        1867        1866
         4        1816        1817        1868        1867
         4        1817        1818        1869        1868
         4        1818        1819        1870        1869
         4        1819        1820        1871        1870
         4        1820        1821        1872        1871
         4        1821        1822        1873        1872
         4        1822        1823        1874        1873
         4        1823        1824        1875        1874
         4        1824        1825        1876        1875
         4        1825        1826        1877        1876
         4        1826        1827        1878        1877
         4        1827        1828        1879        1878
         4        1828        1829        1880        1879
         4        1829        1830        1881        1880
         4        1830        1831        1882        1881
         4        1831        1832        1883        1882
         4        1832        1833        1884        1883
         4        1833        1834        1885        1884
         4        1834        1835        1886        1885
         4        1836        1837        1888        1887
         4        1837        1838        1889        1888
         4        1838        1839        1890        1889
         4        1839        1840        1891        1890
         4        1840        1841        1892        1891
         4        1841        1842        1893        1892
         4        1842        1843        1894        1893
         4        1843        1844        1895        1894
         4        1844        1845        1896        1895
         4        1845        1846        1897        1896
         4        1846        1847        1898        1897
         4        1847        1848        1899        1898
         4        1848        1849        1900        1899
         4        1849        1850        1901        1900
         4        1850        1851        1902        1901
         4        1851        1852        1903        1902
         4        1852        1853        1904        1903
         4        1853        1854        1905        1904
         4        1854        1855        1906        1905
         4        1855        1856        1907        1906
         4        1856        1857        1908        1907
         4        1857        1858        1909        1908
         4        1858        1859        1910        1909
         4        1859        1860        1911        1910
         4        1860        1861        1912        1911
         4        1861        1862        1913        1912
         4        1862        1863        1914        1913
         4        1863        1864        1915        1914
         4        1864        1865        1916        1915
         4        1865        1866        1917        1916
         4        1866        1867        1918        1917
         4        1867        1868        1919        1918
         4        1868        1869        1920        1919
         4        1869        1870        1921        1920
         4        1870        1871        1922        1921
         4        1871        1872        1923        1922
         4        1872        1873        1924        1923
         4        1873        1874        1925        1924
         4        1874        1875        1926        1925
         4        1875        1876        1927        1926
         4        1876        1877        1928        1927
         4        1877        1878        1929        1928
         4        1878        1879        1930        1929
         4        1879        1880        1931        1930
         4        1880        1881        1932        1931
         4        1881        1882        1933        1932
         4        1882        1883        1934        1933
         4        1883        1884        1935        1934
         4        1884        1885        1936        1935
         4        1885        1886        1937        1936
         4        1887        1888        1939        1938
         4        1888        1889        1940        1939
         4        1889        1890        1941        1940
         4        1890        1891        1942        1941
         4        1891        1892        1943        1942
         4        1892        1893        1944        1943
         4        1893        1894        1945        1944
         4        1894        1895        1946        1945
         4        1895        1896        1947        1946
         4        1896        1897        1948        1947
         4        1897        1898        1949        1948
         4        1898        1899        1950        1949
         4        1899        1900        1951        1950
         4        1900        1901        1952        1951
         4        1901        1902        1953        1952
         4        1902        1903        1954        1953
         4        1903        1904        1955        1954
         4        1904        1905        1956        1955
         4        1905        1906        1957        1956
         4        1906        1907        1958        1957
         4        1907        1908        1959        1958
         4        1908        1909        1960        1959
         4        1909        1910        1961        1960
         4        1910        1911        1962        1961
         4        1911        1912        1963        1962
         4        1912        1913        1964        1963
         4        1913        1914        1965        1964
         4        1914        1915        1966        1965
         4        1915        1916        1967        1966
         4        1916        1917        1968        1967
         4        1917        1918        1969        1968
         4        1918        1919        1970        1969
         4        1919        1920        1971        1970
         4        1920        1921        1972        1971
         4        1921        1922        1973        1972
         4        1922        1923        1974        1973
         4        1923        1924        1975        1974
         4        1924        1925        1976        1975
         4        1925        1926        1977        1976
         4        1926        1927        1978        1977
         4        1927        1928        1979        1978
         4        1928        1929        1980        1979
         4        1929        1930        1981        1980
         4        1930        1931        1982        1981
         4        1931        1932        1983        1982
         4        1932        1933        1984        1983
         4        1933        1934        1985        1984
         4        1934        1935        1986        1985
         4        1935        1936        1987        1986
         4        1936        1937        1988        1987
         4        1938        1939        1990        1989
         4        1939        1940        1991        1990
         4        1940        1941        1992        1991
         4        1941        1942        1993        1992
         4        1942        1943        1994        1993
         4        1943        1944        1995        1994
         4        1944        1945        1996        1995
         4        1945        1946        1997        1996
         4        1946        1947        1998        1997
         4        1947        1948        1999        1998
         4        1948        1949        2000        1999
         4        1949        1950        2001        2000
         4        1950        1951        2002        2001
         4        1951        1952        2003        2002
         4        1952        1953        2004        2003
         4        1953        1954        2005        2004
         4        1954        1955        2006        2005
         4        1955        1956        2007        2006
         4        1956        1957        2008        2007
         4        1957        1958        2009        2008
         4        1958        1959        2010        2009
         4        1959        1960        2011        2010
         4        1960        1961        2012        2011
         4        1961        1962        2013        2012
         4        1962        1963        2014        2013
         4        1963        1964        2015        2014
         4        1964        1965        2016        2015
         4        1965        1966        2017        2016
         4        1966        1967        2018        2017
         4        1967        1968        2019        2018
         4        1968        1969        2020        2019
         4        1969        1970        2021        2020
         4        1970        1971        2022        2021
         4        1971        1972        2023        2022
         4        1972        1973        2024        2023
         4        1973        1974        2025        2024
         4        1974        1975        2026        2025
         4        1975        1976        2027        2026
         4        1976        1977        2028        2027
         4        1977        1978        2029        2028
         4        1978        1979        2030        2029
         4        1979        1980        2031        2030
         4        1980        1981        2032        2031
         4        1981        1982        2033        2032
         4        1982        1983        2034        2033
         4        1983        1984        2035        2034
         4        1984        1985        2036        2035
         4        1985        1986        2037        2036
         4        1986        1987        2038        2037
         4        1987        1988        2039        2038
         4        1989        1990        2041        2040
         4        1990        1991        2042        2041
         4        1991        1992        2043        2042
         4        1992        1993        2044        2043
         4        1993        1994        2045        2044
         4        1994        1995        2046        2045
         4        1995        1996        2047        2046
         4        1996        1997        2048        2047
         4        1997        1998        2049        2048
         4        1998        1999        2050        2049
         4        1999        2000        2051        2050
         4        2000        2001        2052        2051
         4        2001        2002        2053        2052
         4        2002        2003        2054        2053
         4        2003        2004        2055        2054
         4        2004        2005        2056        2055
         4        2005        2006        2057        2056
         4        2006        2007        2058        2057
         4        2007        2008        2059        2058
         4        2008        2009        2060        2059
         4        2009        2010        2061        2060
         4        2010        2011        2062        2061
         4        2011        2012        2063        2062
         4        2012        2013        2064        2063
         4        2013        2014        2065        2064
         4        2014        2015        2066        2065
         4        2015        2016        2067        2066
         4        2016        2017        2068        2067
         4        2017        2018        2069        2068
         4        2018        2019        2070        2069
         4        2019        2020        2071        2070
         4        2020        2021        2072        2071
         4        2021        2022        2073        2072
         4        2022        2023        2074        2073
         4        2023        2024        2075        2074
         4        2024        2025        2076        2075
         4        2025        2026        2077        2076
         4        2026        2027        2078        2077
         4        2027        2028        2079        2078
         4        2028        2029        2080        2079
         4        2029        2030        2081        2080
         4        2030        2031        2082        2081
         4        2031        2032        2083        2082
         4        2032        2033        2084        2083
         4        2033        2034        2085        2084
         4        2034        2035        2086        2085
         4        2035        2036        2087        2086
         4        2036        2037        2088        2087
         4        2037        2038        2089        2088
         4        2038        2039        2090        2089
         4        2040        2041        2092        2091
         4        2041        2042        2093        2092
         4        2042        2043        2094        2093
         4        2043        2044        2095        2094
         4        2044        2045        2096        2095
         4        2045        2046        2097        2096
         4        2046        2047        2098        2097
         4        2047        2048        2099        2098
         4        2048        2049        2100        2099
         4        2049        2050        2101        2100
         4        2050        2051        2102        2101
         4        2051        2052        2103        2102
         4        2052        2053        2104        2103
         4        2053        2054        2105        2104
         4        2054        2055        2106        2105
         4        2055        2056        2107        2106
         4        2056        2057        2108        2107
         4        2057        2058        2109        2108
         4        2058        2059        2110        2109
         4        2059        2060        2111        2110
         4        2060        2061        2112        2111
         4        2061        2062        2113        2112
         4        2062        2063        2114        2113
         4        2063        2064        2115        2114
         4        2064        2065        2116        2115
         4        2065        2066        2117        2116
         4        2066        2067        2118        2117
         4        2067        2068        2119        2118
         4        2068        2069        2120        2119
         4        2069        2070        2121        2120
         4        2070        2071        2122        2121
         4        2071        2072        2123        2122
         4        2072        2073        2124        2123
         4        2073        2074        2125        2124
         4        2074        2075        2126        2125
         4        2075        2076        2127        2126
         4        2076        2077        2128        2127
         4        2077        2078        2129        2128
         4        2078        2079        2130        2129
         4        2079        2080        2131        2130
         4        2080        2081        2132        2131
         4        2081        2082        2133        2132
         4        2082        2083        2134        2133
         4        2083        2084        2135        2134
         4        2084        2085        2136        2135
         4        2085        2086        2137        2136
         4        2086        2087        2138        2137
         4        2087        2088        2139        2138
         4        2088        2089        2140        2139
         4        2089        2090        2141        2140
         4        2091        2092        2143        2142
         4        2092        2093        2144        2143
         4        2093        2094        2145        2144
         4        2094        2095        2146        2145
         4        2095        2096        2147        2146
         4        2096        2097        2148        2147
         4        2097        2098        2149        2148
         4        2098        2099        2150        2149
         4        2099        2100        2151        2150
         4        2100        2101        2152        2151
         4        2101        2102        2153        2152
         4        2102        2103        2154        2153
         4        2103        2104        2155        2154
         4        2104        2105        2156        2155
         4        2105        2106        2157        2156
         4        2106        2107        2158        2157
         4        2107        2108        2159        2158
         4        2108        2109        2160        2159
         4        2109        2110        2161        2160
         4        2110        2111        2162        2161
         4        2111        2112        2163        2162
         4        2112        2113        2164        2163
         4        2113        2114        2165        2164
         4        2114        2115        2166        2165
         4        2115        2116        2167        2166
         4        2116        2117        2168        2167
         4        2117        2118        2169        2168
         4        2118        2119        2170        2169
         4        2119        2120        2171        2170
         4        2120        2121        2172        2171
         4        2121        2122        2173        2172
         4        2122        2123        2174        2173
         4        2123        2124        2175        2174
         4        2124        2125        2176        2175
         4        2125        2126        2177        2176
         4        2126        2127        2178        2177
         4        2127        2128        2179        2178
         4        2128        2129        2180        2179
         4        2129        2130        2181        2180
         4        2130        2131        2182        2181
         4        2131        2132        2183        2182
         4        2132        2133        2184        2183
         4        2133        2134        2185        2184
         4        2134        2135        2186        2185
         4        2135        2136        2187        2186
         4        2136        2137        2188        2187
         4        2137        2138        2189        2188
         4        2138        2139        2190        2189
         4        2139        2140        2191        2190
         4        2140        2141        2192        2191
         4        2142        2143        2194        2193
         4        2143        2144        2195        2194
         4        2144        2145        2196        2195
         4        2145        2146        2197        2196
         4        2146        2147        2198        2197
         4        2147        2148        2199        2198
         4        2148        2149        2200        2199
         4        2149        2150        2201        2200
         4        2150        2151        2202        2201
         4        2151        2152        2203        2202
         4        2152        2153        2204        2203
         4        2153        2154        2205        2204
         4        2154        2155        2206        2205
         4        2155        2156        2207        2206
         4        2156        2157        2208        2207
         4        2157        2158        2209        2208
         4        2158        2159        2210        2209
         4        2159        2160        2211        2210
         4        2160        2161        2212        2211
         4        2161        2162        2213        2212
         4        2162        2163        2214        2213
         4        2163        2164        2215        2214
         4        2164        2165        2216        2215
         4        2165        2166        2217        2216
         4        2166        2167        2218        2217
         4        2167        2168        2219        2218
         4        2168        2169        2220        2219
         4        2169        2170        2221        2220
         4        2170        2171        2222        2221
         4        2171        2172        2223        2222
         4        2172        2173        2224        2223
         4        2173        2174        2225        2224
         4        2174        2175        2226        2225
         4        2175        2176        2227        2226
         4        2176        2177        2228        2227
         4        2177        2178        2229        2228
         4        2178        2179        2230        2229
         4        2179        2180        2231        2230
         4        2180        2181        2232        2231
         4        2181        2182        2233        2232
         4        2182        2183        2234        2233
         4        2183        2184        2235        2234
         4        2184        2185        2236        2235
         4        2185        2186        2237        2236
         4        2186        2187        2238        2237
         4        2187        2188        2239        2238
         4        2188        2189        2240        2239
         4        2189        2190        2241        2240
         4        2190        2191        2242        2241
         4        2191        2192        2243        2242
         4        2193        2194        2245        2244
         4        2194        2195        2246        2245
         4        2195        2196        2247        2246
         4        2196        2197        2248        2247
         4        2197        2198        2249        2248
         4        2198        2199        2250        2249
         4        2199        2200        2251        2250
         4        2200        2201        2252        2251
         4        2201        2202        2253        2252
         4        2202        2203        2254        2253
         4        2203        2204        2255        2254
         4        2204        2205        2256        2255
         4        2205        2206        2257        2256
         4        2206        2207        2258        2257
         4        2207        2208        2259        2258
         4        2208        2209        2260        2259
         4        2209        2210        2261        2260
         4        2210        2211        2262        2261
         4        2211        2212        2263        2262
         4        2212        2213        2264        2263
         4        2213        2214        2265        2264
         4        2214        2215        2266        2265
         4        2215        2216        2267        2266
         4        2216        2217        2268        2267
         4        2217        2218        2269        2268
         4        2218        2219        2270        2269
         4        2219        2220        2271        2270
         4        2220        2221        2272        2271
         4        2221        2222        2273        2272
         4        2222        2223        2274        2273
         4        2223        2224        2275        2274
         4        2224        2225        2276        2275
         4        2225        2226        2277        2276
         4        2226        2227        2278        2277
         4        2227        2228        2279        2278
         4        2228        2229        2280        2279
         4        2229        2230        2281        2280
         4        2230        2231        2282        2281
         4        2231        2232        2283        2282
         4        2232        2233        2284        2283
         4        2233        2234        2285        2284
         4        2234        2235        2286        2285
         4        2235        2236        2287        2286
         4        2236        2237        2288        2287
         4        2237        2238        2289        2288
         4        2238        2239        2290        2289
         4        2239        2240        2291        2290
         4        2240        2241        2292        2291
         4        2241        2242        2293        2292
         4        2242        2243        2294        2293
         4        2244        2245        2296        2295
         4        2245        2246        2297        2296
         4        2246        2247        2298        2297
         4        2247        2248        2299        2298
         4        2248        2249        2300        2299
         4        2249        2250        2301        2300
         4        2250        2251        2302        2301
         4        2251        2252        2303        2302
         4        2252        2253        2304        2303
         4        2253        2254        2305        2304
         4        2254        2255        2306        2305
         4        2255        2256        2307        2306
         4        2256        2257        2308        2307
         4        2257        2258        2309        2308
         4        2258        2259        2310        2309
         4        2259        2260        2311        2310
         4        2260        2261        2312        2311
         4        2261        2262        2313        2312
         4        2262        2263        2314        2313
         4        2263        2264        2315        2314
         4        2264        2265        2316        2315
         4        2265        2266        2317        2316
         4        2266        2267        2318        2317
         4        2267        2268        2319        2318
         4        2268        2269        2320        2319
         4        2269        2270        2321        2320
         4        2270        2271        2322        2321
         4        2271        2272        2323        2322
         4        2272        2273        2324        2323
         4        2273        2274        2325        2324
         4        2274        2275        2326        2325
         4        2275        2276        2327        2326
         4        2276        2277        2328        2327
         4        2277        2278        2329        2328
         4        2278        2279        2330        2329
         4        2279        2280        2331        2330
         4        2280        2281        2332        2331
         4        2281        2282        2333        2332
         4        2282        2283        2334        2333
         4        2283        2284        2335        2334
         4        2284        2285        2336        2335
         4        2285        2286        2337        2336
         4        2286        2287        2338        2337
         4        2287        2288        2339        2338
         4        2288        2289        2340        2339
         4        2289        2290        2341        2340
         4        2290        2291        2342        2341
         4        2291        2292        2343        2342
         4        2292        2293        2344        2343
         4        2293        2294        2345        2344
         4        2295        2296        2347        2346
         4        2296        2297        2348        2347
         4        2297        2298        2349        2348
         4        2298        2299        2350        2349
         4        2299        2300        2351        2350
         4        2300        2301        2352        2351
         4        2301        2302        2353        2352
         4        2302        2303        2354        2353
         4        2303        2304        2355        2354
         4        2304        2305        2356        2355
         4        2305        2306        2357        2356
         4        2306        2307        2358        2357
         4        2307        2308        2359        2358
         4        2308        2309        2360        2359
         4        2309        2310        2361        2360
         4        2310        2311        2362        2361
         4        2311        2312        2363        2362
         4        2312        2313        2364        2363
         4        2313        2314        2365        2364
         4        2314        2315        2366        2365
         4        2315        2316        2367        2366
         4        2316        2317        2368        2367
         4        2317        2318        2369        2368
         4        2318        2319        2370        2369
         4        2319        2320        2371        2370
         4        2320        2321        2372        2371
         4        2321        2322        2373        2372
         4        2322        2323        2374        2373
         4        2323        2324        2375        2374
         4        2324        2325        2376        2375
         4        2325        2326        2377        2376
         4        2326        2327        2378        2377
         4        2327        2328        2379        2378
         4        2328        2329        2380        2379
         4        2329        2330        2381        2380
         4        2330        2331        2382        2381
         4        2331        2332        2383        2382
         4        2332        2333        2384        2383
         4        2333        2334        2385        2384
         4        2334        2335        2386        2385
         4        2335        2336        2387        2386
         4        2336        2337        2388        2387
         4        2337        2338        2389        2388
         4        2338        2339        2390        2389
         4        2339        2340        2391        2390
         4        2340        2341        2392        2391
         4        2341        2342        2393        2392
         4        2342        2343        2394        2393
         4        2343        2344        2395        2394
         4        2344        2345        2396        2395
         4        2346        2347        2398        2397
         4        2347        2348        2399        2398
         4        2348        2349        2400        2399
         4        2349        2350        2401        2400
         4        2350        2351        2402        2401
         4        2351        2352        2403        2402
         4        2352        2353        2404        2403
         4        2353        2354        2405        2404
         4        2354        2355        2406        2405
         4        2355        2356        2407        2406
         4        2356        2357        2408        2407
         4        2357        2358        2409        2408
         4        2358        2359        2410        2409
         4        2359        2360        2411        2410
         4        2360        2361        2412        2411
         4        2361        2362        2413        2412
         4        2362        2363        2414        2413
         4        2363        2364        2415        2414
         4        2364        2365        2416        2415
         4        2365        2366        2417        2416
         4        2366        2367        2418        2417
         4        2367        2368        2419        2418
         4        2368        2369        2420        2419
         4        2369        2370        2421        2420
         4        2370        2371        2422        2421
         4        2371        2372        2423        2422
         4        2372        2373        2424        2423
         4        2373        2374        2425        2424
         4        2374        2375        2426        2425
         4        2375        2376        2427        2426
         4        2376        2377        2428        2427
         4        2377        2378        2429        2428
         4        2378        2379        2430        2429
         4        2379        2380        2431        2430
         4        2380        2381        2432        2431
         4        2381        2382        2433        2432
         4        2382        2383        2434        2433
         4        2383        2384        2435        2434
         4        2384        2385        2436        2435
         4        2385        2386        2437        2436
         4        2386        2387        2438        2437
         4        2387        2388        2439        2438
         4        2388        2389        2440        2439
         4        2389        2390        2441        2440
         4        2390        2391        2442        2441
         4        2391        2392        2443        2442
         4        2392        2393        2444        2443
         4        2393        2394        2445        2444
         4        2394        2395        2446        2445
         4        2395        2396        2447        2446
         4        2397        2398        2449        2448
         4        2398        2399        2450        2449
         4        2399        2400        2451        2450
         4        2400        2401        2452        2451
         4        2401        2402        2453        2452
         4        2402        2403        2454        2453
         4        2403        2404        2455        2454
         4        2404        2405        2456        2455
         4        2405        2406        2457        2456
         4        2406        2407        2458        2457
         4        2407        2408        2459        2458
         4        2408        2409        2460        2459
         4        2409        2410        2461        2460
         4        2410        2411        2462        2461
         4        2411        2412        2463        2462
         4        2412        2413        2464        2463
         4        2413        2414        2465        2464
         4        2414        2415        2466        2465
         4        2415        2416        2467        2466
         4        2416        2417        2468        2467
         4        2417        2418        2469        2468
         4        2418        2419        2470        2469
         4        2419        2420        2471        2470
         4        2420        2421        2472        2471
         4        2421        2422        2473        2472
         4        2422        2423        2474        2473
         4        2423        2424        2475        2474
         4        2424        2425        2476        2475
         4        2425        2426        2477        2476
         4        2426        2427        2478        2477
         4        2427        2428        2479        2478
         4        2428        2429        2480        2479
         4        2429        2430        2481        2480
         4        2430        2431        2482        2481
         4        2431        2432        2483        2482
         4        2432        2433        2484        2483
         4        2433        2434        2485        2484
         4        2434        2435        2486        2485
         4        2435        2436        2487        2486
         4        2436        2437        2488        2487
         4        2437        2438        2489        2488
         4        2438        2439        2490        2489
         4        2439        2440        2491        2490
         4        2440        2441        2492        2491
         4        2441        2442        2493        2492
         4        2442        2443        2494        2493
         4        2443        2444        2495        2494
         4        2444        2445        2496        2495
         4        2445        2446        2497        2496
         4        2446        2447        2498        2497
         4        2448        2449        2500        2499
         4        2449        2450        2501        2500
         4        2450        2451        2502        2501
         4        2451        2452        2503        2502
         4        2452        2453        2504        2503
         4        2453        2454        2505        2504
         4        2454        2455        2506        2505
         4        2455        2456        2507        2506
         4        2456        2457        2508        2507
         4        2457        2458        2509        2508
         4        2458        2459        2510        2509
         4        2459        2460        2511        2510
         4        2460        2461        2512        2511
         4        2461        2462        2513        2512
         4        2462        2463        2514        2513
         4        2463        2464        2515        2514
         4        2464        2465        2516        2515
         4        2465        2466        2517        2516
         4        2466        2467        2518        2517
         4        2467        2468        2519        2518
         4        2468        2469        2520        2519
         4        2469        2470        2521        2520
         4        2470        2471        2522        2521
         4        2471        2472        2523        2522
         4        2472        2473        2524        2523
         4        2473        2474        2525        2524
         4        2474        2475        2526        2525
         4        2475        2476        2527        2526
         4        2476        2477        2528        2527
         4        2477        2478        2529        2528
         4        2478        2479        2530        2529
         4        2479        2480        2531        2530
         4        2480        2481        2532        2531
         4        2481        2482        2533        2532
         4        2482        2483        2534        2533
         4        2483        2484        2535        2534
         4        2484        2485        2536        2535
         4        2485        2486        2537        2536
         4        2486        2487        2538        2537
         4        2487        2488        2539        2538
         4        2488        2489        2540        2539
         4        2489        2490        2541        2540
         4        2490        2491        2542        2541
         4        2491        2492        2543        2542
         4        2492        2493        2544        2543
         4        2493        2494        2545        2544
         4        2494        2495        2546        2545
         4        2495        2496        2547        2546
         4        2496        2497        2548        2547
         4        2497        2498        2549        2548
         4        2499        2500        2551        2550
         4        2500        2501        2552        2551
         4        2501        2502        2553        2552
         4        2502        2503        2554        2553
         4        2503        2504        2555        2554
         4        2504        2505        2556        2555
         4        2505        2506        2557        2556
         4        2506        2507        2558        2557
         4        2507        2508        2559        2558
         4        2508        2509        2560        2559
         4        2509        2510        2561        2560
         4        2510        2511        2562        2561
         4        2511        2512        2563        2562
         4        2512        2513        2564        2563
         4        2513        2514        2565        2564
         4        2514        2515        2566        2565
         4        2515        2516        2567        2566
         4        2516        2517        2568        2567
         4        2517        2518        2569        2568
         4        2518        2519        2570        2569
         4        2519        2520        2571        2570
         4        2520        2521        2572        2571
         4        2521        2522        2573        2572
         4        2522        2523        2574        2573
         4        2523        2524        2575        2574
         4        2524        2525        2576        2575
         4        2525        2526        2577        2576
         4        2526        2527        2578        2577
         4        2527        2528        2579        2578
         4        2528        2529        2580        2579
         4        2529        2530        2581        2580
         4        2530        2531        2582        2581
         4        2531        2532        2583        2582
         4        2532        2533        2584        2583
         4        2533        2534        2585        2584
         4        2534        2535        2586        2585
         4        2535        2536        2587        2586
         4        2536        2537        2588        2587
         4        2537        2538        2589        2588
         4        2538        2539        2590        2589
         4        2539        2540        2591        2590
         4        2540        2541        2592        2591
         4        2541        2542        2593        2592
         4        2542        2543        2594        2593
         4        2543        2544        2595        2594
         4        2544        2545        2596        2595
         4        2545        2546        2597        2596
         4        2546        2547        2598        2597
         4        2547        2548        2599        2598
         4        2548        2549        2600        2599
         4        2550        2551        2602        2601
         4        2551        2552        2603        2602
         4        2552        2553        2604        2603
         4        2553        2554        2605        2604
         4        2554        2555        2606        2605
         4        2555        2556        2607        2606
         4        2556        2557        2608        2607
         4        2557        2558        2609        2608
         4        2558        2559        2610        2609
         4        2559        2560        2611        2610
         4        2560        2561        2612        2611
         4        2561        2562        2613        2612
         4        2562        2563        2614        2613
         4        2563        2564        2615        2614
         4        2564        2565        2616        2615
         4        2565        2566        2617        2616
         4        2566        2567        2618        2617
         4        2567        2568        2619        2618
         4        2568        2569        2620        2619
         4        2569        2570        2621        2620
         4        2570        2571        2622        2621
         4        2571        2572        2623        2622
         4        2572        2573        2624        2623
         4        2573        2574        2625        2624
         4        2574        2575        2626        2625
         4        2575        2576        2627        2626
         4        2576        2577        2628        2627
         4        2577        2578        2629        2628
         4        2578        2579        2630        2629
         4        2579        2580        2631        2630
         4        2580        2581        2632        2631
         4        2581        2582        2633        2632
         4        2582        2583        2634        2633
         4        2583        2584        2635        2634
         4        2584        2585        2636        2635
         4        2585        2586        2637        2636
         4        2586        2587        2638        2637
         4        2587        2588        2639        2638
         4        2588        2589        2640        2639
         4        2589        2590        2641        2640
         4        2590        2591        2642        2641
         4        2591        2592        2643        2642
         4        2592        2593        2644        2643
         4        2593        2594        2645        2644
         4        2594        2595        2646        2645
         4        2595        2596        2647        2646
         4        2596        2597        2648        2647
         4        2597        2598        2649        2648
         4        2598        2599        2650        2649
         4        2599        2600        2651        2650
         4        2601        2602        2653        2652
         4        2602        2603        2654        2653
         4        2603        2604        2655        2654
         4        2604        2605        2656        2655
         4        2605        2606        2657        2656
         4        2606        2607        2658        2657
         4        2607        2608        2659        2658
         4        2608        2609        2660        2659
         4        2609        2610        2661        2660
         4        2610        2611        2662        2661
         4        2611        2612        2663        2662
         4        2612        2613        2664        2663
         4        2613        2614        2665        2664
         4        2614        2615        2666        2665
         4        2615        2616        2667        2666
         4        2616        2617        2668        2667
         4        2617        2618        2669        2668
         4        2618        2619        2670        2669
         4        2619        2620        2671        2670
         4        2620        2621        2672        2671
         4        2621        2622        2673        2672
         4        2622        2623        2674        2673
         4        2623        2624        2675        2674
         4        2624        2625        2676        2675
         4        2625        2626        2677        2676
         4        2626        2627        2678        2677
         4        2627        2628        2679        2678
         4        2628        2629        2680        2679
         4        2629        2630        2681        2680
         4        2630        2631        2682        2681
         4        2631        2632        2683        2682
         4        2632        2633        2684        2683
         4        2633        2634        2685        2684
         4        2634        2635        2686        2685
         4        2635        2636        2687        2686
         4        2636        2637        2688        2687
         4        2637        2638        2689        2688
         4        2638        2639        2690        2689
         4        2639        2640        2691        2690
         4        2640        2641        2692        2691
         4        2641        2642        2693        2692
         4        2642        2643        2694        2693
         4        2643        2644        2695        2694
         4        2644        2645        2696        2695
         4        2645        2646        2697        2696
         4        2646        2647        2698        2697
         4        2647        2648        2699        2698
         4        2648        2649        2700        2699
         4        2649        2650        2701        2700
         4        2650        2651        2702        2701
         4        2652        2653        2704        2703
         4        2653        2654        2705        2704
         4        2654        2655        2706        2705
         4        2655        2656        2707        2706
         4        2656        2657        2708        2707
         4        2657        2658        2709        2708
         4        2658        2659        2710        2709
         4        2659        2660        2711        2710
         4        2660        2661        2712        2711
         4        2661        2662        2713        2712
         4        2662        2663        2714        2713
         4        2663        2664        2715        2714
         4        2664        2665        2716        2715
         4        2665        2666        2717        2716
         4        2666        2667        2718        2717
         4        2667        2668        2719        2718
         4        2668        2669        2720        2719
         4        2669        2670        2721        2720
         4        2670        2671        2722        2721
         4        2671        2672        2723        2722
         4        2672        2673        2724        2723
         4        2673        2674        2725        2724
         4        2674        2675        2726        2725
         4        2675        2676        2727        2726
         4        2676        2677        2728        2727
         4        2677        2678        2729        2728
         4        2678        2679        2730        2729
         4        2679        2680        2731        2730
         4        2680        2681        2732        2731
         4        2681        2682        2733        2732
         4        2682        2683        2734        2733
         4        2683        2684        2735        2734
         4        2684        2685        2736        2735
         4        2685        2686        2737        2736
         4        2686        2687        2738        2737
         4        2687        2688        2739        2738
         4        2688        2689        2740        2739
         4        2689        2690        2741        2740
         4        2690        2691        2742        2741
         4        2691        2692        2743        2742
         4        2692        2693        2744        2743
         4        2693        2694        2745        2744
         4        2694        2695        2746        2745
         4        2695        2696        2747        2746
         4        2696        2697        2748        2747
         4        2697        2698        2749        2748
         4        2698        2699        2750        2749
         4        2699        2700        2751        2750
         4        2700        2701        2752        2751
         4        2701        2702        2753        2752
         4        2703        2704        2755        2754
         4        2704        2705        2756        2755
         4        2705        2706        2757        2756
         4        2706        2707        2758        2757
         4        2707        2708        2759        2758
         4        2708        2709        2760        2759
         4        2709        2710        2761        2760
         4        2710        2711        2762        2761
         4        2711        2712        2763        2762
         4        2712        2713        2764        2763
         4        2713        2714        2765        2764
         4        2714        2715        2766        2765
         4        2715        2716        2767        2766
         4        2716        2717        2768        2767
         4        2717        2718        2769        2768
         4        2718        2719        2770        2769
         4        2719        2720        2771        2770
         4        2720        2721        2772        2771
         4        2721        2722        2773        2772
         4        2722        2723        2774        2773
         4        2723        2724        2775        2774
         4        2724        2725        2776        2775
         4        2725        2726        2777        2776
         4        2726        2727        2778        2777
         4        2727        2728        2779        2778
         4        2728        2729        2780        2779
         4        2729        2730        2781        2780
         4        2730        2731        2782        2781
         4        2731        2732        2783        2782
         4        2732        2733        2784        2783
         4        2733        2734        2785        2784
         4        2734        2735        2786        2785
         4        2735        2736        2787        2786
         4        2736        2737        2788        2787
         4        2737        2738        2789        2788
         4        2738        2739        2790        2789
         4        2739        2740        2791        2790
         4        2740        2741        2792        2791
         4        2741        2742        2793        2792
         4        2742        2743        2794        2793
         4        2743        2744        2795        2794
         4        2744        2745        2796        2795
         4        2745        2746        2797        2796
         4        2746        2747        2798        2797
         4        2747        2748        2799        2798
         4        2748        2749        2800        2799
         4        2749        2750        2801        2800
         4        2750        2751        2802        2801
         4        2751        2752        2803        2802
         4        2752        2753        2804        2803
         4        2754        2755        2806        2805
         4        2755        2756        2807        2806
         4        2756        2757        2808        2807
         4        2757        2758        2809        2808
         4        2758        2759        2810        2809
         4        2759        2760        2811        2810
         4        2760        2761        2812        2811
         4        2761        2762        2813        2812
         4        2762        2763        2814        2813
         4        2763        2764        2815        2814
         4        2764        2765        2816        2815
         4        2765        2766        2817        2816
         4        2766        2767        2818        2817
         4        2767        2768        2819        2818
         4        2768        2769        2820        2819
         4        2769        2770        2821        2820
         4        2770        2771        2822        2821
         4        2771        2772        2823        2822
         4        2772        2773        2824        2823
         4        2773        2774        2825        2824
         4        2774        2775        2826        2825
         4        2775        2776        2827        2826
         4        2776        2777        2828        2827
         4        2777        2778        2829        2828
         4        2778        2779        2830        2829
         4        2779        2780        2831        2830
         4        2780        2781        2832        2831
         4        2781        2782        2833        2832
         4        2782        2783        2834        2833
         4        2783        2784        2835        2834
         4        2784        2785        2836        2835
         4        2785        2786        2837        2836
         4        2786        2787        2838        2837
         4        2787        2788        2839        2838
         4        2788        2789        2840        2839
         4        2789        2790        2841        2840
         4        2790        2791        2842        2841
         4        2791        2792        2843        2842
         4        2792        2793        2844        2843
         4        2793        2794        2845        2844
         4        2794        2795        2846        2845
         4        2795        2796        2847        2846
         4        2796        2797        2848        2847
         4        2797        2798        2849        2848
         4        2798        2799        2850        2849
         4        2799        2800        2851        2850
         4        2800        2801        2852        2851
         4        2801        2802        2853        2852
         4        2802        2803        2854        2853
         4        2803        2804        2855        2854
         4        2805        2806        2857        2856
         4        2806        2807        2858        2857
         4        2807        2808        2859        2858
         4        2808        2809        2860        2859
         4        2809        2810        2861        2860
         4        2810        2811        2862        2861
         4        2811        2812        2863        2862
         4        2812        2813        2864        2863
         4        2813        2814        2865        2864
         4        2814        2815        2866        2865
         4        2815        2816        2867        2866
         4        2816        2817        2868        2867
         4        2817        2818        2869        2868
         4        2818        2819        2870        2869
         4        2819        2820        2871        2870
         4        2820        2821        2872        2871
         4        2821        2822        2873        2872
         4        2822        2823        2874        2873
         4        2823        2824        2875        2874
         4        2824        2825        2876        2875
         4        2825        2826        2877        2876
         4        2826        2827        2878        2877
         4        2827        2828        2879        2878
         4        2828        2829        2880        2879
         4        2829        2830        2881        2880
         4        2830        2831        2882        2881
         4        2831        2832        2883        2882
         4        2832        2833        2884        2883
         4        2833        2834        2885        2884
         4        2834        2835        2886        2885
         4        2835        2836        2887        2886
         4        2836        2837        2888        2887
         4        2837        2838        2889        2888
         4        2838        2839        2890        2889
         4        2839        2840        2891        2890
         4        2840        2841        2892        2891
         4        2841        2842        2893        2892
         4        2842        2843        2894        2893
         4        2843        2844        2895        2894
         4        2844        2845        2896        2895
         4        2845        2846        2897        2896
         4        2846        2847        2898        2897
         4        2847        2848        2899        2898
         4        2848        2849        2900        2899
         4        2849        2850        2901        2900
         4        2850        2851        2902        2901
         4        2851        2852        2903        2902
         4        2852        2853        2904        2903
         4        2853        2854        2905        2904
         4        2854        2855        2906        2905
         4        2856        2857        2908        2907
         4        2857        2858        2909        2908
         4        2858        2859        2910        2909
         4        2859        2860        2911        2910
         4        2860        2861        2912        2911
         4        2861        2862        2913        2912
         4        2862        2863        2914        2913
         4        2863        2864        2915        2914
         4        2864        2865        2916        2915
         4        2865        2866        2917        2916
         4        2866        2867        2918        2917
         4        2867        2868        2919        2918
         4        2868        2869        2920        2919
         4        2869        2870        2921        2920
         4        2870        2871        2922        2921
         4        2871        2872        2923        2922
         4        2872        2873        2924        2923
         4        2873        2874        2925        2924
         4        2874        2875        2926        2925
         4        2875        2876        2927        2926
         4        2876        2877        2928        2927
         4        2877        2878        2929        2928
         4        2878        2879        2930        2929
         4        2879        2880        2931        2930
         4        2880        2881        2932        2931
         4        2881        2882        2933        2932
         4        2882        2883        2934        2933
         4        2883        2884        2935        2934
         4        2884        2885        2936        2935
         4        2885        2886        2937        2936
         4        2886        2887        2938        2937
         4        2887        2888        2939        2938
         4        2888        2889        2940        2939
         4        2889        2890        2941        2940
         4        2890        2891        2942        2941
         4        2891        2892        2943        2942
         4        2892        2893        2944        2943
         4        2893        2894        2945        2944
         4        2894        2895        2946        2945
         4        2895        2896        2947        2946
         4        2896        2897        2948        2947
         4        2897        2898        2949        2948
         4        2898        2899        2950        2949
         4        2899        2900        2951        2950
         4        2900        2901        2952        2951
         4        2901        2902        2953        2952
         4        2902        2903        2954        2953
         4        2903        2904        2955        2954
         4        2904        2905        2956        2955
         4        2905        2906        2957        2956
         4        2907        2908        2959        2958
         4        2908        2909        2960        2959
         4        2909        2910        2961        2960
         4        2910        2911        2962        2961
         4        2911        2912        2963        2962
         4        2912        2913        2964        2963
         4        2913        2914        2965        2964
         4        2914        2915        2966        2965
         4        2915        2916        2967        2966
         4        2916        2917        2968        2967
         4        2917        2918        2969        2968
         4        2918        2919        2970        2969
         4        2919        2920        2971        2970
         4        2920        2921        2972        2971
         4        2921        2922        2973        2972
         4        2922        2923        2974        2973
         4        2923        2924        2975        2974
         4        2924        2925        2976        2975
         4        2925        2926        2977        2976
         4        2926        2927        2978        2977
         4        2927        2928        2979        2978
         4        2928        2929        2980        2979
         4        2929        2930        2981        2980
         4        2930        2931        2982        2981
         4        2931        2932        2983        2982
         4        2932        2933        2984        2983
         4        2933        2934        2985        2984
         4        2934        2935        2986        2985
         4        2935        2936        2987        2986
         4        2936        2937        2988        2987
         4        2937        2938        2989        2988
         4        2938        2939        2990        2989
         4        2939        2940        2991        2990
         4        2940        2941        2992        2991
         4        2941        2942        2993        2992
         4        2942        2943        2994        2993
         4        2943        2944        2995        2994
         4        2944        2945        2996        2995
         4        2945        2946        2997        2996
         4        2946        2947        2998        2997
         4        2947        2948        2999        2998
         4        2948        2949        3000        2999
         4        2949        2950        3001        3000
         4        2950        2951        3002        3001
         4        2951        2952        3003        3002
         4        2952        2953        3004        3003
         4        2953        2954        3005        3004
         4        2954        2955        3006        3005
         4        2955        2956        3007        3006
         4        2956        2957        3008        3007
         4        2958        2959        3010        3009
         4        2959        2960        3011        3010
         4        2960        2961        3012        3011
         4        2961        2962        3013        3012
         4        2962        2963        3014        3013
         4        2963        2964        3015        3014
         4        2964        2965        3016        3015
         4        2965        2966        3017        3016
         4        2966        2967        3018        3017
         4        2967        2968        3019        3018
         4        2968        2969        3020        3019
         4        2969        2970        3021        3020
         4        2970        2971        3022        3021
         4        2971        2972        3023        3022
         4        2972        2973        3024        3023
         4        2973        2974        3025        3024
         4        2974        2975        3026        3025
         4        2975        2976        3027        3026
         4        2976        2977        3028        3027
         4        2977        2978        3029        3028
         4        2978        2979        3030        3029
         4        2979        2980        3031        3030
         4        2980        2981        3032        3031
         4        2981        2982        3033        3032
         4        2982        2983        3034        3033
         4        2983        2984        3035        3034
         4        2984        2985        3036        3035
         4        2985        2986        3037        3036
         4        2986        2987        3038        3037
         4        2987        2988        3039        3038
         4        2988        2989        3040        3039
         4        2989        2990        3041        3040
         4        2990        2991        3042        3041
         4        2991        2992        3043        3042
         4        2992        2993        3044        3043
         4        2993        2994        3045        3044
         4        2994        2995        3046        3045
         4        2995        2996        3047        3046
         4        2996        2997        3048        3047
         4        2997        2998        3049        3048
         4        2998        2999        3050        3049
         4        2999        3000        3051        3050
         4        3000        3001        3052        3051
         4        3001        3002        3053        3052
         4        3002        3003        3054        3053
         4        3003        3004        3055        3054
         4        3004        3005        3056        3055
         4        3005        3006        3057        3056
         4        3006        3007        3058        3057
         4        3007        3008        3059        3058
         4        3009        3010        3061        3060
         4        3010        3011        3062        3061
         4        3011        3012        3063        3062
         4        3012        3013        3064        3063
         4        3013        3014        3065        3064
         4        3014        3015        3066        3065
         4        3015        3016        3067        3066
         4        3016        3017        3068        3067
         4        3017        3018        3069        3068
         4        3018        3019        3070        3069
         4        3019        3020        3071        3070
         4        3020        3021        3072        3071
         4        3021        3022        3073        3072
         4        3022        3023        3074        3073
         4        3023        3024        3075        3074
         4        3024        3025        3076        3075
         4        3025        3026        3077        3076
         4        3026        3027        3078        3077
         4        3027        3028        3079        3078
         4        3028        3029        3080        3079
         4        3029        3030        3081        3080
         4        3030        3031        3082        3081
         4        3031        3032        3083        3082
         4        3032        3033        3084        3083
         4        3033        3034        3085        3084
         4        3034        3035        3086        3085
         4        3035        3036        3087        3086
         4        3036        3037        3088        3087
         4        3037        3038        3089        3088
         4        3038        3039        3090        3089
         4        3039        3040        3091        3090
         4        3040        3041        3092        3091
         4        3041        3042        3093        3092
         4        3042        3043        3094        3093
         4        3043        3044        3095        3094
         4        3044        3045        3096        3095
         4        3045        3046        3097        3096
         4        3046        3047        3098        3097
         4        3047        3048        3099        3098
         4        3048        3049        3100        3099
         4        3049        3050        3101        3100
         4        3050        3051        3102        3101
         4        3051        3052        3103        3102
         4        3052        3053        3104        3103
         4        3053        3054        3105        3104
         4        3054        3055        3106        3105
         4        3055        3056        3107        3106
         4        3056        3057        3108        3107
         4        3057        3058        3109        3108
         4        3058        3059        3110        3109
         4        3060        3061        3112        3111
         4        3061        3062        3113        3112
         4        3062        3063        3114        3113
         4        3063        3064        3115        3114
         4        3064        3065        3116        3115
         4        3065        3066        3117        3116
         4        3066        3067        3118        3117
         4        3067        3068        3119        3118
         4        3068        3069        3120        3119
         4        3069        3070        3121        3120
         4        3070        3071        3122        3121
         4        3071        3072        3123        3122
         4        3072        3073        3124        3123
         4        3073        3074        3125        3124
         4        3074        3075        3126        3125
         4        3075        3076        3127        3126
         4        3076        3077        3128        3127
         4        3077        3078        3129        3128
         4        3078        3079        3130        3129
         4        3079        3080        3131        3130
         4        3080        3081        3132        3131
         4        3081        3082        3133        3132
         4        3082        3083        3134        3133
         4        3083        3084        3135        3134
         4        3084        3085        3136        3135
         4        3085        3086        3137        3136
         4        3086        3087        3138        3137
         4        3087        3088        3139        3138
         4        3088        3089        3140        3139
         4        3089        3090        3141        3140
         4        3090        3091        3142        3141
         4        3091        3092        3143        3142
         4        3092        3093        3144        3143
         4        3093        3094        3145        3144
         4        3094        3095        3146        3145
         4        3095        3096        3147        3146
         4        3096        3097        3148        3147
         4        3097        3098        3149        3148
         4        3098        3099        3150        3149
         4        3099        3100        3151        3150
         4        3100        3101        3152        3151
         4        3101        3102        3153        3152
         4        3102        3103        3154        3153
         4        3103        3104        3155        3154
         4        3104        3105        3156        3155
         4        3105        3106        3157        3156
         4        3106        3107        3158        3157
         4        3107        3108        3159        3158
         4        3108        3109        3160        3159
         4        3109        3110        3161        3160
         4        3111        3112        3163        3162
         4        3112        3113        3164        3163
         4        3113        3114        3165        3164
         4        3114        3115        3166        3165
         4        3115        3116        3167        3166
         4        3116        3117        3168        3167
         4        3117        3118        3169        3168
         4        3118        3119        3170        3169
         4        3119        3120        3171        3170
         4        3120        3121        3172        3171
         4        3121        3122        3173        3172
         4        3122        3123        3174        3173
         4        3123        3124        3175        3174
         4        3124        3125        3176        3175
         4        3125        3126        3177        3176
         4        3126        3127        3178        3177
         4        3127        3128        3179        3178
         4        3128        3129        3180        3179
         4        3129        3130        3181        3180
         4        3130        3131        3182        3181
         4        3131        3132        3183        3182
         4        3132        3133        3184        3183
         4        3133        3134        3185        3184
         4        3134        3135        3186        3185
         4        3135        3136        3187        3186
         4        3136        3137        3188        3187
         4        3137        3138        3189        3188
         4        3138        3139        3190        3189
         4        3139        3140        3191        3190
         4        3140        3141        3192        3191
         4        3141        3142        3193        3192
         4        3142        3143        3194        3193
         4        3143        3144        3195        3194
         4        3144        3145        3196        3195
         4        3145        3146        3197        3196
         4        3146        3147        3198        3197
         4        3147        3148        3199        3198
         4        3148        3149        3200        3199
         4        3149        3150        3201        3200
         4        3150        3151        3202        3201
         4        3151        3152        3203        3202
         4        3152        3153        3204        3203
         4        3153        3154        3205        3204
         4        3154        3155        3206        3205
         4        3155        3156        3207        3206
         4        3156        3157        3208        3207
         4        3157        3158        3209        3208
         4        3158        3159        3210        3209
         4        3159        3160        3211        3210
         4        3160        3161        3212        3211
         4        3162        3163        3214        3213
         4        3163        3164        3215        3214
         4        3164        3165        3216        3215
         4        3165        3166        3217        3216
         4        3166        3167        3218        3217
         4        3167        3168        3219        3218
         4        3168        3169        3220        3219
         4        3169        3170        3221        3220
         4        3170        3171        3222        3221
         4        3171        3172        3223        3222
         4        3172        3173        3224        3223
         4        3173        3174        3225        3224
         4        3174        3175        3226        3225
         4        3175        3176        3227        3226
         4        3176        3177        3228        3227
         4        3177        3178        3229        3228
         4        3178        3179        3230        3229
         4        3179        3180        3231        3230
         4        3180        3181        3232        3231
         4        3181        3182        3233        3232
         4        3182        3183        3234        3233
         4        3183        3184        3235        3234
         4        3184        3185        3236        3235
         4        3185        3186        3237        3236
         4        3186        3187        3238        3237
         4        3187        3188        3239        3238
         4        3188        3189        3240        3239
         4        3189        3190        3241        3240
         4        3190        3191        3242        3241
         4        3191        3192        3243        3242
         4        3192        3193        3244        3243
         4        3193        3194        3245        3244
         4        3194        3195        3246        3245
         4        3195        3196        3247        3246
         4        3196        3197        3248        3247
         4        3197        3198        3249        3248
         4        3198        3199        3250        3249
         4        3199        3200        3251        3250
         4        3200        3201        3252        3251
         4        3201        3202        3253        3252
         4        3202        3203        3254        3253
         4        3203        3204        3255        3254
         4        3204        3205        3256        3255
         4        3205        3206        3257        3256
         4        3206        3207        3258        3257
         4        3207        3208        3259        3258
         4        3208        3209        3260        3259
         4        3209        3210        3261        3260
         4        3210        3211        3262        3261
         4        3211        3212        3263        3262
         4        3213        3214        3265        3264
         4        3214        3215        3266        3265
         4        3215        3216        3267        3266
         4        3216        3217        3268        3267
         4        3217        3218        3269        3268
         4        3218        3219        3270        3269
         4        3219        3220        3271        3270
         4        3220        3221        3272        3271
         4        3221        3222        3273        3272
         4        3222        3223        3274        3273
         4        3223        3224        3275        3274
         4        3224        3225        3276        3275
         4        3225        3226        3277        3276
         4        3226        3227        3278        3277
         4        3227        3228        3279        3278
         4        3228        3229        3280        3279
         4        3229        3230        3281        3280
         4        3230        3231        3282        3281
         4        3231        3232        3283        3282
         4        3232        3233        3284        3283
         4        3233        3234        3285        3284
         4        3234        3235        3286        3285
         4        3235        3236        3287        3286
         4        3236        3237        3288        3287
         4        3237        3238        3289        3288
         4        3238        3239        3290        3289
         4        3239        3240        3291        3290
         4        3240        3241        3292        3291
         4        3241        3242        3293        3292
         4        3242        3243        3294        3293
         4        3243        3244        3295        3294
         4        3244        3245        3296        3295
         4        3245        3246        3297        3296
         4        3246        3247        3298        3297
         4        3247        3248        3299        3298
         4        3248        3249        3300        3299
         4        3249        3250        3301        3300
         4        3250        3251        3302        3301
         4        3251        3252        3303        3302
         4        3252        3253        3304        3303
         4        3253        3254        3305        3304
         4        3254        3255        3306        3305
         4        3255        3256        3307        3306
         4        3256        3257        3308        3307
         4        3257        3258        3309        3308
         4        3258        3259        3310        3309
         4        3259        3260        3311        3310
         4        3260        3261        3312        3311
         4        3261        3262        3313        3312
         4        3262        3263        3314        3313
         4        3264        3265        3316        3315
         4        3265        3266        3317        3316
         4        3266        3267        3318        3317
         4        3267        3268        3319        3318
         4        3268        3269        3320        3319
         4        3269        3270        3321        3320
         4        3270        3271        3322        3321
         4        3271        3272        3323        3322
         4        3272        3273        3324        3323
         4        3273        3274        3325        3324
         4        3274        3275        3326        3325
         4        3275        3276        3327        3326
         4        3276        3277        3328        3327
         4        3277        3278        3329        3328
         4        3278        3279        3330        3329
         4        3279        3280        3331        3330
         4        3280        3281        3332        3331
         4        3281        3282        3333        3332
         4        3282        3283        3334        3333
         4        3283        3284        3335        3334
         4        3284        3285        3336        3335
         4        3285        3286        3337        3336
         4        3286        3287        3338        3337
         4        3287        3288        3339        3338
         4        3288        3289        3340        3339
         4        3289        3290        3341        3340
         4        3290        3291        3342        3341
         4        3291        3292        3343        3342
         4        3292        3293        3344        3343
         4        3293        3294        3345        3344
         4        3294        3295        3346        3345
         4        3295        3296        3347        3346
         4        3296        3297        3348        3347
         4        3297        3298        3349        3348
         4        3298        3299        3350        3349
         4        3299        3300        3351        3350
         4        3300        3301        3352        3351
         4        3301        3302        3353        3352
         4        3302        3303        3354        3353
         4        3303        3304        3355        3354
         4        3304        3305        3356        3355
         4        3305        3306        3357        3356
         4        3306        3307        3358        3357
         4        3307        3308        3359        3358
         4        3308        3309        3360        3359
         4        3309        3310        3361        3360
         4        3310        3311        3362        3361
         4        3311        3312        3363        3362
         4        3312        3313        3364        3363
         4        3313        3314        3365        3364
         4        3315        3316        3367        3366
         4        3316        3317        3368        3367
         4        3317        3318        3369        3368
         4        3318        3319        3370        3369
         4        3319        3320        3371        3370
         4        3320        3321        3372        3371
         4        3321        3322        3373        3372
         4        3322        3323        3374        3373
         4        3323        3324        3375        3374
         4        3324        3325        3376        3375
         4        3325        3326        3377        3376
         4        3326        3327        3378        3377
         4        3327        3328        3379        3378
         4        3328        3329        3380        3379
         4        3329        3330        3381        3380
         4        3330        3331        3382        3381
         4        3331        3332        3383        3382
         4        3332        3333        3384        3383
         4        3333        3334        3385        3384
         4        3334        3335        3386        3385
         4        3335        3336        3387        3386
         4        3336        3337        3388        3387
         4        3337        3338        3389        3388
         4        3338        3339        3390        3389
         4        3339        3340        3391        3390
         4        3340        3341        3392        3391
         4        3341        3342        3393        3392
         4        3342        3343        3394        3393
         4        3343        3344        3395        3394
         4        3344        3345        3396        3395
         4        3345        3346        3397        3396
         4        3346        3347        3398        3397
         4        3347        3348        3399        3398
         4        3348        3349        3400        3399
         4        3349        3350        3401        3400
         4        3350        3351        3402        3401
         4        3351        3352        3403        3402
         4        3352        3353        3404        3403
         4        3353        3354        3405        3404
         4        3354        3355        3406        3405
         4        3355        3356        3407        3406
         4        3356        3357        3408        3407
         4        3357        3358        3409        3408
         4        3358        3359        3410        3409
         4        3359        3360        3411        3410
         4        3360        3361        3412        3411
         4        3361        3362        3413        3412
         4        3362        3363        3414        3413
         4        3363        3364        3415        3414
         4        3364        3365        3416        3415
         4        3366        3367        3418        3417
         4        3367        3368        3419        3418
         4        3368        3369        3420        3419
         4        3369        3370        3421        3420
         4        3370        3371        3422        3421
         4        3371        3372        3423        3422
         4        3372        3373        3424        3423
         4        3373        3374        3425        3424
         4        3374        3375        3426        3425
         4        3375        3376        3427        3426
         4        3376        3377        3428        3427
         4        3377        3378        3429        3428
         4        3378        3379        3430        3429
         4        3379        3380        3431        3430
         4        3380        3381        3432        3431
         4        3381        3382        3433        3432
         4        3382        3383        3434        3433
         4        3383        3384        3435        3434
         4        3384        3385        3436        3435
         4        3385        3386        3437        3436
         4        3386        3387        3438        3437
         4        3387        3388        3439        3438
         4        3388        3389        3440        3439
         4        3389        3390        3441        3440
         4        3390        3391        3442        3441
         4        3391        3392        3443        3442
         4        3392        3393        3444        3443
         4        3393        3394        3445        3444
         4        3394        3395        3446        3445
         4        3395        3396        3447        3446
         4        3396        3397        3448        3447
         4        3397        3398        3449        3448
         4        3398        3399        3450        3449
         4        3399        3400        3451        3450
         4        3400        3401        3452        3451
         4        3401        3402        3453        3452
         4        3402        3403        3454        3453
         4        3403        3404        3455        3454
         4        3404        3405        3456        3455
         4        3405        3406        3457        3456
         4        3406        3407        3458        3457
         4        3407        3408        3459        3458
         4        3408        3409        3460        3459
         4        3409        3410        3461        3460
         4        3410        3411        3462        3461
         4        3411        3412        3463        3462
         4        3412        3413        3464        3463
         4        3413        3414        3465        3464
         4        3414        3415        3466        3465
         4        3415        3416        3467        3466
         4        3417        3418        3469        3468
         4        3418        3419        3470        3469
         4        3419        3420        3471        3470
         4        3420        3421        3472        3471
         4        3421        3422        3473        3472
         4        3422        3423        3474        3473
         4        3423        3424        3475        3474
         4        3424        3425        3476        3475
         4        3425        3426        3477        3476
         4        3426        3427        3478        3477
         4        3427        3428        3479        3478
         4        3428        3429        3480        3479
         4        3429        3430        3481        3480
         4        3430        3431        3482        3481
         4        3431        3432        3483        3482
         4        3432        3433        3484        3483
         4        3433        3434        3485        3484
         4        3434        3435        3486        3485
         4        3435        3436        3487        3486
         4        3436        3437        3488        3487
         4        3437        3438        3489        3488
         4        3438        3439        3490        3489
         4        3439        3440        3491        3490
         4        3440        3441        3492        3491
         4        3441        3442        3493        3492
         4        3442        3443        3494        3493
         4        3443        3444        3495        3494
         4        3444        3445        3496        3495
         4        3445        3446        3497        3496
         4        3446        3447        3498        3497
         4        3447        3448        3499        3498
         4        3448        3449        3500        3499
         4        3449        3450        3501        3500
         4        3450        3451        3502        3501
         4        3451        3452        3503        3502
         4        3452        3453        3504        3503
         4        3453        3454        3505        3504
         4        3454        3455        3506        3505
         4        3455        3456        3507        3506
         4        3456        3457        3508        3507
         4        3457        3458        3509        3508
         4        3458        3459        3510        3509
         4        3459        3460        3511        3510
         4        3460        3461        3512        3511
         4        3461        3462        3513        3512
         4        3462        3463        3514        3513
         4        3463        3464        3515        3514
         4        3464        3465        3516        3515
         4        3465        3466        3517        3516
         4        3466        3467        3518        3517
         4        3468        3469        3520        3519
         4        3469        3470        3521        3520
         4        3470        3471        3522        3521
         4        3471        3472        3523        3522
         4        3472        3473        3524        3523
         4        3473        3474        3525        3524
         4        3474        3475        3526        3525
         4        3475        3476        3527        3526
         4        3476        3477        3528        3527
         4        3477        3478        3529        3528
         4        3478        3479        3530        3529
         4        3479        3480        3531        3530
         4        3480        3481        3532        3531
         4        3481        3482        3533        3532
         4        3482        3483        3534        3533
         4        3483        3484        3535        3534
         4        3484        3485        3536        3535
         4        3485        3486        3537        3536
         4        3486        3487        3538        3537
         4        3487        3488        3539        3538
         4        3488        3489        3540        3539
         4        3489        3490        3541        3540
         4        3490        3491        3542        3541
         4        3491        3492        3543        3542
         4        3492        3493        3544        3543
         4        3493        3494        3545        3544
         4        3494        3495        3546        3545
         4        3495        3496        3547        3546
         4        3496        3497        3548        3547
         4        3497        3498        3549        3548
         4        3498        3499        3550        3549
         4        3499        3500        3551        3550
         4        3500        3501        3552        3551
         4        3501        3502        3553        3552
         4        3502        3503        3554        3553
         4        3503        3504        3555        3554
         4        3504        3505        3556        3555
         4        3505        3506        3557        3556
         4        3506        3507        3558        3557
         4        3507        3508        3559        3558
         4        3508        3509        3560        3559
         4        3509        3510        3561        3560
         4        3510        3511        3562        3561
         4        3511        3512        3563        3562
         4        3512        3513        3564        3563
         4        3513        3514        3565        3564
         4        3514        3515        3566        3565
         4        3515        3516        3567        3566
         4        3516        3517        3568        3567
         4        3517        3518        3569        3568
         4        3519        3520        3571        3570
         4        3520        3521        3572        3571
         4        3521        3522        3573        3572
         4        3522        3523        3574        3573
         4        3523        3524        3575        3574
         4        3524        3525        3576        3575
         4        3525        3526        3577        3576
         4        3526        3527        3578        3577
         4        3527        3528        3579        3578
         4        3528        3529        3580        3579
         4        3529        3530        3581        3580
         4        3530        3531        3582        3581
         4        3531        3532        3583        3582
         4        3532        3533        3584        3583
         4        3533        3534        3585        3584
         4        3534        3535        3586        3585
         4        3535        3536        3587        3586
         4        3536        3537        3588        3587
         4        3537        3538        3589        3588
         4        3538        3539        3590        3589
         4        3539        3540        3591        3590
         4        3540        3541        3592        3591
         4        3541        3542        3593        3592
         4        3542        3543        3594        3593
         4        3543        3544        3595        3594
         4        3544        3545        3596        3595
         4        3545        3546        3597        3596
         4        3546        3547        3598        3597
         4        3547        3548        3599        3598
         4        3548        3549        3600        3599
         4        3549        3550        3601        3600
         4        3550        3551        3602        3601
         4        3551        3552        3603        3602
         4        3552        3553        3604        3603
         4        3553        3554        3605        3604
         4        3554        3555        3606        3605
         4        3555        3556        3607        3606
         4        3556        3557        3608        3607
         4        3557        3558        3609        3608
         4        3558        3559        3610        3609
         4        3559        3560        3611        3610
         4        3560        3561        3612        3611
         4        3561        3562        3613        3612
         4        3562        3563        3614        3613
         4        3563        3564        3615        3614
         4        3564        3565        3616        3615
         4        3565        3566        3617        3616
         4        3566        3567        3618        3617
         4        3567        3568        3619        3618
         4        3568        3569        3620        3619
         4        3570        3571        3622        3621
         4        3571        3572        3623        3622
         4        3572        3573        3624        3623
         4        3573        3574        3625        3624
         4        3574        3575        3626        3625
         4        3575        3576        3627        3626
         4        3576        3577        3628        3627
         4        3577        3578        3629        3628
         4        3578        3579        3630        3629
         4        3579        3580        3631        3630
         4        3580        3581        3632        3631
         4        3581        3582        3633        3632
         4        3582        3583        3634        3633
         4        3583        3584        3635        3634
         4        3584        3585        3636        3635
         4        3585        3586        3637        3636
         4        3586        3587        3638        3637
         4        3587        3588        3639        3638
         4        3588        3589        3640        3639
         4        3589        3590        3641        3640
         4        3590        3591        3642        3641
         4        3591        3592        3643        3642
         4        3592        3593        3644        3643
         4        3593        3594        3645        3644
         4        3594        3595        3646        3645
         4        3595        3596        3647        3646
         4        3596        3597        3648        3647
         4        3597        3598        3649        3648
         4        3598        3599        3650        3649
         4        3599        3600        3651        3650
         4        3600        3601        3652        3651
         4        3601        3602        3653        3652
         4        3602        3603        3654        3653
         4        3603        3604        3655        3654
         4        3604        3605        3656        3655
         4        3605        3606        3657        3656
         4        3606        3607        3658        3657
         4        3607        3608        3659        3658
         4        3608        3609        3660        3659
         4        3609        3610        3661        3660
         4        3610        3611        3662        3661
         4        3611        3612        3663        3662
         4        3612        3613        3664        3663
         4        3613        3614        3665        3664
         4        3614        3615        3666        3665
         4        3615        3616        3667        3666
         4        3616        3617        3668        3667
         4        3617        3618        3669        3668
         4        3618        3619        3670        3669
         4        3619        3620        3671        3670
         4        3621        3622        3673        3672
         4        3622        3623        3674        3673
         4        3623        3624        3675        3674
         4        3624        3625        3676        3675
         4        3625        3626        3677        3676
         4        3626        3627        3678        3677
         4        3627        3628        3679        3678
         4        3628        3629        3680        3679
         4        3629        3630        3681        3680
         4        3630        3631        3682        3681
         4        3631        3632        3683        3682
         4        3632        3633        3684        3683
         4        3633        3634        3685        3684
         4        3634        3635        3686        3685
         4        3635        3636        3687        3686
         4        3636        3637        3688        3687
         4        3637        3638        3689        3688
         4        3638        3639        3690        3689
         4        3639        3640        3691        3690
         4        3640        3641        3692        3691
         4        3641        3642        3693        3692
         4        3642        3643        3694        3693
         4        3643        3644        3695        3694
         4        3644        3645        3696        3695
         4        3645        3646        3697        3696
         4        3646        3647        3698        3697
         4        3647        3648        3699        3698
         4        3648        3649        3700        3699
         4        3649        3650        3701        3700
         4        3650        3651        3702        3701
         4        3651        3652        3703        3702
         4        3652        3653        3704        3703
         4        3653        3654        3705        3704
         4        3654        3655        3706        3705
         4        3655        3656        3707        3706
         4        3656        3657        3708        3707
         4        3657        3658        3709        3708
         4        3658        3659        3710        3709
         4        3659        3660        3711        3710
         4        3660        3661        3712        3711
         4        3661        3662        3713        3712
         4        3662        3663        3714        3713
         4        3663        3664        3715        3714
         4        3664        3665        3716        3715
         4        3665        3666        3717        3716
         4        3666        3667        3718        3717
         4        3667        3668        3719        3718
         4        3668        3669        3720        3719
         4        3669        3670        3721        3720
         4        3670        3671        3722        3721
         4        3672        3673        3724        3723
         4        3673        3674        3725        3724
         4        3674        3675        3726        3725
         4        3675        3676        3727        3726
         4        3676        3677        3728        3727
         4        3677        3678        3729        3728
         4        3678        3679        3730        3729
         4        3679        3680        3731        3730
         4        3680        3681        3732        3731
         4        3681        3682        3733        3732
         4        3682        3683        3734        3733
         4        3683        3684        3735        3734
         4        3684        3685        3736        3735
         4        3685        3686        3737        3736
         4        3686        3687        3738        3737
         4        3687        3688        3739        3738
         4        3688        3689        3740        3739
         4        3689        3690        3741        3740
         4        3690        3691        3742        3741
         4        3691        3692        3743        3742
         4        3692        3693        3744        3743
         4        3693        3694        3745        3744
         4        3694        3695        3746        3745
         4        3695        3696        3747        3746
         4        3696        3697        3748        3747
         4        3697        3698        3749        3748
         4        3698        3699        3750        3749
         4        3699        3700        3751        3750
         4        3700        3701        3752        3751
         4        3701        3702        3753        3752
         4        3702        3703        3754        3753
         4        3703        3704        3755        3754
         4        3704        3705        3756        3755
         4        3705        3706        3757        3756
         4        3706        3707        3758        3757
         4        3707        3708        3759        3758
         4        3708        3709        3760        3759
         4        3709        3710        3761        3760
         4        3710        3711        3762        3761
         4        3711        3712        3763        3762
         4        3712        3713        3764        3763
         4        3713        3714        3765        3764
         4        3714        3715        3766        3765
         4        3715        3716        3767        3766
         4        3716        3717        3768        3767
         4        3717        3718        3769        3768
         4        3718        3719        3770        3769
         4        3719        3720        3771        3770
         4        3720        3721        3772        3771
         4        3721        3722        3773        3772
         4        3723        3724        3775        3774
         4        3724        3725        3776        3775
         4        3725        3726        3777        3776
         4        3726        3727        3778        3777
         4        3727        3728        3779        3778
         4        3728        3729        3780        3779
         4        3729        3730        3781        3780
         4        3730        3731        3782        3781
         4        3731        3732        3783        3782
         4        3732        3733        3784        3783
         4        3733        3734        3785        3784
         4        3734        3735        3786        3785
         4        3735        3736        3787        3786
         4        3736        3737        3788        3787
         4        3737        3738        3789        3788
         4        3738        3739        3790        3789
         4        3739        3740        3791        3790
         4        3740        3741        3792        3791
         4        3741        3742        3793        3792
         4        3742        3743        3794        3793
         4        3743        3744        3795        3794
         4        3744        3745        3796        3795
         4        3745        3746        3797        3796
         4        3746        3747        3798        3797
         4        3747        3748        3799        3798
         4        3748        3749        3800        3799
         4        3749        3750        3801        3800
         4        3750        3751        3802        3801
         4        3751        3752        3803        3802
         4        3752        3753        3804        3803
         4        3753        3754        3805        3804
         4        3754        3755        3806        3805
         4        3755        3756        3807        3806
         4        3756        3757        3808        3807
         4        3757        3758        3809        3808
         4        3758        3759        3810        3809
         4        3759        3760        3811        3810
         4        3760        3761        3812        3811
         4        3761        3762        3813        3812
         4        3762        3763        3814        3813
         4        3763        3764        3815        3814
         4        3764        3765        3816        3815
         4        3765        3766        3817        3816
         4        3766        3767        3818        3817
         4        3767        3768        3819        3818
         4        3768        3769        3820        3819
         4        3769        3770        3821        3820
         4        3770        3771        3822        3821
         4        3771        3772        3823        3822
         4        3772        3773        3824        3823
         4        3774        3775        3826        3825
         4        3775        3776        3827        3826
         4        3776        3777        3828        3827
         4        3777        3778        3829        3828
         4        3778        3779        3830        3829
         4        3779        3780        3831        3830
         4        3780        3781        3832        3831
         4        3781        3782        3833        3832
         4        3782        3783        3834        3833
         4        3783        3784        3835        3834
         4        3784        3785        3836        3835
         4        3785        3786        3837        3836
         4        3786        3787        3838        3837
         4        3787        3788        3839        3838
         4        3788        3789        3840        3839
         4        3789        3790        3841        3840
         4        3790        3791        3842        3841
         4        3791        3792        3843        3842
         4        3792        3793        3844        3843
         4        3793        3794        3845        3844
         4        3794        3795        3846        3845
         4        3795        3796        3847        3846
         4        3796        3797        3848        3847
         4        3797        3798        3849        3848
         4        3798        3799        3850        3849
         4        3799        3800        3851        3850
         4        3800        3801        3852        3851
         4        3801        3802        3853        3852
         4        3802        3803        3854        3853
         4        3803        3804        3855        3854
         4        3804        3805        3856        3855
         4        3805        3806        3857        3856
         4        3806        3807        3858        3857
         4        3807        3808        3859        3858
         4        3808        3809        3860        3859
         4        3809        3810        3861        3860
         4        3810        3811        3862        3861
         4        3811        3812        3863        3862
         4        3812        3813        3864        3863
         4        3813        3814        3865        3864
         4        3814        3815        3866        3865
         4        3815        3816        3867        3866
         4        3816        3817        3868        3867
         4        3817        3818        3869        3868
         4        3818        3819        3870        3869
         4        3819        3820        3871        3870
         4        3820        3821        3872        3871
         4        3821        3822        3873        3872
         4        3822        3823        3874        3873
         4        3823        3824        3875        3874
         4        3825        3826        3877        3876
         4        3826        3827        3878        3877
         4        3827        3828        3879        3878
         4        3828        3829        3880        3879
         4        3829        3830        3881        3880
         4        3830        3831        3882        3881
         4        3831        3832        3883        3882
         4        3832        3833        3884        3883
         4        3833        3834        3885        3884
         4        3834        3835        3886        3885
         4        3835        3836        3887        3886
         4        3836        3837        3888        3887
         4        3837        3838        3889        3888
         4        3838        3839        3890        3889
         4        3839        3840        3891        3890
         4        3840        3841        3892        3891
         4        3841        3842        3893        3892
         4        3842        3843        3894        3893
         4        3843        3844        3895        3894
         4        3844        3845        3896        3895
         4        3845        3846        3897        3896
         4        3846        3847        3898        3897
         4        3847        3848        3899        3898
         4        3848        3849        3900        3899
         4        3849        3850        3901        3900
         4        3850        3851        3902        3901
         4        3851        3852        3903        3902
         4        3852        3853        3904        3903
         4        3853        3854        3905        3904
         4        3854        3855        3906        3905
         4        3855        3856        3907        3906
         4        3856        3857        3908        3907
         4        3857        3858        3909        3908
         4        3858        3859        3910        3909
         4        3859        3860        3911        3910
         4        3860        3861        3912        3911
         4        3861        3862        3913        3912
         4        3862        3863        3914        3913
         4        3863        3864        3915        3914
         4        3864        3865        3916        3915
         4        3865        3866        3917        3916
         4        3866        3867        3918        3917
         4        3867        3868        3919        3918
         4        3868        3869        3920        3919
         4        3869        3870        3921        3920
         4        3870        3871        3922        3921
         4        3871        3872        3923        3922
         4        3872        3873        3924        3923
         4        3873        3874        3925        3924
         4        3874        3875        3926        3925
         4        3876        3877        3928        3927
         4        3877        3878        3929        3928
         4        3878        3879        3930        3929
         4        3879        3880        3931        3930
         4        3880        3881        3932        3931
         4        3881        3882        3933        3932
         4        3882        3883        3934        3933
         4        3883        3884        3935        3934
         4        3884        3885        3936        3935
         4        3885        3886        3937        3936
         4        3886        3887        3938        3937
         4        3887        3888        3939        3938
         4        3888        3889        3940        3939
         4        3889        3890        3941        3940
         4        3890        3891        3942        3941
         4        3891        3892        3943        3942
         4        3892        3893        3944        3943
         4        3893        3894        3945        3944
         4        3894        3895        3946        3945
         4        3895        3896        3947        3946
         4        3896        3897        3948        3947
         4        3897        3898        3949        3948
         4        3898        3899        3950        3949
         4        3899        3900        3951        3950
         4        3900        3901        3952        3951
         4        3901        3902        3953        3952
         4        3902        3903        3954        3953
         4        3903        3904        3955        3954
         4        3904        3905        3956        3955
         4        3905        3906        3957        3956
         4        3906        3907        3958        3957
         4        3907        3908        3959        3958
         4        3908        3909        3960        3959
         4        3909        3910        3961        3960
         4        3910        3911        3962        3961
         4        3911        3912        3963        3962
         4        3912        3913        3964        3963
         4        3913        3914        3965        3964
         4        3914        3915        3966        3965
         4        3915        3916        3967        3966
         4        3916        3917        3968        3967
         4        3917        3918        3969        3968
         4        3918        3919        3970        3969
         4        3919        3920        3971        3970
         4        3920        3921        3972        3971
         4        3921        3922        3973        3972
         4        3922        3923        3974        3973
         4        3923        3924        3975        3974
         4        3924        3925        3976        3975
         4        3925        3926        3977        3976
         4        3927        3928        3979        3978
         4        3928        3929        3980        3979
         4        3929        3930        3981        3980
         4        3930        3931        3982        3981
         4        3931        3932        3983        3982
         4        3932        3933        3984        3983
         4        3933        3934        3985        3984
         4        3934        3935        3986        3985
         4        3935        3936        3987        3986
         4        3936        3937        3988        3987
         4        3937        3938        3989        3988
         4        3938        3939        3990        3989
         4        3939        3940        3991        3990
         4        3940        3941        3992        3991
         4        3941        3942        3993        3992
         4        3942        3943        3994        3993
         4        3943        3944        3995        3994
         4        3944        3945        3996        3995
         4        3945        3946        3997        3996
         4        3946        3947        3998        3997
         4        3947        3948        3999        3998
         4        3948        3949        4000        3999
         4        3949        3950        4001        4000
         4        3950        3951        4002        4001
         4        3951        3952        4003        4002
         4        3952        3953        4004        4003
         4        3953        3954        4005        4004
         4        3954        3955        4006        4005
         4        3955        3956        4007        4006
         4        3956        3957        4008        4007
         4        3957        3958        4009        4008
         4        3958        3959        4010        4009
         4        3959        3960        4011        4010
         4        3960        3961        4012        4011
         4        3961        3962        4013        4012
         4        3962        3963        4014        4013
         4        3963        3964        4015        4014
         4        3964        3965        4016        4015
         4        3965        3966        4017        4016
         4        3966        3967        4018        4017
         4        3967        3968        4019        4018
         4        3968        3969        4020        4019
         4        3969        3970        4021        4020
         4        3970        3971        4022        4021
         4        3971        3972        4023        4022
         4        3972        3973        4024        4023
         4        3973        3974        4025        4024
         4        3974        3975        4026        4025
         4        3975        3976        4027        4026
         4        3976        3977        4028        4027
         4        3978        3979        4030        4029
         4        3979        3980        4031        4030
         4        3980        3981        4032        4031
         4        3981        3982        4033        4032
         4        3982        3983        4034        4033
         4        3983        3984        4035        4034
         4        3984        3985        4036        4035
         4        3985        3986        4037        4036
         4        3986        3987        4038        4037
         4        3987        3988        4039        4038
         4        3988        3989        4040        4039
         4        3989        3990        4041        4040
         4        3990        3991        4042        4041
         4        3991        3992        4043        4042
         4        3992        3993        4044        4043
         4        3993        3994        4045        4044
         4        3994        3995        4046        4045
         4        3995        3996        4047        4046
         4        3996        3997        4048        4047
         4        3997        3998        4049        4048
         4        3998        3999        4050        4049
         4        3999        4000        4051        4050
         4        4000        4001        4052        4051
         4        4001        4002        4053        4052
         4        4002        4003        4054        4053
         4        4003        4004        4055        4054
         4        4004        4005        4056        4055
         4        4005        4006        4057        4056
         4        4006        4007        4058        4057
         4        4007        4008        4059        4058
         4        4008        4009        4060        4059
         4        4009        4010        4061        4060
         4        4010        4011        4062        4061
         4        4011        4012        4063        4062
         4        4012        4013        4064        4063
         4        4013        4014        4065        4064
         4        4014        4015        4066        4065
         4        4015        4016        4067        4066
         4        4016        4017        4068        4067
         4        4017        4018        4069        4068
         4        4018        4019        4070        4069
         4        4019        4020        4071        4070
         4        4020        4021        4072        4071
         4        4021        4022        4073        4072
         4        4022        4023        4074        4073
         4        4023        4024        4075        4074
         4        4024        4025        4076        4075
         4        4025        4026        4077        4076
         4        4026        4027        4078        4077
         4        4027        4028        4079        4078
         4        4029        4030        4081        4080
         4        4030        4031        4082        4081
         4        4031        4032        4083        4082
         4        4032        4033        4084        4083
         4        4033        4034        4085        4084
         4        4034        4035        4086        4085
         4        4035        4036        4087        4086
         4        4036        4037        4088        4087
         4        4037        4038        4089        4088
         4        4038        4039        4090        4089
         4        4039        4040        4091        4090
         4        4040        4041        4092        4091
         4        4041        4042        4093        4092
         4        4042        4043        4094        4093
         4        4043        4044        4095        4094
         4        4044        4045        4096        4095
         4        4045        4046        4097        4096
         4        4046        4047        4098        4097
         4        4047        4048        4099        4098
         4        4048        4049        4100        4099
         4        4049        4050        4101        4100
         4        4050        4051        4102        4101
         4        4051        4052        4103        4102
         4        4052        4053        4104        4103
         4        4053        4054        4105        4104
         4        4054        4055        4106        4105
         4        4055        4056        4107        4106
         4        4056        4057        4108        4107
         4        4057        4058        4109        4108
         4        4058        4059        4110        4109
         4        4059        4060        4111        4110
         4        4060        4061        4112        4111
         4        4061        4062        4113        4112
         4        4062        4063        4114        4113
         4        4063        4064        4115        4114
         4        4064        4065        4116        4115
         4        4065        4066        4117        4116
         4        4066        4067        4118        4117
         4        4067        4068        4119        4118
         4        4068        4069        4120        4119
         4        4069        4070        4121        4120
         4        4070        4071        4122        4121
         4        4071        4072        4123        4122
         4        4072        4073        4124        4123
         4        4073        4074        4125        4124
         4        4074        4075        4126        4125
         4        4075        4076        4127        4126
         4        4076        4077        4128        4127
         4        4077        4078        4129        4128
         4        4078        4079        4130        4129
         4        4080        4081        4132        4131
         4        4081        4082        4133        4132
         4        4082        4083        4134        4133
         4        4083        4084        4135        4134
         4        4084        4085        4136        4135
         4        4085        4086        4137        4136
         4        4086        4087        4138        4137
         4        4087        4088        4139        4138
         4        4088        4089        4140        4139
         4        4089        4090        4141        4140
         4        4090        4091        4142        4141
         4        4091        4092        4143        4142
         4        4092        4093        4144        4143
         4        4093        4094        4145        4144
         4        4094        4095        4146        4145
         4        4095        4096        4147        4146
         4        4096        4097        4148        4147
         4        4097        4098        4149        4148
         4        4098        4099        4150        4149
         4        4099        4100        4151        4150
         4        4100        4101        4152        4151
         4        4101        4102        4153        4152
         4        4102        4103        4154        4153
         4        4103        4104        4155        4154
         4        4104        4105        4156        4155
         4        4105        4106        4157        4156
         4        4106        4107        4158        4157
         4        4107        4108        4159        4158
         4        4108        4109        4160        4159
         4        4109        4110        4161        4160
         4        4110        4111        4162        4161
         4        4111        4112        4163        4162
         4        4112        4113        4164        4163
         4        4113        4114        4165        4164
         4        4114        4115        4166        4165
         4        4115        4116        4167        4166
         4        4116        4117        4168        4167
         4        4117        4118        4169        4168
         4        4118        4119        4170        4169
         4        4119        4120        4171        4170
         4        4120        4121        4172        4171
         4        4121        4122        4173        4172
         4        4122        4123        4174        4173
         4        4123        4124        4175        4174
         4        4124        4125        4176        4175
         4        4125        4126        4177        4176
         4        4126        4127        4178        4177
         4        4127        4128        4179        4178
         4        4128        4129        4180        4179
         4        4129        4130        4181        4180
         4        4131        4132        4183        4182
         4        4132        4133        4184        4183
         4        4133        4134        4185        4184
         4        4134        4135        4186        4185
         4        4135        4136        4187        4186
         4        4136        4137        4188        4187
         4        4137        4138        4189        4188
         4        4138        4139        4190        4189
         4        4139        4140        4191        4190
         4        4140        4141        4192        4191
         4        4141        4142        4193        4192
         4        4142        4143        4194        4193
         4        4143        4144        4195        4194
         4        4144        4145        4196        4195
         4        4145        4146        4197        4196
         4        4146        4147        4198        4197
         4        4147        4148        4199        4198
         4        4148        4149        4200        4199
         4        4149        4150        4201        4200
         4        4150        4151        4202        4201
         4        4151        4152        4203        4202
         4        4152        4153        4204        4203
         4        4153        4154        4205        4204
         4        4154        4155        4206        4205
         4        4155        4156        4207        4206
         4        4156        4157        4208        4207
         4        4157        4158        4209        4208
         4        4158        4159        4210        4209
         4        4159        4160        4211        4210
         4        4160        4161        4212        4211
         4        4161        4162        4213        4212
         4        4162        4163        4214        4213
         4        4163        4164        4215        4214
         4        4164        4165        4216        4215
         4        4165        4166        4217        4216
         4        4166        4167        4218        4217
         4        4167        4168        4219        4218
         4        4168        4169        4220        4219
         4        4169        4170        4221        4220
         4        4170        4171        4222        4221
         4        4171        4172        4223        4222
         4        4172        4173        4224        4223
         4        4173        4174        4225        4224
         4        4174        4175        4226        4225
         4        4175        4176        4227        4226
         4        4176        4177        4228        4227
         4        4177        4178        4229        4228
         4        4178        4179        4230        4229
         4        4179        4180        4231        4230
         4        4180        4181        4232        4231
         4        4182        4183        4234        4233
         4        4183        4184        4235        4234
         4        4184        4185        4236        4235
         4        4185        4186        4237        4236
         4        4186        4187        4238        4237
         4        4187        4188        4239        4238
         4        4188        4189        4240        4239
         4        4189        4190        4241        4240
         4        4190        4191        4242        4241
         4        4191        4192        4243        4242
         4        4192        4193        4244        4243
         4        4193        4194        4245        4244
         4        4194        4195        4246        4245
         4        4195        4196        4247        4246
         4        4196        4197        4248        4247
         4        4197        4198        4249        4248
         4        4198        4199        4250        4249
         4        4199        4200        4251        4250
         4        4200        4201        4252        4251
         4        4201        4202        4253        4252
         4        4202        4203        4254        4253
         4        4203        4204        4255        4254
         4        4204        4205        4256        4255
         4        4205        4206        4257        4256
         4        4206        4207        4258        4257
         4        4207        4208        4259        4258
         4        4208        4209        4260        4259
         4        4209        4210        4261        4260
         4        4210        4211        4262        4261
         4        4211        4212        4263        4262
         4        4212        4213        4264        4263
         4        4213        4214        4265        4264
         4        4214        4215        4266        4265
         4        4215        4216        4267        4266
         4        4216        4217        4268        4267
         4        4217        4218        4269        4268
         4        4218        4219        4270        4269
         4        4219        4220        4271        4270
         4        4220        4221        4272        4271
         4        4221        4222        4273        4272
         4        4222        4223        4274        4273
         4        4223        4224        4275        4274
         4        4224        4225        4276        4275
         4        4225        4226        4277        4276
         4        4226        4227        4278        4277
         4        4227        4228        4279        4278
         4        4228        4229        4280        4279
         4        4229        4230        4281        4280
         4        4230        4231        4282        4281
         4        4231        4232        4283        4282
         4        4233        4234        4285        4284
         4        4234        4235        4286        4285
         4        4235        4236        4287        4286
         4        4236        4237        4288        4287
         4        4237        4238        4289        4288
         4        4238        4239        4290        4289
         4        4239        4240        4291        4290
         4        4240        4241        4292        4291
         4        4241        4242        4293        4292
         4        4242        4243        4294        4293
         4        4243        4244        4295        4294
         4        4244        4245        4296        4295
         4        4245        4246        4297        4296
         4        4246        4247        4298        4297
         4        4247        4248        4299        4298
         4        4248        4249        4300        4299
         4        4249        4250        4301        4300
         4        4250        4251        4302        4301
         4        4251        4252        4303        4302
         4        4252        4253        4304        4303
         4        4253        4254        4305        4304
         4        4254        4255        4306        4305
         4        4255        4256        4307        4306
         4        4256        4257        4308        4307
         4        4257        4258        4309        4308
         4        4258        4259        4310        4309
         4        4259        4260        4311        4310
         4        4260        4261        4312        4311
         4        4261        4262        4313        4312
         4        4262        4263        4314        4313
         4        4263        4264        4315        4314
         4        4264        4265        4316        4315
         4        4265        4266        4317        4316
         4        4266        4267        4318        4317
         4        4267        4268        4319        4318
         4        4268        4269        4320        4319
         4        4269        4270        4321        4320
         4        4270        4271        4322        4321
         4        4271        4272        4323        4322
         4        4272        4273        4324        4323
         4        4273        4274        4325        4324
         4        4274        4275        4326        4325
         4        4275        4276        4327        4326
         4        4276        4277        4328        4327
         4        4277        4278        4329        4328
         4        4278        4279        4330        4329
         4        4279        4280        4331        4330
         4        4280        4281        4332        4331
         4        4281        4282        4333        4332
         4        4282        4283        4334        4333
         4        4284        4285        4336        4335
         4        4285        4286        4337        4336
         4        4286        4287        4338        4337
         4        4287        4288        4339        4338
         4        4288        4289        4340        4339
         4        4289        4290        4341        4340
         4        4290        4291        4342        4341
         4        4291        4292        4343        4342
         4        4292        4293        4344        4343
         4        4293        4294        4345        4344
         4        4294        4295        4346        4345
         4        4295        4296        4347        4346
         4        4296        4297        4348        4347
         4        4297        4298        4349        4348
         4        4298        4299        4350        4349
         4        4299        4300        4351        4350
         4        4300        4301        4352        4351
         4        4301        4302        4353        4352
         4        4302        4303        4354        4353
         4        4303        4304        4355        4354
         4        4304        4305        4356        4355
         4        4305        4306        4357        4356
         4        4306        4307        4358        4357
         4        4307        4308        4359        4358
         4        4308        4309        4360        4359
         4        4309        4310        4361        4360
         4        4310        4311        4362        4361
         4        4311        4312        4363        4362
         4        4312        4313        4364        4363
         4        4313        4314        4365        4364
         4        4314        4315        4366        4365
         4        4315        4316        4367        4366
         4        4316        4317        4368        4367
         4        4317        4318        4369        4368
         4        4318        4319        4370        4369
         4        4319        4320        4371        4370
         4        4320        4321        4372        4371
         4        4321        4322        4373        4372
         4        4322        4323        4374        4373
         4        4323        4324        4375        4374
         4        4324        4325        4376        4375
         4        4325        4326        4377        4376
         4        4326        4327        4378        4377
         4        4327        4328        4379        4378
         4        4328        4329        4380        4379
         4        4329        4330        4381        4380
         4        4330        4331        4382        4381
         4        4331        4332        4383        4382
         4        4332        4333        4384        4383
         4        4333        4334        4385        4384
         4        4335        4336        4387        4386
         4        4336        4337        4388        4387
         4        4337        4338        4389        4388
         4        4338        4339        4390        4389
         4        4339        4340        4391        4390
         4        4340        4341        4392        4391
         4        4341        4342        4393        4392
         4        4342        4343        4394        4393
         4        4343        4344        4395        4394
         4        4344        4345        4396        4395
         4        4345        4346        4397        4396
         4        4346        4347        4398        4397
         4        4347        4348        4399        4398
         4        4348        4349        4400        4399
         4        4349        4350        4401        4400
         4        4350        4351        4402        4401
         4        4351        4352        4403        4402
         4        4352        4353        4404        4403
         4        4353        4354        4405        4404
         4        4354        4355        4406        4405
         4        4355        4356        4407        4406
         4        4356        4357        4408        4407
         4        4357        4358        4409        4408
         4        4358        4359        4410        4409
         4        4359        4360        4411        4410
         4        4360        4361        4412        4411
         4        4361        4362        4413        4412
         4        4362        4363        4414        4413
         4        4363        4364        4415        4414
         4        4364        4365        4416        4415
         4        4365        4366        4417        4416
         4        4366        4367        4418        4417
         4        4367        4368        4419        4418
         4        4368        4369        4420        4419
         4        4369        4370        4421        4420
         4        4370        4371        4422        4421
         4        4371        4372        4423        4422
         4        4372        4373        4424        4423
         4        4373        4374        4425        4424
         4        4374        4375        4426        4425
         4        4375        4376        4427        4426
         4        4376        4377        4428        4427
         4        4377        4378        4429        4428
         4        4378        4379        4430        4429
         4        4379        4380        4431        4430
         4        4380        4381        4432        4431
         4        4381        4382        4433        4432
         4        4382        4383        4434        4433
         4        4383        4384        4435        4434
         4        4384        4385        4436        4435
         4        4386        4387        4438        4437
         4        4387        4388        4439        4438
         4        4388        4389        4440        4439
         4        4389        4390        4441        4440
         4        4390        4391        4442        4441
         4        4391        4392        4443        4442
         4        4392        4393        4444        4443
         4        4393        4394        4445        4444
         4        4394        4395        4446        4445
         4        4395        4396        4447        4446
         4        4396        4397        4448        4447
         4        4397        4398        4449        4448
         4        4398        4399        4450        4449
         4        4399        4400        4451        4450
         4        4400        4401        4452        4451
         4        4401        4402        4453        4452
         4        4402        4403        4454        4453
         4        4403        4404        4455        4454
         4        4404        4405        4456        4455
         4        4405        4406        4457        4456
         4        4406        4407        4458        4457
         4        4407        4408        4459        4458
         4        4408        4409        4460        4459
         4        4409        4410        4461        4460
         4        4410        4411        4462        4461
         4        4411        4412        4463        4462
         4        4412        4413        4464        4463
         4        4413        4414        4465        4464
         4        4414        4415        4466        4465
         4        4415        4416        4467        4466
         4        4416        4417        4468        4467
         4        4417        4418        4469        4468
         4        4418        4419        4470        4469
         4        4419        4420        4471        4470
         4        4420        4421        4472        4471
         4        4421        4422        4473        4472
         4        4422        4423        4474        4473
         4        4423        4424        4475        4474
         4        4424        4425        4476        4475
         4        4425        4426        4477        4476
         4        4426        4427        4478        4477
         4        4427        4428        4479        4478
         4        4428        4429        4480        4479
         4        4429        4430        4481        4480
         4        4430        4431        4482        4481
         4        4431        4432        4483        4482
         4        4432        4433        4484        4483
         4        4433        4434        4485        4484
         4        4434        4435        4486        4485
         4        4435        4436        4487        4486
         4        4437        4438        4489        4488
         4        4438        4439        4490        4489
         4        4439        4440        4491        4490
         4        4440        4441        4492        4491
         4        4441        4442        4493        4492
         4        4442        4443        4494        4493
         4        4443        4444        4495        4494
         4        4444        4445        4496        4495
         4        4445        4446        4497        4496
         4        4446        4447        4498        4497
         4        4447        4448        4499        4498
         4        4448        4449        4500        4499
         4        4449        4450        4501        4500
         4        4450        4451        4502        4501
         4        4451        4452        4503        4502
         4        4452        4453        4504        4503
         4        4453        4454        4505        4504
         4        4454        4455        4506        4505
         4        4455        4456        4507        4506
         4        4456        4457        4508        4507
         4        4457        4458        4509        4508
         4        4458        4459        4510        4509
         4        4459        4460        4511        4510
         4        4460        4461        4512        4511
         4        4461        4462        4513        4512
         4        4462        4463        4514        4513
         4        4463        4464        4515        4514
         4        4464        4465        4516        4515
         4        4465        4466        4517        4516
         4        4466        4467        4518        4517
         4        4467        4468        4519        4518
         4        4468        4469        4520        4519
         4        4469        4470        4521        4520
         4        4470        4471        4522        4521
         4        4471        4472        4523        4522
         4        4472        4473        4524        4523
         4        4473        4474        4525        4524
         4        4474        4475        4526        4525
         4        4475        4476        4527        4526
         4        4476        4477        4528        4527
         4        4477        4478        4529        4528
         4        4478        4479        4530        4529
         4        4479        4480        4531        4530
         4        4480        4481        4532        4531
         4        4481        4482        4533        4532
         4        4482        4483        4534        4533
         4        4483        4484        4535        4534
         4        4484        4485        4536        4535
         4        4485        4486        4537        4536
         4        4486        4487        4538        4537
         4        4488        4489        4540        4539
         4        4489        4490        4541        4540
         4        4490        4491        4542        4541
         4        4491        4492        4543        4542
         4        4492        4493        4544        4543
         4        4493        4494        4545        4544
         4        4494        4495        4546        4545
         4        4495        4496        4547        4546
         4        4496        4497        4548        4547
         4        4497        4498        4549        4548
         4        4498        4499        4550        4549
         4        4499        4500        4551        4550
         4        4500        4501        4552        4551
         4        4501        4502        4553        4552
         4        4502        4503        4554        4553
         4        4503        4504        4555        4554
         4        4504        4505        4556        4555
         4        4505        4506        4557        4556
         4        4506        4507        4558        4557
         4        4507        4508        4559        4558
         4        4508        4509        4560        4559
         4        4509        4510        4561        4560
         4        4510        4511        4562        4561
         4        4511        4512        4563        4562
         4        4512        4513        4564        4563
         4        4513        4514        4565        4564
         4        4514        4515        4566        4565
         4        4515        4516        4567        4566
         4        4516        4517        4568        4567
         4        4517        4518        4569        4568
         4        4518        4519        4570        4569
         4        4519        4520        4571        4570
         4        4520        4521        4572        4571
         4        4521        4522        4573        4572
         4        4522        4523        4574        4573
         4        4523        4524        4575        4574
         4        4524        4525        4576        4575
         4        4525        4526        4577        4576
         4        4526        4527        4578        4577
         4        4527        4528        4579        4578
         4        4528        4529        4580        4579
         4        4529        4530        4581        4580
         4        4530        4531        4582        4581
         4        4531        4532        4583        4582
         4        4532        4533        4584        4583
         4        4533        4534        4585        4584
         4        4534        4535        4586        4585
         4        4535        4536        4587        4586
         4        4536        4537        4588        4587
         4        4537        4538        4589        4588
         4        4539        4540        4591        4590
         4        4540        4541        4592        4591
         4        4541        4542        4593        4592
         4        4542        4543        4594        4593
         4        4543        4544        4595        4594
         4        4544        4545        4596        4595
         4        4545        4546        4597        4596
         4        4546        4547        4598        4597
         4        4547        4548        4599        4598
         4        4548        4549        4600        4599
         4        4549        4550        4601        4600
         4        4550        4551        4602        4601
         4        4551        4552        4603        4602
         4        4552        4553        4604        4603
         4        4553        4554        4605        4604
         4        4554        4555        4606        4605
         4        4555        4556        4607        4606
         4        4556        4557        4608        4607
         4        4557        4558        4609        4608
         4        4558        4559        4610        4609
         4        4559        4560        4611        4610
         4        4560        4561        4612        4611
         4        4561        4562        4613        4612
         4        4562        4563        4614        4613
         4        4563        4564        4615        4614
         4        4564        4565        4616        4615
         4        4565        4566        4617        4616
         4        4566        4567        4618        4617
         4        4567        4568        4619        4618
         4        4568        4569        4620        4619
         4        4569        4570        4621        4620
         4        4570        4571        4622        4621
         4        4571        4572        4623        4622
         4        4572        4573        4624        4623
         4        4573        4574        4625        4624
         4        4574        4575        4626        4625
         4        4575        4576        4627        4626
         4        4576        4577        4628        4627
         4        4577        4578        4629        4628
         4        4578        4579        4630        4629
         4        4579        4580        4631        4630
         4        4580        4581        4632        4631
         4        4581        4582        4633        4632
         4        4582        4583        4634        4633
         4        4583        4584        4635        4634
         4        4584        4585        4636        4635
         4        4585        4586        4637        4636
         4        4586        4587        4638        4637
         4        4587        4588        4639        4638
         4        4588        4589        4640        4639
         4        4590        4591        4642        4641
         4        4591        4592        4643        4642
         4        4592        4593        4644        4643
         4        4593        4594        4645        4644
         4        4594        4595        4646        4645
         4        4595        4596        4647        4646
         4        4596        4597        4648        4647
         4        4597        4598        4649        4648
         4        4598        4599        4650        4649
         4        4599        4600        4651        4650
         4        4600        4601        4652        4651
         4        4601        4602        4653        4652
         4        4602        4603        4654        4653
         4        4603        4604        4655        4654
         4        4604        4605        4656        4655
         4        4605        4606        4657        4656
         4        4606        4607        4658        4657
         4        4607        4608        4659        4658
         4        4608        4609        4660        4659
         4        4609        4610        4661        4660
         4        4610        4611        4662        4661
         4        4611        4612        4663        4662
         4        4612        4613        4664        4663
         4        4613        4614        4665        4664
         4        4614        4615        4666        4665
         4        4615        4616        4667        4666
         4        4616        4617        4668        4667
         4        4617        4618        4669        4668
         4        4618        4619        4670        4669
         4        4619        4620        4671        4670
         4        4620        4621        4672        4671
         4        4621        4622        4673        4672
         4        4622        4623        4674        4673
         4        4623        4624        4675        4674
         4        4624        4625        4676        4675
         4        4625        4626        4677        4676
         4        4626        4627        4678        4677
         4        4627        4628        4679        4678
         4        4628        4629        4680        4679
         4        4629        4630        4681        4680
         4        4630        4631        4682        4681
         4        4631        4632        4683        4682
         4        4632        4633        4684        4683
         4        4633        4634        4685        4684
         4        4634        4635        4686        4685
         4        4635        4636        4687        4686
         4        4636        4637        4688        4687
         4        4637        4638        4689        4688
         4        4638        4639        4690        4689
         4        4639        4640        4691        4690
         4        4641        4642        4693        4692
         4        4642        4643        4694        4693
         4        4643        4644        4695        4694
         4        4644        4645        4696        4695
         4        4645        4646        4697        4696
         4        4646        4647        4698        4697
         4        4647        4648        4699        4698
         4        4648        4649        4700        4699
         4        4649        4650        4701        4700
         4        4650        4651        4702        4701
         4        4651        4652        4703        4702
         4        4652        4653        4704        4703
         4        4653        4654        4705        4704
         4        4654        4655        4706        4705
         4        4655        4656        4707        4706
         4        4656        4657        4708        4707
         4        4657        4658        4709        4708
         4        4658        4659        4710        4709
         4        4659        4660        4711        4710
         4        4660        4661        4712        4711
         4        4661        4662        4713        4712
         4        4662        4663        4714        4713
         4        4663        4664        4715        4714
         4        4664        4665        4716        4715
         4        4665        4666        4717        4716
         4        4666        4667        4718        4717
         4        4667        4668        4719        4718
         4        4668        4669        4720        4719
         4        4669        4670        4721        4720
         4        4670        4671        4722        4721
         4        4671        4672        4723        4722
         4        4672        4673        4724        4723
         4        4673        4674        4725        4724
         4        4674        4675        4726        4725
         4        4675        4676        4727        4726
         4        4676        4677        4728        4727
         4        4677        4678        4729        4728
         4        4678        4679        4730        4729
         4        4679        4680        4731        4730
         4        4680        4681        4732        4731
         4        4681        4682        4733        4732
         4        4682        4683        4734        4733
         4        4683        4684        4735        4734
         4        4684        4685        4736        4735
         4        4685        4686        4737        4736
         4        4686        4687        4738        4737
         4        4687        4688        4739        4738
         4        4688        4689        4740        4739
         4        4689        4690        4741        4740
         4        4690        4691        4742        4741
         4        4692        4693        4744        4743
         4        4693        4694        4745        4744
         4        4694        4695        4746        4745
         4        4695        4696        4747        4746
         4        4696        4697        4748        4747
         4        4697        4698        4749        4748
         4        4698        4699        4750        4749
         4        4699        4700        4751        4750
         4        4700        4701        4752        4751
         4        4701        4702        4753        4752
         4        4702        4703        4754        4753
         4        4703        4704        4755        4754
         4        4704        4705        4756        4755
         4        4705        4706        4757        4756
         4        4706        4707        4758        4757
         4        4707        4708        4759        4758
         4        4708        4709        4760        4759
         4        4709        4710        4761        4760
         4        4710        4711        4762        4761
         4        4711        4712        4763        4762
         4        4712        4713        4764        4763
         4        4713        4714        4765        4764
         4        4714        4715        4766        4765
         4        4715        4716        4767        4766
         4        4716        4717        4768        4767
         4        4717        4718        4769        4768
         4        4718        4719        4770        4769
         4        4719        4720        4771        4770
         4        4720        4721        4772        4771
         4        4721        4722        4773        4772
         4        4722        4723        4774        4773
         4        4723        4724        4775        4774
         4        4724        4725        4776        4775
         4        4725        4726        4777        4776
         4        4726        4727        4778        4777
         4        4727        4728        4779        4778
         4        4728        4729        4780        4779
         4        4729        4730        4781        4780
         4        4730        4731        4782        4781
         4        4731        4732        4783        4782
         4        4732        4733        4784        4783
         4        4733        4734        4785        4784
         4        4734        4735        4786        4785
         4        4735        4736        4787        4786
         4        4736        4737        4788        4787
         4        4737        4738        4789        4788
         4        4738        4739        4790        4789
         4        4739        4740        4791        4790
         4        4740        4741        4792        4791
         4        4741        4742        4793        4792
         4        4743        4744        4795        4794
         4        4744        4745        4796        4795
         4        4745        4746        4797        4796
         4        4746        4747        4798        4797
         4        4747        4748        4799        4798
         4        4748        4749        4800        4799
         4        4749        4750        4801        4800
         4        4750        4751        4802        4801
         4        4751        4752        4803        4802
         4        4752        4753        4804        4803
         4        4753        4754        4805        4804
         4        4754        4755        4806        4805
         4        4755        4756        4807        4806
         4        4756        4757        4808        4807
         4        4757        4758        4809        4808
         4        4758        4759        4810        4809
         4        4759        4760        4811        4810
         4        4760        4761        4812        4811
         4        4761        4762        4813        4812
         4        4762        4763        4814        4813
         4        4763        4764        4815        4814
         4        4764        4765        4816        4815
         4        4765        4766        4817        4816
         4        4766        4767        4818        4817
         4        4767        4768        4819        4818
         4        4768        4769        4820        4819
         4        4769        4770        4821        4820
         4        4770        4771        4822        4821
         4        4771        4772        4823        4822
         4        4772        4773        4824        4823
         4        4773        4774        4825        4824
         4        4774        4775        4826        4825
         4        4775        4776        4827        4826
         4        4776        4777        4828        4827
         4        4777        4778        4829        4828
         4        4778        4779        4830        4829
         4        4779        4780        4831        4830
         4        4780        4781        4832        4831
         4        4781        4782        4833        4832
         4        4782        4783        4834        4833
         4        4783        4784        4835        4834
         4        4784        4785        4836        4835
         4        4785        4786        4837        4836
         4        4786        4787        4838        4837
         4        4787        4788        4839        4838
         4        4788        4789        4840        4839
         4        4789        4790        4841        4840
         4        4790        4791        4842        4841
         4        4791        4792        4843        4842
         4        4792        4793        4844        4843
         4        4794        4795        4846        4845
         4        4795        4796        4847        4846
         4        4796        4797        4848        4847
         4        4797        4798        4849        4848
         4        4798        4799        4850        4849
         4        4799        4800        4851        4850
         4        4800        4801        4852        4851
         4        4801        4802        4853        4852
         4        4802        4803        4854        4853
         4        4803        4804        4855        4854
         4        4804        4805        4856        4855
         4        4805        4806        4857        4856
         4        4806        4807        4858        4857
         4        4807        4808        4859        4858
         4        4808        4809        4860        4859
         4        4809        4810        4861        4860
         4        4810        4811        4862        4861
         4        4811        4812        4863        4862
         4        4812        4813        4864        4863
         4        4813        4814        4865        4864
         4        4814        4815        4866        4865
         4        4815        4816        4867        4866
         4        4816        4817        4868        4867
         4        4817        4818        4869        4868
         4        4818        4819        4870        4869
         4        4819        4820        4871        4870
         4        4820        4821        4872        4871
         4        4821        4822        4873        4872
         4        4822        4823        4874        4873
         4        4823        4824        4875        4874
         4        4824        4825        4876        4875
         4        4825        4826        4877        4876
         4        4826        4827        4878        4877
         4        4827        4828        4879        4878
         4        4828        4829        4880        4879
         4        4829        4830        4881        4880
         4        4830        4831        4882        4881
         4        4831        4832        4883        4882
         4        4832        4833        4884        4883
         4        4833        4834        4885        4884
         4        4834        4835        4886        4885
         4        4835        4836        4887        4886
         4        4836        4837        4888        4887
         4        4837        4838        4889        4888
         4        4838        4839        4890        4889
         4        4839        4840        4891        4890
         4        4840        4841        4892        4891
         4        4841        4842        4893        4892
         4        4842        4843        4894        4893
         4        4843        4844        4895        4894
         4        4845        4846        4897        4896
         4        4846        4847        4898        4897
         4        4847        4848        4899        4898
         4        4848        4849        4900        4899
         4        4849        4850        4901        4900
         4        4850        4851        4902        4901
         4        4851        4852        4903        4902
         4        4852        4853        4904        4903
         4        4853        4854        4905        4904
         4        4854        4855        4906        4905
         4        4855        4856        4907        4906
         4        4856        4857        4908        4907
         4        4857        4858        4909        4908
         4        4858        4859        4910        4909
         4        4859        4860        4911        4910
         4        4860        4861        4912        4911
         4        4861        4862        4913        4912
         4        4862        4863        4914        4913
         4        4863        4864        4915        4914
         4        4864        4865        4916        4915
         4        4865        4866        4917        4916
         4        4866        4867        4918        4917
         4        4867        4868        4919        4918
         4        4868        4869        4920        4919
         4        4869        4870        4921        4920
         4        4870        4871        4922        4921
         4        4871        4872        4923        4922
         4        4872        4873        4924        4923
         4        4873        4874        4925        4924
         4        4874        4875        4926        4925
         4        4875        4876        4927        4926
         4        4876        4877        4928        4927
         4        4877        4878        4929        4928
         4        4878        4879        4930        4929
         4        4879        4880        4931        4930
         4        4880        4881        4932        4931
         4        4881        4882        4933        4932
         4        4882        4883        4934        4933
         4        4883        4884        4935        4934
         4        4884        4885        4936        4935
         4        4885        4886        4937        4936
         4        4886        4887        4938        4937
         4        4887        4888        4939        4938
         4        4888        4889        4940        4939
         4        4889        4890        4941        4940
         4        4890        4891        4942        4941
         4        4891        4892        4943        4942
         4        4892        4893        4944        4943
         4        4893        4894        4945        4944
         4        4894        4895        4946        4945
         4        4896        4897        4948        4947
         4        4897        4898        4949        4948
         4        4898        4899        4950        4949
         4        4899        4900        4951        4950
         4        4900        4901        4952        4951
         4        4901        4902        4953        4952
         4        4902        4903        4954        4953
         4        4903        4904        4955        4954
         4        4904        4905        4956        4955
         4        4905        4906        4957        4956
         4        4906        4907        4958        4957
         4        4907        4908        4959        4958
         4        4908        4909        4960        4959
         4        4909        4910        4961        4960
         4        4910        4911        4962        4961
         4        4911        4912        4963        4962
         4        4912        4913        4964        4963
         4        4913        4914        4965        4964
         4        4914        4915        4966        4965
         4        4915        4916        4967        4966
         4        4916        4917        4968        4967
         4        4917        4918        4969        4968
         4        4918        4919        4970        4969
         4        4919        4920        4971        4970
         4        4920        4921        4972        4971
         4        4921        4922        4973        4972
         4        4922        4923        4974        4973
         4        4923        4924        4975        4974
         4        4924        4925        4976        4975
         4        4925        4926        4977        4976
         4        4926        4927        4978        4977
         4        4927        4928        4979        4978
         4        4928        4929        4980        4979
         4        4929        4930        4981        4980
         4        4930        4931        4982        4981
         4        4931        4932        4983        4982
         4        4932        4933        4984        4983
         4        4933        4934        4985        4984
         4        4934        4935        4986        4985
         4        4935        4936        4987        4986
         4        4936        4937        4988        4987
         4        4937        4938        4989        4988
         4        4938        4939        4990        4989
         4        4939        4940        4991        4990
         4        4940        4941        4992        4991
         4        4941        4942        4993        4992
         4        4942        4943        4994        4993
         4        4943        4944        4995        4994
         4        4944        4945        4996        4995
         4        4945        4946        4997        4996
         4        4947        4948        4999        4998
         4        4948        4949        5000        4999
         4        4949        4950        5001        5000
         4        4950        4951        5002        5001
         4        4951        4952        5003        5002
         4        4952        4953        5004        5003
         4        4953        4954        5005        5004
         4        4954        4955        5006        5005
         4        4955        4956        5007        5006
         4        4956        4957        5008        5007
         4        4957        4958        5009        5008
         4        4958        4959        5010        5009
         4        4959        4960        5011        5010
         4        4960        4961        5012        5011
         4        4961        4962        5013        5012
         4        4962        4963        5014        5013
         4        4963        4964        5015        5014
         4        4964        4965        5016        5015
         4        4965        4966        5017        5016
         4        4966        4967        5018        5017
         4        4967        4968        5019        5018
         4        4968        4969        5020        5019
         4        4969        4970        5021        5020
         4        4970        4971        5022        5021
         4        4971        4972        5023        5022
         4        4972        4973        5024        5023
         4        4973        4974        5025        5024
         4        4974        4975        5026        5025
         4        4975        4976        5027        5026
         4        4976        4977        5028        5027
         4        4977        4978        5029        5028
         4        4978        4979        5030        5029
         4        4979        4980        5031        5030
         4        4980        4981        5032        5031
         4        4981        4982        5033        5032
         4        4982        4983        5034        5033
         4        4983        4984        5035        5034
         4        4984        4985        5036        5035
         4        4985        4986        5037        5036
         4        4986        4987        5038        5037
         4        4987        4988        5039        5038
         4        4988        4989        5040        5039
         4        4989        4990        5041        5040
         4        4990        4991        5042        5041
         4        4991        4992        5043        5042
         4        4992        4993        5044        5043
         4        4993        4994        5045        5044
         4        4994        4995        5046        5045
         4        4995        4996        5047        5046
         4        4996        4997        5048        5047
         4        4998        4999        5050        5049
         4        4999        5000        5051        5050
         4        5000        5001        5052        5051
         4        5001        5002        5053        5052
         4        5002        5003        5054        5053
         4        5003        5004        5055        5054
         4        5004        5005        5056        5055
         4        5005        5006        5057        5056
         4        5006        5007        5058        5057
         4        5007        5008        5059        5058
         4        5008        5009        5060        5059
         4        5009        5010        5061        5060
         4        5010        5011        5062        5061
         4        5011        5012        5063        5062
         4        5012        5013        5064        5063
         4        5013        5014        5065        5064
         4        5014        5015        5066        5065
         4        5015        5016        5067        5066
         4        5016        5017        5068        5067
         4        5017        5018        5069        5068
         4        5018        5019        5070        5069
         4        5019        5020        5071        5070
         4        5020        5021        5072        5071
         4        5021        5022        5073        5072
         4        5022        5023        5074        5073
         4        5023        5024        5075        5074
         4        5024        5025        5076        5075
         4        5025        5026        5077        5076
         4        5026        5027        5078        5077
         4        5027        5028        5079        5078
         4        5028        5029        5080        5079
         4        5029        5030        5081        5080
         4        5030        5031        5082        5081
         4        5031        5032        5083        5082
         4        5032        5033        5084        5083
         4        5033        5034        5085        5084
         4        5034        5035        5086        5085
         4        5035        5036        5087        5086
         4        5036        5037        5088        5087
         4        5037        5038        5089        5088
         4        5038        5039        5090        5089
         4        5039        5040        5091        5090
         4        5040        5041        5092        5091
         4        5041        5042        5093        5092
         4        5042        5043        5094        5093
         4        5043        5044        5095        5094
         4        5044        5045        5096        5095
         4        5045        5046        5097        5096
         4        5046        5047        5098        5097
         4        5047        5048        5099        5098
         4        5049        5050        5101        5100
         4        5050        5051        5102        5101
         4        5051        5052        5103        5102
         4        5052        5053        5104        5103
         4        5053        5054        5105        5104
         4        5054        5055        5106        5105
         4        5055        5056        5107        5106
         4        5056        5057        5108        5107
         4        5057        5058        5109        5108
         4        5058        5059        5110        5109
         4        5059        5060        5111        5110
         4        5060        5061        5112        5111
         4        5061        5062        5113        5112
         4        5062        5063        5114        5113
         4        5063        5064        5115        5114
         4        5064        5065        5116        5115
         4        5065        5066        5117        5116
         4        5066        5067        5118        5117
         4        5067        5068        5119        5118
         4        5068        5069        5120        5119
         4        5069        5070        5121        5120
         4        5070        5071        5122        5121
         4        5071        5072        5123        5122
         4        5072        5073        5124        5123
         4        5073        5074        5125        5124
         4        5074        5075        5126        5125
         4        5075        5076        5127        5126
         4        5076        5077        5128        5127
         4        5077        5078        5129        5128
         4        5078        5079        5130        5129
         4        5079        5080        5131        5130
         4        5080        5081        5132        5131
         4        5081        5082        5133        5132
         4        5082        5083        5134        5133
         4        5083        5084        5135        5134
         4        5084        5085        5136        5135
         4        5085        5086        5137        5136
         4        5086        5087        5138        5137
         4        5087        5088        5139        5138
         4        5088        5089        5140        5139
         4        5089        5090        5141        5140
         4        5090        5091        5142        5141
         4        5091        5092        5143        5142
         4        5092        5093        5144        5143
         4        5093        5094        5145        5144
         4        5094        5095        5146        5145
         4        5095        5096        5147        5146
         4        5096        5097        5148        5147
         4        5097        5098        5149        5148
         4        5098        5099        5150        5149
CELL_TYPES       5000
9
9
9
9
9
9
9
9
9
9
9
9
9
9
9
9
9
9
9
9
9
9
9
9
9
9
9
9
9
9
9
9
9
9
9
9
9
9
9
9
9
9
9
9
9
9
9
9
9
9
9
9
9
9
9
9
9
9
9
9
9
9
9
9
9
9
9
9
9
9
9
9
9
9
9
9
9
9
9
9
9
9
9
9
9
9
9
9
9
9
9
9
9
9
9
9
9
9
9
9
9
9
9
9
9
9
9
9
9
9
9
9
9
9
9
9
9
9
9
9
9
9
9
9
9
9
9
9
9
9
9
9
9
9
9
9
9
9
9
9
9
9
9
9
9
9
9
9
9
9
9
9
9
9
9
9
9
9
9
9
9
9
9
9
9
9
9
9
9
9
9
9
9
9
9
9
9
9
9
9
9
9
9
9
9
9
9
9
9
9
9
9
9
9
9
9
9
9
9
9
9
9
9
9
9
9
9
9
9
9
9
9
9
9
9
9
9
9
9
9
9
9
9
9
9
9
9
9
9
9
9
9
9
9
9
9
9
9
9
9
9
9
9
9
9
9
9
9
9
9
9
9
9
9
9
9
9
9
9
9
9
9
9
9
9
9
9
9
9
9
9
9
9
9
9
9
9
9
9
9
9
9
9
9
9
9
9
9
9
9
9
9
9
9
9
9
9
9
9
9
9
9
9
9
9
9
9
9
9
9
9
9
9
9
9
9
9
9
9
9
9
9
9
9
9
9
9
9
9
9
9
9
9
9
9
9
9
9
9
9
9
9
9
9
9
9
9
9
9
9
9
9
9
9
9
9
9
9
9
9
9
9
9
9
9
9
9
9
9
9
9
9
9
9
9
9
9
9
9
9
9
9
9
9
9
9
9
9
9
9
9
9
9
9
9
9
9
9
9
9
9
9
9
9
9
9
9
9
9
9
9
9
9
9
9
9
9
9
9
9
9
9
9
9
9
9
9
9
9
9
9
9
9
9
9
9
9
9
9
9
9
9
9
9
9
9
9
9
9
9
9
9
9
9
9
9
9
9
9
9
9
9
9
9
9
9
9
9
9
9
9
9
9
9
9
9
9
9
9
9
9
9
9
9
9
9
9
9
9
9
9
9
9
9
9
9
9
9
9
9
9
9
9
9
9
9
9
9
9
9
9
9
9
9
9
9
9
9
9
9
9
9
9
9
9
9
9
9
9
9
9
9
9
9
9
9
9
9
9
9
9
9
9
9
9
9
9
9
9
9
9
9
9
9
9
9
9
9
9
9
9
9
9
9
9
9
9
9
9
9
9
9
9
9
9
9
9
9
9
9
9
9
9
9
9
9
9
9
9
9
9
9
9
9
9
9
9
9
9
9
9
9
9
9
9
9
9
9
9
9
9
9
9
9
9
9
9
9
9
9
9
9
9
9
9
9
9
9
9
9
9
9
9
9
9
9
9
9
9
9
9
9
9
9
9
9
9
9
9
9
9
9
9
9
9
9
9
9
9
9
9
9
9
9
9
9
9
9
9
9
9
9
9
9
9
9
9
9
9
9
9
9
9
9
9
9
9
9
9
9
9
9
9
9
9
9
9
9
9
9
9
9
9
9
9
9
9
9
9
9
9
9
9
9
9
9
9
9
9
9
9
9
9
9
9
9
9
9
9
9
9
9
9
9
9
9
9
9
9
9
9
9
9
9
9
9
9
9
9
9
9
9
9
9
9
9
9
9
9
9
9
9
9
9
9
9
9
9
9
9
9
9
9
9
9
9
9
9
9
9
9
9
9
9
9
9
9
9
9
9
9
9
9
9
9
9
9
9
9
9
9
9
9
9
9
9
9
9
9
9
9
9
9
9
9
9
9
9
9
9
9
9
9
9
9
9
9
9
9
9
9
9
9
9
9
9
9
9
9
9
9
9
9
9
9
9
9
9
9
9
9
9
9
9
9
9
9
9
9
9
9
9
9
9
9
9
9
9
9
9
9
9
9
9
9
9
9
9
9
9
9
9
9
9
9
9
9
9
9
9
9
9
9
9
9
9
9
9
9
9
9
9
9
9
9
9
9
9
9
9
9
9
9
9
9
9
9
9
9
9
9
9
9
9
9
9
9
9
9
9
9
9
9
9
9
9
9
9
9
9
9
9
9
9
9
9
9
9
9
9
9
9
9
9
9
9
9
9
9
9
9
9
9
9
9
9
9
9
9
9
9
9
9
9
9
9
9
9
9
9
9
9
9
9
9
9
9
9
9
9
9
9
9
9
9
9
9
9
9
9
9
9
9
9
9
9
9
9
9
9
9
9
9
9
9
9
9
9
9
9
9
9
9
9
9
9
9
9
9
9
9
9
9
9
9
9
9
9
9
9
9
9
9
9
9
9
9
9
9
9
9
9
9
9
9
9
9
9
9
9
9
9
9
9
9
9
9
9
9
9
9
9
9
9
9
9
9
9
9
9
9
9
9
9
9
9
9
9
9
9
9
9
9
9
9
9
9
9
9
9
9
9
9
9
9
9
9
9
9
9
9
9
9
9
9
9
9
9
9
9
9
9
9
9
9
9
9
9
9
9
9
9
9
9
9
9
9
9
9
9
9
9
9
9
9
9
9
9
9
9
9
9
9
9
9
9
9
9
9
9
9
9
9
9
9
9
9
9
9
9
9
9
9
9
9
9
9
9
9
9
9
9
9
9
9
9
9
9
9
9
9
9
9
9
9
9
9
9
9
9
9
9
9
9
9
9
9
9
9
9
9
9
9
9
9
9
9
9
9
9
9
9
9
9
9
9
9
9
9
9
9
9
9
9
9
9
9
9
9
9
9
9
9
9
9
9
9
9
9
9
9
9
9
9
9
9
9
9
9
9
9
9
9
9
9
9
9
9
9
9
9
9
9
9
9
9
9
9
9
9
9
9
9
9
9
9
9
9
9
9
9
9
9
9
9
9
9
9
9
9
9
9
9
9
9
9
9
9
9
9
9
9
9
9
9
9
9
9
9
9
9
9
9
9
9
9
9
9
9
9
9
9
9
9
9
9
9
9
9
9
9
9
9
9
9
9
9
9
9
9
9
9
9
9
9
9
9
9
9
9
9
9
9
9
9
9
9
9
9
9
9
9
9
9
9
9
9
9
9
9
9
9
9
9
9
9
9
9
9
9
9
9
9
9
9
9
9
9
9
9
9
9
9
9
9
9
9
9
9
9
9
9
9
9
9
9
9
9
9
9
9
9
9
9
9
9
9
9
9
9
9
9
9
9
9
9
9
9
9
9
9
9
9
9
9
9
9
9
9
9
9
9
9
9
9
9
9
9
9
9
9
9
9
9
9
9
9
9
9
9
9
9
9
9
9
9
9
9
9
9
9
9
9
9
9
9
9
9
9
9
9
9
9
9
9
9
9
9
9
9
9
9
9
9
9
9
9
9
9
9
9
9
9
9
9
9
9
9
9
9
9
9
9
9
9
9
9
9
9
9
9
9
9
9
9
9
9
9
9
9
9
9
9
9
9
9
9
9
9
9
9
9
9
9
9
9
9
9
9
9
9
9
9
9
9
9
9
9
9
9
9
9
9
9
9
9
9
9
9
9
9
9
9
9
9
9
9
9
9
9
9
9
9
9
9
9
9
9
9
9
9
9
9
9
9
9
9
9
9
9
9
9
9
9
9
9
9
9
9
9
9
9
9
9
9
9
9
9
9
9
9
9
9
9
9
9
9
9
9
9
9
9
9
9
9
9
9
9
9
9
9
9
9
9
9
9
9
9
9
9
9
9
9
9
9
9
9
9
9
9
9
9
9
9
9
9
9
9
9
9
9
9
9
9
9
9
9
9
9
9
9
9
9
9
9
9
9
9
9
9
9
9
9
9
9
9
9
9
9
9
9
9
9
9
9
9
9
9
9
9
9
9
9
9
9
9
9
9
9
9
9
9
9
9
9
9
9
9
9
9
9
9
9
9
9
9
9
9
9
9
9
9
9
9
9
9
9
9
9
9
9
9
9
9
9
9
9
9
9
9
9
9
9
9
9
9
9
9
9
9
9
9
9
9
9
9
9
9
9
9
9
9
9
9
9
9
9
9
9
9
9
9
9
9
9
9
9
9
9
9
9
9
9
9
9
9
9
9
9
9
9
9
9
9
9
9
9
9
9
9
9
9
9
9
9
9
9
9
9
9
9
9
9
9
9
9
9
9
9
9
9
9
9
9
9
9
9
9
9
9
9
9
9
9
9
9
9
9
9
9
9
9
9
9
9
9
9
9
9
9
9
9
9
9
9
9
9
9
9
9
9
9
9
9
9
9
9
9
9
9
9
9
9
9
9
9
9
9
9
9
9
9
9
9
9
9
9
9
9
9
9
9
9
9
9
9
9
9
9
9
9
9
9
9
9
9
9
9
9
9
9
9
9
9
9
9
9
9
9
9
9
9
9
9
9
9
9
9
9
9
9
9
9
9
9
9
9
9
9
9
9
9
9
9
9
9
9
9
9
9
9
9
9
9
9
9
9
9
9
9
9
9
9
9
9
9
9
9
9
9
9
9
9
9
9
9
9
9
9
9
9
9
9
9
9
9
9
9
9
9
9
9
9
9
9
9
9
9
9
9
9
9
9
9
9
9
9
9
9
9
9
9
9
9
9
9
9
9
9
9
9
9
9
9
9
9
9
9
9
9
9
9
9
9
9
9
9
9
9
9
9
9
9
9
9
9
9
9
9
9
9
9
9
9
9
9
9
9
9
9
9
9
9
9
9
9
9
9
9
9
9
9
9
9
9
9
9
9
9
9
9
9
9
9
9
9
9
9
9
9
9
9
9
9
9
9
9
9
9
9
9
9
9
9
9
9
9
9
9
9
9
9
9
9
9
9
9
9
9
9
9
9
9
9
9
9
9
9
9
9
9
9
9
9
9
9
9
9
9
9
9
9
9
9
9
9
9
9
9
9
9
9
9
9
9
9
9
9
9
9
9
9
9
9
9
9
9
9
9
9
9
9
9
9
9
9
9
9
9
9
9
9
9
9
9
9
9
9
9
9
9
9
9
9
9
9
9
9
9
9
9
9
9
9
9
9
9
9
9
9
9
9
9
9
9
9
9
9
9
9
9
9
9
9
9
9
9
9
9
9
9
9
9
9
9
9
9
9
9
9
9
9
9
9
9
9
9
9
9
9
9
9
9
9
9
9
9
9
9
9
9
9
9
9
9
9
9
9
9
9
9
9
9
9
9
9
9
9
9
9
9
9
9
9
9
9
9
9
9
9
9
9
9
9
9
9
9
9
9
9
9
9
9
9
9
9
9
9
9
9
9
9
9
9
9
9
9
9
9
9
9
9
9
9
9
9
9
9
9
9
9
9
9
9
9
9
9
9
9
9
9
9
9
9
9
9
9
9
9
9
9
9
9
9
9
9
9
9
9
9
9
9
9
9
9
9
9
9
9
9
9
9
9
9
9
9
9
9
9
9
9
9
9
9
9
9
9
9
9
9
9
9
9
9
9
9
9
9
9
9
9
9
9
9
9
9
9
9
9
9
9
9
9
9
9
9
9
9
9
9
9
9
9
9
9
9
9
9
9
9
9
9
9
9
9
9
9
9
9
9
9
9
9
9
9
9
9
9
9
9
9
9
9
9
9
9
9
9
9
9
9
9
9
9
9
9
9
9
9
9
9
9
9
9
9
9
9
9
9
9
9
9
9
9
9
9
9
9
9
9
9
9
9
9
9
9
9
9
9
9
9
9
9
9
9
9
9
9
9
9
9
9
9
9
9
9
9
9
9
9
9
9
9
9
9
9
9
9
9
9
9
9
9
9
9
9
9
9
9
9
9
9
9
9
9
9
9
9
9
9
9
9
9
9
9
9
9
9
9
9
9
9
9
9
9
9
9
9
9
9
9
9
9
9
9
9
9
9
9
9
9
9
9
9
9
9
9
9
9
9
9
9
9
9
9
9
9
9
9
9
9
9
9
9
9
9
9
9
9
9
9
9
9
9
9
9
9
9
9
9
9
9
9
9
9
9
9
9
9
9
9
9
9
9
9
9
9
9
9
9
9
9
9
9
9
9
9
9
9
9
9
9
9
9
9
9
9
9
9
9
9
9
9
9
9
9
9
9
9
9
9
9
9
9
9
9
9
9
9
9
9
9
9
9
9
9
9
9
9
9
9
9
9
9
9
9
9
9
9
9
9
9
9
9
9
9
9
9
9
9
9
9
9
9
9
9
9
9
9
9
9
9
9
9
9
9
9
9
9
9
9
9
9
9
9
9
9
9
9
9
9
9
9
9
9
9
9
9
9
9
9
9
9
9
9
9
9
9
9
9
9
9
9
9
9
9
9
9
9
9
9
9
9
9
9
9
9
9
9
9
9
9
9
9
9
9
9
9
9
9
9
9
9
9
9
9
9
9
9
9
9
9
9
9
9
9
9
9
9
9
9
9
9
9
9
9
9
9
9
9
9
9
9
9
9
9
9
9
9
9
9
9
9
9
9
9
9
9
9
9
9
9
9
9
9
9
9
9
9
9
9
9
9
9
9
9
9
9
9
9
9
9
9
9
9
9
9
9
9
9
9
9
9
9
9
9
9
9
9
9
9
9
9
9
9
9
9
9
9
9
9
9
9
9
9
9
9
9
9
9
9
9
9
9
9
9
9
9
9
9
9
9
9
9
9
9
9
9
9
9
9
9
9
9
9
9
9
9
9
9
9
9
9
9
9
9
9
9
9
9
9
9
9
9
9
9
9
9
9
9
9
9
9
9
9
9
9
9
9
9
9
9
9
9
9
9
9
9
9
9
9
9
9
9
9
9
9
9
9
9
9
9
9
9
9
9
9
9
9
9
9
9
9
9
9
9
9
9
9
9
9
9
9
9
9
9
9
9
9
9
9
9
9
9
9
9
9
9
9
9
9
9
9
9
9
9
9
9
9
9
9
9
9
9
9
9
9
9
9
9
9
9
9
9
9
9
9
9
9
9
9
9
9
9
9
9
9
9
9
9
9
9
9
9
9
9
9
9
9
9
9
9
9
9
9
9
9
9
9
9
9
9
9
9
9
9
9
9
9
9
9
9
9
9
9
9
9
9
9
9
9
9
9
9
9
9
9
9
9
9
9
9
9
9
9
9
9
9
9
9
9
9
9
9
9
9
9
9
9
9
9
9
9
9
9
9
9
9
9
9
9
9
9
9
9
9
9
9
9
9
9
9
9
9
9
9
9
9
9
9
9
9
9
9
9
9
9
9
9
9
9
9
9
9
9
9
9
9
9
9
9
9
9
9
9
9
9
9
9
9
9
9
9
9
9
9
9
9
9
9
9
9
9
9
9
9
9
9
9
9
9
9
9
9
9
9
9
9
9
9
9
9
9
9
9
9
9
9
9
9
9
9
9
9
9
9
9
9
9
9
9
9
9
9
9
9
9
9
9
9
9
9
9
9
9
9
9
9
9
9
9
9
9
9
9
9
9
9
9
9
9
9
9
9
9
9
9
9
9
9
9
9
9
9
9
9
9
9
9
9
9
9
9
9
9
9
9
9
9
9
9
9
9
9
9
9
9
9
9
9
9
9
9
9
9
9
9
9
9
9
9
9
9
9
9
9
9
9
9
9
9
9
9
9
9
9
9
9
9
9
9
9
9
9
9
9
9
9
9
9
9
9
9
9
9
9
9
9
9
9
9
9
9
9
9
9
9
9
9
9
9
9
9
9
9
9
9
9
9
9
9
9
9
9
9
9
9
9
9
9
9
9
9
9
9
9
9
9
9
9
9
9
9
9
9
9
9
9
9
9
9
9
9
9
9
9
9
9
9
9
9
9
9
9
9
9
9
9
9
9
9
9
9
9
9
9
9
9
9
9
9
9
9
9
9
9
9
9
9
9
9
9
9
9
9
9
9
9
9
9
9
9
9
9
9
9
9
9
9
9
9
9
9
9
9
9
9
9
9
9
9
9
9
9
9
9
9
9
9
9
9
9
9
9
9
9
9
9
9
9
9
9
9
9
9
9
9
9
9
9
9
9
9
9
9
9
9
9
9
9
9
9
9
9
9
9
9
9
9
9
9
9
9
9
9
9
9
9
9
9
9
9
9
9
9
9
9
9
9
9
9
9
9
9
9
9
9
9
9
9
9
9
9
9
9
9
9
9
9
9
9
9
9
9
9
9
9
9
9
9
9
9
9
9
9
9
9
9
9
9
9
9
9
9
9
9
9
9
9
9
9
9
9
9
9
9
9
9
9
9
9
9
9
9
9
9
9
9
9
9
9
9
9
9
9
9
9
9
9
9
9
9
9
9
9
9
9
9
9
9
9
9
9
9
9
9
9
9
9
9
9
9
9
9
9
9
9
9
9
9
9
9
9
9
9
9
9
9
9
9
9
9
9
9
9
9
9
9
9
9
9
9
9
9
9
9
9
9
9
9
9
9
9
9
9
9
9
9
9
9
9
9
9
9
9
9
9
9
9
9
9
9
9
9
9
9
9
9
9
9
9
9
9
9
9
9
9
9
9
9
9
9
9
9
9
9
9
9
9
9
9
9
9
9
9
9
9
9
9
9
9
9
9
9
9
9
9
9
9
9
9
9
9
9
9
9
9
9
9
9
9
9
9
9
9
9
9
9
9
9
9
9
9
9
9
9
9
9
9
9
9
9
9
9
9
9
9
9
9
9
9
9
9
9
9
9
9
9
9
9
9
9
9
9
9
9
9
9
9
9
9
9
9
9
9
9
9
9
9
9
9
9
9
9
9
9
9
9
9
9
9
9
9
9
9
9
9
9
9
9
9
9
9
9
9
9
9
9
9
9
9
9
9
9
9
9
9
9
9
9
9
9
9
9
9
9
9
9
9
9
9
9
9
9
9
9
9
9
9
9
9
9
9
9
9
9
9
9
9
9
9
9
9
9
9
9
9
9
9
9
9
9
9
9
9
9
9
9
9
9
9
9
9
9
9
9
9
9
9
9
9
9
9
9
9
9
9
9
9
9
9
9
9
9
9
9
9
9
9
9
9
9
9
9
9
9
9
9
9
9
9
9
9
9
9
9
9
9
9
9
9
9
9
9
9
9
9
9
9
9
9
9
9
9
9
9
9
9
9
9
9
9
9
9
9
9
9
9
9
9
9
9
9
9
9
9
9
9
9
9
9
9
9
9
9
9
9
9
9
9
9
9
9
9
9
9
9
9
9
9
9
9
9
9
9
9
9
9
9
9
9
9
9
9
9
9
9
9
9
9
9
9
9
9
9
9
9
9
9
9
9
9
9
9
9
9
9
9
9
9
9
9
9
9
9
9
9
9
9
9
9
9
9
9
9
9
9
9
9
9
9
9
9
9
9
9
9
9
9
9
9
9
9
9
9
9
9
9
9
9
9
9
9
9
9
9
9
9
9
9
9
9
9
9
9
9
9
9
9
9
9
9
9
9
9
9
9
9
9
9
9
9
9
9
9
9
9
9
9
9
9
9
9
9
9
9
9
9
9
9
9
9
9
9
9
9
9
9
9
9
9
9
9
9
9
9
9
9
9
9
9
9
9
9
9
9
9
9
9
9
9
9
9
9
9
9
9
9
9
9
9
9
9
9
9
9
9
9
9
9
9
9
9
9
9
9
9
9
9
9
9
9
9
9
9
9
9
9
9
9
9
9
9
9
9
9
9
9
9
9
9
9
9
9
9
9
9
9
9
9
9
9
9
9
9
9
9
9
9
9
9
9
9
9
9
9
9
9
9
9
9
9
9
9
9
9
9
9
9
9
9
9
9
9
9
9
9
9
9
9
9
9
9
9
9
9
9
9
9
9
9
9
9
9
9
9
9
9
9
9
9
9
9
9
9
9
9
9
9
9
9
9
9
9
9
9
9
9
9
9
9
9
9
9
9
9
9
9
9
9
9
9
9
9
9
9
9
9
9
9
9
9
9
9
9
9
9
9
9
9
9
9
9
9
9
9
9
9
9
9
9
9
9
9
9
9
9
9
9
9
9
9
9
9
9
9
9
9
9
9
9
9
9
9
9
9
9
9
9
9
9
9
9
9
9
9
9
9
9
9
9
9
9
9
9
9
9
9
9
9
9
9
9
9
9
9
9
9
9
9
9
9
9
9
9
9
9
9
9
9
9
9
9
9
9
9
9
9
9
9
9
9
9
9
9
9
9
9
9
9
9
9
9
9
9
9
9
9
9
9
9
9
9
9
9
9
9
9
9
9
9
9
9
9
9
9
9
9
9
9
9
9
9
9
9
9
9
9
9
9
9
9
9
9
9
9
9
9
9
9
9
9
9
9
9
9
9
9
9
9
9
9
9
9
9
9
9
9
9
9
9
9
9
9
9
9
9
9
9
9
9
9
9
9
9
9
9
9
9
9
9
9
9
9
9
9
9
9
9
9
9
9
9
9
9
9
9
9
9
9
9
9
9
9
9
9
9
9
9
9
9
9
9
9
9
9
9
9
9
9
9
9
9
9
9
9
9
9
9
9
9
9
9
9
9
9
9
9
9
9
9
9
9
9
9
9
9
9
9
9
9
9
9
9
9
9
9
9
9
9
9
9
9
9
9
9
9
9
9
9
9
9
9
9
9
9
9
9
9
9
9
9
9
9
9
9
9
9
9
9
9
9
9
9
9
9
9
9
9
9
9
9
9
9
9
9
9
9
9
9
9
9
9
9
9
9
9
9
9
9
9
9
9
9
9
9
9
9
9
9
9
9
9
9
9
9
9
9
9
9
9
9
9
9
9
9
9
9
9
9
9
9
9
9
9
9
9
9
9
9
9
9
9
9
9
9
9
9
9
9
9
9
9
9
9
9
9
9
9
9
9
9
9
9
9
9
9
9
9
9
9
9
9
9
9
9
9
9
9
9
9
9
9
9
9
9
9
9
9
9
9
9
9
9
9
9
9
9
9
9
9
9
9
9
9
9
9
9
9
9
9
9
9
9
9
9
9
9
9
9
9
9
9
9
9
9
9
9
9
9
9
9
9
9
9
9
9
9
9
9
9
9
9
9
9
9
9
9
9
9
9
9
9
9
9
9
9
9
9
9
9
9
9
9
9
9
9
9
9
9
9
9
9
9
9
9
9
9
9
9
9
9
9
9
9
9
9
9
9
9
9
9
9
9
9
9
9
9
9
9
9
9
9
9
9
9
9
9
9
9
9
9
9
9
9
9
9
9
9
9
9
9
9
9
9
9
9
9
9
9
9
9
9
9
9
9
9
9
9
9
9
9
9
9
9
9
9
9
9
9
9
9
9
9
9
9
9
9
9
9
9
9
9
9
9
9
9
9
9
9
9
9
9
9
9
9
9
9
9
9
POINT_DATA      5151
SCALARS p double 
LOOKUP_TABLE default
   50000000.0000000     
   50000000.0000000     
   50000000.0000000     
   50000000.0000000     
   50000000.0000000     
   50000000.0000000     
   50000000.0000000     
   50000000.0000000     
   50000000.0000000     
   50000000.0000000     
   50000000.0000000     
   50000000.0000000     
   50000000.0000000     
   50000000.0000000     
   50000000.0000000     
   50000000.0000000     
   50000000.0000000     
   50000000.0000000     
   50000000.0000000     
   50000000.0000000     
   50000000.0000000     
   50000000.0000000     
   50000000.0000000     
   50000000.0000000     
   50000000.0000000     
   50000000.0000000     
   50000000.0000000     
   50000000.0000000     
   50000000.0000000     
   50000000.0000000     
   50000000.0000000     
   50000000.0000000     
   50000000.0000000     
   50000000.0000000     
   50000000.0000000     
   50000000.0000000     
   50000000.0000000     
   50000000.0000000     
   50000000.0000000     
   50000000.0000000     
   50000000.0000000     
   50000000.0000000     
   50000000.0000000     
   50000000.0000000     
   50000000.0000000     
   50000000.0000000     
   50000000.0000000     
   50000000.0000000     
   50000000.0000000     
   50000000.0000000     
   50000000.0000000     
   49973813.0454367     
   49973818.6469657     
   49973833.9025075     
   49973856.9478743     
   49973886.3631343     
   49973921.0454739     
   49973960.1226886     
   49974002.8932742     
   49974048.7842007     
   49974097.3206284     
   49974148.1038225     
   49974200.7947838     
   49974255.1019309     
   49974310.7716944     
   49974367.5812358     
   49974425.3327370     
   49974483.8488660     
   49974542.9691317     
   49974602.5469202     
   49974662.4470562     
   49974722.5437736     
   49974782.7190047     
   49974842.8609211     
   49974902.8626707     
   49974962.6212688     
   49975022.0366075     
   49975081.0105554     
   49975139.4461215     
   49975197.2466625     
   49975254.3151125     
   49975310.5532161     
   49975365.8607451     
   49975420.1346781     
   49975473.2683194     
   49975525.1503312     
   49975575.6636452     
   49975624.6842147     
   49975672.0795552     
   49975717.7070069     
   49975761.4116282     
   49975803.0236026     
   49975842.3549874     
   49975879.1955725     
   49975913.3075117     
   49975944.4182342     
   49975972.2109137     
   49975996.3113959     
   49976016.2699074     
   49976031.5349327     
   49976041.4151389     
   49976045.0227786     
   49948886.3123614     
   49948892.4624239     
   49948910.2444349     
   49948938.5910047     
   49948976.4298209     
   49949022.7416657     
   49949076.5855675     
   49949137.1063627     
   49949203.5331948     
   49949275.1736662     
   49949351.4062188     
   49949431.6721091     
   49949515.4676735     
   49949602.3372014     
   49949691.8665330     
   49949783.6773912     
   49949877.4224013     
   49949972.7807328     
   49950069.4542878     
   49950167.1643614     
   49950265.6487066     
   49950364.6589415     
   49950463.9582445     
   49950563.3192884     
   49950662.5223718     
   49950761.3537098     
   49950859.6038503     
   49950957.0661877     
   49951053.5355432     
   49951148.8067889     
   49951242.6734889     
   49951334.9265330     
   49951425.3527388     
   49951513.7333958     
   49951599.8427241     
   49951683.4462186     
   49951764.2988445     
   49951842.1430528     
   49951916.7065726     
   49951987.6999470     
   49952054.8137687     
   49952117.7155897     
   49952176.0464889     
   49952229.4173300     
   49952277.4048177     
   49952319.5476171     
   49952355.3430891     
   49952384.2457204     
   49952405.6692892     
   49952418.9965468     
   49952423.6033333     
   49924911.4854037     
   49924917.7720061     
   49924936.0662636     
   49924965.5504335     
   49925005.4287490     
   49925054.9223301     
   49925113.2727239     
   49925179.7473664     
   49925253.6442777     
   49925334.2951644     
   49925421.0668979     
   49925513.3616379     
   49925610.6159366     
   49925712.2991353     
   49925817.9113059     
   49925926.9809316     
   49926039.0624673     
   49926153.7338757     
   49926270.5942044     
   49926389.2612436     
   49926509.3692865     
   49926630.5670020     
   49926752.5154220     
   49926874.8860378     
   49926997.3589973     
   49927119.6213926     
   49927241.3656269     
   49927362.2878453     
   49927482.0864194     
   49927600.4604703     
   49927717.1084189     
   49927831.7265503     
   49927944.0075822     
   49928053.6392263     
   49928160.3027351     
   49928263.6714282     
   49928363.4091970     
   49928459.1689893     
   49928550.5912860     
   49928637.3025891     
   49928718.9139566     
   49928795.0196360     
   49928865.1958724     
   49928928.9999943     
   49928985.9699032     
   49929035.6241106     
   49929077.4624304     
   49929110.9673068     
   49929135.6053818     
   49929150.8280291     
   49929156.0676500     
   49901654.3960888     
   49901660.4224569     
   49901678.1080581     
   49901706.8498320     
   49901746.0367798     
   49901795.0568924     
   49901853.3010745     
   49901920.1661663     
   49901995.0576192     
   49902077.3918637     
   49902166.5982846     
   49902262.1207346     
   49902363.4185670     
   49902469.9672069     
   49902581.2583096     
   49902696.7995653     
   49902816.1142166     
   49902938.7403456     
   49903064.2299895     
   49903192.1481257     
   49903322.0715679     
   49903453.5878024     
   49903586.2937872     
   49903719.7947335     
   49903853.7028808     
   49903987.6362770     
   49904121.2175680     
   49904254.0728022     
   49904385.8302527     
   49904516.1192584     
   49904644.5690856     
   49904770.8078123     
   49904894.4612369     
   49905015.1518142     
   49905132.4976245     
   49905246.1113830     
   49905355.5994975     
   49905460.5611897     
   49905560.5876940     
   49905655.2615548     
   49905744.1560438     
   49905826.8347205     
   49905902.8511595     
   49905971.7488585     
   49906033.0613323     
   49906086.3123785     
   49906131.0164772     
   49906166.6792879     
   49906192.7982701     
   49906208.8637319     
   49906214.3614183     
   49878916.3119790     
   49878921.9500624     
   49878938.5698846     
   49878965.7189476     
   49879002.9304969     
   49879049.7261059     
   49879105.6186754     
   49879170.1152233     
   49879242.7193459     
   49879322.9333669     
   49879410.2601985     
   49879504.2049320     
   49879604.2761663     
   49879709.9870797     
   49879820.8562551     
   49879936.4082715     
   49880056.1740797     
   49880179.6911832     
   49880306.5036452     
   49880436.1619466     
   49880568.2227149     
   49880702.2483469     
   49880837.8065423     
   49880974.4697666     
   49881111.8146593     
   49881249.4213984     
   49881386.8730353     
   49881523.7548102     
   49881659.6534557     
   49881794.1564990     
   49881926.8515692     
   49882057.3257180     
   49882185.1647606     
   49882309.9526450     
   49882431.2708567     
   49882548.6978675     
   49882661.8086366     
   49882770.1741730     
   49882873.3611673     
   49882970.9317021     
   49883062.4430474     
   49883147.4475492     
   49883225.4926135     
   49883296.1207919     
   49883358.8699691     
   49883413.2736605     
   49883458.8614308     
   49883495.1594520     
   49883521.6912146     
   49883537.9783331     
   49883543.5410936     
   49856522.8771456     
   49856528.0811971     
   49856543.4758015     
   49856568.7190308     
   49856603.4500520     
   49856647.2916060     
   49856699.8522187     
   49856760.7282880     
   49856829.5060460     
   49856905.7633734     
   49856989.0714544     
   49857078.9962641     
   49857175.0998910     
   49857276.9416943     
   49857384.0793034     
   49857496.0694622     
   49857612.4687268     
   49857732.8340253     
   49857856.7230874     
   49857983.6947550     
   49858113.3091853     
   49858245.1279564     
   49858378.7140875     
   49858513.6319847     
   49858649.4473235     
   49858785.7268776     
   49858922.0383052     
   49859057.9499016     
   49859193.0303264     
   49859326.8483156     
   49859458.9723847     
   49859588.9705318     
   49859716.4099471     
   49859840.8567367     
   49859961.8756662     
   49860079.0299321     
   49860191.8809648     
   49860299.9882702     
   49860402.9093151     
   49860500.1994595     
   49860591.4119408     
   49860676.0979139     
   49860753.8065474     
   49860824.0851822     
   49860886.4795507     
   49860940.5340588     
   49860985.7921270     
   49861021.7965828     
   49861048.0900916     
   49861064.2156236     
   49861069.7170472     
   49834317.5466301     
   49834322.3296878     
   49834336.5150708     
   49834359.8408303     
   49834392.0243529     
   49834432.7641952     
   49834481.7418737     
   49834538.6235635     
   49834603.0617034     
   49834674.6965053     
   49834753.1573646     
   49834838.0641699     
   49834929.0285089     
   49835025.6547704     
   49835127.5411416     
   49835234.2805045     
   49835345.4612317     
   49835460.6678872     
   49835579.4818352     
   49835701.4817628     
   49835826.2441214     
   49835953.3434937     
   49836082.3528917     
   49836212.8439928     
   49836344.3873213     
   49836476.5523808     
   49836608.9077450     
   49836741.0211141     
   49836872.4593423     
   49837002.7884426     
   49837131.5735769     
   49837258.3790344     
   49837382.7682067     
   49837504.3035620     
   49837622.5466260     
   49837737.0579725     
   49837847.3972275     
   49837953.1230919     
   49838053.7933860     
   49838148.9651166     
   49838238.1945721     
   49838321.0374456     
   49838397.0489875     
   49838465.7841888     
   49838526.7979946     
   49838579.6455468     
   49838623.8824555     
   49838659.0650976     
   49838684.7509447     
   49838700.4989195     
   49838705.8697532     
   49812157.4381335     
   49812161.8439355     
   49812174.9351137     
   49812196.5058974     
   49812226.3295370     
   49812264.1597811     
   49812309.7322986     
   49812362.7660509     
   49812422.9646090     
   49812490.0174092     
   49812563.6009479     
   49812643.3799098     
   49812729.0082303     
   49812820.1300903     
   49812916.3808432     
   49813017.3878734     
   49813122.7713894     
   49813232.1451506     
   49813345.1171305     
   49813461.2901190     
   49813580.2622674     
   49813701.6275766     
   49813824.9763356     
   49813949.8955112     
   49814075.9690945     
   49814202.7784066     
   49814329.9023708     
   49814456.9177511     
   49814583.3993656     
   49814708.9202761     
   49814833.0519581     
   49814955.3644574     
   49815075.4265342     
   49815192.8057996     
   49815307.0688486     
   49815417.7813911     
   49815524.5083846     
   49815626.8141709     
   49815724.2626190     
   49815816.4172766     
   49815902.8415303     
   49815983.0987769     
   49816056.7526064     
   49816123.3669962     
   49816182.5065172     
   49816233.7365516     
   49816276.6235205     
   49816310.7351222     
   49816335.6405751     
   49816350.9108655     
   49816356.1190003     
   49789910.3562142     
   49789914.4451831     
   49789926.6103609     
   49789946.6833796     
   49789974.4755430     
   49790009.7789998     
   49790052.3678873     
   49790101.9994449     
   49790158.4150908     
   49790221.3414633     
   49790290.4914213     
   49790365.5650049     
   49790446.2503522     
   49790532.2245736     
   49790623.1545806     
   49790718.6978707     
   49790818.5032671     
   49790922.2116147     
   49791029.4564316     
   49791139.8645196     
   49791253.0565321     
   49791368.6475038     
   49791486.2473414     
   49791605.4612797     
   49791725.8903036     
   49791847.1315397     
   49791968.7786179     
   49792090.4220087     
   49792211.6493345     
   49792332.0456618     
   49792451.1937734     
   49792568.6744252     
   49792684.0665881     
   49792796.9476795     
   49792906.8937841     
   49793013.4798681     
   49793116.2799869     
   49793214.8674889     
   49793308.8152165     
   49793397.6957053     
   49793481.0813826     
   49793558.5447663     
   49793629.6586634     
   49793693.9963697     
   49793751.1318700     
   49793800.6400384     
   49793842.0968381     
   49793875.0795199     
   49793899.1668188     
   49793913.9391474     
   49793918.9787847     
   49767452.5495411     
   49767456.3889191     
   49767467.8196413     
   49767486.6958454     
   49767512.8525751     
   49767546.1067093     
   49767586.2578769     
   49767633.0893531     
   49767686.3689370     
   49767745.8498067     
   49767811.2713508     
   49767882.3599751     
   49767958.8298827     
   49768040.3838260     
   49768126.7138311     
   49768217.5018927     
   49768312.4206392     
   49768411.1339693     
   49768513.2976583     
   49768618.5599355     
   49768726.5620330     
   49768836.9387066     
   49768949.3187294     
   49769063.3253596     
   49769178.5767824     
   49769294.6865295     
   49769411.2638744     
   49769527.9142081     
   49769644.2393939     
   49769759.8381043     
   49769874.3061410     
   49769987.2367398     
   49770098.2208602     
   49770206.8474636     
   49770312.7037788     
   49770415.3755580     
   49770514.4473232     
   49770609.5026037     
   49770700.1241667     
   49770785.8942411     
   49770866.3947345     
   49770941.2074446     
   49771009.9142653     
   49771072.0973864     
   49771127.3394888     
   49771175.2239331     
   49771215.3349420     
   49771247.2577769     
   49771270.5789061     
   49771284.8861650     
   49771289.7689070     
   49744666.9482802     
   49744670.6059544     
   49744681.4978909     
   49744699.4889758     
   49744724.4265569     
   49744756.1411743     
   49744794.4472846     
   49744839.1439780     
   49744890.0156855     
   49744946.8328757     
   49745009.3527379     
   49745077.3198519     
   49745150.4668417     
   49745228.5150130     
   49745311.1749736     
   49745398.1472353     
   49745489.1227966     
   49745583.7837077     
   49745681.8036143     
   49745782.8482832     
   49745886.5761077     
   49745992.6385934     
   49746100.6808255     
   49746210.3419165     
   49746321.2554359     
   49746433.0498219     
   49746545.3487762     
   49746657.7716412     
   49746769.9337624     
   49746881.4468350     
   49746991.9192357     
   49747100.9563414     
   49747208.1608346     
   49747313.1329962     
   49747415.4709872     
   49747514.7711190     
   49747610.6281132     
   49747702.6353522     
   49747790.3851193     
   49747873.4688304     
   49747951.4772569     
   49748024.0007401     
   49748090.6293967     
   49748150.9533167     
   49748204.5627518     
   49748251.0482960     
   49748290.0010578     
   49748321.0128217     
   49748343.6762018     
   49748357.5847844     
   49748362.3332604     
   49721441.7384904     
   49721445.2791356     
   49721455.8201193     
   49721473.2278747     
   49721497.3529926     
   49721528.0307878     
   49721565.0818668     
   49721608.3126952     
   49721657.5161620     
   49721712.4721408     
   49721772.9480451     
   49721838.6993775     
   49721909.4702707     
   49721984.9940199     
   49722064.9936060     
   49722149.1822076     
   49722237.2637019     
   49722328.9331545     
   49722423.8772956     
   49722521.7749848     
   49722622.2976623     
   49722725.1097874     
   49722829.8692628     
   49722936.2278473     
   49723043.8315535     
   49723152.3210334     
   49723261.3319509     
   49723370.4953415     
   49723479.4379592     
   49723587.7826119     
   49723695.1484840     
   49723801.1514480     
   49723905.4043644     
   49724007.5173711     
   49724107.0981617     
   49724203.7522534     
   49724297.0832455     
   49724386.6930665     
   49724472.1822135     
   49724553.1499806     
   49724629.1946785     
   49724699.9138451     
   49724764.9044462     
   49724823.7630675     
   49724876.0860973     
   49724921.4698995     
   49724959.5109778     
   49724989.8061290     
   49725011.9525874     
   49725025.5481589     
   49725030.1913440     
   49697669.1802353     
   49697672.6631367     
   49697683.0262827     
   49697700.1305392     
   49697723.8226380     
   49697753.9356114     
   49697790.2892313     
   49697832.6904526     
   49697880.9338588     
   49697934.8021090     
   49697994.0663837     
   49698058.4868304     
   49698127.8130061     
   49698201.7843160     
   49698280.1304489     
   49698362.5718063     
   49698448.8199262     
   49698538.5779002     
   49698631.5407834     
   49698727.3959966     
   49698825.8237205     
   49698926.4972811     
   49699029.0835272     
   49699133.2431977     
   49699238.6312804     
   49699344.8973617     
   49699451.6859659     
   49699558.6368863     
   49699665.3855054     
   49699771.5631069     
   49699876.7971771     
   49699980.7116977     
   49700082.9274292     
   49700183.0621839     
   49700280.7310916     
   49700375.5468542     
   49700467.1199929     
   49700555.0590851     
   49700638.9709937     
   49700718.4610857     
   49700793.1334440     
   49700862.5910690     
   49700926.4360716     
   49700984.2698575     
   49701035.6933028     
   49701080.3069195     
   49701117.7110136     
   49701147.5058324     
   49701169.2917037     
   49701182.6691645     
   49701187.2390809     
   49673244.6061257     
   49673248.0841528     
   49673258.4244936     
   49673275.4770188     
   49673299.0791053     
   49673329.0559639     
   49673365.2209748     
   49673407.3760307     
   49673455.3118839     
   49673508.8084987     
   49673567.6354059     
   49673631.5520599     
   49673700.3081968     
   49673773.6441924     
   49673851.2914196     
   49673932.9726044     
   49674018.4021796     
   49674107.2866351     
   49674199.3248655     
   49674294.2085134     
   49674391.6223074     
   49674491.2443962     
   49674592.7466762     
   49674695.7951143     
   49674800.0500636     
   49674905.1665738     
   49675010.7946939     
   49675116.5797688     
   49675222.1627288     
   49675327.1803718     
   49675431.2656384     
   49675534.0478794     
   49675635.1531163     
   49675734.2042939     
   49675830.8215252     
   49675924.6223293     
   49676015.2218612     
   49676102.2331337     
   49676185.2672322     
   49676263.9335211     
   49676337.8398429     
   49676406.5927087     
   49676469.7974820     
   49676527.0585534     
   49676577.9795080     
   49676622.1632842     
   49676659.2123255     
   49676688.7287226     
   49676710.3143485     
   49676723.5709850     
   49676728.1004405     
   49648065.5554203     
   49648069.0747734     
   49648079.5282559     
   49648096.7506633     
   49648120.5658187     
   49648150.7868163     
   49648187.2162754     
   49648229.6466015     
   49648277.8602548     
   49648331.6300245     
   49648390.7193085     
   49648454.8823968     
   49648523.8647587     
   49648597.4033316     
   49648675.2268130     
   49648757.0559514     
   49648842.6038392     
   49648931.5762045     
   49649023.6717019     
   49649118.5822019     
   49649215.9930781     
   49649315.5834922     
   49649417.0266758     
   49649519.9902087     
   49649624.1362938     
   49649729.1220278     
   49649834.5996675     
   49649940.2168912     
   49650045.6170556     
   49650150.4394477     
   49650254.3195303     
   49650356.8891837     
   49650457.7769401     
   49650556.6082129     
   49650653.0055204     
   49650746.5887024     
   49650836.9751315     
   49650923.7799179     
   49651006.6161073     
   49651085.0948731     
   49651158.8257013     
   49651227.4165699     
   49651290.4741198     
   49651347.6038212     
   49651398.4101314     
   49651442.4966468     
   49651479.4662474     
   49651508.9212353     
   49651530.4634652     
   49651543.6944689     
   49651548.2155724     
   49622031.0111635     
   49622034.6116120     
   49622045.2956083     
   49622062.8798519     
   49622087.1714465     
   49622117.9680790     
   49622155.0582088     
   49622198.2212650     
   49622247.2278515     
   49622301.8399596     
   49622361.8111865     
   49622426.8869584     
   49622496.8047592     
   49622571.2943628     
   49622650.0780680     
   49622732.8709368     
   49622819.3810340     
   49622909.3096679     
   49623002.3516330     
   49623098.1954511     
   49623196.5236138     
   49623297.0128234     
   49623399.3342325     
   49623503.1536828     
   49623608.1319413     
   49623713.9249340     
   49623820.1839779     
   49623926.5560092     
   49624032.6838087     
   49624138.2062233     
   49624242.7583843     
   49624345.9719216     
   49624447.4751734     
   49624546.8933916     
   49624643.8489436     
   49624737.9615080     
   49624828.8482667     
   49624916.1240911     
   49624999.4017244     
   49625078.2919573     
   49625152.4037999     
   49625221.3446471     
   49625284.7204393     
   49625342.1358172     
   49625393.1942715     
   49625437.4982867     
   49625474.6494796     
   49625504.2487318     
   49625525.8963169     
   49625539.1920222     
   49625543.7352644     
   49595040.7163967     
   49595044.4318053     
   49595055.4465231     
   49595073.5569503     
   49595098.5511146     
   49595130.2088006     
   49595168.3016891     
   49595212.5935055     
   49595262.8401755     
   49595318.7899885     
   49595380.1837670     
   49595446.7550428     
   49595518.2302375     
   49595594.3288478     
   49595674.7636359     
   49595759.2408214     
   49595847.4602779     
   49595939.1157314     
   49596033.8949597     
   49596131.4799946     
   49596231.5473244     
   49596333.7680967     
   49596437.8083214     
   49596543.3290737     
   49596649.9866966     
   49596757.4330016     
   49596865.3154689     
   49596973.2774454     
   49597080.9583412     
   49597187.9938238     
   49597294.0160101     
   49597398.6536547     
   49597501.5323371     
   49597602.2746441     
   49597700.5003503     
   49597795.8265938     
   49597887.8680502     
   49597976.2371007     
   49598060.5439982     
   49598140.3970283     
   49598215.4026669     
   49598285.1657330     
   49598349.2895383     
   49598407.3760312     
   49598459.0259374     
   49598503.8388962     
   49598541.4135915     
   49598571.3478792     
   49598593.2389102     
   49598606.6832482     
   49598611.2769842     
   49566994.5515662     
   49566998.4105675     
   49567009.8409280     
   49567028.6171649     
   49567054.5064933     
   49567087.2689192     
   49567126.6573426     
   49567172.4176671     
   49567224.2889190     
   49567282.0033720     
   49567345.2866795     
   49567413.8580123     
   49567487.4302015     
   49567565.7098877     
   49567648.3976723     
   49567735.1882753     
   49567825.7706944     
   49567919.8283683     
   49568017.0393424     
   49568117.0764360     
   49568219.6074124     
   49568324.2951487     
   49568430.7978083     
   49568538.7690128     
   49568647.8580145     
   49568757.7098692     
   49568867.9656082     
   49568978.2624100     
   49569088.2337708     
   49569197.5096739     
   49569305.7167584     
   49569412.4784848     
   49569517.4153003     
   49569620.1448010     
   49569720.2818926     
   49569817.4389484     
   49569911.2259646     
   49570001.2507132     
   49570087.1188923     
   49570168.4342727     
   49570244.7988427     
   49570315.8129484     
   49570381.0754319     
   49570440.1837657     
   49570492.7341845     
   49570538.3218122     
   49570576.5407874     
   49570606.9843842     
   49570629.2451302     
   49570642.9149206     
   49570647.5851299     
   49537791.9596354     
   49537795.9863510     
   49537807.9040422     
   49537827.4642152     
   49537854.4120014     
   49537888.4862244     
   49537929.4194757     
   49537976.9381974     
   49538030.7627723     
   49538090.6076206     
   49538156.1813029     
   49538227.1866291     
   49538303.3207723     
   49538384.2753881     
   49538469.7367375     
   49538559.3858150     
   49538652.8984795     
   49538749.9455888     
   49538850.1931369     
   49538953.3023939     
   49539058.9300481     
   49539166.7283497     
   49539276.3452566     
   49539387.4245804     
   49539499.6061346     
   49539612.5258822     
   49539725.8160843     
   49539839.1054486     
   49539952.0192781     
   49540064.1796184     
   49540175.2054060     
   49540284.7126138     
   49540392.3143975     
   49540497.6212394     
   49540600.2410915     
   49540699.7795168     
   49540795.8398292     
   49540888.0232311     
   49540975.9289497     
   49541059.1543707     
   49541137.2951703     
   49541209.9454445     
   49541276.6978364     
   49541337.1436613     
   49541390.8730289     
   49541437.4749636     
   49541476.5375217     
   49541507.6479066     
   49541530.3925815     
   49541544.3573793     
   49541549.1276101     
   49507331.4085671     
   49507335.6233164     
   49507348.0888298     
   49507368.5328010     
   49507396.6773460     
   49507432.2390524     
   49507474.9290353     
   49507524.4530009     
   49507580.5113160     
   49507642.7990838     
   49507711.0062258     
   49507784.8175682     
   49507863.9129342     
   49507947.9672406     
   49508036.6505986     
   49508129.6284189     
   49508226.5615201     
   49508327.1062406     
   49508430.9145535     
   49508537.6341840     
   49508646.9087297     
   49508758.3777823     
   49508871.6770513     
   49508986.4384901     
   49509102.2904220     
   49509218.8576682     
   49509335.7616764     
   49509452.6206499     
   49509569.0496768     
   49509684.6608601     
   49509799.0634467     
   49509911.8639571     
   49510022.6663141     
   49510131.0719711     
   49510236.6800399     
   49510339.0874173     
   49510437.8889104     
   49510532.6773617     
   49510623.0437720     
   49510708.5774227     
   49510788.8659958     
   49510863.4956934     
   49510932.0513546     
   49510994.1165714     
   49511049.2738029     
   49511097.1044874     
   49511137.1891528     
   49511169.1075256     
   49511192.4386374     
   49511206.7609304     
   49511211.6523608     
   49475509.8831378     
   49475514.3030957     
   49475527.3676308     
   49475548.7800469     
   49475578.2387519     
   49475615.4372952     
   49475660.0644113     
   49475711.8040699     
   49475770.3355311     
   49475835.3334069     
   49475906.4677271     
   49475983.4040100     
   49476065.8033390     
   49476153.3224418     
   49476245.6137747     
   49476342.3256102     
   49476443.1021283     
   49476547.5835105     
   49476655.4060377     
   49476766.2021898     
   49476879.6007482     
   49476995.2269003     
   49477112.7023464     
   49477231.6454073     
   49477351.6711346     
   49477472.3914216     
   49477593.4151153     
   49477714.3481295     
   49477834.7935581     
   49477954.3517899     
   49478072.6206225     
   49478189.1953774     
   49478303.6690144     
   49478415.6322463     
   49478524.6736530     
   49478630.3797957     
   49478732.3353299     
   49478830.1231185     
   49478923.3243433     
   49479011.5186168     
   49479094.2840920     
   49479171.1975719     
   49479241.8346176     
   49479305.7696557     
   49479362.5760840     
   49479411.8263764     
   49479453.0921866     
   49479485.9444502     
   49479509.9534862     
   49479524.6890965     
   49479529.7206646     
   49442222.3996800     
   49442227.0394650     
   49442240.7466392     
   49442263.1996831     
   49442294.0727630     
   49442333.0357623     
   49442379.7543171     
   49442433.8898578     
   49442495.0996555     
   49442563.0368733     
   49442637.3506214     
   49442717.6860180     
   49442803.6842531     
   49442894.9826560     
   49442991.2147676     
   49443092.0104149     
   49443196.9957897     
   49443305.7935293     
   49443418.0228007     
   49443533.2993870     
   49443651.2357762     
   49443771.4412520     
   49443893.5219872     
   49444017.0811376     
   49444141.7189385     
   49444267.0328025     
   49444392.6174177     
   49444518.0648481     
   49444642.9646339     
   49444766.9038927     
   49444889.4674220     
   49445010.2378012     
   49445128.7954945     
   49445244.7189533     
   49445357.5847197     
   49445466.9675290     
   49445572.4404126     
   49445673.5747999     
   49445769.9406210     
   49445861.1064078     
   49445946.6393954     
   49446026.1056224     
   49446099.0700309     
   49446165.0965658     
   49446223.7482728     
   49446274.5873966     
   49446317.1754774     
   49446351.0734473     
   49446375.8417248     
   49446391.0403101     
   49446396.2288778     
   49407361.5385433     
   49407366.4107259     
   49407380.7980602     
   49407404.3538524     
   49407436.7275923     
   49407477.5649811     
   49407526.5079642     
   49407583.1947674     
   49407647.2599384     
   49407718.3343918     
   49407796.0454582     
   49407880.0169371     
   49407969.8691529     
   49408065.2190155     
   49408165.6800824     
   49408270.8626254     
   49408380.3736989     
   49408493.8172117     
   49408610.7940012     
   49408730.9019092     
   49408853.7358609     
   49408978.8879451     
   49409105.9474966     
   49409234.5011801     
   49409364.1330760     
   49409494.4247668     
   49409624.9554256     
   49409755.3019049     
   49409885.0388270     
   49410013.7386750     
   49410140.9718840     
   49410266.3069337     
   49410389.3104409     
   49410509.5472525     
   49410626.5805386     
   49410739.9718862     
   49410849.2813923     
   49410954.0677577     
   49411053.8883799     
   49411148.2994468     
   49411236.8560287     
   49411319.1121719     
   49411394.6209901     
   49411462.9347567     
   49411523.6049962     
   49411576.1825748     
   49411620.2177909     
   49411655.2604650     
   49411680.8600289     
   49411696.5656147     
   49411701.9261428     
   49370816.9898894     
   49370822.1054215     
   49370837.2055978     
   49370861.9182354     
   49370895.8677635     
   49370938.6752504     
   49370989.9584355     
   49371049.3317644     
   49371116.4064273     
   49371190.7904014     
   49371272.0884964     
   49371359.9024033     
   49371453.8307456     
   49371553.4691345     
   49371658.4102258     
   49371768.2437801     
   49371882.5567249     
   49372000.9332199     
   49372122.9547233     
   49372248.2000610     
   49372376.2454978     
   49372506.6648097     
   49372639.0293584     
   49372772.9081670     
   49372907.8679977     
   49373043.4734297     
   49373179.2869392     
   49373314.8689803     
   49373449.7780662     
   49373583.5708523     
   49373715.8022186     
   49373846.0253540     
   49373973.7918407     
   49374098.6517387     
   49374220.1536709     
   49374337.8449084     
   49374451.2714561     
   49374559.9781386     
   49374663.5086854     
   49374761.4058166     
   49374853.2113289     
   49374938.4661806     
   49375016.7105770     
   49375087.4840557     
   49375150.3255708     
   49375204.7735778     
   49375250.3661178     
   49375286.6409010     
   49375313.1353904     
   49375329.3868850     
   49375334.9326020     
   49332475.1090376     
   49332480.4776055     
   49332496.3195032     
   49332522.2367466     
   49332557.8283355     
   49332602.6902831     
   49332656.4156487     
   49332718.5945734     
   49332788.8143190     
   49332866.6593094     
   49332951.7111747     
   49333043.5487982     
   49333141.7483654     
   49333245.8834163     
   49333355.5248992     
   49333470.2412267     
   49333589.5983343     
   49333713.1597407     
   49333840.4866098     
   49333971.1378146     
   49334104.6700024     
   49334240.6376626     
   49334378.5931943     
   49334518.0869766     
   49334658.6674396     
   49334799.8811364     
   49334941.2728161     
   49335082.3854981     
   49335222.7605471     
   49335361.9377485     
   49335499.4553848     
   49335634.8503128     
   49335767.6580406     
   49335897.4128058     
   49336023.6476533     
   49336145.8945145     
   49336263.6842850     
   49336376.5469043     
   49336484.0114343     
   49336585.6061386     
   49336680.8585614     
   49336769.2956062     
   49336850.4436153     
   49336923.8284480     
   49336988.9755593     
   49337045.4100787     
   49337092.6568879     
   49337130.2406989     
   49337157.6861320     
   49337174.5177927     
   49337180.2603496     
   49292218.4779793     
   49292224.1082869     
   49292240.7178165     
   49292267.8824475     
   49292305.1753715     
   49292352.1671255     
   49292408.4256276     
   49292473.5162147     
   49292547.0016830     
   49292628.4423304     
   49292717.3960016     
   49292813.4181342     
   49292916.0618084     
   49293024.8777971     
   49293139.4146188     
   49293259.2185917     
   49293383.8338903     
   49293512.8026023     
   49293645.6647880     
   49293781.9585412     
   49293921.2200505     
   49294062.9836626     
   49294206.7819469     
   49294352.1457603     
   49294498.6043141     
   49294645.6852410     
   49294792.9146632     
   49294939.8172615     
   49295085.9163449     
   49295230.7339206     
   49295373.7907651     
   49295514.6064951     
   49295652.6996395     
   49295787.5877113     
   49295918.7872802     
   49296045.8140450     
   49296168.1829062     
   49296285.4080396     
   49296397.0029688     
   49296502.4806383     
   49296601.3534868     
   49296693.1335204     
   49296777.3323852     
   49296853.4614407     
   49296921.0318321     
   49296979.5545634     
   49297028.5405695     
   49297067.5007888     
   49297095.9462349     
   49297113.3880688     
   49297119.3376703     
   49249925.4699678     
   49249931.3699564     
   49249948.7707075     
   49249977.2215881     
   49250016.2695740     
   49250065.4592872     
   49250124.3330356     
   49250192.4308546     
   49250269.2905498     
   49250354.4477426     
   49250447.4359162     
   49250547.7864640     
   49250655.0287392     
   49250768.6901061     
   49250888.2959921     
   49251013.3699422     
   49251143.4336740     
   49251278.0071338     
   49251416.6085542     
   49251558.7545130     
   49251703.9599922     
   49251851.7384390     
   49252001.6018270     
   49252153.0607187     
   49252305.6243280     
   49252458.8005846     
   49252612.0961975     
   49252765.0167204     
   49252917.0666171     
   49253067.7493273     
   49253216.5673327     
   49253363.0222238     
   49253506.6147667     
   49253646.8449707     
   49253783.2121548     
   49253915.2150163     
   49254042.3516974     
   49254164.1198538     
   49254280.0167219     
   49254389.5391866     
   49254492.1838493     
   49254587.4470953     
   49254674.8251616     
   49254753.8142038     
   49254823.9103641     
   49254884.6098378     
   49254935.4089405     
   49254975.8041749     
   49255005.2922972     
   49255023.3703830     
   49255029.5358941     
   49205469.8142679     
   49205475.9912795     
   49205494.2050037     
   49205523.9778669     
   49205564.8301790     
   49205616.2801762     
   49205677.8440656     
   49205749.0360708     
   49205829.3684791     
   49205918.3516895     
   49206015.4942623     
   49206120.3029690     
   49206232.2828444     
   49206350.9372389     
   49206475.7678719     
   49206606.2748863     
   49206741.9569038     
   49206882.3110814     
   49207026.8331674     
   49207175.0175602     
   49207326.3573656     
   49207480.3444566     
   49207636.4695322     
   49207794.2221782     
   49207953.0909274     
   49208112.5633203     
   49208272.1259671     
   49208431.2646092     
   49208589.4641811     
   49208746.2088731     
   49208900.9821935     
   49209053.2670313     
   49209202.5457195     
   49209348.3000974     
   49209490.0115741     
   49209627.1611915     
   49209759.2296869     
   49209885.6975566     
   49210006.0451186     
   49210119.7525751     
   49210226.3000758     
   49210325.1677799     
   49210415.8359189     
   49210497.7848584     
   49210570.4951607     
   49210633.4476459     
   49210686.1234536     
   49210728.0041044     
   49210758.5715607     
   49210777.3082872     
   49210783.6973117     
   49158720.1582696     
   49158726.6191605     
   49158745.6661067     
   49158776.7941056     
   49158819.4963009     
   49158873.2640310     
   49158937.5868797     
   49159011.9527261     
   49159095.8477968     
   49159188.7567172     
   49159290.1625647     
   49159399.5469220     
   49159516.3899313     
   49159640.1703489     
   49159770.3655999     
   49159906.4518350     
   49160047.9039854     
   49160194.1958205     
   49160344.8000045     
   49160499.1881539     
   49160656.8308952     
   49160817.1979233     
   49160979.7580599     
   49161143.9793115     
   49161309.3289289     
   49161475.2734661     
   49161641.2788393     
   49161806.8103860     
   49161971.3329248     
   49162134.3108140     
   49162295.2080118     
   49162453.4881351     
   49162608.6145187     
   49162760.0502752     
   49162907.2583533     
   49163049.7015972     
   49163186.8428053     
   49163318.1447888     
   49163443.0704302     
   49163561.0827414     
   49163671.6449218     
   49163774.2204159     
   49163868.2729705     
   49163953.2666923     
   49164028.6661042     
   49164093.9362022     
   49164148.5425112     
   49164191.9511411     
   49164223.6288419     
   49164243.0430592     
   49164249.6619885     
   49109539.6242380     
   49109546.3754468     
   49109566.2745639     
   49109598.7886045     
   49109643.3829900     
   49109699.5216034     
   49109766.6668447     
   49109844.2796869     
   49109931.8197323     
   49110028.7452687     
   49110134.5133262     
   49110248.5797339     
   49110370.3991770     
   49110499.4252542     
   49110635.1105346     
   49110776.9066157     
   49110924.2641804     
   49111076.6330552     
   49111233.4622676     
   49111394.2001039     
   49111558.2941668     
   49111725.1914335     
   49111894.3383130     
   49112065.1807040     
   49112237.1640521     
   49112409.7334076     
   49112582.3334826     
   49112754.4087079     
   49112925.4032905     
   49113094.7612699     
   49113261.9265747     
   49113426.3430790     
   49113587.4546586     
   49113744.7052460     
   49113897.5388869     
   49114045.3997945     
   49114187.7324046     
   49114323.9814301     
   49114453.5919150     
   49114576.0092881     
   49114690.6794162     
   49114797.0486575     
   49114894.5639132     
   49114982.6726807     
   49115060.8231043     
   49115128.4640268     
   49115185.0450404     
   49115230.0165365     
   49115262.8297562     
   49115282.9368389     
   49115289.7908722     
   49057785.3579993     
   49057792.4055745     
   49057813.1745924     
   49057847.1034672     
   49057893.6292851     
   49057952.1878669     
   49058022.2138285     
   49058103.1406430     
   49058194.4007012     
   49058295.4253732     
   49058405.6450686     
   49058524.4892970     
   49058651.3867286     
   49058785.7652538     
   49058927.0520431     
   49059074.6736069     
   49059228.0558539     
   49059386.6241509     
   49059549.8033806     
   49059717.0180005     
   49059887.6921004     
   49060061.2494602     
   49060237.1136068     
   49060414.7078714     
   49060593.4554456     
   49060772.7794374     
   49060952.1029273     
   49061130.8490230     
   49061308.4409141     
   49061484.3019271     
   49061657.8555782     
   49061828.5256277     
   49061995.7361322     
   49062158.9114972     
   49062317.4765290     
   49062470.8564860     
   49062618.4771296     
   49062759.7647743     
   49062894.1463377     
   49063021.0493897     
   49063139.9022008     
   49063250.1337908     
   49063351.1739756     
   49063442.4534150     
   49063523.4036581     
   49063593.4571902     
   49063652.0474771     
   49063698.6090103     
   49063732.5773507     
   49063753.3891727     
   49063760.4823063     
   49003308.0668693     
   49003315.4164585     
   49003337.0718568     
   49003372.4421934     
   49003420.9355506     
   49003481.9590317     
   49003554.9188287     
   49003639.2202891     
   49003734.2679814     
   49003839.4657614     
   49003954.2168363     
   49004077.9238292     
   49004209.9888426     
   49004349.8135210     
   49004496.7991132     
   49004650.3465339     
   49004809.8564243     
   49004974.7292125     
   49005144.3651729     
   49005318.1644851     
   49005495.5272916     
   49005675.8537561     
   49005858.5441193     
   49006042.9987558     
   49006228.6182287     
   49006414.8033449     
   49006600.9552086     
   49006786.4752750     
   49006970.7654022     
   49007153.2279038     
   49007333.2655994     
   49007510.2818653     
   49007683.6806840     
   49007852.8666930     
   49008017.2452337     
   49008176.2223980     
   49008329.2050756     
   49008475.6009999     
   49008614.8187931     
   49008746.2680109     
   49008869.3591868     
   49008983.5038743     
   49009088.1146900     
   49009182.6053549     
   49009266.3907353     
   49009338.8868835     
   49009399.5110764     
   49009447.6818553     
   49009482.8190630     
   49009504.3438818     
   49009511.6788699     
   48945951.5441238     
   48945959.2009261     
   48945981.7577937     
   48946018.5938252     
   48946069.0873765     
   48946132.6161342     
   48946208.5571895     
   48946296.2871098     
   48946395.1820098     
   48946504.6176212     
   48946623.9693613     
   48946752.6124013     
   48946889.9217320     
   48947035.2722298     
   48947188.0387210     
   48947347.5960455     
   48947513.3191183     
   48947684.5829920     
   48947860.7629157     
   48948041.2343954     
   48948225.3732511     
   48948412.5556746     
   48948602.1582856     
   48948793.5581867     
   48948986.1330172     
   48949179.2610065     
   48949372.3210261     
   48949564.6926408     
   48949755.7561586     
   48949944.8926800     
   48950131.4841460     
   48950314.9133853     
   48950494.5641606     
   48950669.8212139     
   48950840.0703103     
   48951004.6982822     
   48951163.0930709     
   48951314.6437684     
   48951458.7406581     
   48951594.7752543     
   48951722.1403405     
   48951840.2300080     
   48951948.4396921     
   48952046.1662084     
   48952132.8077881     
   48952207.7641120     
   48952270.4363436     
   48952320.2271625     
   48952356.5407953     
   48952378.7830466     
   48952386.3613293     
   48885552.1772811     
   48885560.1459634     
   48885583.6177504     
   48885621.9409091     
   48885674.4632985     
   48885740.5324501     
   48885819.4956462     
   48885910.6999973     
   48886013.4925172     
   48886127.2201968     
   48886251.2300767     
   48886384.8693178     
   48886527.4852706     
   48886678.4255433     
   48886837.0380679     
   48887002.6711650     
   48887174.6736075     
   48887352.3946824     
   48887535.1842516     
   48887722.3928110     
   48887913.3715483     
   48888107.4723994     
   48888304.0481037     
   48888502.4522575     
   48888702.0393668     
   48888902.1648981     
   48889102.1853283     
   48889301.4581934     
   48889499.3421356     
   48889695.1969492     
   48889888.3836256     
   48890078.2643967     
   48890264.2027772     
   48890445.5636058     
   48890621.7130850     
   48890792.0188202     
   48890955.8498568     
   48891112.5767172     
   48891261.5714359     
   48891402.2075935     
   48891533.8603504     
   48891655.9064783     
   48891767.7243914     
   48891868.6941764     
   48891958.1976212     
   48892035.6182427     
   48892100.3413141     
   48892151.7538901     
   48892189.2448319     
   48892212.2048315     
   48892220.0264338     
   48821938.4374548     
   48821946.7220306     
   48821971.1201912     
   48822010.9485215     
   48822065.5235746     
   48822134.1619571     
   48822216.1804125     
   48822310.8959030     
   48822417.6256885     
   48822535.6874045     
   48822664.3991369     
   48822803.0794959     
   48822951.0476874     
   48823107.6235824     
   48823272.1277850     
   48823443.8816979     
   48823622.2075869     
   48823806.4286426     
   48823995.8690409     
   48824189.8540018     
   48824387.7098464     
   48824588.7640515     
   48824792.3453036     
   48824997.7835506     
   48825204.4100518     
   48825411.5574266     
   48825618.5597012     
   48825824.7523542     
   48826029.4723604     
   48826232.0582330     
   48826431.8500642     
   48826628.1895650     
   48826820.4201024     
   48827007.8867363     
   48827189.9362543     
   48827365.9172052     
   48827535.1799313     
   48827697.0765994     
   48827850.9612300     
   48827996.1897258     
   48828132.1198988     
   48828258.1114956     
   48828373.5262221     
   48828477.7277665     
   48828570.0818216     
   48828649.9561056     
   48828716.7203814     
   48828769.7464755     
   48828808.4082954     
   48828832.0818455     
   48828840.1452430     
   48754930.3470068     
   48754938.9506766     
   48754964.2841953     
   48755005.6315789     
   48755062.2772362     
   48755133.5060596     
   48755218.6035132     
   48755316.8557170     
   48755427.5495307     
   48755549.9726332     
   48755683.4136004     
   48755827.1619809     
   48755980.5083686     
   48756142.7444737     
   48756313.1631903     
   48756491.0586632     
   48756675.7263511     
   48756866.4630886     
   48757062.5671453     
   48757263.3382832     
   48757468.0778116     
   48757676.0886405     
   48757886.6753316     
   48758099.1441473     
   48758312.8030977     
   48758526.9619857     
   48758740.9324508     
   48758954.0280096     
   48759165.5640962     
   48759374.8580992     
   48759581.2293986     
   48759783.9993990     
   48759982.4915632     
   48760176.0314421     
   48760363.9467048     
   48760545.5671653     
   48760720.2248097     
   48760887.2538195     
   48761045.9905955     
   48761195.7737787     
   48761335.9442705     
   48761465.8452513     
   48761584.8221977     
   48761692.2228980     
   48761787.3974668     
   48761869.6983585     
   48761938.4803783     
   48761993.1006932     
   48762032.9188412     
   48762057.2967393     
   48762065.5986903     
   48684338.9227351     
   48684347.8476843     
   48684374.1224803     
   48684416.9976585     
   48684475.7246315     
   48684549.5557836     
   48684637.7445621     
   48684739.5455649     
   48684854.2146260     
   48684981.0088971     
   48685119.1869271     
   48685268.0087382     
   48685426.7358993     
   48685594.6315967     
   48685770.9607018     
   48685954.9898364     
   48686145.9874353     
   48686343.2238060     
   48686545.9711864     
   48686753.5037994     
   48686965.0979054     
   48687180.0318521     
   48687397.5861223     
   48687617.0433792     
   48687837.6885091     
   48688058.8086625     
   48688279.6932924     
   48688499.6341909     
   48688717.9255233     
   48688933.8638604     
   48689146.7482088     
   48689355.8800389     
   48689560.5633113     
   48689760.1045013     
   48689953.8126212     
   48690140.9992411     
   48690320.9785076     
   48690493.0671613     
   48690656.5845520     
   48690810.8526525     
   48690955.1960708     
   48691088.9420605     
   48691211.4205300     
   48691321.9640498     
   48691419.9078583     
   48691504.5898665     
   48691575.3506608     
   48691631.5335050     
   48691672.4843402     
   48691697.5517840     
   48691706.0871279     
   48609965.5918439     
   48609974.8389957     
   48610002.0571923     
   48610046.4625707     
   48610107.2726990     
   48610183.7066729     
   48610274.9852092     
   48610380.3307355     
   48610498.9674761     
   48610630.1215352     
   48610773.0209759     
   48610926.8958959     
   48611090.9785005     
   48611264.5031718     
   48611446.7065347     
   48611636.8275203     
   48611834.1074257     
   48612037.7899710     
   48612247.1213535     
   48612461.3502986     
   48612679.7281084     
   48612901.5087072     
   48613125.9486845     
   48613352.3073348     
   48613579.8466958     
   48613807.8315829     
   48614035.5296224     
   48614262.2112810     
   48614487.1498941     
   48614709.6216912     
   48614928.9058187     
   48615144.2843613     
   48615355.0423607     
   48615560.4678319     
   48615759.8517785     
   48615952.4882047     
   48616137.6741260     
   48616314.7095783     
   48616482.8976240     
   48616641.5443575     
   48616789.9589082     
   48616927.4534420     
   48617053.3431607     
   48617166.9463003     
   48617267.5841276     
   48617354.5809343     
   48617427.2640313     
   48617484.9637395     
   48617527.0133809     
   48617552.7492666     
   48617561.5106853     
   48531601.5779980     
   48531611.1467163     
   48531639.3057637     
   48531685.2359775     
   48531748.1202588     
   48531827.1436709     
   48531921.4935328     
   48532030.3595097     
   48532152.9336983     
   48532288.4107089     
   48532435.9877432     
   48532594.8646682     
   48532764.2440868     
   48532943.3314038     
   48533131.3348893     
   48533327.4657378     
   48533530.9381243     
   48533740.9692567     
   48533956.7794250     
   48534177.5920472     
   48534402.6337122     
   48534631.1342191     
   48534862.3266141     
   48535095.4472240     
   48535329.7356870     
   48535564.4349807     
   48535798.7914467     
   48536032.0548137     
   48536263.4782170     
   48536492.3182157     
   48536717.8348073     
   48536939.2914403     
   48537155.9550241     
   48537367.0959362     
   48537571.9880278     
   48537769.9086268     
   48537960.1385387     
   48538141.9620460     
   48538314.6669043     
   48538477.5443373     
   48538629.8890303     
   48538770.9991203     
   48538900.1761862     
   48539016.7252353     
   48539119.9546897     
   48539209.1763698     
   48539283.7054771     
   48539342.8605746     
   48539385.9635660     
   48539412.3396737     
   48539421.3174149     
   48449027.2548608     
   48449037.1425985     
   48449066.2342365     
   48449113.6744537     
   48449178.6107163     
   48449260.1933759     
   48449357.5757619     
   48449469.9142702     
   48449596.3684464     
   48449736.1010650     
   48449888.2782037     
   48450052.0693142     
   48450226.6472876     
   48450411.1885167     
   48450604.8729533     
   48450806.8841624     
   48451016.4093721     
   48451232.6395194     
   48451454.7692929     
   48451681.9971715     
   48451913.5254598     
   48452148.5603196     
   48452386.3117990     
   48452625.9938572     
   48452866.8243864     
   48453108.0252309     
   48453348.8222032     
   48453588.4450967     
   48453826.1276957     
   48454061.1077831     
   48454292.6271444     
   48454519.9315701     
   48454742.2708547     
   48454958.8987939     
   48455169.0731786     
   48455372.0557875     
   48455567.1123765     
   48455753.5126660     
   48455930.5303267     
   48456097.4429629     
   48456253.5320931     
   48456398.0831299     
   48456530.3853568     
   48456649.7319040     
   48456755.4197215     
   48456846.7495517     
   48456923.0258986     
   48456983.5569971     
   48457027.6547795     
   48457054.6348405     
   48457063.8164016     
   48362011.4646784     
   48362021.6665647     
   48362051.6756079     
   48362100.5995459     
   48362167.5497302     
   48362251.6412204     
   48362351.9928742     
   48362467.7274315     
   48362597.9715932     
   48362741.8560955     
   48362898.5157784     
   48363067.0896506     
   48363246.7209482     
   48363436.5571901     
   48363635.7502279     
   48363843.4562924     
   48364058.8360346     
   48364281.0545639     
   48364509.2814810     
   48364742.6909077     
   48364980.4615123     
   48365221.7765317     
   48365465.8237896     
   48365711.7957110     
   48365958.8893336     
   48366206.3063156     
   48366453.2529404     
   48366698.9401177     
   48366942.5833825     
   48367183.4028898     
   48367420.6234074     
   48367653.4743056     
   48367881.1895438     
   48368103.0076551     
   48368318.1717280     
   48368525.9293851     
   48368725.5327605     
   48368916.2384739     
   48369097.3076027     
   48369268.0056525     
   48369427.6025242     
   48369575.3724802     
   48369710.5941084     
   48369832.5502835     
   48369940.5281274     
   48370033.8189673     
   48370111.7182922     
   48370173.5257073     
   48370218.5448877     
   48370246.0835293     
   48370255.4532994     
   48270310.7997082     
   48270321.3080707     
   48270352.2110009     
   48270402.5786301     
   48270471.4856436     
   48270558.0113698     
   48270661.2398634     
   48270780.2599835     
   48270914.1654647     
   48271062.0549836     
   48271223.0322192     
   48271396.2059087     
   48271580.6898974     
   48271775.6031839     
   48271980.0699605     
   48272193.2196481     
   48272414.1869278     
   48272642.1117667     
   48272876.1394395     
   48273115.4205468     
   48273359.1110280     
   48273606.3721708     
   48273856.3706168     
   48274108.2783633     
   48274361.2727608     
   48274614.5365080     
   48274867.2576424     
   48275118.6295281     
   48275367.8508400     
   48275614.1255450     
   48275856.6628802     
   48276094.6773282     
   48276327.3885893     
   48276554.0215508     
   48276773.8062544     
   48276985.9778603     
   48277189.7766089     
   48277384.4477803     
   48277569.2416514     
   48277743.4134506     
   48277906.2233106     
   48278056.9362189     
   48278194.8219664     
   48278319.1550936     
   48278429.2148359     
   48278524.2850661     
   48278603.6542355     
   48278666.6153135     
   48278712.4657255     
   48278740.5072890     
   48278750.0461483     
   48173668.8446322     
   48173679.6484475     
   48173711.4117966     
   48173763.1667044     
   48173833.9508168     
   48173922.8074805     
   48174028.7858171     
   48174150.9407906     
   48174288.3332689     
   48174440.0300781     
   48174605.1040526     
   48174782.6340780     
   48174971.7051285     
   48175171.4083000     
   48175380.8408364     
   48175599.1061517     
   48175825.3138469     
   48176058.5797219     
   48176298.0257828     
   48176542.7802445     
   48176791.9775292     
   48177044.7582606     
   48177300.2692533     
   48177557.6634990     
   48177816.1001485     
   48178074.7444901     
   48178332.7679237     
   48178589.3479326     
   48178843.6680506     
   48179094.9178272     
   48179342.2927881     
   48179584.9943943     
   48179822.2299968     
   48180053.2127894     
   48180277.1617585     
   48180493.3016303     
   48180700.8628152     
   48180899.0813503     
   48181087.1988390     
   48181264.4623887     
   48181430.1245463     
   48181583.4432315     
   48181723.6816678     
   48181850.1083125     
   48181961.9967839     
   48182058.6257871     
   48182139.2790383     
   48182203.2451869     
   48182249.8177367     
   48182278.2949649     
   48182287.9798406     
   48071815.3785548     
   48071826.4628209     
   48071859.0413283     
   48071912.1077198     
   48071984.6624638     
   48072075.7129224     
   48072184.2734118     
   48072309.3652561     
   48072450.0168339     
   48072605.2636185     
   48072774.1482117     
   48072955.7203717     
   48073149.0370342     
   48073353.1623285     
   48073567.1675876     
   48073790.1313528     
   48074021.1393728     
   48074259.2845983     
   48074503.6671712     
   48074753.3944088     
   48075007.5807839     
   48075265.3479000     
   48075525.8244627     
   48075788.1462465     
   48076051.4560571     
   48076314.9036914     
   48076577.6458921     
   48076838.8462996     
   48077097.6754005     
   48077353.3104720     
   48077604.9355241     
   48077851.7412382     
   48078092.9249024     
   48078327.6903450     
   48078555.2478639     
   48078774.8141549     
   48078985.6122360     
   48079186.8713704     
   48079377.8269869     
   48079557.7205979     
   48079725.7997150     
   48079881.3177637     
   48080023.5339949     
   48080151.7133952     
   48080265.1265956     
   48080363.0497778     
   48080444.7645798     
   48080509.5579992     
   48080556.7222953     
   48080585.5548902     
   48080595.3582677     
   47964465.5357926     
   47964476.8808200     
   47964510.2153514     
   47964564.4946627     
   47964638.6822114     
   47964731.7496873     
   47964842.6770551     
   47964970.4525890     
   47965114.0729013     
   47965272.5429631     
   47965444.8761180     
   47965630.0940900     
   47965827.2269847     
   47966035.3132839     
   47966253.3998350     
   47966480.5418345     
   47966715.8028053     
   47966958.2545697     
   47967206.9772164     
   47967461.0590632     
   47967719.5966143     
   47967981.6945137     
   47968246.4654933     
   47968513.0303179     
   47968780.5177249     
   47969048.0643614     
   47969314.8147161     
   47969579.9210485     
   47969842.5433149     
   47970101.8490900     
   47970357.0134864     
   47970607.2190706     
   47970851.6557759     
   47971089.5208129     
   47971320.0185772     
   47971542.3605547     
   47971755.7652241     
   47971959.4579576     
   47972152.6709187     
   47972334.6429592     
   47972504.6195125     
   47972661.8524865     
   47972805.6001536     
   47972935.1270402     
   47973049.7038130     
   47973148.6071655     
   47973231.1197013     
   47973296.5298177     
   47973344.1315871     
   47973373.2246365     
   47973383.1140278     
   47851318.9254477     
   47851330.5060640     
   47851364.5212780     
   47851419.8883863     
   47851495.5343853     
   47851590.3959985     
   47851703.4196960     
   47851833.5617059     
   47851979.7880183     
   47852141.0743814     
   47852316.4062912     
   47852504.7789736     
   47852705.1973607     
   47852916.6760597     
   47853138.2393169     
   47853368.9209742     
   47853607.7644219     
   47853853.8225443     
   47854106.1576608     
   47854363.8414623     
   47854625.9549420     
   47854891.5883220     
   47855159.8409759     
   47855429.8213460     
   47855700.6468578     
   47855971.4438295     
   47856241.3473784     
   47856509.5013238     
   47856775.0580860     
   47857037.1785827     
   47857295.0321222     
   47857547.7962930     
   47857794.6568520     
   47858034.8076083     
   47858267.4503065     
   47858491.7945058     
   47858707.0574577     
   47858912.4639823     
   47859107.2463409     
   47859290.6441080     
   47859461.9040411     
   47859620.2799491     
   47859765.0325584     
   47859895.4293783     
   47860010.7445647     
   47860110.2587822     
   47860193.2590654     
   47860259.0386789     
   47860306.8969761     
   47860336.1392575     
   47860346.0766269     
   47732058.7107447     
   47732070.4954099     
   47732105.0971669     
   47732161.3961852     
   47732238.2840242     
   47732334.6636312     
   47732449.4493322     
   47732581.5668131     
   47732729.9530937     
   47732893.5564938     
   47733071.3365922     
   47733262.2641782     
   47733465.3211970     
   47733679.5006880     
   47733903.8067171     
   47734137.2543029     
   47734378.8693376     
   47734627.6885016     
   47734882.7591742     
   47735143.1393375     
   47735407.8974774     
   47735676.1124784     
   47735946.8735155     
   47736219.2799409     
   47736492.4411672     
   47736765.4765468     
   47737037.5152481     
   47737307.6961277     
   47737575.1675999     
   47737839.0875027     
   47738098.6229618     
   47738352.9502511     
   47738601.2546510     
   47738842.7303041     
   47739076.5800690     
   47739302.0153719     
   47739518.2560559     
   47739724.5302286     
   47739920.0741084     
   47740104.1318686     
   47740275.9554801     
   47740434.8045531     
   47740579.9461771     
   47740710.6547598     
   47740826.2118650     
   47740925.9060495     
   47741009.0326989     
   47741074.8938626     
   47741122.7980881     
   47741152.0602549     
   47741162.0014070     
   47606350.6503425     
   47606362.6001748     
   47606397.6726852     
   47606454.7123387     
   47606532.5768609     
   47606630.1372008     
   47606746.2774844     
   47606879.8949595     
   47607029.8999334     
   47607195.2157022     
   47607374.7784723     
   47607567.5372757     
   47607772.4538776     
   47607988.5026783     
   47608214.6706086     
   47608449.9570189     
   47608693.3735630     
   47608943.9440771     
   47609200.7044526     
   47609462.7025048     
   47609728.9978369     
   47609998.6616998     
   47610270.7768470     
   47610544.4373868     
   47610818.7486298     
   47611092.8269336     
   47611365.7995441     
   47611636.8044331     
   47611904.9901342     
   47612169.5155751     
   47612429.5499074     
   47612684.2723347     
   47612932.8719380     
   47613174.5474988     
   47613408.5073214     
   47613633.9690521     
   47613850.1594976     
   47614056.3144422     
   47614251.6784623     
   47614435.5047416     
   47614607.0548833     
   47614765.5987228     
   47614910.4141384     
   47615040.7868618     
   47615156.0102878     
   47615255.3852831     
   47615338.2199951     
   47615403.8296595     
   47615451.5364080     
   47615480.6690758     
   47615490.5630083     
   47473842.1053317     
   47473854.1730442     
   47473889.5757604     
   47473947.1243542     
   47474025.6450188     
   47474123.9791849     
   47474240.9834304     
   47474375.5293817     
   47474526.5036057     
   47474692.8074964     
   47474873.3571515     
   47475067.0832442     
   47475272.9308869     
   47475489.8594894     
   47475716.8426109     
   47475952.8678057     
   47476196.9364649     
   47476448.0636515     
   47476705.2779320     
   47476967.6212025     
   47477234.1485112     
   47477503.9278766     
   47477776.0401021     
   47478049.5785869     
   47478323.6491342     
   47478597.3697552     
   47478869.8704720     
   47479140.2931160     
   47479407.7911252     
   47479671.5293391     
   47479930.6837905     
   47480184.4414970     
   47480432.0002498     
   47480672.5684009     
   47480905.3646492     
   47481129.6178256     
   47481344.5666763     
   47481549.4596458     
   47481743.5546588     
   47481926.1189010     
   47482096.4285997     
   47482253.7688038     
   47482397.4331635     
   47482526.7237093     
   47482640.9506313     
   47482739.4320575     
   47482821.4938335     
   47482886.4693006     
   47482933.6990746     
   47482962.5308257     
   47482972.3190568     
   47334161.0174404     
   47334173.1461937     
   47334208.7104598     
   47334266.4904617     
   47334345.2839909     
   47334443.9062729     
   47334561.1898242     
   47334695.9842999     
   47334847.1563352     
   47335013.5893777     
   47335194.1835134     
   47335387.8552867     
   47335593.5375123     
   47335810.1790832     
   47336036.7447717     
   47336272.2150260     
   47336515.5857608     
   47336765.8681452     
   47337022.0883839     
   47337283.2874964     
   47337548.5210917     
   47337816.8591392     
   47338087.3857369     
   47338359.1988771     
   47338631.4102081     
   47338903.1447951     
   47339173.5408774     
   47339441.7496243     
   47339706.9348894     
   47339968.2729630     
   47340224.9523225     
   47340476.1733830     
   47340721.1482449     
   47340959.1004428     
   47341189.2646913     
   47341410.8866321     
   47341623.2225797     
   47341825.5392665     
   47342017.1135885     
   47342197.2323504     
   47342365.1920102     
   47342520.2984252     
   47342661.8665968     
   47342789.2204164     
   47342901.6924116     
   47342998.6234924     
   47343079.3626987     
   47343143.2669472     
   47343189.7007803     
   47343218.0361148     
   47343227.6519916     
   47186914.8661257     
   47186926.9883048     
   47186962.5137892     
   47187020.1960680     
   47187098.8086387     
   47187197.1448103     
   47187314.0174972     
   47187448.2590058     
   47187598.7208133     
   47187764.2733400     
   47187943.8057145     
   47188136.2255334     
   47188340.4586150     
   47188555.4487473     
   47188780.1574322     
   47189013.5636238     
   47189254.6634633     
   47189502.4700098     
   47189756.0129674     
   47190014.3384094     
   47190276.5084989     
   47190541.6012077     
   47190808.7100315     
   47191076.9437044     
   47191345.4259103     
   47191613.2949930     
   47191879.7036655     
   47192143.8187172     
   47192404.8207206     
   47192661.9037370     
   47192914.2750216     
   47193161.1547281     
   47193401.7756134     
   47193635.3827416     
   47193861.2331881     
   47194078.5957446     
   47194286.7506232     
   47194484.9891620     
   47194672.6135306     
   47194848.9364365     
   47195013.2808320     
   47195164.9796222     
   47195303.3753738     
   47195427.8200251     
   47195537.6745964     
   47195632.3089025     
   47195711.1012660     
   47195773.4382311     
   47195818.7142801     
   47195846.3315506     
   47195855.6995535     
   47031689.6147662     
   47031701.6506934     
   47031736.9016405     
   47031794.0994225     
   47031871.9984886     
   47031969.3756513     
   47032085.0298077     
   47032217.7816541     
   47032366.4733936     
   47032529.9684379     
   47032707.1511027     
   47032896.9262990     
   47033098.2192186     
   47033309.9750159     
   47033531.1584851     
   47033760.7537338     
   47033997.7638544     
   47034241.2105911     
   47034490.1340051     
   47034743.5921375     
   47035000.6606702     
   47035260.4325852     
   47035522.0178219     
   47035784.5429344     
   47036047.1507469     
   47036309.0000091     
   47036569.2650504     
   47036827.1354352     
   47037081.8156169     
   47037332.5245927     
   47037578.4955586     
   47037818.9755655     
   47038053.2251750     
   47038280.5181166     
   47038500.1409461     
   47038711.3927049     
   47038913.5845800     
   47039106.0395665     
   47039288.0921305     
   47039459.0878738     
   47039618.3832007     
   47039765.3449861     
   47039899.3502453     
   47040019.7858059     
   47040126.0479815     
   47040217.5422475     
   47040293.6829183     
   47040353.8928277     
   47040397.6030101     
   47040424.2523848     
   47040433.2874418     
   46868048.6591056     
   46868060.5157079     
   46868095.2170633     
   46868151.4796954     
   46868228.0455621     
   46868323.6816997     
   46868437.1798601     
   46868567.3561428     
   46868713.0506208     
   46868873.1269617     
   46869046.4720446     
   46869231.9955724     
   46869428.6296813     
   46869635.3285460     
   46869851.0679836     
   46870074.8450540     
   46870305.6776587     
   46870542.6041383     
   46870784.6828675     
   46871030.9918514     
   46871280.6283183     
   46871532.7083145     
   46871786.3662976     
   46872040.7547304     
   46872295.0436753     
   46872548.4203892     
   46872800.0889188     
   46873049.2696982     
   46873295.1991460     
   46873537.1292655     
   46873774.3272451     
   46874006.0750614     
   46874231.6690838     
   46874450.4196811     
   46874661.6508301     
   46874864.6997267     
   46875058.9163996     
   46875243.6633257     
   46875418.3150486     
   46875582.2577996     
   46875734.8891212     
   46875875.6174934     
   46876003.8619632     
   46876119.0517762     
   46876220.6260116     
   46876308.0332198     
   46876380.7310629     
   46876438.1859588     
   46876479.8727273     
   46876505.2742396     
   46876513.8810709     
   46695531.7944911     
   46695543.3639455     
   46695577.1974242     
   46695632.0040581     
   46695706.5213685     
   46695799.5148145     
   46695909.7773346     
   46696036.1288845     
   46696177.4159708     
   46696332.5111807     
   46696500.3127097     
   46696679.7438867     
   46696869.7526966     
   46697069.3113020     
   46697277.4155632     
   46697493.0845584     
   46697715.3601024     
   46697943.3062659     
   46698176.0088952     
   46698412.5751325     
   46698652.1329367     
   46698893.8306057     
   46699136.8363008     
   46699380.3375714     
   46699623.5408833     
   46699865.6711474     
   46700105.9712527     
   46700343.7016003     
   46700578.1396405     
   46700808.5794134     
   46701034.3310920     
   46701254.7205283     
   46701469.0888033     
   46701676.7917796     
   46701877.1996581     
   46702069.6965383     
   46702253.6799818     
   46702428.5605799     
   46702593.7615246     
   46702748.7181839     
   46702892.8776809     
   46703025.6984762     
   46703146.6499549     
   46703255.2120176     
   46703350.8746743     
   46703433.1376441     
   46703501.5099567     
   46703555.5095597     
   46703594.6629287     
   46703618.5046814     
   46703626.5771966     
   46513654.2222725     
   46513665.3806604     
   46513697.9808503     
   46513750.7341976     
   46513822.3835354     
   46513911.7026111     
   46514017.4955209     
   46514138.5961411     
   46514273.8675587     
   46514422.2014995     
   46514582.5177561     
   46514753.7636154     
   46514934.9132859     
   46515124.9673263     
   46515322.9520738     
   46515527.9190750     
   46515738.9445176     
   46515955.1286644     
   46516175.5952895     
   46516399.4911176     
   46516625.9852654     
   46516854.2686864     
   46517083.5536200     
   46517313.0730426     
   46517542.0801237     
   46517769.8476859     
   46517995.6676687     
   46518218.8505964     
   46518438.7250514     
   46518654.6371514     
   46518865.9500315     
   46519072.0433310     
   46519272.3126852     
   46519466.1692227     
   46519653.0390667     
   46519832.3628424     
   46520003.5951888     
   46520166.2042764     
   46520319.6713296     
   46520463.4901543     
   46520597.1666710     
   46520720.2184532     
   46520832.1742705     
   46520932.5736376     
   46521020.9663676     
   46521096.9121315     
   46521159.9800219     
   46521209.7481219     
   46521245.8030796     
   46521267.7396871     
   46521275.1604639     
   46321905.6200371     
   46321916.2260459     
   46321947.1766573     
   46321997.1970010     
   46322065.0468645     
   46322149.5200082     
   46322249.4434789     
   46322363.6769244     
   46322491.1119085     
   46322630.6712271     
   46322781.3082269     
   46322942.0061247     
   46323111.7773313     
   46323289.6627770     
   46323474.7312409     
   46323666.0786849     
   46323862.8275900     
   46324064.1262988     
   46324269.1483618     
   46324477.0918890     
   46324687.1789063     
   46324898.6547182     
   46325110.7872750     
   46325322.8665472     
   46325534.2039047     
   46325744.1315028     
   46325952.0016744     
   46326157.1863287     
   46326359.0763562     
   46326557.0810405     
   46326750.6274766     
   46326939.1599962     
   46327122.1395995     
   46327299.0433941     
   46327469.3640405     
   46327632.6092046     
   46327788.3010169     
   46327935.9755388     
   46328075.1822356     
   46328205.4834557     
   46328326.4539181     
   46328437.6802046     
   46328538.7602601     
   46328629.3028991     
   46328708.9273182     
   46328777.2626160     
   46328833.9473183     
   46328878.6289105     
   46328910.9633755     
   46328930.6147378     
   46328937.2546141     
   46119749.3051163     
   46119759.1988348     
   46119788.0292373     
   46119834.5489227     
   46119897.5483760     
   46119975.8551471     
   46120068.3330328     
   46120173.8812619     
   46120291.4336844     
   46120419.9579650     
   46120558.4547817     
   46120705.9570298     
   46120861.5290313     
   46121024.2657507     
   46121193.2920172     
   46121367.7617536     
   46121546.8572125     
   46121729.7882189     
   46121915.7914221     
   46122104.1295533     
   46122294.0906933     
   46122484.9875463     
   46122676.1567238     
   46122866.9580358     
   46123056.7737906     
   46123245.0081046     
   46123431.0862189     
   46123614.4538259     
   46123794.5764050     
   46123970.9385659     
   46124143.0434025     
   46124310.4118542     
   46124472.5820769     
   46124629.1088231     
   46124779.5628300     
   46124923.5302171     
   46125060.6118922     
   46125190.4229667     
   46125312.5921782     
   46125426.7613232     
   46125532.5846968     
   46125629.7285421     
   46125717.8705062     
   46125796.6991062     
   46125865.9132010     
   46125925.2214731     
   46125974.3419163     
   46126013.0013324     
   46126040.9348342     
   46126057.8853564     
   46126063.6031735     
   45906621.5260043     
   45906630.5278682     
   45906656.7100753     
   45906698.8687490     
   45906755.8411151     
   45906826.5045322     
   45906909.7755297     
   45907004.6088528     
   45907109.9965157     
   45907224.9668622     
   45907348.5836364     
   45907479.9450608     
   45907618.1829255     
   45907762.4616853     
   45907911.9775687     
   45908065.9576960     
   45908223.6592074     
   45908384.3684035     
   45908547.3998954     
   45908712.0957656     
   45908877.8247413     
   45909043.9813782     
   45909209.9852553     
   45909375.2801818     
   45909539.3334156     
   45909701.6348926     
   45909861.6964679     
   45910019.0511689     
   45910173.2524590     
   45910323.8735140     
   45910470.5065086     
   45910612.7619151     
   45910750.2678132     
   45910882.6692109     
   45911009.6273765     
   45911130.8191813     
   45911245.9364540     
   45911354.6853445     
   45911456.7856995     
   45911551.9704475     
   45911639.9849949     
   45911720.5866316     
   45911793.5439466     
   45911858.6362535     
   45911915.6530253     
   45911964.3933389     
   45912004.6653283     
   45912036.2856468     
   45912059.0789386     
   45912072.8773178     
   45912077.5198566     
   45681930.9219304     
   45681938.8318831     
   45681961.7781784     
   45681998.6190857     
   45682048.2571073     
   45682109.6378503     
   45682181.7489088     
   45682263.6187599     
   45682354.3156701     
   45682452.9466159     
   45682558.6562173     
   45682670.6256842     
   45682788.0717769     
   45682910.2457805     
   45683036.4324933     
   45683165.9492294     
   45683298.1448362     
   45683432.3987264     
   45683568.1199238     
   45683704.7461252     
   45683841.7427760     
   45683978.6021614     
   45684114.8425119     
   45684250.0071237     
   45684383.6634942     
   45684515.4024720     
   45684644.8374212     
   45684771.6034010     
   45684895.3563589     
   45685015.7723393     
   45685132.5467049     
   45685245.3933733     
   45685354.0440672     
   45685458.2475777     
   45685557.7690420     
   45685652.3892340     
   45685741.9038673     
   45685826.1229129     
   45685904.8699274     
   45685977.9813953     
   45686045.3060829     
   45686106.7044038     
   45686162.0477966     
   45686211.2181140     
   45686254.1070227     
   45686290.6154144     
   45686320.6528280     
   45686344.1368812     
   45686360.9927126     
   45686371.1524341     
   45686374.5545920     
   45445058.1967777     
   45445064.7937215     
   45445083.8551462     
   45445114.3228432     
   45445155.1857951     
   45445205.4788779     
   45445264.2815794     
   45445330.7167360     
   45445403.9492866     
   45445483.1850448     
   45445567.6694897     
   45445656.6865740     
   45445749.5575522     
   45445845.6398265     
   45445944.3258120     
   45446045.0418205     
   45446147.2469640     
   45446250.4320761     
   45446354.1186531     
   45446457.8578144     
   45446561.2292803     
   45446663.8403706     
   45446765.3250201     
   45446865.3428139     
   45446963.5780403     
   45447059.7387628     
   45447153.5559093     
   45447244.7823799     
   45447333.1921720     
   45447418.5795230     
   45447500.7580701     
   45447579.5600273     
   45447654.8353790     
   45447726.4510897     
   45447794.2903305     
   45447858.2517207     
   45447918.2485856     
   45447974.2082293     
   45448026.0712219     
   45448073.7907023     
   45448117.3316944     
   45448156.6704375     
   45448191.7937306     
   45448222.6982892     
   45448249.3901156     
   45448271.8838816     
   45448290.2023233     
   45448304.3756475     
   45448314.4409502     
   45448320.4416456     
   45448322.4269059     
   45195356.0597161     
   45195361.1013381     
   45195375.5672861     
   45195398.5071691     
   45195429.0204687     
   45195466.2550642     
   45195509.4057801     
   45195557.7129573     
   45195610.4610488     
   45195666.9772392     
   45195726.6300876     
   45195788.8281959     
   45195853.0189004     
   45195918.6869878     
   45195985.3534353     
   45196052.5741756     
   45196119.9388845     
   45196187.0697938     
   45196253.6205273     
   45196319.2749602     
   45196383.7461023     
   45196446.7750044     
   45196508.1296876     
   45196567.6040950     
   45196625.0170664     
   45196680.2113348     
   45196733.0525447     
   45196783.4282923     
   45196831.2471862     
   45196876.4379300     
   45196918.9484242     
   45196958.7448891     
   45196995.8110070     
   45197030.1470840     
   45197061.7692305     
   45197090.7085601     
   45197117.0104072     
   45197140.7335619     
   45197161.9495216     
   45197180.7417609     
   45197197.2050162     
   45197211.4445876     
   45197223.5756555     
   45197233.7226124     
   45197242.0184098     
   45197248.6039186     
   45197253.6273034     
   45197257.2434105     
   45197259.6131685     
   45197260.9030004     
   45197261.2842495     
   44932149.4912257     
   44932152.7142927     
   44932161.8134894     
   44932175.9735837     
   44932194.4315016     
   44932216.4746688     
   44932241.4393831     
   44932268.7092175     
   44932297.7134542     
   44932327.9255491     
   44932358.8616273     
   44932390.0790092     
   44932421.1747667     
   44932451.7843099     
   44932481.5800040     
   44932510.2698160     
   44932537.5959911     
   44932563.3337580     
   44932587.2900642     
   44932609.3023387     
   44932629.2372842     
   44932646.9896969     
   44932662.4813140     
   44932675.6596878     
   44932686.4970874     
   44932694.9894267     
   44932701.1552176     
   44932705.0345492     
   44932706.6880917     
   44932706.1961252     
   44932703.6575916     
   44932699.1891707     
   44932692.9243790     
   44932685.0126904     
   44932675.6186801     
   44932664.9211879     
   44932653.1125041     
   44932640.3975744     
   44932626.9932249     
   44932613.1274067     
   44932599.0384578     
   44932584.9743845     
   44932571.1921591     
   44932557.9570354     
   44932545.5418793     
   44932534.2265167     
   44932524.2970955     
   44932516.0454626     
   44932509.7685551     
   44932505.7678051     
   44932504.3485573     
   44654736.3994370     
   44654737.5206620     
   44654740.4238238     
   44654744.4593160     
   44654749.0314411     
   44654753.5965680     
   44654757.6613284     
   44654760.7808512     
   44654762.5570367     
   44654762.6368678     
   44654760.7107598     
   44654756.5109476     
   44654749.8099107     
   44654740.4188347     
   44654728.1861094     
   44654712.9958634     
   44654694.7665345     
   44654673.4494746     
   44654649.0275905     
   44654621.5140178     
   44654590.9508293     
   44654557.4077763     
   44654520.9810625     
   44654481.7921500     
   44654439.9865962     
   44654395.7329226     
   44654349.2215128     
   44654300.6635398     
   44654250.2899238     
   44654198.3503160     
   44654145.1121121     
   44654090.8594909     
   44654035.8924805     
   44653980.5260493     
   44653925.0892221     
   44653869.9242202     
   44653815.3856252     
   44653761.8395656     
   44653709.6629253     
   44653659.2425734     
   44653610.9746155     
   44653565.2636640     
   44653522.5221286     
   44653483.1695247     
   44653447.6318004     
   44653416.3406806     
   44653389.7330279     
   44653368.2502189     
   44653352.3375364     
   44653342.4435762     
   44653339.0196676     
   44362388.7377129     
   44362387.4553020     
   44362383.2797967     
   44362375.7608229     
   44362364.5029777     
   44362349.1638055     
   44362329.4518218     
   44362305.1245852     
   44362275.9868149     
   44362241.8885561     
   44362202.7233904     
   44362158.4266923     
   44362108.9739295     
   44362054.3790087     
   44361994.6926640     
   44361930.0008892     
   44361860.4234111     
   44361786.1122058     
   44361707.2500547     
   44361624.0491418     
   44361536.7496890     
   44361445.6186314     
   44361350.9483294     
   44361253.0553189     
   44361152.2790963     
   44361048.9809406     
   44360943.5427691     
   44360836.3660268     
   44360727.8706098     
   44360618.4938193     
   44360508.6893484     
   44360398.9262982     
   44360289.6882243     
   44360181.4722112     
   44360074.7879755     
   44359970.1569951     
   44359868.1116659     
   44359769.1944823     
   44359673.9572435     
   44359582.9602826     
   44359496.7717189     
   44359415.9667322     
   44359341.1268579     
   44359272.8393031     
   44359211.6962811     
   44359158.2943661     
   44359113.2338643     
   44359077.1182035     
   44359050.5533378     
   44359034.1471690     
   44359028.5089818     
   44054354.1599013     
   44054350.1558959     
   44054337.9727357     
   44054317.3959631     
   44054288.2662937     
   44054250.4774201     
   44054203.9738724     
   44054148.7489363     
   44054084.8426269     
   44054012.3397178     
   44053931.3678249     
   44053842.0955436     
   44053744.7306392     
   44053639.5182892     
   44053526.7393762     
   44053406.7088320     
   44053279.7740297     
   44053146.3132250     
   44053006.7340445     
   44052861.4720202     
   44052710.9891693     
   44052555.7726187     
   44052396.3332727     
   44052233.2045224     
   44052066.9409974     
   44051898.1173566     
   44051727.3271191     
   44051555.1815329     
   44051382.3084801     
   44051209.3514195     
   44051036.9683629     
   44050865.8308859     
   44050696.6231716     
   44050530.0410862     
   44050366.7912852     
   44050207.5903500     
   44050053.1639522     
   44049904.2460468     
   44049761.5780915     
   44049625.9082918     
   44049497.9908713     
   44049378.5853648     
   44049268.4559356     
   44049168.3707131     
   44049079.1011523     
   44049001.4214128     
   44048936.1077571     
   44048883.9379666     
   44048845.6907749     
   44048822.1453172     
   44048814.0805956     
   43729858.2943809     
   43729851.2379121     
   43729830.0814203     
   43729794.8859682     
   43729745.7669475     
   43729682.8917241     
   43729606.4773523     
   43729516.7883542     
   43729414.1345670     
   43729298.8690533     
   43729171.3860758     
   43729032.1191348     
   43728881.5390659     
   43728720.1521989     
   43728548.4985749     
   43728367.1502219     
   43728176.7094854     
   43727977.8074163     
   43727771.1022104     
   43727557.2777028     
   43727337.0419120     
   43727111.1256352     
   43726880.2810921     
   43726645.2806163     
   43726406.9153927     
   43726165.9942408     
   43725923.3424406     
   43725679.8006017     
   43725436.2235736     
   43725193.4793952     
   43724952.4482838     
   43724714.0216607     
   43724479.1012136     
   43724248.5979933     
   43724023.4315444     
   43723804.5290683     
   43723592.8246172     
   43723389.2583184     
   43723194.7756274     
   43723010.3266082     
   43722836.8652405     
   43722675.3487520     
   43722526.7369750     
   43722391.9917260     
   43722272.0762067     
   43722167.9544273     
   43722080.5906476     
   43722010.9488389     
   43721959.9921614     
   43721928.6824604     
   43721917.9797765     
   43388107.7215877     
   43388097.2731597     
   43388066.1536485     
   43388014.7418916     
   43387943.4689642     
   43387852.8156885     
   43387743.3102231     
   43387615.5257295     
   43387470.0781145     
   43387307.6238478     
   43387128.8578519     
   43386934.5114641     
   43386725.3504684     
   43386502.1731957     
   43386265.8086917     
   43386017.1149489     
   43385756.9772039     
   43385486.3062961     
   43385206.0370869     
   43384917.1269389     
   43384620.5542518     
   43384317.3170545     
   43384008.4316524     
   43383694.9313256     
   43383377.8650807     
   43383058.2964504     
   43382737.3023425     
   43382415.9719347     
   43382095.4056149     
   43381776.7139650     
   43381461.0167865     
   43381149.4421673     
   43380843.1255867     
   43380543.2090586     
   43380250.8403110     
   43379967.1719994     
   43379693.3609546     
   43379430.5674617     
   43379179.9545695     
   43378942.6874300     
   43378719.9326647     
   43378512.8577579     
   43378322.6304752     
   43378150.4183061     
   43377997.3879285     
   43377864.7046958     
   43377753.5321429     
   43377665.0315126     
   43377600.3612984     
   43377560.6768052     
   43377547.1297248     
   43028293.7417431     
   43028279.5586576     
   43028237.4784404     
   43028168.2422111     
   43028072.6397762     
   43027951.5070341     
   43027805.7234710     
   43027636.2097458     
   43027443.9253604     
   43027229.8664157     
   43026995.0634503     
   43026740.5793590     
   43026467.5073918     
   43026176.9692289     
   43025870.1131309     
   43025548.1121626     
   43025212.1624871     
   43024863.4817307     
   43024503.3074133     
   43024132.8954456     
   43023753.5186895     
   43023366.4655797     
   43022973.0388056     
   43022574.5540507     
   43022172.3387879     
   43021767.7311295     
   43021362.0787287     
   43020956.7377323     
   43020553.0717815     
   43020152.4510600     
   43019756.2513870     
   43019365.8533537     
   43018982.6415013     
   43018608.0035393     
   43018243.3296018     
   43017890.0115404     
   43017549.4422526     
   43017223.0150429     
   43016912.1230161     
   43016618.1585014     
   43016342.5125041     
   43016086.5741857     
   43015851.7303694     
   43015639.3650691     
   43015450.8590433     
   43015287.5893683     
   43015150.9290331     
   43015042.2465529     
   43014962.9055992     
   43014914.2646474     
   43014897.6766387     
   42649597.0195834     
   42649578.7626067     
   42649524.7356423     
   42649436.0883053     
   42649314.0136688     
   42649159.7456048     
   42648974.5562274     
   42648759.7534364     
   42648516.6785568     
   42648246.7040746     
   42647951.2314637     
   42647631.6891045     
   42647289.5302885     
   42646926.2313098     
   42646543.2896390     
   42646142.2221777     
   42645724.5635919     
   42645291.8647210     
   42644845.6910608     
   42644387.6213177     
   42643919.2460324     
   42643442.1662705     
   42642957.9923776     
   42642468.3427972     
   42641974.8429483     
   42641479.1241620     
   42640982.8226734     
   42640487.5786675     
   42639995.0353773     
   42639506.8382311     
   42639024.6340477     
   42638550.0702773     
   42638084.7942863     
   42637630.4526834     
   42637188.6906862     
   42636761.1515253     
   42636349.4758849     
   42635955.3013773     
   42635580.2620506     
   42635225.9879266     
   42634894.1045685     
   42634586.2326754     
   42634303.9877027     
   42634048.9795075     
   42633822.8120154     
   42633627.0829094     
   42633463.3833377     
   42633333.2976403     
   42633238.4030916     
   42633180.2696585     
   42633160.4597728     
   42251193.1905501     
   42251170.5319137     
   42251103.6073346     
   42250994.0221353     
   42250843.4179659     
   42250653.4701318     
   42250425.8850362     
   42250162.3977315     
   42249864.7695805     
   42249534.7860209     
   42249174.2544324     
   42248785.0021029     
   42248368.8742911     
   42247927.7323825     
   42247463.4521358     
   42246977.9220180     
   42246473.0416235     
   42245950.7201766     
   42245412.8751133     
   42244861.4307398     
   42244298.3169655     
   42243725.4681083     
   42243144.8217680     
   42242558.3177669     
   42241967.8971541     
   42241375.5012715     
   42240783.0708787     
   42240192.5453343     
   42239605.8618322     
   42239024.9546885     
   42238451.7546793     
   42237888.1884249     
   42237336.1778194     
   42236797.6395030     
   42236274.4843754     
   42235768.6171473     
   42235281.9359290     
   42234816.3318534     
   42234373.6887309     
   42233955.8827365     
   42233564.7821238     
   42233202.2469675     
   42232870.1289300     
   42232570.2710518     
   42232304.5075635     
   42232074.6637177     
   42231882.5556391     
   42231729.9901918     
   42231618.7648610     
   42231550.6676492     
   42231527.4769841     
   41832259.5076696     
   41832232.1404694     
   41832151.4301887     
   41832019.4851788     
   41831838.4408657     
   41831610.4571281     
   41831337.7157992     
   41831022.4182904     
   41830666.7833321     
   41830273.0448302     
   41829843.4498320     
   41829380.2566010     
   41828885.7327953     
   41828362.1537472     
   41827811.8008404     
   41827236.9599819     
   41826639.9201645     
   41826022.9721178     
   41825388.4070439     
   41824738.5154348     
   41824075.5859683     
   41823401.9044802     
   41822719.7530084     
   41822031.4089071     
   41821339.1440278     
   41820645.2239640     
   41819951.9073579     
   41819261.4452646     
   41818576.0805725     
   41817898.0474771     
   41817229.5710045     
   41816572.8665838     
   41815930.1396642     
   41815303.5853758     
   41814695.3882307     
   41814107.7218625     
   41813542.7488019     
   41813002.6202864     
   41812489.4761011     
   41812005.4444497     
   41811552.6418528     
   41811133.1730714     
   41810749.1310547     
   41810402.5969086     
   41810095.6398850     
   41809830.3173883     
   41809608.6749989     
   41809432.7465103     
   41809304.5539806     
   41809226.1077934     
   41809199.4067302     
   41391982.5997115     
   41391950.2487492     
   41391854.9592599     
   41391699.3889732     
   41391486.2111073     
   41391218.1118690     
   41390897.7880906     
   41390527.9449975     
   41390111.2941024     
   41389650.5512236     
   41389148.4346219     
   41388607.6632528     
   41388030.9551304     
   41387421.0257983     
   41386780.5869049     
   41386112.3448778     
   41385418.9996956     
   41384703.2437509     
   41383967.7608037     
   41383215.2250192     
   41382448.3000881     
   41381669.6384252     
   41380881.8804430     
   41380087.6538977     
   41379289.5733032     
   41378490.2394102     
   41377692.2387486     
   41376898.1432276     
   41376110.5097937     
   41375331.8801397     
   41374564.7804663     
   41373811.7212896     
   41373075.1972938     
   41372357.6872265     
   41371661.6538327     
   41370989.5438265     
   41370343.7878965     
   41369726.8007437     
   41369140.9811493     
   41368588.7120695     
   41368072.3607555     
   41367594.2788971     
   41367156.8027865     
   41366762.2535021     
   41366412.9371081     
   41366111.1448703     
   41365859.1534844     
   41365659.2253164     
   41365513.6086522     
   41365424.5379557     
   41365394.2341332     
   40929567.3987274     
   40929529.8328002     
   40929419.3011801     
   40929239.0550708     
   40928992.3470454     
   40928682.4287580     
   40928312.5488004     
   40927885.9506985     
   40927405.8710442     
   40926875.5377588     
   40926298.1684812     
   40925676.9690792     
   40925015.1322773     
   40924315.8363972     
   40923582.2442073     
   40922817.5018762     
   40922024.7380262     
   40921207.0628825     
   40920367.5675144     
   40919509.3231643     
   40918635.3806603     
   40917748.7699092     
   40916852.4994649     
   40915949.5561703     
   40915042.9048675     
   40914135.4881729     
   40913230.2263150     
   40912330.0170301     
   40911437.7355130     
   40910556.2344195     
   40909688.3439186     
   40908836.8717887     
   40908004.6035577     
   40907194.3026824     
   40906408.7107650     
   40905650.5478033     
   40904922.5124727     
   40904227.2824376     
   40903567.5146881     
   40902945.8459016     
   40902364.8928261     
   40901827.2526820     
   40901335.5035820     
   40900892.2049656     
   40900499.8980471     
   40900161.1062738     
   40899878.3357947     
   40899654.0759352     
   40899490.7996787     
   40899390.9641508     
   40899357.0111071     
   40444247.2782640     
   40444204.3238690     
   40444078.0578867     
   40443872.3653409     
   40443591.1158008     
   40443238.1614038     
   40442817.3350304     
   40442332.4486281     
   40441787.2916758     
   40441185.6297866     
   40440531.2034410     
   40439827.7268475     
   40439078.8869239     
   40438288.3423964     
   40437459.7230085     
   40436596.6288386     
   40435702.6297180     
   40434781.2647477     
   40433836.0419070     
   40432870.4377510     
   40431887.8971919     
   40430891.8333604     
   40429885.6275417     
   40428872.6291843     
   40427856.1559743     
   40426839.4939751     
   40425825.8978256     
   40424818.5909943     
   40423820.7660864     
   40422835.5851993     
   40421866.1803232     
   40420915.6537844     
   40419987.0787269     
   40419083.4996300     
   40418207.9328581     
   40417363.3672414     
   40416552.7646820     
   40415779.0607855     
   40415045.1655135     
   40414353.9638552     
   40413708.3165160     
   40413111.0606198     
   40412565.0104236     
   40412072.9580421     
   40411637.6741794     
   40411261.9088675     
   40410948.3922075     
   40410699.8351140     
   40410518.9300585     
   40410408.3518127     
   40410370.7581881     
   39935295.4220870     
   39935246.9784570     
   39935104.7005254     
   39934873.1420265     
   39934556.8215697     
   39934160.2210865     
   39933687.7844372     
   39933143.9161700     
   39932532.9804274     
   39931859.2999938     
   39931127.1554777     
   39930340.7846234     
   39929504.3817471     
   39928622.0972900     
   39927698.0374852     
   39926736.2641309     
   39925740.7944663     
   39924715.6011442     
   39923664.6122950     
   39922591.7116784     
   39921500.7389160     
   39920395.4898020     
   39919279.7166864     
   39918157.1289263     
   39917031.3934007     
   39915906.1350857     
   39914784.9376839     
   39913671.3443061     
   39912568.8582001     
   39911480.9435235     
   39910411.0261556     
   39909362.4945470     
   39908338.7006012     
   39907342.9605865     
   39906378.5560742     
   39905448.7349004     
   39904556.7121483     
   39903705.6711478     
   39902898.7644904     
   39902139.1150566     
   39901429.8170525     
   39900773.9370547     
   39900174.5150593     
   39899634.5655348     
   39899157.0784754     
   39898745.0204536     
   39898401.3356697     
   39898128.9469966     
   39897930.7570181     
   39897809.6490599     
   39897768.4882101     
   39402037.4168764     
   39401983.4722080     
   39401825.1667682     
   39401567.7505186     
   39401216.4156802     
   39400776.2957328     
   39400252.4645768     
   39399649.9358513     
   39398973.6624018     
   39398228.5358904     
   39397419.3865421     
   39396550.9830206     
   39395628.0324284     
   39394655.1804229     
   39393637.0114451     
   39392578.0490521     
   39391482.7563503     
   39390355.5365214     
   39389200.7334369     
   39388022.6323557     
   39386825.4606986     
   39385613.3888954     
   39384390.5312991     
   39383160.9471631     
   39381928.6416751     
   39380697.5670450     
   39379471.6236407     
   39378254.6611692     
   39377050.4798966     
   39375862.8319052     
   39374695.4223823     
   39373551.9109380     
   39372435.9129473     
   39371351.0009141     
   39370300.7058531     
   39369288.5186867     
   39368317.8916538     
   39367392.2397275     
   39366514.9420394     
   39365689.3433068     
   39364918.7552613     
   39364206.4580768     
   39363555.7017924     
   39362969.7077313     
   39362451.6699107     
   39362004.7564431     
   39361632.1109256     
   39361336.8538170     
   39361122.0837993     
   39360990.8791244     
   39360946.2989432     
   38843865.0309966     
   38843805.6796634     
   38843631.6433852     
   38843348.8863725     
   38842963.2894889     
   38842480.6499429     
   38841906.6811433     
   38841247.0127102     
   38840507.1906365     
   38839692.6775891     
   38838808.8533457     
   38837861.0153577     
   38836854.3794339     
   38835794.0805370     
   38834685.1736876     
   38833532.6349673     
   38832341.3626163     
   38831116.1782186     
   38829861.8279676     
   38828582.9840091     
   38827284.2458525     
   38825970.1418476     
   38824645.1307190     
   38823313.6031556     
   38821979.8834475     
   38820648.2311670     
   38819322.8428893     
   38818007.8539459     
   38816707.3402099     
   38815425.3199057     
   38814165.7554410     
   38812932.5552564     
   38811729.5756894     
   38810560.6228484     
   38809429.4544944     
   38808339.7819259     
   38807295.2718656     
   38806299.5483436     
   38805356.1945772     
   38804468.7548422     
   38803640.7363347     
   38802875.6110204     
   38802176.8174701     
   38801547.7626780     
   38800991.8238626     
   38800512.3502467     
   38800112.6648170     
   38799796.0660596     
   38799565.8296715     
   38799425.2102475     
   38799377.4429389     
   38260251.1052290     
   38260186.5657005     
   38259997.4596647     
   38259690.4717961     
   38259272.1748440     
   38258749.0301697     
   38258127.3884457     
   38257413.4905076     
   38256613.4683511     
   38255733.3462658     
   38254779.0420973     
   38253756.3686307     
   38252671.0350871     
   38251528.6487261     
   38250334.7165464     
   38249094.6470785     
   38247813.7522616     
   38246497.2493975     
   38245150.2631772     
   38243777.8277711     
   38242384.8889785     
   38240976.3064295     
   38239556.8558346     
   38238131.2312747     
   38236704.0475278     
   38235279.8424266     
   38233863.0792418     
   38232458.1490864     
   38231069.3733369     
   38229701.0060664     
   38228357.2364860     
   38227042.1913897     
   38225759.9376001     
   38224514.4844103     
   38223309.7860189     
   38222149.7439556     
   38221038.2094927     
   38219978.9860417     
   38218975.8315304     
   38218032.4607597     
   38217152.5477359     
   38216339.7279787     
   38215597.6008004     
   38214929.7315566     
   38214339.6538652     
   38213830.8717934     
   38213406.8620108     
   38213071.0759070     
   38212826.9416736     
   38212677.8663492     
   38212627.2378268     
   37650765.4406997     
   37650696.0737972     
   37650492.9765700     
   37650163.5460815     
   37649715.0360136     
   37649154.5582172     
   37648489.0844166     
   37647725.4480609     
   37646870.3463114     
   37645930.3421573     
   37644911.8666504     
   37643821.2212497     
   37642664.5802688     
   37641447.9934171     
   37640177.3884268     
   37638858.5737591     
   37637497.2413803     
   37636098.9696024     
   37634669.2259803     
   37633213.3702584     
   37631736.6573610     
   37630244.2404200     
   37628741.1738326     
   37627232.4163454     
   37625722.8341570     
   37624217.2040351     
   37622720.2164427     
   37621236.4786680     
   37619770.5179544     
   37618326.7846243     
   37616909.6551948     
   37615523.4354790     
   37614172.3636709     
   37612860.6134095     
   37611592.2968186     
   37610371.4675195     
   37609202.1236140     
   37608088.2106340     
   37607033.6244560     
   37606042.2141783     
   37605117.7849578     
   37604264.1008056     
   37603484.8873394     
   37602783.8344898     
   37602164.5991624     
   37601630.8078501     
   37601186.0591989     
   37600833.9265236     
   37600577.9602735     
   37600421.6904485     
   37600368.6289637     
   37015091.5249085     
   37015017.8519327     
   37014802.3121469     
   37014452.9900046     
   37013977.7924297     
   37013384.4515580     
   37012680.5276231     
   37011873.4119757     
   37010970.3302267     
   37009978.3455044     
   37008904.3618159     
   37007755.1275035     
   37006537.2387870     
   37005257.1433830     
   37003921.1441935     
   37002535.4030540     
   37001105.9445347     
   36999638.6597855     
   36998139.3104192     
   36996613.5324240     
   36995066.8400993     
   36993504.6300085     
   36991932.1849414     
   36990354.6778808     
   36988777.1759683     
   36987204.6444622     
   36985641.9506829     
   36984093.8679417     
   36982565.0794474     
   36981060.1821856     
   36979583.6907689     
   36978140.0412509     
   36976733.5949031     
   36975368.6419496     
   36974049.4052573     
   36972780.0439778     
   36971564.6571390     
   36970407.2871842     
   36969311.9234553     
   36968282.5056187     
   36967322.9270330     
   36966437.0380550     
   36965628.6492842     
   36964901.5347443     
   36964259.4350002     
   36963706.0602100     
   36963245.0931126     
   36962880.1919477     
   36962614.9933120     
   36962453.1149477     
   36962398.1584664     
   36353043.8899464     
   36352966.6100911     
   36352740.6967991     
   36352374.8772364     
   36351877.6644900     
   36351257.3616934     
   36350522.0662782     
   36349679.6743427     
   36348737.8851244     
   36347704.2055672     
   36346585.9549719     
   36345390.2697202     
   36344124.1080625     
   36342794.2549601     
   36341407.3269719     
   36339969.7771784     
   36338487.9001330     
   36336967.8368322     
   36335415.5796996     
   36333836.9775721     
   36332237.7406853     
   36330623.4456480     
   36328999.5404016     
   36327371.3491570     
   36325744.0773032     
   36324122.8162833     
   36322512.5484312     
   36320918.1517649     
   36319344.4047316     
   36317795.9909009     
   36316277.5036010     
   36314793.4504947     
   36313348.2580931     
   36311946.2762008     
   36310591.7822933     
   36309288.9858207     
   36308042.0324383     
   36306855.0081593     
   36305731.9434297     
   36304676.8171230     
   36303693.5604533     
   36302786.0608054     
   36301958.1654819     
   36301213.6853658     
   36300556.3984982     
   36299990.0535711     
   36299518.3733355     
   36299145.0579241     
   36298873.7880900     
   36298708.2283617     
   36298652.0301148     
   35664585.8493534     
   35664505.8556824     
   35664272.2043252     
   35663894.1979571     
   35663380.8866413     
   35662741.0735411     
   35661983.3207358     
   35661115.9551280     
   35660147.0744284     
   35659084.5532088     
   35657936.0490097     
   35656709.0084936     
   35655410.6736319     
   35654048.0879158     
   35652628.1025820     
   35651157.3828432     
   35649642.4141151     
   35648089.5082306     
   35646504.8096342     
   35644894.3015484     
   35643263.8121045     
   35641619.0204319     
   35639965.4626987     
   35638308.5380974     
   35636653.5147710     
   35635005.5356732     
   35633369.6243581     
   35631750.6906946     
   35630153.5365023     
   35628582.8611026     
   35627043.2667844     
   35625539.2641787     
   35624075.2775402     
   35622655.6499332     
   35621284.6483191     
   35619966.4685434     
   35618705.2402208     
   35617505.0315160     
   35616369.8538195     
   35615303.6663174     
   35614310.3804538     
   35613393.8642857     
   35612557.9467294     
   35611806.4216996     
   35611143.0521395     
   35610571.5739441     
   35610095.6997755     
   35609719.1227722     
   35609445.5201531     
   35609278.5567176     
   35609221.8882424     
   34949847.3138794     
   34949765.7069655     
   34949527.5582789     
   34949142.6533703     
   34948620.4852265     
   34947970.2617868     
   34947200.9135310     
   34946321.1011240     
   34945339.2231040     
   34944263.4236021     
   34943101.6000805     
   34941861.4110774     
   34940550.2839480     
   34939175.4225910     
   34937743.8151483     
   34936262.2416722     
   34934737.2817468     
   34933175.3220581     
   34931582.5639025     
   34929965.0306277     
   34928328.5749976     
   34926678.8864761     
   34925021.4984215     
   34923361.7951878     
   34921705.0191264     
   34920056.2774837     
   34918420.5491904     
   34916802.6915382     
   34915207.4467399     
   34913639.4483709     
   34912103.2276869     
   34910603.2198178     
   34909143.7698337     
   34907729.1386817     
   34906363.5089914     
   34905050.9907491     
   34903795.6268366     
   34902601.3984378     
   34901472.2303086     
   34900411.9959124     
   34899424.5224198     
   34898513.5955727     
   34897682.9644137     
   34896936.3458803     
   34896277.4292663     
   34895709.8805493     
   34895237.3465870     
   34894863.4591835     
   34894591.8390265     
   34894426.0994980     
   34894369.8503608     
   34209142.3445454     
   34209060.4426525     
   34208821.6711697     
   34208436.1775275     
   34207913.7759692     
   34207263.9571011     
   34206495.8974709     
   34205618.4691569     
   34204640.2493561     
   34203569.5299555     
   34202414.3270742     
   34201182.3905633     
   34199881.2134531     
   34198518.0413338     
   34197099.8816620     
   34195633.5129817     
   34194125.4940508     
   34192582.1728642     
   34191009.6955676     
   34189414.0152509     
   34187800.9006192     
   34186175.9445312     
   34184544.5724025     
   34182912.0504663     
   34181283.4938897     
   34179663.8747389     
   34178058.0297921     
   34176470.6681957     
   34174906.3789613     
   34173369.6383020     
   34171864.8168052     
   34170396.1864411     
   34168967.9274055     
   34167584.1347953     
   34166248.8251175     
   34164965.9426303     
   34163739.3655160     
   34162572.9118868     
   34161470.3456234     
   34160435.3820462     
   34159471.6934209     
   34158582.9142990     
   34157772.6466941     
   34157044.4650957     
   34156401.9213210     
   34155848.5492080     
   34155387.8691498     
   34155023.3924736     
   34154758.6256657     
   34154597.0744455     
   34154542.2476902     
   33442986.0674913     
   33442905.4118933     
   33442670.5398451     
   33442291.8083787     
   33441779.2010142     
   33441142.3395853     
   33440390.4960359     
   33439532.6041695     
   33438577.2713360     
   33437532.7900409     
   33436407.1494626     
   33435208.0468653     
   33433942.8988944     
   33432618.8527434     
   33431242.7971816     
   33429821.3734331     
   33428360.9858983     
   33426867.8127094     
   33425347.8161133     
   33423806.7526753     
   33422250.1832973     
   33420683.4830466     
   33419111.8507903     
   33417540.3186317     
   33415973.7611455     
   33414416.9044103     
   33412874.3348354     
   33411350.5077804     
   33409849.7559681     
   33408376.2976877     
   33406934.2447909     
   33405527.6104786     
   33404160.3168799     
   33402836.2024244     
   33401559.0290071     
   33400332.4889494     
   33399160.2117549     
   33398045.7706643     
   33396992.6890080     
   33396004.4463608     
   33395084.4844986     
   33394236.2131601     
   33393463.0156148     
   33392768.2540399     
   33392155.2747077     
   33391627.4129864     
   33391187.9981562     
   33390840.3580423     
   33390587.8234697     
   33390433.7325399     
   33390381.4347339     
   32652110.5535211     
   32652032.9071807     
   32651807.0984746     
   32651443.5076022     
   32650952.1024701     
   32650342.4530503     
   32649623.7456321     
   32648804.7969500     
   32647894.0681702     
   32646899.6787200     
   32645829.4199445     
   32644690.7685775     
   32643490.9000147     
   32642236.7013756     
   32640934.7843478     
   32639591.4978002     
   32638212.9401609     
   32636804.9715504     
   32635373.2256660     
   32633923.1214108     
   32632459.8742655     
   32630988.5073977     
   32629513.8625083     
   32628040.6104124     
   32626573.2613549     
   32625116.1750603     
   32623673.5705170     
   32622249.5354980     
   32620848.0358188     
   32619472.9243349     
   32618127.9496815     
   32616816.7647575     
   32615542.9349567     
   32614309.9461498     
   32613121.2124199     
   32611980.0835555     
   32610889.8523026     
   32609853.7613812     
   32608875.0102687     
   32607956.7617533     
   32607102.1482601     
   32606314.2779545     
   32605596.2406239     
   32604951.1133422     
   32604381.9659189     
   32603891.8661362     
   32603483.8847757     
   32603161.1004380     
   32602926.6041584     
   32602783.5038192     
   32602734.9283636     
   31837479.2612935     
   31837406.5986327     
   31837195.6261273     
   31836856.5237588     
   31836399.0235803     
   31835832.4268743     
   31835165.6211067     
   31834407.0966535     
   31833564.9632850     
   31832646.9663876     
   31831660.5029101     
   31830612.6370186     
   31829510.1154498     
   31828359.3825498     
   31827166.5949915     
   31825937.6361610     
   31824678.1302078     
   31823393.4557541     
   31822088.7592578     
   31820768.9680311     
   31819438.8029083     
   31818102.7905678     
   31816765.2755069     
   31815430.4316713     
   31814102.2737447     
   31812784.6680995     
   31811481.3434147     
   31810195.9009663     
   31808931.8245944     
   31807692.4903542     
   31806481.1758566     
   31805301.0693045     
   31804155.2782325     
   31803046.8379545     
   31801978.7197282     
   31800953.8386409     
   31799975.0612234     
   31799045.2127978     
   31798167.0845655     
   31797343.4404396     
   31796577.0236265     
   31795870.5629632     
   31795226.7790109     
   31794648.3899118     
   31794138.1170104     
   31793698.6902430     
   31793332.8532971     
   31793043.3685437     
   31792833.0217436     
   31792704.6265304     
   31792661.0286703     
   31000299.6630307     
   31000234.1478886     
   31000044.3252601     
   30999739.9118961     
   30999330.1461754     
   30998823.8083475     
   30998229.2404379     
   30997554.3657964     
   30996806.7082657     
   30995993.4109547     
   30995121.2545994     
   30994196.6754980     
   30993225.7830087     
   30992214.3766009     
   30991167.9624521     
   30990091.7695857     
   30988990.7655457     
   30987869.6716076     
   30986732.9775248     
   30985584.9558145     
   30984429.6755837     
   30983271.0159044     
   30982112.6787409     
   30980958.2014394     
   30979810.9687874     
   30978674.2246540     
   30977551.0832196     
   30976444.5398083     
   30975357.4813336     
   30974292.6963686     
   30973252.8848549     
   30972240.6674595     
   30971258.5945942     
   30970309.1551077     
   30969394.7846625     
   30968517.8738062     
   30967680.7757489     
   30966885.8138559     
   30966135.2888631     
   30965431.4858248     
   30964776.6808001     
   30964173.1472839     
   30963623.1623879     
   30963129.0127762     
   30962693.0003586     
   30962317.4477431     
   30962004.7034511     
   30961757.1468952     
   30961577.1931185     
   30961467.2972973     
   30961429.9590029     
   30142033.7230204     
   30141977.6710753     
   30141815.7380955     
   30141556.8724211     
   30141209.5213933     
   30140781.6549798     
   30140280.7888940     
   30139714.0071805     
   30139087.9842466     
   30138409.0063208     
   30137682.9923211     
   30136915.5141214     
   30136111.8162047     
   30135276.8346952     
   30134415.2157671     
   30133531.3334265     
   30132629.3066680     
   30131713.0160107     
   30130786.1194199     
   30129852.0676224     
   30128914.1188268     
   30127975.3528637     
   30127038.6847571     
   30126106.8777471     
   30125182.5557793     
   30124268.2154812     
   30123366.2376445     
   30122478.8982345     
   30121608.3789474     
   30120756.7773357     
   30119926.1165241     
   30119118.3545344     
   30118335.3932417     
   30117579.0869801     
   30116851.2508153     
   30116153.6685043     
   30115488.1001543     
   30114856.2895992     
   30114259.9715046     
   30113700.8782131     
   30113180.7463405     
   30112701.3231310     
   30112264.3725759     
   30111871.6813043     
   30111525.0642443     
   30111226.3700594     
   30110977.4863579     
   30110780.3446735     
   30110636.9252141     
   30110549.2613750     
   30110519.4440113     
   29264405.9917400     
   29264361.8125870     
   29264234.7594118     
   29264032.6623640     
   29263762.8391459     
   29263432.1223519     
   29263046.8860712     
   29262613.0717321     
   29262136.2131593     
   29261621.4608247     
   29261073.6052721     
   29260497.0997060     
   29259896.0817335     
   29259274.3942563     
   29258635.6055127     
   29257983.0282743     
   29257319.7382046     
   29256648.5913932     
   29255972.2410807     
   29255293.1535939     
   29254613.6235141     
   29253935.7881042     
   29253261.6410217     
   29252593.0453480     
   29251931.7459665     
   29251279.3813218     
   29250637.4945940     
   29250007.5443239     
   29249390.9145229     
   29248788.9243033     
   29248202.8370615     
   29247633.8692500     
   29247083.1987677     
   29246551.9730003     
   29246041.3165399     
   29245552.3386087     
   29245086.1402138     
   29244643.8210521     
   29244226.4861865     
   29243835.2525096     
   29243471.2550075     
   29243135.6528350     
   29242829.6352097     
   29242554.4271294     
   29242311.2949141     
   29242101.5515722     
   29241926.5619857     
   29241787.7479094     
   29241686.5927727     
   29241624.6462693     
   29241603.5287224     
   28369409.2254285     
   28369379.3382222     
   28369294.1500626     
   28369159.9761027     
   28368982.6230906     
   28368767.4207950     
   28368519.2524274     
   28368242.5839880     
   28367941.4925096     
   28367619.6931797     
   28367280.5653188     
   28366927.1772026     
   28366562.3097205     
   28366188.4788719     
   28365807.9571058     
   28365422.7935190     
   28365034.8329318     
   28364645.7338672     
   28364256.9854649     
   28363869.9233663     
   28363485.7446126     
   28363105.5216004     
   28362730.2151432     
   28362360.6866907     
   28361997.7097598     
   28361641.9806315     
   28361294.1283702     
   28360954.7242224     
   28360624.2904492     
   28360303.3086492     
   28359992.2276259     
   28359691.4708489     
   28359401.4435624     
   28359122.5395830     
   28358855.1478353     
   28358599.6586601     
   28358356.4699361     
   28358125.9930429     
   28357908.6586951     
   28357704.9226709     
   28357515.2714506     
   28357340.2277821     
   28357180.3561793     
   28357036.2683590     
   28356908.6286143     
   28356798.1591182     
   28356705.6451472     
   28356631.9402079     
   28356577.9710532     
   28356544.7425760     
   28356533.3425395     
   27459307.6645907     
   27459294.3788217     
   27459257.6763225     
   27459201.9103793     
   27459130.9509890     
   27459048.2210072     
   27458956.7307387     
   27458859.1110824     
   27458757.6451610     
   27458654.2983834     
   27458550.7469092     
   27458448.4045043     
   27458348.4477831     
   27458251.8398489     
   27458159.3523482     
   27458071.5859688     
   27457988.9894228     
   27457911.8769617     
   27457840.4444823     
   27457774.7842903     
   27457714.8985911     
   27457660.7117887     
   27457612.0816710     
   27457568.8095710     
   27457530.6495874     
   27457497.3169568     
   27457468.4956640     
   27457443.8453806     
   27457423.0078179     
   27457405.6125792     
   27457391.2825919     
   27457379.6391996     
   27457370.3069851     
   27457362.9183956     
   27457357.1182323     
   27457352.5680627     
   27457348.9506074     
   27457345.9741481     
   27457343.3769930     
   27457340.9320346     
   27457338.4514213     
   27457335.7913618     
   27457332.8570710     
   27457329.6078587     
   27457326.0623580     
   27457322.3038811     
   27457318.4858869     
   27457314.8375283     
   27457311.6692300     
   27457309.3782223     
   27457308.4540761     
   26536638.4424444     
   26536643.7941001     
   26536661.3353155     
   26536692.9563230     
   26536740.1179739     
   26536803.8928967     
   26536885.0052548     
   26536983.8682947     
   26537100.6196311     
   26537235.1542846     
   26537387.1554601     
   26537556.1230485     
   26537741.3998472     
   26537942.1955199     
   26538157.6083379     
   26538386.6447678     
   26538628.2369840     
   26538881.2584054     
   26539144.5373598     
   26539416.8689971     
   26539697.0255769     
   26539983.7652626     
   26540275.8395592     
   26540571.9995355     
   26540871.0009686     
   26541171.6085508     
   26541472.5992952     
   26541772.7652728     
   26542070.9158096     
   26542365.8792662     
   26542656.5045175     
   26542941.6622435     
   26543220.2461339     
   26543491.1741046     
   26543753.3896132     
   26544005.8631554     
   26544247.5940145     
   26544477.6123265     
   26544694.9815157     
   26544898.8011466     
   26545088.2102245     
   26545262.3909722     
   26545420.5730933     
   26545562.0385232     
   26545686.1266521     
   26545792.2399919     
   26545879.8502527     
   26545948.5048069     
   26545997.8335517     
   26546027.5561606     
   26546037.4892393     
   25604212.1427040     
   25604237.6626034     
   25604313.6514390     
   25604438.9713294     
   25604612.1468940     
   25604831.4160125     
   25605094.7749194     
   25605400.0203966     
   25605744.7891165     
   25606126.5938008     
   25606542.8559895     
   25606990.9353713     
   25607468.1557199     
   25607971.8275324     
   25608499.2674956     
   25609047.8149247     
   25609614.8453469     
   25610197.7814168     
   25610794.1013709     
   25611401.3452404     
   25612017.1190515     
   25612639.0972432     
   25613265.0235323     
   25613892.7104487     
   25614520.0377571     
   25615144.9499695     
   25615765.4531415     
   25616379.6111352     
   25616985.5415187     
   25617581.4112607     
   25618165.4323724     
   25618735.8576340     
   25619290.9765398     
   25619829.1115850     
   25620348.6150096     
   25620847.8661073     
   25621325.2691981     
   25621779.2523527     
   25622208.2669460     
   25622610.7881053     
   25622985.3161065     
   25623330.3787583     
   25623644.5348054     
   25623926.3783708     
   25624174.5444445     
   25624387.7153982     
   25624564.6284507     
   25624704.0839058     
   25624804.9538886     
   25624866.1915043     
   25624886.8419680     
   24665114.4273281     
   24665160.8365246     
   24665296.9473460     
   24665517.9463854     
   24665818.8403892     
   24666194.5048887     
   24666639.7400866     
   24667149.3223267     
   24667718.0490070     
   24668340.7772421     
   24669012.4568466     
   24669728.1580263     
   24670483.0940091     
   24671272.6388087     
   24672092.3403599     
   24672937.9293310     
   24673805.3239908     
   24674690.6315541     
   24675590.1464539     
   24676500.3459908     
   24677417.8837927     
   24678339.5814883     
   24679262.4189632     
   24680183.5235288     
   24681100.1582921     
   24682009.7099834     
   24682909.6764613     
   24683797.6540882     
   24684671.3251493     
   24685528.4454654     
   24686366.8323413     
   24687184.3529826     
   24687978.9135092     
   24688748.4486950     
   24689490.9125653     
   24690204.2699871     
   24690886.4893914     
   24691535.5367686     
   24692149.3710731     
   24692725.9411657     
   24693263.1844007     
   24693759.0269394     
   24694211.3858332     
   24694618.1728951     
   24694977.3003644     
   24695286.6884154     
   24695544.2746717     
   24695748.0260340     
   24695895.9530392     
   24695986.1256930     
   24696016.6844672     
   23722712.6556390     
   23722779.3019309     
   23722973.1520120     
   23723284.9611824     
   23723705.5036954     
   23724225.6976794     
   23724836.6729634     
   23725529.8212297     
   23726296.8391928     
   23727129.7657369     
   23728021.0116389     
   23728963.3807639     
   23729950.0824643     
   23730974.7356626     
   23732031.3655761     
   23733114.3942677     
   23734218.6262470     
   23735339.2302781     
   23736471.7184122     
   23737611.9231118     
   23738755.9731726     
   23739900.2690040     
   23741041.4577015     
   23742176.4082338     
   23743302.1869811     
   23744416.0337894     
   23745515.3386492     
   23746597.6190712     
   23747660.4981983     
   23748701.6836816     
   23749718.9473370     
   23750710.1056046     
   23751673.0008417     
   23752605.4835023     
   23753505.3952813     
   23754370.5533431     
   23755198.7357949     
   23755987.6686214     
   23756735.0143513     
   23757438.3627817     
   23758095.2241306     
   23758703.0250010     
   23759259.1075073     
   23759760.7317913     
   23760205.0819282     
   23760589.2748597     
   23760910.3715978     
   23761165.3898358     
   23761351.3182544     
   23761465.1376950     
   23761503.8688700     
   22780674.7725359     
   22780759.1657123     
   22781001.9664492     
   22781388.3820752     
   22781904.2962756     
   22782536.1578415     
   22783271.0303620     
   22784096.6777975     
   22785001.6360468     
   22785975.2553102     
   22787007.7129275     
   22788090.0018447     
   22789213.9010779     
   22790371.9340206     
   22791557.3193403     
   22792763.9180565     
   22793986.1793778     
   22795219.0870682     
   22796458.1074894     
   22797699.1400122     
   22798938.4701609     
   22800172.7256268     
   22801398.8351307     
   22802613.9900110     
   22803815.6083485     
   22805001.3013984     
   22806168.8420834     
   22807316.1352868     
   22808441.1896917     
   22809542.0909125     
   22810616.9756827     
   22811664.0068707     
   22812681.3491241     
   22813667.1449625     
   22814619.4911798     
   22815536.4154625     
   22816415.8531983     
   22817255.6245435     
   22818053.4119425     
   22818806.7384741     
   22819512.9476325     
   22820169.1854661     
   22820772.3863880     
   22821319.2644227     
   22821806.3120794     
   22822229.8092369     
   22822585.8438765     
   22822870.3441147     
   22823079.1144526     
   22823207.8537275     
   22823252.0983135     
   21843022.8418584     
   21843117.1020551     
   21843386.6833770     
   21843810.8627552     
   21844369.1903399     
   21845042.5427823     
   21845813.5594717     
   21846666.7508777     
   21847588.4399511     
   21848566.6253793     
   21849590.8148922     
   21850651.8540301     
   21851741.7630704     
   21852853.5877887     
   21853981.2659362     
   21855119.5093332     
   21856263.7005162     
   21857409.8024668     
   21858554.2798511     
   21859694.0302430     
   21860826.3239257     
   21861948.7510151     
   21863059.1747913     
   21864155.6902691     
   21865236.5871569     
   21866300.3164601     
   21867345.4600759     
   21868370.7027938     
   21869374.8061777     
   21870356.5838442     
   21871314.8776851     
   21872248.5345957     
   21873156.3832809     
   21874037.2107021     
   21874889.7377172     
   21875712.5934361     
   21876504.2877893     
   21877263.1817662     
   21877987.4547567     
   21878675.0684150     
   21879323.7265118     
   21879930.8303765     
   21880493.4298772     
   21881008.1705882     
   21881471.2391823     
   21881878.3116982     
   21882224.5141769     
   21882504.4140232     
   21882712.0765622     
   21882841.2504158     
   21882885.7979188     
   20914258.1443188     
   20914353.7138347     
   20914610.1875842     
   20914991.2308398     
   20915469.3232751     
   20916023.2656090     
   20916636.4789202     
   20917295.8234322     
   20917990.7631060     
   20918712.7642345     
   20919454.8550328     
   20920211.2978326     
   20920977.3413054     
   20921749.0304497     
   20922523.0588860     
   20923296.6525732     
   20924067.4771647     
   20924833.5633641     
   20925593.2461368     
   20926345.1146946     
   20927087.9709271     
   20927820.7945058     
   20928542.7132876     
   20929252.9779417     
   20929950.9399451     
   20930636.0322553     
   20931307.7520917     
   20931965.6453465     
   20932609.2922119     
   20933238.2936512     
   20933852.2583695     
   20934450.7899478     
   20935033.4737941     
   20935599.8635405     
   20936149.4664656     
   20936681.7274459     
   20937196.0108261     
   20937691.5794397     
   20938167.5697762     
   20938622.9619624     
   20939056.5427439     
   20939466.8589535     
   20939852.1579144     
   20940210.3096733     
   20940538.7035857     
   20940834.1081158     
   20941092.4769792     
   20941308.6756636     
   20941476.0877959     
   20941586.0373248     
   20941626.9244827     
   20000000.0000000     
   20000000.0000000     
   20000000.0000000     
   20000000.0000000     
   20000000.0000000     
   20000000.0000000     
   20000000.0000000     
   20000000.0000000     
   20000000.0000000     
   20000000.0000000     
   20000000.0000000     
   20000000.0000000     
   20000000.0000000     
   20000000.0000000     
   20000000.0000000     
   20000000.0000000     
   20000000.0000000     
   20000000.0000000     
   20000000.0000000     
   20000000.0000000     
   20000000.0000000     
   20000000.0000000     
   20000000.0000000     
   20000000.0000000     
   20000000.0000000     
   20000000.0000000     
   20000000.0000000     
   20000000.0000000     
   20000000.0000000     
   20000000.0000000     
   20000000.0000000     
   20000000.0000000     
   20000000.0000000     
   20000000.0000000     
   20000000.0000000     
   20000000.0000000     
   20000000.0000000     
   20000000.0000000     
   20000000.0000000     
   20000000.0000000     
   20000000.0000000     
   20000000.0000000     
   20000000.0000000     
   20000000.0000000     
   20000000.0000000     
   20000000.0000000     
   20000000.0000000     
   20000000.0000000     
   20000000.0000000     
   20000000.0000000     
   20000000.0000000     
VECTORS u double 
    0.00000E+00        -0.40138E-04         0.00000E+00
    0.00000E+00        -0.40004E-04         0.00000E+00
    0.00000E+00        -0.39622E-04         0.00000E+00
    0.00000E+00        -0.38992E-04         0.00000E+00
    0.00000E+00        -0.38124E-04         0.00000E+00
    0.00000E+00        -0.37032E-04         0.00000E+00
    0.00000E+00        -0.35734E-04         0.00000E+00
    0.00000E+00        -0.34248E-04         0.00000E+00
    0.00000E+00        -0.32589E-04         0.00000E+00
    0.00000E+00        -0.30775E-04         0.00000E+00
    0.00000E+00        -0.28821E-04         0.00000E+00
    0.00000E+00        -0.26743E-04         0.00000E+00
    0.00000E+00        -0.24557E-04         0.00000E+00
    0.00000E+00        -0.22277E-04         0.00000E+00
    0.00000E+00        -0.19917E-04         0.00000E+00
    0.00000E+00        -0.17492E-04         0.00000E+00
    0.00000E+00        -0.15016E-04         0.00000E+00
    0.00000E+00        -0.12503E-04         0.00000E+00
    0.00000E+00        -0.99657E-05         0.00000E+00
    0.00000E+00        -0.74189E-05         0.00000E+00
    0.00000E+00        -0.48754E-05         0.00000E+00
    0.00000E+00        -0.23487E-05         0.00000E+00
    0.00000E+00         0.14815E-06         0.00000E+00
    0.00000E+00         0.26019E-05         0.00000E+00
    0.00000E+00         0.49995E-05         0.00000E+00
    0.00000E+00         0.73278E-05         0.00000E+00
    0.00000E+00         0.95737E-05         0.00000E+00
    0.00000E+00         0.11724E-04         0.00000E+00
    0.00000E+00         0.13766E-04         0.00000E+00
    0.00000E+00         0.15686E-04         0.00000E+00
    0.00000E+00         0.17471E-04         0.00000E+00
    0.00000E+00         0.19107E-04         0.00000E+00
    0.00000E+00         0.20581E-04         0.00000E+00
    0.00000E+00         0.21879E-04         0.00000E+00
    0.00000E+00         0.22987E-04         0.00000E+00
    0.00000E+00         0.23890E-04         0.00000E+00
    0.00000E+00         0.24573E-04         0.00000E+00
    0.00000E+00         0.25021E-04         0.00000E+00
    0.00000E+00         0.25218E-04         0.00000E+00
    0.00000E+00         0.25146E-04         0.00000E+00
    0.00000E+00         0.24789E-04         0.00000E+00
    0.00000E+00         0.24127E-04         0.00000E+00
    0.00000E+00         0.23140E-04         0.00000E+00
    0.00000E+00         0.21806E-04         0.00000E+00
    0.00000E+00         0.20099E-04         0.00000E+00
    0.00000E+00         0.17992E-04         0.00000E+00
    0.00000E+00         0.15451E-04         0.00000E+00
    0.00000E+00         0.12439E-04         0.00000E+00
    0.00000E+00         0.89058E-05         0.00000E+00
    0.00000E+00         0.47886E-05         0.00000E+00
    0.00000E+00         0.00000E+00         0.00000E+00
    0.19518E-03        -0.62909E-04         0.00000E+00
    0.18780E-03        -0.60720E-04         0.00000E+00
    0.18146E-03        -0.58591E-04         0.00000E+00
    0.17587E-03        -0.56470E-04         0.00000E+00
    0.17084E-03        -0.54320E-04         0.00000E+00
    0.16624E-03        -0.52116E-04         0.00000E+00
    0.16199E-03        -0.49843E-04         0.00000E+00
    0.15800E-03        -0.47492E-04         0.00000E+00
    0.15424E-03        -0.45060E-04         0.00000E+00
    0.15065E-03        -0.42548E-04         0.00000E+00
    0.14721E-03        -0.39960E-04         0.00000E+00
    0.14388E-03        -0.37301E-04         0.00000E+00
    0.14065E-03        -0.34580E-04         0.00000E+00
    0.13750E-03        -0.31805E-04         0.00000E+00
    0.13442E-03        -0.28984E-04         0.00000E+00
    0.13138E-03        -0.26129E-04         0.00000E+00
    0.12838E-03        -0.23249E-04         0.00000E+00
    0.12541E-03        -0.20356E-04         0.00000E+00
    0.12246E-03        -0.17461E-04         0.00000E+00
    0.11952E-03        -0.14574E-04         0.00000E+00
    0.11658E-03        -0.11708E-04         0.00000E+00
    0.11365E-03        -0.88745E-05         0.00000E+00
    0.11070E-03        -0.60849E-05         0.00000E+00
    0.10774E-03        -0.33513E-05         0.00000E+00
    0.10477E-03        -0.68571E-06         0.00000E+00
    0.10177E-03         0.18998E-05         0.00000E+00
    0.98746E-04         0.43930E-05         0.00000E+00
    0.95689E-04         0.67816E-05         0.00000E+00
    0.92596E-04         0.90532E-05         0.00000E+00
    0.89462E-04         0.11195E-04         0.00000E+00
    0.86283E-04         0.13195E-04         0.00000E+00
    0.83055E-04         0.15039E-04         0.00000E+00
    0.79773E-04         0.16715E-04         0.00000E+00
    0.76431E-04         0.18209E-04         0.00000E+00
    0.73025E-04         0.19508E-04         0.00000E+00
    0.69549E-04         0.20597E-04         0.00000E+00
    0.65996E-04         0.21462E-04         0.00000E+00
    0.62360E-04         0.22088E-04         0.00000E+00
    0.58631E-04         0.22460E-04         0.00000E+00
    0.54802E-04         0.22562E-04         0.00000E+00
    0.50860E-04         0.22376E-04         0.00000E+00
    0.46794E-04         0.21884E-04         0.00000E+00
    0.42588E-04         0.21068E-04         0.00000E+00
    0.38223E-04         0.19907E-04         0.00000E+00
    0.33677E-04         0.18378E-04         0.00000E+00
    0.28919E-04         0.16459E-04         0.00000E+00
    0.23913E-04         0.14122E-04         0.00000E+00
    0.18605E-04         0.11340E-04         0.00000E+00
    0.12927E-04         0.80804E-05         0.00000E+00
    0.67756E-05         0.43113E-05         0.00000E+00
    0.00000E+00         0.00000E+00         0.00000E+00
    0.37111E-03        -0.11339E-03         0.00000E+00
    0.35964E-03        -0.10902E-03         0.00000E+00
    0.34905E-03        -0.10467E-03         0.00000E+00
    0.33923E-03        -0.10036E-03         0.00000E+00
    0.33008E-03        -0.96085E-04         0.00000E+00
    0.32153E-03        -0.91856E-04         0.00000E+00
    0.31346E-03        -0.87664E-04         0.00000E+00
    0.30581E-03        -0.83502E-04         0.00000E+00
    0.29852E-03        -0.79365E-04         0.00000E+00
    0.29152E-03        -0.75248E-04         0.00000E+00
    0.28477E-03        -0.71149E-04         0.00000E+00
    0.27823E-03        -0.67067E-04         0.00000E+00
    0.27185E-03        -0.63003E-04         0.00000E+00
    0.26562E-03        -0.58958E-04         0.00000E+00
    0.25950E-03        -0.54936E-04         0.00000E+00
    0.25347E-03        -0.50941E-04         0.00000E+00
    0.24752E-03        -0.46979E-04         0.00000E+00
    0.24161E-03        -0.43056E-04         0.00000E+00
    0.23574E-03        -0.39178E-04         0.00000E+00
    0.22989E-03        -0.35353E-04         0.00000E+00
    0.22405E-03        -0.31590E-04         0.00000E+00
    0.21821E-03        -0.27896E-04         0.00000E+00
    0.21235E-03        -0.24280E-04         0.00000E+00
    0.20647E-03        -0.20753E-04         0.00000E+00
    0.20055E-03        -0.17323E-04         0.00000E+00
    0.19458E-03        -0.14000E-04         0.00000E+00
    0.18856E-03        -0.10794E-04         0.00000E+00
    0.18249E-03        -0.77165E-05         0.00000E+00
    0.17634E-03        -0.47773E-05         0.00000E+00
    0.17011E-03        -0.19875E-05         0.00000E+00
    0.16380E-03         0.64176E-06         0.00000E+00
    0.15739E-03         0.30991E-05         0.00000E+00
    0.15088E-03         0.53728E-05         0.00000E+00
    0.14426E-03         0.74510E-05         0.00000E+00
    0.13751E-03         0.93214E-05         0.00000E+00
    0.13064E-03         0.10972E-04         0.00000E+00
    0.12362E-03         0.12389E-04         0.00000E+00
    0.11644E-03         0.13560E-04         0.00000E+00
    0.10910E-03         0.14471E-04         0.00000E+00
    0.10157E-03         0.15109E-04         0.00000E+00
    0.93849E-04         0.15459E-04         0.00000E+00
    0.85906E-04         0.15507E-04         0.00000E+00
    0.77725E-04         0.15237E-04         0.00000E+00
    0.69280E-04         0.14635E-04         0.00000E+00
    0.60543E-04         0.13685E-04         0.00000E+00
    0.51484E-04         0.12374E-04         0.00000E+00
    0.42065E-04         0.10686E-04         0.00000E+00
    0.32247E-04         0.86100E-05         0.00000E+00
    0.21987E-04         0.61374E-05         0.00000E+00
    0.11246E-04         0.32653E-05         0.00000E+00
    0.00000E+00         0.00000E+00         0.00000E+00
    0.52964E-03        -0.17984E-03         0.00000E+00
    0.51551E-03        -0.17343E-03         0.00000E+00
    0.50211E-03        -0.16704E-03         0.00000E+00
    0.48936E-03        -0.16068E-03         0.00000E+00
    0.47720E-03        -0.15436E-03         0.00000E+00
    0.46557E-03        -0.14809E-03         0.00000E+00
    0.45443E-03        -0.14188E-03         0.00000E+00
    0.44370E-03        -0.13573E-03         0.00000E+00
    0.43335E-03        -0.12965E-03         0.00000E+00
    0.42332E-03        -0.12364E-03         0.00000E+00
    0.41357E-03        -0.11771E-03         0.00000E+00
    0.40405E-03        -0.11184E-03         0.00000E+00
    0.39474E-03        -0.10605E-03         0.00000E+00
    0.38559E-03        -0.10034E-03         0.00000E+00
    0.37658E-03        -0.94703E-04         0.00000E+00
    0.36767E-03        -0.89150E-04         0.00000E+00
    0.35885E-03        -0.83683E-04         0.00000E+00
    0.35010E-03        -0.78305E-04         0.00000E+00
    0.34138E-03        -0.73022E-04         0.00000E+00
    0.33269E-03        -0.67838E-04         0.00000E+00
    0.32400E-03        -0.62758E-04         0.00000E+00
    0.31530E-03        -0.57790E-04         0.00000E+00
    0.30658E-03        -0.52940E-04         0.00000E+00
    0.29781E-03        -0.48214E-04         0.00000E+00
    0.28900E-03        -0.43620E-04         0.00000E+00
    0.28012E-03        -0.39166E-04         0.00000E+00
    0.27116E-03        -0.34859E-04         0.00000E+00
    0.26211E-03        -0.30709E-04         0.00000E+00
    0.25296E-03        -0.26723E-04         0.00000E+00
    0.24370E-03        -0.22910E-04         0.00000E+00
    0.23432E-03        -0.19280E-04         0.00000E+00
    0.22481E-03        -0.15842E-04         0.00000E+00
    0.21516E-03        -0.12605E-04         0.00000E+00
    0.20534E-03        -0.95794E-05         0.00000E+00
    0.19536E-03        -0.67750E-05         0.00000E+00
    0.18521E-03        -0.42018E-05         0.00000E+00
    0.17485E-03        -0.18702E-05         0.00000E+00
    0.16429E-03         0.20961E-06         0.00000E+00
    0.15352E-03         0.20272E-05         0.00000E+00
    0.14250E-03         0.35721E-05         0.00000E+00
    0.13123E-03         0.48341E-05         0.00000E+00
    0.11969E-03         0.58031E-05         0.00000E+00
    0.10785E-03         0.64693E-05         0.00000E+00
    0.95710E-04         0.68236E-05         0.00000E+00
    0.83232E-04         0.68573E-05         0.00000E+00
    0.70396E-04         0.65631E-05         0.00000E+00
    0.57179E-04         0.59347E-05         0.00000E+00
    0.43556E-04         0.49673E-05         0.00000E+00
    0.29503E-04         0.36575E-05         0.00000E+00
    0.14995E-04         0.20029E-05         0.00000E+00
    0.00000E+00         0.00000E+00         0.00000E+00
    0.67337E-03        -0.25707E-03         0.00000E+00
    0.65738E-03        -0.24867E-03         0.00000E+00
    0.64197E-03        -0.24029E-03         0.00000E+00
    0.62708E-03        -0.23193E-03         0.00000E+00
    0.61267E-03        -0.22363E-03         0.00000E+00
    0.59870E-03        -0.21538E-03         0.00000E+00
    0.58513E-03        -0.20719E-03         0.00000E+00
    0.57193E-03        -0.19908E-03         0.00000E+00
    0.55904E-03        -0.19104E-03         0.00000E+00
    0.54643E-03        -0.18310E-03         0.00000E+00
    0.53408E-03        -0.17525E-03         0.00000E+00
    0.52193E-03        -0.16750E-03         0.00000E+00
    0.50997E-03        -0.15986E-03         0.00000E+00
    0.49817E-03        -0.15232E-03         0.00000E+00
    0.48648E-03        -0.14490E-03         0.00000E+00
    0.47490E-03        -0.13759E-03         0.00000E+00
    0.46339E-03        -0.13040E-03         0.00000E+00
    0.45193E-03        -0.12334E-03         0.00000E+00
    0.44049E-03        -0.11641E-03         0.00000E+00
    0.42907E-03        -0.10961E-03         0.00000E+00
    0.41764E-03        -0.10295E-03         0.00000E+00
    0.40619E-03        -0.96436E-04         0.00000E+00
    0.39469E-03        -0.90073E-04         0.00000E+00
    0.38313E-03        -0.83865E-04         0.00000E+00
    0.37150E-03        -0.77819E-04         0.00000E+00
    0.35978E-03        -0.71941E-04         0.00000E+00
    0.34796E-03        -0.66238E-04         0.00000E+00
    0.33602E-03        -0.60716E-04         0.00000E+00
    0.32396E-03        -0.55381E-04         0.00000E+00
    0.31176E-03        -0.50242E-04         0.00000E+00
    0.29940E-03        -0.45304E-04         0.00000E+00
    0.28688E-03        -0.40576E-04         0.00000E+00
    0.27419E-03        -0.36065E-04         0.00000E+00
    0.26131E-03        -0.31779E-04         0.00000E+00
    0.24822E-03        -0.27724E-04         0.00000E+00
    0.23492E-03        -0.23910E-04         0.00000E+00
    0.22140E-03        -0.20342E-04         0.00000E+00
    0.20763E-03        -0.17030E-04         0.00000E+00
    0.19361E-03        -0.13979E-04         0.00000E+00
    0.17932E-03        -0.11198E-04         0.00000E+00
    0.16475E-03        -0.86939E-05         0.00000E+00
    0.14989E-03        -0.64721E-05         0.00000E+00
    0.13470E-03        -0.45394E-05         0.00000E+00
    0.11919E-03        -0.29011E-05         0.00000E+00
    0.10334E-03        -0.15624E-05         0.00000E+00
    0.87116E-04        -0.52731E-06         0.00000E+00
    0.70518E-04         0.20052E-06         0.00000E+00
    0.53524E-04         0.61842E-06         0.00000E+00
    0.36118E-04         0.72451E-06         0.00000E+00
    0.18281E-04         0.51800E-06         0.00000E+00
    0.00000E+00         0.00000E+00         0.00000E+00
    0.80454E-03        -0.34174E-03         0.00000E+00
    0.78725E-03        -0.33139E-03         0.00000E+00
    0.77037E-03        -0.32107E-03         0.00000E+00
    0.75389E-03        -0.31077E-03         0.00000E+00
    0.73776E-03        -0.30051E-03         0.00000E+00
    0.72196E-03        -0.29032E-03         0.00000E+00
    0.70647E-03        -0.28019E-03         0.00000E+00
    0.69124E-03        -0.27013E-03         0.00000E+00
    0.67626E-03        -0.26017E-03         0.00000E+00
    0.66149E-03        -0.25030E-03         0.00000E+00
    0.64691E-03        -0.24053E-03         0.00000E+00
    0.63249E-03        -0.23087E-03         0.00000E+00
    0.61820E-03        -0.22133E-03         0.00000E+00
    0.60401E-03        -0.21192E-03         0.00000E+00
    0.58992E-03        -0.20263E-03         0.00000E+00
    0.57589E-03        -0.19348E-03         0.00000E+00
    0.56189E-03        -0.18448E-03         0.00000E+00
    0.54792E-03        -0.17561E-03         0.00000E+00
    0.53395E-03        -0.16690E-03         0.00000E+00
    0.51996E-03        -0.15835E-03         0.00000E+00
    0.50593E-03        -0.14996E-03         0.00000E+00
    0.49185E-03        -0.14173E-03         0.00000E+00
    0.47770E-03        -0.13368E-03         0.00000E+00
    0.46347E-03        -0.12580E-03         0.00000E+00
    0.44914E-03        -0.11811E-03         0.00000E+00
    0.43469E-03        -0.11060E-03         0.00000E+00
    0.42012E-03        -0.10329E-03         0.00000E+00
    0.40540E-03        -0.96179E-04         0.00000E+00
    0.39053E-03        -0.89271E-04         0.00000E+00
    0.37550E-03        -0.82575E-04         0.00000E+00
    0.36028E-03        -0.76095E-04         0.00000E+00
    0.34488E-03        -0.69837E-04         0.00000E+00
    0.32927E-03        -0.63807E-04         0.00000E+00
    0.31344E-03        -0.58011E-04         0.00000E+00
    0.29739E-03        -0.52454E-04         0.00000E+00
    0.28110E-03        -0.47143E-04         0.00000E+00
    0.26456E-03        -0.42082E-04         0.00000E+00
    0.24776E-03        -0.37277E-04         0.00000E+00
    0.23068E-03        -0.32734E-04         0.00000E+00
    0.21332E-03        -0.28456E-04         0.00000E+00
    0.19566E-03        -0.24450E-04         0.00000E+00
    0.17769E-03        -0.20718E-04         0.00000E+00
    0.15939E-03        -0.17266E-04         0.00000E+00
    0.14076E-03        -0.14096E-04         0.00000E+00
    0.12179E-03        -0.11211E-04         0.00000E+00
    0.10245E-03        -0.86148E-05         0.00000E+00
    0.82746E-04        -0.63084E-05         0.00000E+00
    0.62659E-04        -0.42933E-05         0.00000E+00
    0.42180E-04        -0.25703E-05         0.00000E+00
    0.21297E-04        -0.11393E-05         0.00000E+00
    0.00000E+00         0.00000E+00         0.00000E+00
    0.92527E-03        -0.43159E-03         0.00000E+00
    0.90703E-03        -0.41934E-03         0.00000E+00
    0.88908E-03        -0.40709E-03         0.00000E+00
    0.87138E-03        -0.39488E-03         0.00000E+00
    0.85392E-03        -0.38271E-03         0.00000E+00
    0.83667E-03        -0.37059E-03         0.00000E+00
    0.81962E-03        -0.35854E-03         0.00000E+00
    0.80274E-03        -0.34657E-03         0.00000E+00
    0.78601E-03        -0.33468E-03         0.00000E+00
    0.76941E-03        -0.32290E-03         0.00000E+00
    0.75291E-03        -0.31122E-03         0.00000E+00
    0.73651E-03        -0.29965E-03         0.00000E+00
    0.72017E-03        -0.28821E-03         0.00000E+00
    0.70388E-03        -0.27689E-03         0.00000E+00
    0.68762E-03        -0.26572E-03         0.00000E+00
    0.67138E-03        -0.25469E-03         0.00000E+00
    0.65512E-03        -0.24381E-03         0.00000E+00
    0.63884E-03        -0.23308E-03         0.00000E+00
    0.62251E-03        -0.22252E-03         0.00000E+00
    0.60613E-03        -0.21213E-03         0.00000E+00
    0.58967E-03        -0.20191E-03         0.00000E+00
    0.57313E-03        -0.19187E-03         0.00000E+00
    0.55648E-03        -0.18201E-03         0.00000E+00
    0.53971E-03        -0.17235E-03         0.00000E+00
    0.52281E-03        -0.16288E-03         0.00000E+00
    0.50577E-03        -0.15361E-03         0.00000E+00
    0.48857E-03        -0.14454E-03         0.00000E+00
    0.47120E-03        -0.13569E-03         0.00000E+00
    0.45365E-03        -0.12705E-03         0.00000E+00
    0.43590E-03        -0.11863E-03         0.00000E+00
    0.41795E-03        -0.11044E-03         0.00000E+00
    0.39978E-03        -0.10247E-03         0.00000E+00
    0.38138E-03        -0.94744E-04         0.00000E+00
    0.36275E-03        -0.87253E-04         0.00000E+00
    0.34387E-03        -0.80007E-04         0.00000E+00
    0.32473E-03        -0.73008E-04         0.00000E+00
    0.30532E-03        -0.66261E-04         0.00000E+00
    0.28563E-03        -0.59771E-04         0.00000E+00
    0.26565E-03        -0.53540E-04         0.00000E+00
    0.24537E-03        -0.47572E-04         0.00000E+00
    0.22479E-03        -0.41872E-04         0.00000E+00
    0.20388E-03        -0.36440E-04         0.00000E+00
    0.18265E-03        -0.31281E-04         0.00000E+00
    0.16108E-03        -0.26396E-04         0.00000E+00
    0.13917E-03        -0.21788E-04         0.00000E+00
    0.11691E-03        -0.17457E-04         0.00000E+00
    0.94277E-04        -0.13406E-04         0.00000E+00
    0.71279E-04        -0.96349E-05         0.00000E+00
    0.47905E-04        -0.61435E-05         0.00000E+00
    0.24147E-04        -0.29322E-05         0.00000E+00
    0.00000E+00         0.00000E+00         0.00000E+00
    0.10375E-02        -0.52510E-03         0.00000E+00
    0.10186E-02        -0.51094E-03         0.00000E+00
    0.99980E-03        -0.49680E-03         0.00000E+00
    0.98116E-03        -0.48268E-03         0.00000E+00
    0.96264E-03        -0.46861E-03         0.00000E+00
    0.94421E-03        -0.45459E-03         0.00000E+00
    0.92588E-03        -0.44063E-03         0.00000E+00
    0.90761E-03        -0.42675E-03         0.00000E+00
    0.88940E-03        -0.41296E-03         0.00000E+00
    0.87122E-03        -0.39926E-03         0.00000E+00
    0.85307E-03        -0.38567E-03         0.00000E+00
    0.83493E-03        -0.37219E-03         0.00000E+00
    0.81679E-03        -0.35884E-03         0.00000E+00
    0.79862E-03        -0.34561E-03         0.00000E+00
    0.78041E-03        -0.33253E-03         0.00000E+00
    0.76216E-03        -0.31959E-03         0.00000E+00
    0.74384E-03        -0.30681E-03         0.00000E+00
    0.72543E-03        -0.29419E-03         0.00000E+00
    0.70694E-03        -0.28173E-03         0.00000E+00
    0.68834E-03        -0.26945E-03         0.00000E+00
    0.66962E-03        -0.25734E-03         0.00000E+00
    0.65076E-03        -0.24543E-03         0.00000E+00
    0.63176E-03        -0.23370E-03         0.00000E+00
    0.61261E-03        -0.22216E-03         0.00000E+00
    0.59328E-03        -0.21083E-03         0.00000E+00
    0.57378E-03        -0.19970E-03         0.00000E+00
    0.55408E-03        -0.18879E-03         0.00000E+00
    0.53418E-03        -0.17809E-03         0.00000E+00
    0.51407E-03        -0.16760E-03         0.00000E+00
    0.49374E-03        -0.15735E-03         0.00000E+00
    0.47317E-03        -0.14732E-03         0.00000E+00
    0.45237E-03        -0.13753E-03         0.00000E+00
    0.43131E-03        -0.12797E-03         0.00000E+00
    0.40999E-03        -0.11866E-03         0.00000E+00
    0.38840E-03        -0.10959E-03         0.00000E+00
    0.36653E-03        -0.10077E-03         0.00000E+00
    0.34437E-03        -0.92196E-04         0.00000E+00
    0.32192E-03        -0.83881E-04         0.00000E+00
    0.29917E-03        -0.75824E-04         0.00000E+00
    0.27611E-03        -0.68028E-04         0.00000E+00
    0.25273E-03        -0.60496E-04         0.00000E+00
    0.22902E-03        -0.53229E-04         0.00000E+00
    0.20498E-03        -0.46229E-04         0.00000E+00
    0.18060E-03        -0.39499E-04         0.00000E+00
    0.15588E-03        -0.33039E-04         0.00000E+00
    0.13081E-03        -0.26850E-04         0.00000E+00
    0.10538E-03        -0.20935E-04         0.00000E+00
    0.79587E-04        -0.15292E-04         0.00000E+00
    0.53430E-04        -0.99218E-05         0.00000E+00
    0.26902E-04        -0.48247E-05         0.00000E+00
    0.00000E+00         0.00000E+00         0.00000E+00
    0.11430E-02        -0.62121E-03         0.00000E+00
    0.11236E-02        -0.60516E-03         0.00000E+00
    0.11042E-02        -0.58912E-03         0.00000E+00
    0.10848E-02        -0.57311E-03         0.00000E+00
    0.10654E-02        -0.55714E-03         0.00000E+00
    0.10460E-02        -0.54121E-03         0.00000E+00
    0.10265E-02        -0.52535E-03         0.00000E+00
    0.10071E-02        -0.50957E-03         0.00000E+00
    0.98758E-03        -0.49386E-03         0.00000E+00
    0.96803E-03        -0.47825E-03         0.00000E+00
    0.94842E-03        -0.46275E-03         0.00000E+00
    0.92874E-03        -0.44735E-03         0.00000E+00
    0.90897E-03        -0.43208E-03         0.00000E+00
    0.88911E-03        -0.41694E-03         0.00000E+00
    0.86914E-03        -0.40193E-03         0.00000E+00
    0.84905E-03        -0.38707E-03         0.00000E+00
    0.82884E-03        -0.37236E-03         0.00000E+00
    0.80848E-03        -0.35781E-03         0.00000E+00
    0.78797E-03        -0.34343E-03         0.00000E+00
    0.76731E-03        -0.32922E-03         0.00000E+00
    0.74647E-03        -0.31519E-03         0.00000E+00
    0.72545E-03        -0.30135E-03         0.00000E+00
    0.70424E-03        -0.28770E-03         0.00000E+00
    0.68283E-03        -0.27424E-03         0.00000E+00
    0.66121E-03        -0.26099E-03         0.00000E+00
    0.63937E-03        -0.24794E-03         0.00000E+00
    0.61731E-03        -0.23510E-03         0.00000E+00
    0.59500E-03        -0.22248E-03         0.00000E+00
    0.57245E-03        -0.21009E-03         0.00000E+00
    0.54965E-03        -0.19791E-03         0.00000E+00
    0.52658E-03        -0.18597E-03         0.00000E+00
    0.50324E-03        -0.17426E-03         0.00000E+00
    0.47963E-03        -0.16279E-03         0.00000E+00
    0.45573E-03        -0.15156E-03         0.00000E+00
    0.43154E-03        -0.14057E-03         0.00000E+00
    0.40705E-03        -0.12984E-03         0.00000E+00
    0.38225E-03        -0.11935E-03         0.00000E+00
    0.35715E-03        -0.10911E-03         0.00000E+00
    0.33172E-03        -0.99135E-04         0.00000E+00
    0.30597E-03        -0.89415E-04         0.00000E+00
    0.27989E-03        -0.79956E-04         0.00000E+00
    0.25348E-03        -0.70759E-04         0.00000E+00
    0.22673E-03        -0.61827E-04         0.00000E+00
    0.19963E-03        -0.53160E-04         0.00000E+00
    0.17218E-03        -0.44760E-04         0.00000E+00
    0.14438E-03        -0.36628E-04         0.00000E+00
    0.11623E-03        -0.28764E-04         0.00000E+00
    0.87717E-04        -0.21169E-04         0.00000E+00
    0.58843E-04        -0.13844E-04         0.00000E+00
    0.29604E-04        -0.67873E-05         0.00000E+00
    0.00000E+00         0.00000E+00         0.00000E+00
    0.12434E-02        -0.71927E-03         0.00000E+00
    0.12236E-02        -0.70132E-03         0.00000E+00
    0.12036E-02        -0.68338E-03         0.00000E+00
    0.11836E-02        -0.66546E-03         0.00000E+00
    0.11635E-02        -0.64758E-03         0.00000E+00
    0.11432E-02        -0.62975E-03         0.00000E+00
    0.11228E-02        -0.61198E-03         0.00000E+00
    0.11023E-02        -0.59428E-03         0.00000E+00
    0.10817E-02        -0.57666E-03         0.00000E+00
    0.10609E-02        -0.55913E-03         0.00000E+00
    0.10400E-02        -0.54169E-03         0.00000E+00
    0.10189E-02        -0.52437E-03         0.00000E+00
    0.99767E-03        -0.50716E-03         0.00000E+00
    0.97625E-03        -0.49008E-03         0.00000E+00
    0.95466E-03        -0.47314E-03         0.00000E+00
    0.93288E-03        -0.45633E-03         0.00000E+00
    0.91091E-03        -0.43968E-03         0.00000E+00
    0.88874E-03        -0.42318E-03         0.00000E+00
    0.86635E-03        -0.40685E-03         0.00000E+00
    0.84375E-03        -0.39069E-03         0.00000E+00
    0.82092E-03        -0.37470E-03         0.00000E+00
    0.79786E-03        -0.35890E-03         0.00000E+00
    0.77457E-03        -0.34328E-03         0.00000E+00
    0.75102E-03        -0.32786E-03         0.00000E+00
    0.72722E-03        -0.31265E-03         0.00000E+00
    0.70315E-03        -0.29763E-03         0.00000E+00
    0.67882E-03        -0.28283E-03         0.00000E+00
    0.65422E-03        -0.26824E-03         0.00000E+00
    0.62933E-03        -0.25387E-03         0.00000E+00
    0.60415E-03        -0.23973E-03         0.00000E+00
    0.57868E-03        -0.22582E-03         0.00000E+00
    0.55291E-03        -0.21213E-03         0.00000E+00
    0.52683E-03        -0.19868E-03         0.00000E+00
    0.50045E-03        -0.18548E-03         0.00000E+00
    0.47374E-03        -0.17251E-03         0.00000E+00
    0.44671E-03        -0.15979E-03         0.00000E+00
    0.41936E-03        -0.14732E-03         0.00000E+00
    0.39167E-03        -0.13510E-03         0.00000E+00
    0.36365E-03        -0.12314E-03         0.00000E+00
    0.33529E-03        -0.11143E-03         0.00000E+00
    0.30658E-03        -0.99978E-04         0.00000E+00
    0.27753E-03        -0.88788E-04         0.00000E+00
    0.24813E-03        -0.77860E-04         0.00000E+00
    0.21837E-03        -0.67195E-04         0.00000E+00
    0.18826E-03        -0.56796E-04         0.00000E+00
    0.15779E-03        -0.46662E-04         0.00000E+00
    0.12696E-03        -0.36794E-04         0.00000E+00
    0.95763E-04        -0.27194E-04         0.00000E+00
    0.64206E-04        -0.17861E-04         0.00000E+00
    0.32285E-04        -0.87967E-05         0.00000E+00
    0.00000E+00         0.00000E+00         0.00000E+00
    0.13402E-02        -0.81892E-03         0.00000E+00
    0.13200E-02        -0.79904E-03         0.00000E+00
    0.12996E-02        -0.77918E-03         0.00000E+00
    0.12790E-02        -0.75935E-03         0.00000E+00
    0.12582E-02        -0.73954E-03         0.00000E+00
    0.12372E-02        -0.71979E-03         0.00000E+00
    0.12160E-02        -0.70009E-03         0.00000E+00
    0.11945E-02        -0.68045E-03         0.00000E+00
    0.11728E-02        -0.66089E-03         0.00000E+00
    0.11509E-02        -0.64142E-03         0.00000E+00
    0.11288E-02        -0.62204E-03         0.00000E+00
    0.11064E-02        -0.60277E-03         0.00000E+00
    0.10838E-02        -0.58361E-03         0.00000E+00
    0.10609E-02        -0.56458E-03         0.00000E+00
    0.10378E-02        -0.54567E-03         0.00000E+00
    0.10145E-02        -0.52690E-03         0.00000E+00
    0.99084E-03        -0.50828E-03         0.00000E+00
    0.96695E-03        -0.48981E-03         0.00000E+00
    0.94279E-03        -0.47149E-03         0.00000E+00
    0.91835E-03        -0.45335E-03         0.00000E+00
    0.89364E-03        -0.43538E-03         0.00000E+00
    0.86863E-03        -0.41759E-03         0.00000E+00
    0.84334E-03        -0.39998E-03         0.00000E+00
    0.81775E-03        -0.38257E-03         0.00000E+00
    0.79186E-03        -0.36535E-03         0.00000E+00
    0.76566E-03        -0.34834E-03         0.00000E+00
    0.73916E-03        -0.33153E-03         0.00000E+00
    0.71233E-03        -0.31493E-03         0.00000E+00
    0.68519E-03        -0.29856E-03         0.00000E+00
    0.65772E-03        -0.28240E-03         0.00000E+00
    0.62992E-03        -0.26647E-03         0.00000E+00
    0.60179E-03        -0.25077E-03         0.00000E+00
    0.57332E-03        -0.23530E-03         0.00000E+00
    0.54452E-03        -0.22007E-03         0.00000E+00
    0.51536E-03        -0.20508E-03         0.00000E+00
    0.48586E-03        -0.19034E-03         0.00000E+00
    0.45601E-03        -0.17584E-03         0.00000E+00
    0.42580E-03        -0.16159E-03         0.00000E+00
    0.39524E-03        -0.14759E-03         0.00000E+00
    0.36432E-03        -0.13385E-03         0.00000E+00
    0.33304E-03        -0.12037E-03         0.00000E+00
    0.30139E-03        -0.10714E-03         0.00000E+00
    0.26938E-03        -0.94177E-04         0.00000E+00
    0.23700E-03        -0.81475E-04         0.00000E+00
    0.20425E-03        -0.69036E-04         0.00000E+00
    0.17113E-03        -0.56862E-04         0.00000E+00
    0.13765E-03        -0.44954E-04         0.00000E+00
    0.10379E-03        -0.33313E-04         0.00000E+00
    0.69563E-04        -0.21940E-04         0.00000E+00
    0.34966E-04        -0.10836E-04         0.00000E+00
    0.00000E+00         0.00000E+00         0.00000E+00
    0.14347E-02        -0.92001E-03         0.00000E+00
    0.14142E-02        -0.89819E-03         0.00000E+00
    0.13934E-02        -0.87638E-03         0.00000E+00
    0.13722E-02        -0.85459E-03         0.00000E+00
    0.13508E-02        -0.83284E-03         0.00000E+00
    0.13291E-02        -0.81112E-03         0.00000E+00
    0.13070E-02        -0.78947E-03         0.00000E+00
    0.12847E-02        -0.76787E-03         0.00000E+00
    0.12620E-02        -0.74635E-03         0.00000E+00
    0.12390E-02        -0.72491E-03         0.00000E+00
    0.12157E-02        -0.70356E-03         0.00000E+00
    0.11921E-02        -0.68232E-03         0.00000E+00
    0.11682E-02        -0.66118E-03         0.00000E+00
    0.11440E-02        -0.64016E-03         0.00000E+00
    0.11194E-02        -0.61926E-03         0.00000E+00
    0.10946E-02        -0.59850E-03         0.00000E+00
    0.10694E-02        -0.57788E-03         0.00000E+00
    0.10438E-02        -0.55741E-03         0.00000E+00
    0.10180E-02        -0.53709E-03         0.00000E+00
    0.99177E-03        -0.51694E-03         0.00000E+00
    0.96523E-03        -0.49695E-03         0.00000E+00
    0.93836E-03        -0.47714E-03         0.00000E+00
    0.91114E-03        -0.45751E-03         0.00000E+00
    0.88358E-03        -0.43807E-03         0.00000E+00
    0.85567E-03        -0.41883E-03         0.00000E+00
    0.82741E-03        -0.39978E-03         0.00000E+00
    0.79879E-03        -0.38093E-03         0.00000E+00
    0.76981E-03        -0.36230E-03         0.00000E+00
    0.74047E-03        -0.34388E-03         0.00000E+00
    0.71077E-03        -0.32568E-03         0.00000E+00
    0.68070E-03        -0.30770E-03         0.00000E+00
    0.65026E-03        -0.28995E-03         0.00000E+00
    0.61946E-03        -0.27243E-03         0.00000E+00
    0.58828E-03        -0.25514E-03         0.00000E+00
    0.55672E-03        -0.23810E-03         0.00000E+00
    0.52479E-03        -0.22129E-03         0.00000E+00
    0.49248E-03        -0.20473E-03         0.00000E+00
    0.45980E-03        -0.18842E-03         0.00000E+00
    0.42673E-03        -0.17236E-03         0.00000E+00
    0.39328E-03        -0.15656E-03         0.00000E+00
    0.35944E-03        -0.14101E-03         0.00000E+00
    0.32522E-03        -0.12571E-03         0.00000E+00
    0.29062E-03        -0.11068E-03         0.00000E+00
    0.25564E-03        -0.95914E-04         0.00000E+00
    0.22026E-03        -0.81410E-04         0.00000E+00
    0.18451E-03        -0.67170E-04         0.00000E+00
    0.14837E-03        -0.53198E-04         0.00000E+00
    0.11185E-03        -0.39494E-04         0.00000E+00
    0.74947E-04        -0.26059E-04         0.00000E+00
    0.37663E-04        -0.12894E-04         0.00000E+00
    0.00000E+00         0.00000E+00         0.00000E+00
    0.15282E-02        -0.10226E-02         0.00000E+00
    0.15073E-02        -0.99876E-03         0.00000E+00
    0.14860E-02        -0.97497E-03         0.00000E+00
    0.14644E-02        -0.95119E-03         0.00000E+00
    0.14423E-02        -0.92745E-03         0.00000E+00
    0.14199E-02        -0.90375E-03         0.00000E+00
    0.13970E-02        -0.88010E-03         0.00000E+00
    0.13738E-02        -0.85650E-03         0.00000E+00
    0.13501E-02        -0.83298E-03         0.00000E+00
    0.13261E-02        -0.80954E-03         0.00000E+00
    0.13017E-02        -0.78619E-03         0.00000E+00
    0.12769E-02        -0.76293E-03         0.00000E+00
    0.12518E-02        -0.73978E-03         0.00000E+00
    0.12262E-02        -0.71674E-03         0.00000E+00
    0.12002E-02        -0.69382E-03         0.00000E+00
    0.11739E-02        -0.67103E-03         0.00000E+00
    0.11472E-02        -0.64838E-03         0.00000E+00
    0.11200E-02        -0.62588E-03         0.00000E+00
    0.10925E-02        -0.60352E-03         0.00000E+00
    0.10646E-02        -0.58132E-03         0.00000E+00
    0.10363E-02        -0.55929E-03         0.00000E+00
    0.10076E-02        -0.53743E-03         0.00000E+00
    0.97853E-03        -0.51575E-03         0.00000E+00
    0.94904E-03        -0.49425E-03         0.00000E+00
    0.91915E-03        -0.47294E-03         0.00000E+00
    0.88886E-03        -0.45183E-03         0.00000E+00
    0.85817E-03        -0.43092E-03         0.00000E+00
    0.82708E-03        -0.41021E-03         0.00000E+00
    0.79558E-03        -0.38972E-03         0.00000E+00
    0.76368E-03        -0.36944E-03         0.00000E+00
    0.73138E-03        -0.34939E-03         0.00000E+00
    0.69867E-03        -0.32955E-03         0.00000E+00
    0.66556E-03        -0.30995E-03         0.00000E+00
    0.63203E-03        -0.29058E-03         0.00000E+00
    0.59810E-03        -0.27145E-03         0.00000E+00
    0.56377E-03        -0.25256E-03         0.00000E+00
    0.52902E-03        -0.23391E-03         0.00000E+00
    0.49387E-03        -0.21551E-03         0.00000E+00
    0.45831E-03        -0.19736E-03         0.00000E+00
    0.42234E-03        -0.17947E-03         0.00000E+00
    0.38596E-03        -0.16183E-03         0.00000E+00
    0.34918E-03        -0.14445E-03         0.00000E+00
    0.31199E-03        -0.12733E-03         0.00000E+00
    0.27439E-03        -0.11047E-03         0.00000E+00
    0.23640E-03        -0.93880E-04         0.00000E+00
    0.19799E-03        -0.77556E-04         0.00000E+00
    0.15919E-03        -0.61501E-04         0.00000E+00
    0.11999E-03        -0.45717E-04         0.00000E+00
    0.80386E-04        -0.30204E-04         0.00000E+00
    0.40390E-04        -0.14965E-04         0.00000E+00
    0.00000E+00         0.00000E+00         0.00000E+00
    0.16216E-02        -0.11268E-02         0.00000E+00
    0.16004E-02        -0.11009E-02         0.00000E+00
    0.15786E-02        -0.10751E-02         0.00000E+00
    0.15564E-02        -0.10493E-02         0.00000E+00
    0.15337E-02        -0.10235E-02         0.00000E+00
    0.15105E-02        -0.99777E-03         0.00000E+00
    0.14869E-02        -0.97208E-03         0.00000E+00
    0.14627E-02        -0.94645E-03         0.00000E+00
    0.14382E-02        -0.92088E-03         0.00000E+00
    0.14131E-02        -0.89539E-03         0.00000E+00
    0.13876E-02        -0.86999E-03         0.00000E+00
    0.13616E-02        -0.84468E-03         0.00000E+00
    0.13352E-02        -0.81947E-03         0.00000E+00
    0.13083E-02        -0.79437E-03         0.00000E+00
    0.12810E-02        -0.76939E-03         0.00000E+00
    0.12532E-02        -0.74454E-03         0.00000E+00
    0.12249E-02        -0.71982E-03         0.00000E+00
    0.11962E-02        -0.69523E-03         0.00000E+00
    0.11671E-02        -0.67080E-03         0.00000E+00
    0.11375E-02        -0.64652E-03         0.00000E+00
    0.11074E-02        -0.62241E-03         0.00000E+00
    0.10770E-02        -0.59846E-03         0.00000E+00
    0.10460E-02        -0.57469E-03         0.00000E+00
    0.10146E-02        -0.55110E-03         0.00000E+00
    0.98276E-03        -0.52769E-03         0.00000E+00
    0.95047E-03        -0.50448E-03         0.00000E+00
    0.91773E-03        -0.48147E-03         0.00000E+00
    0.88454E-03        -0.45866E-03         0.00000E+00
    0.85091E-03        -0.43606E-03         0.00000E+00
    0.81683E-03        -0.41367E-03         0.00000E+00
    0.78230E-03        -0.39151E-03         0.00000E+00
    0.74733E-03        -0.36956E-03         0.00000E+00
    0.71192E-03        -0.34785E-03         0.00000E+00
    0.67606E-03        -0.32636E-03         0.00000E+00
    0.63977E-03        -0.30512E-03         0.00000E+00
    0.60303E-03        -0.28411E-03         0.00000E+00
    0.56585E-03        -0.26335E-03         0.00000E+00
    0.52823E-03        -0.24284E-03         0.00000E+00
    0.49017E-03        -0.22257E-03         0.00000E+00
    0.45168E-03        -0.20256E-03         0.00000E+00
    0.41275E-03        -0.18281E-03         0.00000E+00
    0.37339E-03        -0.16332E-03         0.00000E+00
    0.33360E-03        -0.14409E-03         0.00000E+00
    0.29337E-03        -0.12513E-03         0.00000E+00
    0.25273E-03        -0.10643E-03         0.00000E+00
    0.21165E-03        -0.88010E-04         0.00000E+00
    0.17016E-03        -0.69856E-04         0.00000E+00
    0.12824E-03        -0.51977E-04         0.00000E+00
    0.85906E-04        -0.34373E-04         0.00000E+00
    0.43159E-04        -0.17047E-04         0.00000E+00
    0.00000E+00         0.00000E+00         0.00000E+00
    0.17161E-02        -0.12328E-02         0.00000E+00
    0.16944E-02        -0.12049E-02         0.00000E+00
    0.16721E-02        -0.11770E-02         0.00000E+00
    0.16493E-02        -0.11491E-02         0.00000E+00
    0.16259E-02        -0.11212E-02         0.00000E+00
    0.16019E-02        -0.10934E-02         0.00000E+00
    0.15774E-02        -0.10656E-02         0.00000E+00
    0.15524E-02        -0.10379E-02         0.00000E+00
    0.15268E-02        -0.10102E-02         0.00000E+00
    0.15007E-02        -0.98264E-03         0.00000E+00
    0.14741E-02        -0.95514E-03         0.00000E+00
    0.14469E-02        -0.92772E-03         0.00000E+00
    0.14193E-02        -0.90041E-03         0.00000E+00
    0.13910E-02        -0.87320E-03         0.00000E+00
    0.13623E-02        -0.84611E-03         0.00000E+00
    0.13331E-02        -0.81914E-03         0.00000E+00
    0.13033E-02        -0.79230E-03         0.00000E+00
    0.12730E-02        -0.76560E-03         0.00000E+00
    0.12423E-02        -0.73904E-03         0.00000E+00
    0.12110E-02        -0.71264E-03         0.00000E+00
    0.11792E-02        -0.68639E-03         0.00000E+00
    0.11469E-02        -0.66031E-03         0.00000E+00
    0.11141E-02        -0.63441E-03         0.00000E+00
    0.10808E-02        -0.60868E-03         0.00000E+00
    0.10470E-02        -0.58314E-03         0.00000E+00
    0.10127E-02        -0.55779E-03         0.00000E+00
    0.97787E-03        -0.53264E-03         0.00000E+00
    0.94259E-03        -0.50769E-03         0.00000E+00
    0.90681E-03        -0.48294E-03         0.00000E+00
    0.87055E-03        -0.45841E-03         0.00000E+00
    0.83379E-03        -0.43410E-03         0.00000E+00
    0.79656E-03        -0.41001E-03         0.00000E+00
    0.75884E-03        -0.38615E-03         0.00000E+00
    0.72064E-03        -0.36252E-03         0.00000E+00
    0.68196E-03        -0.33913E-03         0.00000E+00
    0.64280E-03        -0.31598E-03         0.00000E+00
    0.60317E-03        -0.29308E-03         0.00000E+00
    0.56307E-03        -0.27042E-03         0.00000E+00
    0.52249E-03        -0.24802E-03         0.00000E+00
    0.48145E-03        -0.22587E-03         0.00000E+00
    0.43995E-03        -0.20398E-03         0.00000E+00
    0.39798E-03        -0.18236E-03         0.00000E+00
    0.35555E-03        -0.16100E-03         0.00000E+00
    0.31267E-03        -0.13991E-03         0.00000E+00
    0.26934E-03        -0.11909E-03         0.00000E+00
    0.22555E-03        -0.98540E-04         0.00000E+00
    0.18132E-03        -0.78271E-04         0.00000E+00
    0.13665E-03        -0.58280E-04         0.00000E+00
    0.91531E-04        -0.38570E-04         0.00000E+00
    0.45982E-04        -0.19143E-04         0.00000E+00
    0.00000E+00         0.00000E+00         0.00000E+00
    0.18123E-02        -0.13411E-02         0.00000E+00
    0.17901E-02        -0.13111E-02         0.00000E+00
    0.17672E-02        -0.12810E-02         0.00000E+00
    0.17437E-02        -0.12509E-02         0.00000E+00
    0.17196E-02        -0.12209E-02         0.00000E+00
    0.16949E-02        -0.11909E-02         0.00000E+00
    0.16695E-02        -0.11610E-02         0.00000E+00
    0.16435E-02        -0.11311E-02         0.00000E+00
    0.16169E-02        -0.11013E-02         0.00000E+00
    0.15897E-02        -0.10715E-02         0.00000E+00
    0.15619E-02        -0.10419E-02         0.00000E+00
    0.15335E-02        -0.10123E-02         0.00000E+00
    0.15046E-02        -0.98281E-03         0.00000E+00
    0.14750E-02        -0.95344E-03         0.00000E+00
    0.14449E-02        -0.92418E-03         0.00000E+00
    0.14141E-02        -0.89503E-03         0.00000E+00
    0.13828E-02        -0.86602E-03         0.00000E+00
    0.13510E-02        -0.83715E-03         0.00000E+00
    0.13185E-02        -0.80841E-03         0.00000E+00
    0.12855E-02        -0.77983E-03         0.00000E+00
    0.12520E-02        -0.75141E-03         0.00000E+00
    0.12178E-02        -0.72315E-03         0.00000E+00
    0.11832E-02        -0.69506E-03         0.00000E+00
    0.11479E-02        -0.66715E-03         0.00000E+00
    0.11122E-02        -0.63942E-03         0.00000E+00
    0.10758E-02        -0.61189E-03         0.00000E+00
    0.10390E-02        -0.58455E-03         0.00000E+00
    0.10016E-02        -0.55741E-03         0.00000E+00
    0.96364E-03        -0.53048E-03         0.00000E+00
    0.92517E-03        -0.50377E-03         0.00000E+00
    0.88616E-03        -0.47727E-03         0.00000E+00
    0.84663E-03        -0.45100E-03         0.00000E+00
    0.80658E-03        -0.42495E-03         0.00000E+00
    0.76601E-03        -0.39914E-03         0.00000E+00
    0.72492E-03        -0.37357E-03         0.00000E+00
    0.68331E-03        -0.34824E-03         0.00000E+00
    0.64119E-03        -0.32315E-03         0.00000E+00
    0.59857E-03        -0.29832E-03         0.00000E+00
    0.55544E-03        -0.27375E-03         0.00000E+00
    0.51181E-03        -0.24943E-03         0.00000E+00
    0.46769E-03        -0.22538E-03         0.00000E+00
    0.42307E-03        -0.20159E-03         0.00000E+00
    0.37797E-03        -0.17807E-03         0.00000E+00
    0.33238E-03        -0.15483E-03         0.00000E+00
    0.28630E-03        -0.13186E-03         0.00000E+00
    0.23975E-03        -0.10917E-03         0.00000E+00
    0.19273E-03        -0.86761E-04         0.00000E+00
    0.14524E-03        -0.64638E-04         0.00000E+00
    0.97285E-04        -0.42802E-04         0.00000E+00
    0.48870E-04        -0.21255E-04         0.00000E+00
    0.00000E+00         0.00000E+00         0.00000E+00
    0.19112E-02        -0.14520E-02         0.00000E+00
    0.18884E-02        -0.14197E-02         0.00000E+00
    0.18649E-02        -0.13874E-02         0.00000E+00
    0.18406E-02        -0.13552E-02         0.00000E+00
    0.18157E-02        -0.13229E-02         0.00000E+00
    0.17900E-02        -0.12907E-02         0.00000E+00
    0.17637E-02        -0.12585E-02         0.00000E+00
    0.17367E-02        -0.12264E-02         0.00000E+00
    0.17091E-02        -0.11944E-02         0.00000E+00
    0.16807E-02        -0.11624E-02         0.00000E+00
    0.16517E-02        -0.11305E-02         0.00000E+00
    0.16221E-02        -0.10987E-02         0.00000E+00
    0.15918E-02        -0.10670E-02         0.00000E+00
    0.15608E-02        -0.10354E-02         0.00000E+00
    0.15292E-02        -0.10039E-02         0.00000E+00
    0.14970E-02        -0.97248E-03         0.00000E+00
    0.14641E-02        -0.94123E-03         0.00000E+00
    0.14306E-02        -0.91012E-03         0.00000E+00
    0.13964E-02        -0.87915E-03         0.00000E+00
    0.13617E-02        -0.84832E-03         0.00000E+00
    0.13263E-02        -0.81766E-03         0.00000E+00
    0.12903E-02        -0.78716E-03         0.00000E+00
    0.12538E-02        -0.75683E-03         0.00000E+00
    0.12166E-02        -0.72668E-03         0.00000E+00
    0.11788E-02        -0.69672E-03         0.00000E+00
    0.11404E-02        -0.66694E-03         0.00000E+00
    0.11014E-02        -0.63736E-03         0.00000E+00
    0.10619E-02        -0.60799E-03         0.00000E+00
    0.10217E-02        -0.57882E-03         0.00000E+00
    0.98100E-03        -0.54987E-03         0.00000E+00
    0.93971E-03        -0.52114E-03         0.00000E+00
    0.89784E-03        -0.49264E-03         0.00000E+00
    0.85541E-03        -0.46436E-03         0.00000E+00
    0.81242E-03        -0.43632E-03         0.00000E+00
    0.76887E-03        -0.40853E-03         0.00000E+00
    0.72477E-03        -0.38097E-03         0.00000E+00
    0.68012E-03        -0.35367E-03         0.00000E+00
    0.63492E-03        -0.32663E-03         0.00000E+00
    0.58919E-03        -0.29984E-03         0.00000E+00
    0.54292E-03        -0.27332E-03         0.00000E+00
    0.49612E-03        -0.24706E-03         0.00000E+00
    0.44879E-03        -0.22108E-03         0.00000E+00
    0.40094E-03        -0.19537E-03         0.00000E+00
    0.35258E-03        -0.16994E-03         0.00000E+00
    0.30371E-03        -0.14479E-03         0.00000E+00
    0.25432E-03        -0.11993E-03         0.00000E+00
    0.20444E-03        -0.95353E-04         0.00000E+00
    0.15406E-03        -0.71071E-04         0.00000E+00
    0.10319E-03        -0.47082E-04         0.00000E+00
    0.51836E-04        -0.23391E-04         0.00000E+00
    0.00000E+00         0.00000E+00         0.00000E+00
    0.20134E-02        -0.15659E-02         0.00000E+00
    0.19899E-02        -0.15313E-02         0.00000E+00
    0.19656E-02        -0.14967E-02         0.00000E+00
    0.19405E-02        -0.14621E-02         0.00000E+00
    0.19147E-02        -0.14276E-02         0.00000E+00
    0.18881E-02        -0.13931E-02         0.00000E+00
    0.18608E-02        -0.13586E-02         0.00000E+00
    0.18327E-02        -0.13242E-02         0.00000E+00
    0.18039E-02        -0.12898E-02         0.00000E+00
    0.17744E-02        -0.12555E-02         0.00000E+00
    0.17441E-02        -0.12213E-02         0.00000E+00
    0.17131E-02        -0.11872E-02         0.00000E+00
    0.16814E-02        -0.11532E-02         0.00000E+00
    0.16490E-02        -0.11193E-02         0.00000E+00
    0.16159E-02        -0.10855E-02         0.00000E+00
    0.15820E-02        -0.10518E-02         0.00000E+00
    0.15475E-02        -0.10182E-02         0.00000E+00
    0.15123E-02        -0.98478E-03         0.00000E+00
    0.14765E-02        -0.95150E-03         0.00000E+00
    0.14399E-02        -0.91837E-03         0.00000E+00
    0.14027E-02        -0.88540E-03         0.00000E+00
    0.13648E-02        -0.85259E-03         0.00000E+00
    0.13263E-02        -0.81996E-03         0.00000E+00
    0.12871E-02        -0.78750E-03         0.00000E+00
    0.12472E-02        -0.75523E-03         0.00000E+00
    0.12067E-02        -0.72316E-03         0.00000E+00
    0.11656E-02        -0.69128E-03         0.00000E+00
    0.11238E-02        -0.65961E-03         0.00000E+00
    0.10814E-02        -0.62814E-03         0.00000E+00
    0.10384E-02        -0.59690E-03         0.00000E+00
    0.99471E-03        -0.56588E-03         0.00000E+00
    0.95046E-03        -0.53509E-03         0.00000E+00
    0.90559E-03        -0.50453E-03         0.00000E+00
    0.86012E-03        -0.47421E-03         0.00000E+00
    0.81405E-03        -0.44414E-03         0.00000E+00
    0.76738E-03        -0.41431E-03         0.00000E+00
    0.72013E-03        -0.38474E-03         0.00000E+00
    0.67230E-03        -0.35544E-03         0.00000E+00
    0.62389E-03        -0.32639E-03         0.00000E+00
    0.57491E-03        -0.29762E-03         0.00000E+00
    0.52536E-03        -0.26912E-03         0.00000E+00
    0.47525E-03        -0.24089E-03         0.00000E+00
    0.42459E-03        -0.21295E-03         0.00000E+00
    0.37338E-03        -0.18530E-03         0.00000E+00
    0.32162E-03        -0.15793E-03         0.00000E+00
    0.26933E-03        -0.13086E-03         0.00000E+00
    0.21650E-03        -0.10408E-03         0.00000E+00
    0.16315E-03        -0.77601E-04         0.00000E+00
    0.10928E-03        -0.51427E-04         0.00000E+00
    0.54893E-04        -0.25559E-04         0.00000E+00
    0.00000E+00         0.00000E+00         0.00000E+00
    0.21195E-02        -0.16833E-02         0.00000E+00
    0.20952E-02        -0.16463E-02         0.00000E+00
    0.20701E-02        -0.16093E-02         0.00000E+00
    0.20441E-02        -0.15723E-02         0.00000E+00
    0.20173E-02        -0.15354E-02         0.00000E+00
    0.19897E-02        -0.14985E-02         0.00000E+00
    0.19613E-02        -0.14616E-02         0.00000E+00
    0.19321E-02        -0.14248E-02         0.00000E+00
    0.19020E-02        -0.13880E-02         0.00000E+00
    0.18712E-02        -0.13513E-02         0.00000E+00
    0.18396E-02        -0.13147E-02         0.00000E+00
    0.18072E-02        -0.12782E-02         0.00000E+00
    0.17740E-02        -0.12418E-02         0.00000E+00
    0.17401E-02        -0.12055E-02         0.00000E+00
    0.17054E-02        -0.11693E-02         0.00000E+00
    0.16699E-02        -0.11332E-02         0.00000E+00
    0.16337E-02        -0.10972E-02         0.00000E+00
    0.15968E-02        -0.10614E-02         0.00000E+00
    0.15591E-02        -0.10258E-02         0.00000E+00
    0.15206E-02        -0.99025E-03         0.00000E+00
    0.14815E-02        -0.95489E-03         0.00000E+00
    0.14416E-02        -0.91970E-03         0.00000E+00
    0.14011E-02        -0.88468E-03         0.00000E+00
    0.13598E-02        -0.84985E-03         0.00000E+00
    0.13178E-02        -0.81520E-03         0.00000E+00
    0.12751E-02        -0.78075E-03         0.00000E+00
    0.12317E-02        -0.74650E-03         0.00000E+00
    0.11877E-02        -0.71246E-03         0.00000E+00
    0.11429E-02        -0.67864E-03         0.00000E+00
    0.10975E-02        -0.64503E-03         0.00000E+00
    0.10515E-02        -0.61166E-03         0.00000E+00
    0.10047E-02        -0.57851E-03         0.00000E+00
    0.95736E-03        -0.54561E-03         0.00000E+00
    0.90933E-03        -0.51295E-03         0.00000E+00
    0.86066E-03        -0.48054E-03         0.00000E+00
    0.81136E-03        -0.44838E-03         0.00000E+00
    0.76143E-03        -0.41649E-03         0.00000E+00
    0.71088E-03        -0.38486E-03         0.00000E+00
    0.65971E-03        -0.35351E-03         0.00000E+00
    0.60793E-03        -0.32243E-03         0.00000E+00
    0.55555E-03        -0.29163E-03         0.00000E+00
    0.50257E-03        -0.26111E-03         0.00000E+00
    0.44900E-03        -0.23089E-03         0.00000E+00
    0.39485E-03        -0.20096E-03         0.00000E+00
    0.34012E-03        -0.17133E-03         0.00000E+00
    0.28482E-03        -0.14200E-03         0.00000E+00
    0.22896E-03        -0.11297E-03         0.00000E+00
    0.17254E-03        -0.84255E-04         0.00000E+00
    0.11557E-03        -0.55852E-04         0.00000E+00
    0.58052E-04        -0.27766E-04         0.00000E+00
    0.00000E+00         0.00000E+00         0.00000E+00
    0.22301E-02        -0.18046E-02         0.00000E+00
    0.22050E-02        -0.17651E-02         0.00000E+00
    0.21789E-02        -0.17256E-02         0.00000E+00
    0.21520E-02        -0.16861E-02         0.00000E+00
    0.21241E-02        -0.16467E-02         0.00000E+00
    0.20954E-02        -0.16073E-02         0.00000E+00
    0.20658E-02        -0.15679E-02         0.00000E+00
    0.20353E-02        -0.15286E-02         0.00000E+00
    0.20040E-02        -0.14893E-02         0.00000E+00
    0.19718E-02        -0.14502E-02         0.00000E+00
    0.19388E-02        -0.14111E-02         0.00000E+00
    0.19049E-02        -0.13721E-02         0.00000E+00
    0.18701E-02        -0.13332E-02         0.00000E+00
    0.18346E-02        -0.12944E-02         0.00000E+00
    0.17982E-02        -0.12557E-02         0.00000E+00
    0.17610E-02        -0.12171E-02         0.00000E+00
    0.17230E-02        -0.11787E-02         0.00000E+00
    0.16843E-02        -0.11404E-02         0.00000E+00
    0.16447E-02        -0.11022E-02         0.00000E+00
    0.16043E-02        -0.10642E-02         0.00000E+00
    0.15631E-02        -0.10264E-02         0.00000E+00
    0.15212E-02        -0.98876E-03         0.00000E+00
    0.14785E-02        -0.95128E-03         0.00000E+00
    0.14351E-02        -0.91398E-03         0.00000E+00
    0.13909E-02        -0.87688E-03         0.00000E+00
    0.13459E-02        -0.83997E-03         0.00000E+00
    0.13002E-02        -0.80327E-03         0.00000E+00
    0.12538E-02        -0.76678E-03         0.00000E+00
    0.12067E-02        -0.73052E-03         0.00000E+00
    0.11588E-02        -0.69448E-03         0.00000E+00
    0.11102E-02        -0.65867E-03         0.00000E+00
    0.10609E-02        -0.62310E-03         0.00000E+00
    0.10110E-02        -0.58777E-03         0.00000E+00
    0.96029E-03        -0.55270E-03         0.00000E+00
    0.90893E-03        -0.51789E-03         0.00000E+00
    0.85690E-03        -0.48333E-03         0.00000E+00
    0.80419E-03        -0.44905E-03         0.00000E+00
    0.75083E-03        -0.41503E-03         0.00000E+00
    0.69680E-03        -0.38130E-03         0.00000E+00
    0.64213E-03        -0.34785E-03         0.00000E+00
    0.58682E-03        -0.31469E-03         0.00000E+00
    0.53087E-03        -0.28183E-03         0.00000E+00
    0.47430E-03        -0.24926E-03         0.00000E+00
    0.41710E-03        -0.21700E-03         0.00000E+00
    0.35929E-03        -0.18504E-03         0.00000E+00
    0.30088E-03        -0.15340E-03         0.00000E+00
    0.24187E-03        -0.12207E-03         0.00000E+00
    0.18227E-03        -0.91061E-04         0.00000E+00
    0.12208E-03        -0.60378E-04         0.00000E+00
    0.61326E-04        -0.30023E-04         0.00000E+00
    0.00000E+00         0.00000E+00         0.00000E+00
    0.23458E-02        -0.19303E-02         0.00000E+00
    0.23197E-02        -0.18882E-02         0.00000E+00
    0.22926E-02        -0.18461E-02         0.00000E+00
    0.22646E-02        -0.18040E-02         0.00000E+00
    0.22356E-02        -0.17620E-02         0.00000E+00
    0.22057E-02        -0.17199E-02         0.00000E+00
    0.21748E-02        -0.16780E-02         0.00000E+00
    0.21430E-02        -0.16361E-02         0.00000E+00
    0.21103E-02        -0.15942E-02         0.00000E+00
    0.20766E-02        -0.15525E-02         0.00000E+00
    0.20420E-02        -0.15108E-02         0.00000E+00
    0.20066E-02        -0.14692E-02         0.00000E+00
    0.19702E-02        -0.14277E-02         0.00000E+00
    0.19330E-02        -0.13863E-02         0.00000E+00
    0.18948E-02        -0.13450E-02         0.00000E+00
    0.18558E-02        -0.13038E-02         0.00000E+00
    0.18160E-02        -0.12628E-02         0.00000E+00
    0.17753E-02        -0.12220E-02         0.00000E+00
    0.17337E-02        -0.11812E-02         0.00000E+00
    0.16913E-02        -0.11407E-02         0.00000E+00
    0.16480E-02        -0.11003E-02         0.00000E+00
    0.16039E-02        -0.10601E-02         0.00000E+00
    0.15591E-02        -0.10200E-02         0.00000E+00
    0.15133E-02        -0.98016E-03         0.00000E+00
    0.14668E-02        -0.94050E-03         0.00000E+00
    0.14195E-02        -0.90105E-03         0.00000E+00
    0.13714E-02        -0.86181E-03         0.00000E+00
    0.13225E-02        -0.82279E-03         0.00000E+00
    0.12729E-02        -0.78400E-03         0.00000E+00
    0.12224E-02        -0.74543E-03         0.00000E+00
    0.11713E-02        -0.70711E-03         0.00000E+00
    0.11193E-02        -0.66903E-03         0.00000E+00
    0.10666E-02        -0.63121E-03         0.00000E+00
    0.10132E-02        -0.59364E-03         0.00000E+00
    0.95906E-03        -0.55634E-03         0.00000E+00
    0.90419E-03        -0.51930E-03         0.00000E+00
    0.84861E-03        -0.48255E-03         0.00000E+00
    0.79232E-03        -0.44608E-03         0.00000E+00
    0.73533E-03        -0.40989E-03         0.00000E+00
    0.67766E-03        -0.37400E-03         0.00000E+00
    0.61930E-03        -0.33841E-03         0.00000E+00
    0.56027E-03        -0.30312E-03         0.00000E+00
    0.50057E-03        -0.26814E-03         0.00000E+00
    0.44021E-03        -0.23347E-03         0.00000E+00
    0.37921E-03        -0.19913E-03         0.00000E+00
    0.31756E-03        -0.16511E-03         0.00000E+00
    0.25528E-03        -0.13141E-03         0.00000E+00
    0.19238E-03        -0.98049E-04         0.00000E+00
    0.12886E-03        -0.65024E-04         0.00000E+00
    0.64728E-04        -0.32339E-04         0.00000E+00
    0.00000E+00         0.00000E+00         0.00000E+00
    0.24671E-02        -0.20609E-02         0.00000E+00
    0.24399E-02        -0.20160E-02         0.00000E+00
    0.24117E-02        -0.19712E-02         0.00000E+00
    0.23825E-02        -0.19264E-02         0.00000E+00
    0.23523E-02        -0.18817E-02         0.00000E+00
    0.23211E-02        -0.18369E-02         0.00000E+00
    0.22888E-02        -0.17922E-02         0.00000E+00
    0.22556E-02        -0.17476E-02         0.00000E+00
    0.22213E-02        -0.17031E-02         0.00000E+00
    0.21861E-02        -0.16586E-02         0.00000E+00
    0.21499E-02        -0.16142E-02         0.00000E+00
    0.21128E-02        -0.15699E-02         0.00000E+00
    0.20747E-02        -0.15257E-02         0.00000E+00
    0.20357E-02        -0.14816E-02         0.00000E+00
    0.19957E-02        -0.14376E-02         0.00000E+00
    0.19548E-02        -0.13938E-02         0.00000E+00
    0.19129E-02        -0.13500E-02         0.00000E+00
    0.18702E-02        -0.13065E-02         0.00000E+00
    0.18265E-02        -0.12631E-02         0.00000E+00
    0.17820E-02        -0.12198E-02         0.00000E+00
    0.17365E-02        -0.11768E-02         0.00000E+00
    0.16902E-02        -0.11339E-02         0.00000E+00
    0.16430E-02        -0.10912E-02         0.00000E+00
    0.15949E-02        -0.10487E-02         0.00000E+00
    0.15460E-02        -0.10064E-02         0.00000E+00
    0.14962E-02        -0.96426E-03         0.00000E+00
    0.14456E-02        -0.92238E-03         0.00000E+00
    0.13941E-02        -0.88072E-03         0.00000E+00
    0.13418E-02        -0.83930E-03         0.00000E+00
    0.12887E-02        -0.79812E-03         0.00000E+00
    0.12348E-02        -0.75719E-03         0.00000E+00
    0.11801E-02        -0.71651E-03         0.00000E+00
    0.11246E-02        -0.67609E-03         0.00000E+00
    0.10683E-02        -0.63594E-03         0.00000E+00
    0.10113E-02        -0.59606E-03         0.00000E+00
    0.95345E-03        -0.55646E-03         0.00000E+00
    0.89486E-03        -0.51714E-03         0.00000E+00
    0.83553E-03        -0.47812E-03         0.00000E+00
    0.77546E-03        -0.43940E-03         0.00000E+00
    0.71465E-03        -0.40098E-03         0.00000E+00
    0.65312E-03        -0.36288E-03         0.00000E+00
    0.59088E-03        -0.32508E-03         0.00000E+00
    0.52793E-03        -0.28761E-03         0.00000E+00
    0.46428E-03        -0.25047E-03         0.00000E+00
    0.39995E-03        -0.21365E-03         0.00000E+00
    0.33493E-03        -0.17718E-03         0.00000E+00
    0.26925E-03        -0.14104E-03         0.00000E+00
    0.20291E-03        -0.10525E-03         0.00000E+00
    0.13591E-03        -0.69810E-04         0.00000E+00
    0.68272E-04        -0.34725E-04         0.00000E+00
    0.00000E+00         0.00000E+00         0.00000E+00
    0.25944E-02        -0.21968E-02         0.00000E+00
    0.25661E-02        -0.21491E-02         0.00000E+00
    0.25367E-02        -0.21015E-02         0.00000E+00
    0.25062E-02        -0.20538E-02         0.00000E+00
    0.24746E-02        -0.20062E-02         0.00000E+00
    0.24420E-02        -0.19587E-02         0.00000E+00
    0.24083E-02        -0.19111E-02         0.00000E+00
    0.23735E-02        -0.18637E-02         0.00000E+00
    0.23377E-02        -0.18163E-02         0.00000E+00
    0.23008E-02        -0.17689E-02         0.00000E+00
    0.22629E-02        -0.17217E-02         0.00000E+00
    0.22240E-02        -0.16746E-02         0.00000E+00
    0.21840E-02        -0.16275E-02         0.00000E+00
    0.21431E-02        -0.15806E-02         0.00000E+00
    0.21011E-02        -0.15338E-02         0.00000E+00
    0.20582E-02        -0.14872E-02         0.00000E+00
    0.20143E-02        -0.14407E-02         0.00000E+00
    0.19694E-02        -0.13943E-02         0.00000E+00
    0.19235E-02        -0.13481E-02         0.00000E+00
    0.18767E-02        -0.13021E-02         0.00000E+00
    0.18290E-02        -0.12562E-02         0.00000E+00
    0.17803E-02        -0.12105E-02         0.00000E+00
    0.17306E-02        -0.11650E-02         0.00000E+00
    0.16801E-02        -0.11198E-02         0.00000E+00
    0.16286E-02        -0.10747E-02         0.00000E+00
    0.15763E-02        -0.10298E-02         0.00000E+00
    0.15230E-02        -0.98521E-03         0.00000E+00
    0.14688E-02        -0.94082E-03         0.00000E+00
    0.14138E-02        -0.89666E-03         0.00000E+00
    0.13579E-02        -0.85276E-03         0.00000E+00
    0.13012E-02        -0.80911E-03         0.00000E+00
    0.12436E-02        -0.76572E-03         0.00000E+00
    0.11851E-02        -0.72261E-03         0.00000E+00
    0.11259E-02        -0.67977E-03         0.00000E+00
    0.10658E-02        -0.63721E-03         0.00000E+00
    0.10048E-02        -0.59494E-03         0.00000E+00
    0.94313E-03        -0.55298E-03         0.00000E+00
    0.88062E-03        -0.51131E-03         0.00000E+00
    0.81732E-03        -0.46996E-03         0.00000E+00
    0.75325E-03        -0.42892E-03         0.00000E+00
    0.68841E-03        -0.38820E-03         0.00000E+00
    0.62281E-03        -0.34782E-03         0.00000E+00
    0.55647E-03        -0.30776E-03         0.00000E+00
    0.48939E-03        -0.26805E-03         0.00000E+00
    0.42158E-03        -0.22868E-03         0.00000E+00
    0.35306E-03        -0.18966E-03         0.00000E+00
    0.28382E-03        -0.15100E-03         0.00000E+00
    0.21389E-03        -0.11269E-03         0.00000E+00
    0.14327E-03        -0.74757E-04         0.00000E+00
    0.71969E-04        -0.37191E-04         0.00000E+00
    0.00000E+00         0.00000E+00         0.00000E+00
    0.27284E-02        -0.23386E-02         0.00000E+00
    0.26988E-02        -0.22880E-02         0.00000E+00
    0.26681E-02        -0.22373E-02         0.00000E+00
    0.26362E-02        -0.21867E-02         0.00000E+00
    0.26031E-02        -0.21361E-02         0.00000E+00
    0.25690E-02        -0.20856E-02         0.00000E+00
    0.25337E-02        -0.20351E-02         0.00000E+00
    0.24972E-02        -0.19846E-02         0.00000E+00
    0.24597E-02        -0.19343E-02         0.00000E+00
    0.24211E-02        -0.18840E-02         0.00000E+00
    0.23813E-02        -0.18338E-02         0.00000E+00
    0.23405E-02        -0.17837E-02         0.00000E+00
    0.22986E-02        -0.17337E-02         0.00000E+00
    0.22557E-02        -0.16838E-02         0.00000E+00
    0.22116E-02        -0.16341E-02         0.00000E+00
    0.21666E-02        -0.15845E-02         0.00000E+00
    0.21205E-02        -0.15351E-02         0.00000E+00
    0.20733E-02        -0.14858E-02         0.00000E+00
    0.20251E-02        -0.14366E-02         0.00000E+00
    0.19759E-02        -0.13877E-02         0.00000E+00
    0.19257E-02        -0.13389E-02         0.00000E+00
    0.18746E-02        -0.12903E-02         0.00000E+00
    0.18224E-02        -0.12419E-02         0.00000E+00
    0.17692E-02        -0.11937E-02         0.00000E+00
    0.17151E-02        -0.11458E-02         0.00000E+00
    0.16600E-02        -0.10981E-02         0.00000E+00
    0.16040E-02        -0.10506E-02         0.00000E+00
    0.15470E-02        -0.10033E-02         0.00000E+00
    0.14891E-02        -0.95631E-03         0.00000E+00
    0.14303E-02        -0.90956E-03         0.00000E+00
    0.13706E-02        -0.86308E-03         0.00000E+00
    0.13099E-02        -0.81688E-03         0.00000E+00
    0.12484E-02        -0.77095E-03         0.00000E+00
    0.11860E-02        -0.72531E-03         0.00000E+00
    0.11227E-02        -0.67997E-03         0.00000E+00
    0.10586E-02        -0.63493E-03         0.00000E+00
    0.99358E-03        -0.59020E-03         0.00000E+00
    0.92775E-03        -0.54578E-03         0.00000E+00
    0.86108E-03        -0.50169E-03         0.00000E+00
    0.79360E-03        -0.45792E-03         0.00000E+00
    0.72530E-03        -0.41450E-03         0.00000E+00
    0.65620E-03        -0.37141E-03         0.00000E+00
    0.58631E-03        -0.32867E-03         0.00000E+00
    0.51564E-03        -0.28629E-03         0.00000E+00
    0.44420E-03        -0.24427E-03         0.00000E+00
    0.37200E-03        -0.20261E-03         0.00000E+00
    0.29906E-03        -0.16132E-03         0.00000E+00
    0.22537E-03        -0.12041E-03         0.00000E+00
    0.15096E-03        -0.79888E-04         0.00000E+00
    0.75834E-04        -0.39748E-04         0.00000E+00
    0.00000E+00         0.00000E+00         0.00000E+00
    0.28693E-02        -0.24868E-02         0.00000E+00
    0.28384E-02        -0.24331E-02         0.00000E+00
    0.28062E-02        -0.23793E-02         0.00000E+00
    0.27728E-02        -0.23255E-02         0.00000E+00
    0.27382E-02        -0.22718E-02         0.00000E+00
    0.27024E-02        -0.22182E-02         0.00000E+00
    0.26654E-02        -0.21646E-02         0.00000E+00
    0.26273E-02        -0.21110E-02         0.00000E+00
    0.25879E-02        -0.20575E-02         0.00000E+00
    0.25474E-02        -0.20041E-02         0.00000E+00
    0.25057E-02        -0.19508E-02         0.00000E+00
    0.24629E-02        -0.18976E-02         0.00000E+00
    0.24189E-02        -0.18445E-02         0.00000E+00
    0.23738E-02        -0.17916E-02         0.00000E+00
    0.23276E-02        -0.17388E-02         0.00000E+00
    0.22802E-02        -0.16861E-02         0.00000E+00
    0.22318E-02        -0.16335E-02         0.00000E+00
    0.21823E-02        -0.15812E-02         0.00000E+00
    0.21317E-02        -0.15290E-02         0.00000E+00
    0.20800E-02        -0.14770E-02         0.00000E+00
    0.20272E-02        -0.14251E-02         0.00000E+00
    0.19734E-02        -0.13735E-02         0.00000E+00
    0.19185E-02        -0.13221E-02         0.00000E+00
    0.18626E-02        -0.12709E-02         0.00000E+00
    0.18057E-02        -0.12199E-02         0.00000E+00
    0.17478E-02        -0.11692E-02         0.00000E+00
    0.16888E-02        -0.11187E-02         0.00000E+00
    0.16289E-02        -0.10685E-02         0.00000E+00
    0.15680E-02        -0.10185E-02         0.00000E+00
    0.15061E-02        -0.96876E-03         0.00000E+00
    0.14432E-02        -0.91932E-03         0.00000E+00
    0.13794E-02        -0.87017E-03         0.00000E+00
    0.13147E-02        -0.82131E-03         0.00000E+00
    0.12490E-02        -0.77275E-03         0.00000E+00
    0.11824E-02        -0.72450E-03         0.00000E+00
    0.11148E-02        -0.67656E-03         0.00000E+00
    0.10464E-02        -0.62895E-03         0.00000E+00
    0.97709E-03        -0.58167E-03         0.00000E+00
    0.90690E-03        -0.53472E-03         0.00000E+00
    0.83583E-03        -0.48811E-03         0.00000E+00
    0.76391E-03        -0.44186E-03         0.00000E+00
    0.69115E-03        -0.39597E-03         0.00000E+00
    0.61754E-03        -0.35043E-03         0.00000E+00
    0.54312E-03        -0.30527E-03         0.00000E+00
    0.46788E-03        -0.26048E-03         0.00000E+00
    0.39183E-03        -0.21608E-03         0.00000E+00
    0.31500E-03        -0.17206E-03         0.00000E+00
    0.23739E-03        -0.12844E-03         0.00000E+00
    0.15901E-03        -0.85222E-04         0.00000E+00
    0.79879E-04        -0.42406E-04         0.00000E+00
    0.00000E+00         0.00000E+00         0.00000E+00
    0.30177E-02        -0.26419E-02         0.00000E+00
    0.29853E-02        -0.25849E-02         0.00000E+00
    0.29516E-02        -0.25278E-02         0.00000E+00
    0.29166E-02        -0.24708E-02         0.00000E+00
    0.28803E-02        -0.24138E-02         0.00000E+00
    0.28428E-02        -0.23569E-02         0.00000E+00
    0.28040E-02        -0.23000E-02         0.00000E+00
    0.27640E-02        -0.22432E-02         0.00000E+00
    0.27227E-02        -0.21864E-02         0.00000E+00
    0.26801E-02        -0.21298E-02         0.00000E+00
    0.26364E-02        -0.20732E-02         0.00000E+00
    0.25914E-02        -0.20168E-02         0.00000E+00
    0.25453E-02        -0.19605E-02         0.00000E+00
    0.24979E-02        -0.19042E-02         0.00000E+00
    0.24493E-02        -0.18482E-02         0.00000E+00
    0.23996E-02        -0.17923E-02         0.00000E+00
    0.23487E-02        -0.17365E-02         0.00000E+00
    0.22967E-02        -0.16809E-02         0.00000E+00
    0.22435E-02        -0.16255E-02         0.00000E+00
    0.21891E-02        -0.15703E-02         0.00000E+00
    0.21337E-02        -0.15153E-02         0.00000E+00
    0.20771E-02        -0.14605E-02         0.00000E+00
    0.20194E-02        -0.14059E-02         0.00000E+00
    0.19606E-02        -0.13515E-02         0.00000E+00
    0.19008E-02        -0.12974E-02         0.00000E+00
    0.18398E-02        -0.12435E-02         0.00000E+00
    0.17778E-02        -0.11899E-02         0.00000E+00
    0.17148E-02        -0.11365E-02         0.00000E+00
    0.16507E-02        -0.10834E-02         0.00000E+00
    0.15856E-02        -0.10306E-02         0.00000E+00
    0.15194E-02        -0.97805E-03         0.00000E+00
    0.14523E-02        -0.92581E-03         0.00000E+00
    0.13841E-02        -0.87389E-03         0.00000E+00
    0.13150E-02        -0.82227E-03         0.00000E+00
    0.12449E-02        -0.77098E-03         0.00000E+00
    0.11738E-02        -0.72002E-03         0.00000E+00
    0.11018E-02        -0.66939E-03         0.00000E+00
    0.10288E-02        -0.61911E-03         0.00000E+00
    0.95492E-03        -0.56918E-03         0.00000E+00
    0.88010E-03        -0.51961E-03         0.00000E+00
    0.80438E-03        -0.47041E-03         0.00000E+00
    0.72777E-03        -0.42158E-03         0.00000E+00
    0.65027E-03        -0.37313E-03         0.00000E+00
    0.57191E-03        -0.32506E-03         0.00000E+00
    0.49268E-03        -0.27739E-03         0.00000E+00
    0.41261E-03        -0.23012E-03         0.00000E+00
    0.33171E-03        -0.18326E-03         0.00000E+00
    0.24999E-03        -0.13681E-03         0.00000E+00
    0.16745E-03        -0.90782E-04         0.00000E+00
    0.84117E-04        -0.45176E-04         0.00000E+00
    0.00000E+00         0.00000E+00         0.00000E+00
    0.31740E-02        -0.28045E-02         0.00000E+00
    0.31400E-02        -0.27440E-02         0.00000E+00
    0.31047E-02        -0.26835E-02         0.00000E+00
    0.30680E-02        -0.26230E-02         0.00000E+00
    0.30299E-02        -0.25626E-02         0.00000E+00
    0.29906E-02        -0.25022E-02         0.00000E+00
    0.29498E-02        -0.24419E-02         0.00000E+00
    0.29078E-02        -0.23817E-02         0.00000E+00
    0.28644E-02        -0.23215E-02         0.00000E+00
    0.28198E-02        -0.22614E-02         0.00000E+00
    0.27738E-02        -0.22014E-02         0.00000E+00
    0.27266E-02        -0.21416E-02         0.00000E+00
    0.26781E-02        -0.20818E-02         0.00000E+00
    0.26283E-02        -0.20222E-02         0.00000E+00
    0.25773E-02        -0.19628E-02         0.00000E+00
    0.25251E-02        -0.19035E-02         0.00000E+00
    0.24716E-02        -0.18443E-02         0.00000E+00
    0.24169E-02        -0.17854E-02         0.00000E+00
    0.23609E-02        -0.17266E-02         0.00000E+00
    0.23038E-02        -0.16680E-02         0.00000E+00
    0.22455E-02        -0.16096E-02         0.00000E+00
    0.21860E-02        -0.15515E-02         0.00000E+00
    0.21254E-02        -0.14936E-02         0.00000E+00
    0.20635E-02        -0.14359E-02         0.00000E+00
    0.20006E-02        -0.13784E-02         0.00000E+00
    0.19365E-02        -0.13212E-02         0.00000E+00
    0.18713E-02        -0.12643E-02         0.00000E+00
    0.18049E-02        -0.12077E-02         0.00000E+00
    0.17375E-02        -0.11513E-02         0.00000E+00
    0.16690E-02        -0.10952E-02         0.00000E+00
    0.15994E-02        -0.10395E-02         0.00000E+00
    0.15287E-02        -0.98401E-03         0.00000E+00
    0.14570E-02        -0.92887E-03         0.00000E+00
    0.13843E-02        -0.87406E-03         0.00000E+00
    0.13105E-02        -0.81958E-03         0.00000E+00
    0.12357E-02        -0.76545E-03         0.00000E+00
    0.11599E-02        -0.71167E-03         0.00000E+00
    0.10831E-02        -0.65826E-03         0.00000E+00
    0.10053E-02        -0.60521E-03         0.00000E+00
    0.92654E-03        -0.55253E-03         0.00000E+00
    0.84684E-03        -0.50024E-03         0.00000E+00
    0.76619E-03        -0.44834E-03         0.00000E+00
    0.68461E-03        -0.39684E-03         0.00000E+00
    0.60211E-03        -0.34574E-03         0.00000E+00
    0.51871E-03        -0.29506E-03         0.00000E+00
    0.43441E-03        -0.24480E-03         0.00000E+00
    0.34924E-03        -0.19496E-03         0.00000E+00
    0.26319E-03        -0.14556E-03         0.00000E+00
    0.17630E-03        -0.96589E-04         0.00000E+00
    0.88563E-04        -0.48069E-04         0.00000E+00
    0.00000E+00         0.00000E+00         0.00000E+00
    0.33387E-02        -0.29750E-02         0.00000E+00
    0.33031E-02        -0.29109E-02         0.00000E+00
    0.32660E-02        -0.28468E-02         0.00000E+00
    0.32274E-02        -0.27827E-02         0.00000E+00
    0.31875E-02        -0.27187E-02         0.00000E+00
    0.31461E-02        -0.26547E-02         0.00000E+00
    0.31033E-02        -0.25907E-02         0.00000E+00
    0.30592E-02        -0.25269E-02         0.00000E+00
    0.30136E-02        -0.24631E-02         0.00000E+00
    0.29667E-02        -0.23995E-02         0.00000E+00
    0.29185E-02        -0.23359E-02         0.00000E+00
    0.28688E-02        -0.22724E-02         0.00000E+00
    0.28178E-02        -0.22091E-02         0.00000E+00
    0.27655E-02        -0.21459E-02         0.00000E+00
    0.27119E-02        -0.20829E-02         0.00000E+00
    0.26570E-02        -0.20200E-02         0.00000E+00
    0.26008E-02        -0.19573E-02         0.00000E+00
    0.25432E-02        -0.18948E-02         0.00000E+00
    0.24844E-02        -0.18325E-02         0.00000E+00
    0.24244E-02        -0.17704E-02         0.00000E+00
    0.23630E-02        -0.17085E-02         0.00000E+00
    0.23005E-02        -0.16469E-02         0.00000E+00
    0.22367E-02        -0.15855E-02         0.00000E+00
    0.21717E-02        -0.15243E-02         0.00000E+00
    0.21054E-02        -0.14634E-02         0.00000E+00
    0.20380E-02        -0.14027E-02         0.00000E+00
    0.19694E-02        -0.13423E-02         0.00000E+00
    0.18996E-02        -0.12823E-02         0.00000E+00
    0.18287E-02        -0.12225E-02         0.00000E+00
    0.17566E-02        -0.11630E-02         0.00000E+00
    0.16834E-02        -0.11038E-02         0.00000E+00
    0.16090E-02        -0.10450E-02         0.00000E+00
    0.15336E-02        -0.98647E-03         0.00000E+00
    0.14570E-02        -0.92830E-03         0.00000E+00
    0.13794E-02        -0.87049E-03         0.00000E+00
    0.13006E-02        -0.81304E-03         0.00000E+00
    0.12209E-02        -0.75595E-03         0.00000E+00
    0.11400E-02        -0.69925E-03         0.00000E+00
    0.10582E-02        -0.64293E-03         0.00000E+00
    0.97529E-03        -0.58700E-03         0.00000E+00
    0.89140E-03        -0.53148E-03         0.00000E+00
    0.80652E-03        -0.47636E-03         0.00000E+00
    0.72065E-03        -0.42167E-03         0.00000E+00
    0.63381E-03        -0.36739E-03         0.00000E+00
    0.54602E-03        -0.31355E-03         0.00000E+00
    0.45729E-03        -0.26016E-03         0.00000E+00
    0.36763E-03        -0.20720E-03         0.00000E+00
    0.27706E-03        -0.15470E-03         0.00000E+00
    0.18559E-03        -0.10267E-03         0.00000E+00
    0.93230E-04        -0.51096E-04         0.00000E+00
    0.00000E+00         0.00000E+00         0.00000E+00
    0.35123E-02        -0.31540E-02         0.00000E+00
    0.34748E-02        -0.30861E-02         0.00000E+00
    0.34359E-02        -0.30182E-02         0.00000E+00
    0.33954E-02        -0.29503E-02         0.00000E+00
    0.33534E-02        -0.28825E-02         0.00000E+00
    0.33099E-02        -0.28147E-02         0.00000E+00
    0.32650E-02        -0.27470E-02         0.00000E+00
    0.32186E-02        -0.26794E-02         0.00000E+00
    0.31707E-02        -0.26118E-02         0.00000E+00
    0.31214E-02        -0.25444E-02         0.00000E+00
    0.30706E-02        -0.24770E-02         0.00000E+00
    0.30185E-02        -0.24098E-02         0.00000E+00
    0.29649E-02        -0.23427E-02         0.00000E+00
    0.29099E-02        -0.22758E-02         0.00000E+00
    0.28535E-02        -0.22090E-02         0.00000E+00
    0.27958E-02        -0.21424E-02         0.00000E+00
    0.27366E-02        -0.20760E-02         0.00000E+00
    0.26761E-02        -0.20097E-02         0.00000E+00
    0.26143E-02        -0.19437E-02         0.00000E+00
    0.25511E-02        -0.18779E-02         0.00000E+00
    0.24866E-02        -0.18123E-02         0.00000E+00
    0.24208E-02        -0.17470E-02         0.00000E+00
    0.23537E-02        -0.16819E-02         0.00000E+00
    0.22853E-02        -0.16170E-02         0.00000E+00
    0.22157E-02        -0.15525E-02         0.00000E+00
    0.21447E-02        -0.14882E-02         0.00000E+00
    0.20726E-02        -0.14242E-02         0.00000E+00
    0.19991E-02        -0.13605E-02         0.00000E+00
    0.19245E-02        -0.12971E-02         0.00000E+00
    0.18487E-02        -0.12340E-02         0.00000E+00
    0.17716E-02        -0.11713E-02         0.00000E+00
    0.16934E-02        -0.11089E-02         0.00000E+00
    0.16140E-02        -0.10469E-02         0.00000E+00
    0.15334E-02        -0.98519E-03         0.00000E+00
    0.14517E-02        -0.92387E-03         0.00000E+00
    0.13689E-02        -0.86294E-03         0.00000E+00
    0.12849E-02        -0.80239E-03         0.00000E+00
    0.11999E-02        -0.74223E-03         0.00000E+00
    0.11137E-02        -0.68248E-03         0.00000E+00
    0.10265E-02        -0.62314E-03         0.00000E+00
    0.93821E-03        -0.56423E-03         0.00000E+00
    0.84888E-03        -0.50574E-03         0.00000E+00
    0.75850E-03        -0.44769E-03         0.00000E+00
    0.66711E-03        -0.39009E-03         0.00000E+00
    0.57471E-03        -0.33294E-03         0.00000E+00
    0.48132E-03        -0.27625E-03         0.00000E+00
    0.38695E-03        -0.22004E-03         0.00000E+00
    0.29162E-03        -0.16429E-03         0.00000E+00
    0.19534E-03        -0.10904E-03         0.00000E+00
    0.98131E-04        -0.54269E-04         0.00000E+00
    0.00000E+00         0.00000E+00         0.00000E+00
    0.36952E-02        -0.33421E-02         0.00000E+00
    0.36558E-02        -0.32702E-02         0.00000E+00
    0.36148E-02        -0.31983E-02         0.00000E+00
    0.35723E-02        -0.31265E-02         0.00000E+00
    0.35282E-02        -0.30547E-02         0.00000E+00
    0.34825E-02        -0.29829E-02         0.00000E+00
    0.34352E-02        -0.29112E-02         0.00000E+00
    0.33864E-02        -0.28396E-02         0.00000E+00
    0.33361E-02        -0.27680E-02         0.00000E+00
    0.32842E-02        -0.26966E-02         0.00000E+00
    0.32309E-02        -0.26253E-02         0.00000E+00
    0.31760E-02        -0.25541E-02         0.00000E+00
    0.31196E-02        -0.24831E-02         0.00000E+00
    0.30618E-02        -0.24122E-02         0.00000E+00
    0.30025E-02        -0.23415E-02         0.00000E+00
    0.29418E-02        -0.22709E-02         0.00000E+00
    0.28796E-02        -0.22006E-02         0.00000E+00
    0.28159E-02        -0.21304E-02         0.00000E+00
    0.27509E-02        -0.20605E-02         0.00000E+00
    0.26844E-02        -0.19908E-02         0.00000E+00
    0.26166E-02        -0.19213E-02         0.00000E+00
    0.25474E-02        -0.18521E-02         0.00000E+00
    0.24768E-02        -0.17832E-02         0.00000E+00
    0.24048E-02        -0.17145E-02         0.00000E+00
    0.23316E-02        -0.16461E-02         0.00000E+00
    0.22569E-02        -0.15780E-02         0.00000E+00
    0.21810E-02        -0.15101E-02         0.00000E+00
    0.21038E-02        -0.14427E-02         0.00000E+00
    0.20252E-02        -0.13755E-02         0.00000E+00
    0.19454E-02        -0.13087E-02         0.00000E+00
    0.18644E-02        -0.12422E-02         0.00000E+00
    0.17821E-02        -0.11761E-02         0.00000E+00
    0.16985E-02        -0.11103E-02         0.00000E+00
    0.16138E-02        -0.10449E-02         0.00000E+00
    0.15278E-02        -0.97993E-03         0.00000E+00
    0.14406E-02        -0.91533E-03         0.00000E+00
    0.13523E-02        -0.85114E-03         0.00000E+00
    0.12628E-02        -0.78736E-03         0.00000E+00
    0.11721E-02        -0.72401E-03         0.00000E+00
    0.10803E-02        -0.66109E-03         0.00000E+00
    0.98740E-03        -0.59861E-03         0.00000E+00
    0.89338E-03        -0.53658E-03         0.00000E+00
    0.79828E-03        -0.47501E-03         0.00000E+00
    0.70209E-03        -0.41391E-03         0.00000E+00
    0.60485E-03        -0.35329E-03         0.00000E+00
    0.50657E-03        -0.29315E-03         0.00000E+00
    0.40725E-03        -0.23351E-03         0.00000E+00
    0.30692E-03        -0.17436E-03         0.00000E+00
    0.20559E-03        -0.11572E-03         0.00000E+00
    0.10328E-03        -0.57599E-04         0.00000E+00
    0.00000E+00         0.00000E+00         0.00000E+00
    0.38879E-02        -0.35400E-02         0.00000E+00
    0.38465E-02        -0.34638E-02         0.00000E+00
    0.38034E-02        -0.33878E-02         0.00000E+00
    0.37586E-02        -0.33117E-02         0.00000E+00
    0.37122E-02        -0.32357E-02         0.00000E+00
    0.36642E-02        -0.31597E-02         0.00000E+00
    0.36145E-02        -0.30838E-02         0.00000E+00
    0.35631E-02        -0.30080E-02         0.00000E+00
    0.35102E-02        -0.29323E-02         0.00000E+00
    0.34556E-02        -0.28567E-02         0.00000E+00
    0.33995E-02        -0.27812E-02         0.00000E+00
    0.33418E-02        -0.27058E-02         0.00000E+00
    0.32825E-02        -0.26306E-02         0.00000E+00
    0.32217E-02        -0.25556E-02         0.00000E+00
    0.31593E-02        -0.24807E-02         0.00000E+00
    0.30954E-02        -0.24061E-02         0.00000E+00
    0.30300E-02        -0.23316E-02         0.00000E+00
    0.29630E-02        -0.22573E-02         0.00000E+00
    0.28946E-02        -0.21833E-02         0.00000E+00
    0.28247E-02        -0.21095E-02         0.00000E+00
    0.27533E-02        -0.20359E-02         0.00000E+00
    0.26805E-02        -0.19626E-02         0.00000E+00
    0.26062E-02        -0.18896E-02         0.00000E+00
    0.25305E-02        -0.18169E-02         0.00000E+00
    0.24534E-02        -0.17444E-02         0.00000E+00
    0.23749E-02        -0.16723E-02         0.00000E+00
    0.22950E-02        -0.16005E-02         0.00000E+00
    0.22138E-02        -0.15290E-02         0.00000E+00
    0.21312E-02        -0.14579E-02         0.00000E+00
    0.20472E-02        -0.13871E-02         0.00000E+00
    0.19619E-02        -0.13167E-02         0.00000E+00
    0.18753E-02        -0.12466E-02         0.00000E+00
    0.17874E-02        -0.11770E-02         0.00000E+00
    0.16982E-02        -0.11077E-02         0.00000E+00
    0.16077E-02        -0.10388E-02         0.00000E+00
    0.15160E-02        -0.97040E-03         0.00000E+00
    0.14230E-02        -0.90237E-03         0.00000E+00
    0.13289E-02        -0.83479E-03         0.00000E+00
    0.12335E-02        -0.76765E-03         0.00000E+00
    0.11369E-02        -0.70096E-03         0.00000E+00
    0.10391E-02        -0.63474E-03         0.00000E+00
    0.94016E-03        -0.56899E-03         0.00000E+00
    0.84008E-03        -0.50372E-03         0.00000E+00
    0.73886E-03        -0.43895E-03         0.00000E+00
    0.63653E-03        -0.37467E-03         0.00000E+00
    0.53310E-03        -0.31091E-03         0.00000E+00
    0.42858E-03        -0.24766E-03         0.00000E+00
    0.32300E-03        -0.18494E-03         0.00000E+00
    0.21636E-03        -0.12275E-03         0.00000E+00
    0.10869E-03        -0.61098E-04         0.00000E+00
    0.00000E+00         0.00000E+00         0.00000E+00
    0.40910E-02        -0.37481E-02         0.00000E+00
    0.40474E-02        -0.36676E-02         0.00000E+00
    0.40020E-02        -0.35870E-02         0.00000E+00
    0.39549E-02        -0.35066E-02         0.00000E+00
    0.39061E-02        -0.34261E-02         0.00000E+00
    0.38555E-02        -0.33457E-02         0.00000E+00
    0.38032E-02        -0.32654E-02         0.00000E+00
    0.37492E-02        -0.31852E-02         0.00000E+00
    0.36935E-02        -0.31051E-02         0.00000E+00
    0.36361E-02        -0.30251E-02         0.00000E+00
    0.35770E-02        -0.29452E-02         0.00000E+00
    0.35163E-02        -0.28655E-02         0.00000E+00
    0.34540E-02        -0.27859E-02         0.00000E+00
    0.33899E-02        -0.27065E-02         0.00000E+00
    0.33243E-02        -0.26273E-02         0.00000E+00
    0.32571E-02        -0.25482E-02         0.00000E+00
    0.31882E-02        -0.24694E-02         0.00000E+00
    0.31178E-02        -0.23908E-02         0.00000E+00
    0.30458E-02        -0.23124E-02         0.00000E+00
    0.29723E-02        -0.22343E-02         0.00000E+00
    0.28972E-02        -0.21565E-02         0.00000E+00
    0.28206E-02        -0.20789E-02         0.00000E+00
    0.27424E-02        -0.20016E-02         0.00000E+00
    0.26628E-02        -0.19246E-02         0.00000E+00
    0.25816E-02        -0.18479E-02         0.00000E+00
    0.24990E-02        -0.17716E-02         0.00000E+00
    0.24150E-02        -0.16956E-02         0.00000E+00
    0.23295E-02        -0.16199E-02         0.00000E+00
    0.22425E-02        -0.15446E-02         0.00000E+00
    0.21542E-02        -0.14696E-02         0.00000E+00
    0.20644E-02        -0.13950E-02         0.00000E+00
    0.19733E-02        -0.13209E-02         0.00000E+00
    0.18808E-02        -0.12471E-02         0.00000E+00
    0.17870E-02        -0.11737E-02         0.00000E+00
    0.16918E-02        -0.11008E-02         0.00000E+00
    0.15953E-02        -0.10283E-02         0.00000E+00
    0.14974E-02        -0.95627E-03         0.00000E+00
    0.13983E-02        -0.88468E-03         0.00000E+00
    0.12980E-02        -0.81355E-03         0.00000E+00
    0.11963E-02        -0.74290E-03         0.00000E+00
    0.10934E-02        -0.67274E-03         0.00000E+00
    0.98933E-03        -0.60308E-03         0.00000E+00
    0.88402E-03        -0.53392E-03         0.00000E+00
    0.77751E-03        -0.46528E-03         0.00000E+00
    0.66983E-03        -0.39717E-03         0.00000E+00
    0.56099E-03        -0.32958E-03         0.00000E+00
    0.45100E-03        -0.26255E-03         0.00000E+00
    0.33990E-03        -0.19606E-03         0.00000E+00
    0.22768E-03        -0.13013E-03         0.00000E+00
    0.11438E-03        -0.64779E-04         0.00000E+00
    0.00000E+00         0.00000E+00         0.00000E+00
    0.43049E-02        -0.39672E-02         0.00000E+00
    0.42590E-02        -0.38820E-02         0.00000E+00
    0.42112E-02        -0.37968E-02         0.00000E+00
    0.41617E-02        -0.37117E-02         0.00000E+00
    0.41102E-02        -0.36266E-02         0.00000E+00
    0.40570E-02        -0.35416E-02         0.00000E+00
    0.40020E-02        -0.34566E-02         0.00000E+00
    0.39451E-02        -0.33717E-02         0.00000E+00
    0.38865E-02        -0.32870E-02         0.00000E+00
    0.38261E-02        -0.32024E-02         0.00000E+00
    0.37639E-02        -0.31179E-02         0.00000E+00
    0.37000E-02        -0.30335E-02         0.00000E+00
    0.36344E-02        -0.29493E-02         0.00000E+00
    0.35670E-02        -0.28653E-02         0.00000E+00
    0.34980E-02        -0.27815E-02         0.00000E+00
    0.34272E-02        -0.26979E-02         0.00000E+00
    0.33548E-02        -0.26145E-02         0.00000E+00
    0.32807E-02        -0.25313E-02         0.00000E+00
    0.32049E-02        -0.24484E-02         0.00000E+00
    0.31275E-02        -0.23658E-02         0.00000E+00
    0.30485E-02        -0.22834E-02         0.00000E+00
    0.29679E-02        -0.22013E-02         0.00000E+00
    0.28856E-02        -0.21195E-02         0.00000E+00
    0.28018E-02        -0.20380E-02         0.00000E+00
    0.27165E-02        -0.19569E-02         0.00000E+00
    0.26296E-02        -0.18761E-02         0.00000E+00
    0.25411E-02        -0.17956E-02         0.00000E+00
    0.24511E-02        -0.17155E-02         0.00000E+00
    0.23597E-02        -0.16358E-02         0.00000E+00
    0.22667E-02        -0.15565E-02         0.00000E+00
    0.21723E-02        -0.14775E-02         0.00000E+00
    0.20764E-02        -0.13990E-02         0.00000E+00
    0.19791E-02        -0.13209E-02         0.00000E+00
    0.18803E-02        -0.12433E-02         0.00000E+00
    0.17802E-02        -0.11660E-02         0.00000E+00
    0.16786E-02        -0.10893E-02         0.00000E+00
    0.15757E-02        -0.10130E-02         0.00000E+00
    0.14714E-02        -0.93719E-03         0.00000E+00
    0.13658E-02        -0.86187E-03         0.00000E+00
    0.12588E-02        -0.78706E-03         0.00000E+00
    0.11506E-02        -0.71275E-03         0.00000E+00
    0.10410E-02        -0.63896E-03         0.00000E+00
    0.93021E-03        -0.56571E-03         0.00000E+00
    0.81814E-03        -0.49300E-03         0.00000E+00
    0.70483E-03        -0.42084E-03         0.00000E+00
    0.59030E-03        -0.34924E-03         0.00000E+00
    0.47457E-03        -0.27822E-03         0.00000E+00
    0.35766E-03        -0.20777E-03         0.00000E+00
    0.23958E-03        -0.13791E-03         0.00000E+00
    0.12035E-03        -0.68653E-04         0.00000E+00
    0.00000E+00         0.00000E+00         0.00000E+00
    0.45302E-02        -0.41979E-02         0.00000E+00
    0.44818E-02        -0.41078E-02         0.00000E+00
    0.44316E-02        -0.40177E-02         0.00000E+00
    0.43793E-02        -0.39277E-02         0.00000E+00
    0.43252E-02        -0.38377E-02         0.00000E+00
    0.42691E-02        -0.37478E-02         0.00000E+00
    0.42112E-02        -0.36579E-02         0.00000E+00
    0.41513E-02        -0.35682E-02         0.00000E+00
    0.40896E-02        -0.34785E-02         0.00000E+00
    0.40261E-02        -0.33890E-02         0.00000E+00
    0.39606E-02        -0.32997E-02         0.00000E+00
    0.38934E-02        -0.32105E-02         0.00000E+00
    0.38243E-02        -0.31214E-02         0.00000E+00
    0.37534E-02        -0.30326E-02         0.00000E+00
    0.36807E-02        -0.29439E-02         0.00000E+00
    0.36062E-02        -0.28555E-02         0.00000E+00
    0.35300E-02        -0.27673E-02         0.00000E+00
    0.34520E-02        -0.26793E-02         0.00000E+00
    0.33723E-02        -0.25916E-02         0.00000E+00
    0.32908E-02        -0.25042E-02         0.00000E+00
    0.32077E-02        -0.24170E-02         0.00000E+00
    0.31228E-02        -0.23302E-02         0.00000E+00
    0.30363E-02        -0.22437E-02         0.00000E+00
    0.29481E-02        -0.21575E-02         0.00000E+00
    0.28583E-02        -0.20716E-02         0.00000E+00
    0.27668E-02        -0.19861E-02         0.00000E+00
    0.26738E-02        -0.19010E-02         0.00000E+00
    0.25791E-02        -0.18162E-02         0.00000E+00
    0.24828E-02        -0.17319E-02         0.00000E+00
    0.23850E-02        -0.16479E-02         0.00000E+00
    0.22857E-02        -0.15644E-02         0.00000E+00
    0.21848E-02        -0.14813E-02         0.00000E+00
    0.20824E-02        -0.13987E-02         0.00000E+00
    0.19785E-02        -0.13165E-02         0.00000E+00
    0.18731E-02        -0.12348E-02         0.00000E+00
    0.17662E-02        -0.11535E-02         0.00000E+00
    0.16579E-02        -0.10728E-02         0.00000E+00
    0.15482E-02        -0.99250E-03         0.00000E+00
    0.14371E-02        -0.91277E-03         0.00000E+00
    0.13245E-02        -0.83356E-03         0.00000E+00
    0.12106E-02        -0.75489E-03         0.00000E+00
    0.10954E-02        -0.67676E-03         0.00000E+00
    0.97876E-03        -0.59920E-03         0.00000E+00
    0.86084E-03        -0.52220E-03         0.00000E+00
    0.74162E-03        -0.44578E-03         0.00000E+00
    0.62111E-03        -0.36995E-03         0.00000E+00
    0.49934E-03        -0.29473E-03         0.00000E+00
    0.37633E-03        -0.22011E-03         0.00000E+00
    0.25209E-03        -0.14611E-03         0.00000E+00
    0.12664E-03        -0.72734E-04         0.00000E+00
    0.00000E+00         0.00000E+00         0.00000E+00
    0.47674E-02        -0.44409E-02         0.00000E+00
    0.47165E-02        -0.43457E-02         0.00000E+00
    0.46635E-02        -0.42504E-02         0.00000E+00
    0.46085E-02        -0.41552E-02         0.00000E+00
    0.45515E-02        -0.40601E-02         0.00000E+00
    0.44925E-02        -0.39650E-02         0.00000E+00
    0.44314E-02        -0.38700E-02         0.00000E+00
    0.43684E-02        -0.37751E-02         0.00000E+00
    0.43034E-02        -0.36803E-02         0.00000E+00
    0.42365E-02        -0.35857E-02         0.00000E+00
    0.41676E-02        -0.34912E-02         0.00000E+00
    0.40968E-02        -0.33969E-02         0.00000E+00
    0.40241E-02        -0.33027E-02         0.00000E+00
    0.39494E-02        -0.32088E-02         0.00000E+00
    0.38729E-02        -0.31150E-02         0.00000E+00
    0.37945E-02        -0.30215E-02         0.00000E+00
    0.37143E-02        -0.29282E-02         0.00000E+00
    0.36322E-02        -0.28352E-02         0.00000E+00
    0.35483E-02        -0.27425E-02         0.00000E+00
    0.34626E-02        -0.26500E-02         0.00000E+00
    0.33751E-02        -0.25578E-02         0.00000E+00
    0.32858E-02        -0.24660E-02         0.00000E+00
    0.31947E-02        -0.23745E-02         0.00000E+00
    0.31019E-02        -0.22833E-02         0.00000E+00
    0.30074E-02        -0.21925E-02         0.00000E+00
    0.29112E-02        -0.21021E-02         0.00000E+00
    0.28132E-02        -0.20120E-02         0.00000E+00
    0.27136E-02        -0.19224E-02         0.00000E+00
    0.26123E-02        -0.18331E-02         0.00000E+00
    0.25094E-02        -0.17443E-02         0.00000E+00
    0.24049E-02        -0.16560E-02         0.00000E+00
    0.22987E-02        -0.15680E-02         0.00000E+00
    0.21910E-02        -0.14806E-02         0.00000E+00
    0.20816E-02        -0.13936E-02         0.00000E+00
    0.19707E-02        -0.13072E-02         0.00000E+00
    0.18583E-02        -0.12212E-02         0.00000E+00
    0.17444E-02        -0.11357E-02         0.00000E+00
    0.16289E-02        -0.10508E-02         0.00000E+00
    0.15120E-02        -0.96641E-03         0.00000E+00
    0.13936E-02        -0.88257E-03         0.00000E+00
    0.12737E-02        -0.79930E-03         0.00000E+00
    0.11525E-02        -0.71660E-03         0.00000E+00
    0.10298E-02        -0.63449E-03         0.00000E+00
    0.90573E-03        -0.55297E-03         0.00000E+00
    0.78029E-03        -0.47207E-03         0.00000E+00
    0.65350E-03        -0.39178E-03         0.00000E+00
    0.52538E-03        -0.31212E-03         0.00000E+00
    0.39595E-03        -0.23311E-03         0.00000E+00
    0.26523E-03        -0.15474E-03         0.00000E+00
    0.13324E-03        -0.77036E-04         0.00000E+00
    0.00000E+00         0.00000E+00         0.00000E+00
    0.50171E-02        -0.46970E-02         0.00000E+00
    0.49635E-02        -0.45963E-02         0.00000E+00
    0.49076E-02        -0.44956E-02         0.00000E+00
    0.48497E-02        -0.43950E-02         0.00000E+00
    0.47896E-02        -0.42944E-02         0.00000E+00
    0.47275E-02        -0.41939E-02         0.00000E+00
    0.46632E-02        -0.40935E-02         0.00000E+00
    0.45968E-02        -0.39932E-02         0.00000E+00
    0.45284E-02        -0.38930E-02         0.00000E+00
    0.44579E-02        -0.37929E-02         0.00000E+00
    0.43854E-02        -0.36930E-02         0.00000E+00
    0.43108E-02        -0.35933E-02         0.00000E+00
    0.42343E-02        -0.34938E-02         0.00000E+00
    0.41557E-02        -0.33945E-02         0.00000E+00
    0.40751E-02        -0.32953E-02         0.00000E+00
    0.39926E-02        -0.31965E-02         0.00000E+00
    0.39082E-02        -0.30979E-02         0.00000E+00
    0.38218E-02        -0.29995E-02         0.00000E+00
    0.37335E-02        -0.29015E-02         0.00000E+00
    0.36432E-02        -0.28037E-02         0.00000E+00
    0.35511E-02        -0.27062E-02         0.00000E+00
    0.34572E-02        -0.26091E-02         0.00000E+00
    0.33614E-02        -0.25124E-02         0.00000E+00
    0.32637E-02        -0.24160E-02         0.00000E+00
    0.31642E-02        -0.23199E-02         0.00000E+00
    0.30629E-02        -0.22243E-02         0.00000E+00
    0.29599E-02        -0.21291E-02         0.00000E+00
    0.28551E-02        -0.20342E-02         0.00000E+00
    0.27485E-02        -0.19399E-02         0.00000E+00
    0.26402E-02        -0.18459E-02         0.00000E+00
    0.25302E-02        -0.17525E-02         0.00000E+00
    0.24185E-02        -0.16595E-02         0.00000E+00
    0.23051E-02        -0.15670E-02         0.00000E+00
    0.21901E-02        -0.14750E-02         0.00000E+00
    0.20734E-02        -0.13835E-02         0.00000E+00
    0.19551E-02        -0.12925E-02         0.00000E+00
    0.18352E-02        -0.12021E-02         0.00000E+00
    0.17138E-02        -0.11123E-02         0.00000E+00
    0.15907E-02        -0.10230E-02         0.00000E+00
    0.14662E-02        -0.93425E-03         0.00000E+00
    0.13401E-02        -0.84612E-03         0.00000E+00
    0.12125E-02        -0.75861E-03         0.00000E+00
    0.10834E-02        -0.67170E-03         0.00000E+00
    0.95290E-03        -0.58543E-03         0.00000E+00
    0.82093E-03        -0.49979E-03         0.00000E+00
    0.68754E-03        -0.41480E-03         0.00000E+00
    0.55275E-03        -0.33047E-03         0.00000E+00
    0.41658E-03        -0.24682E-03         0.00000E+00
    0.27905E-03        -0.16385E-03         0.00000E+00
    0.14018E-03        -0.81572E-04         0.00000E+00
    0.00000E+00         0.00000E+00         0.00000E+00
    0.52799E-02        -0.49669E-02         0.00000E+00
    0.52234E-02        -0.48605E-02         0.00000E+00
    0.51646E-02        -0.47541E-02         0.00000E+00
    0.51035E-02        -0.46477E-02         0.00000E+00
    0.50402E-02        -0.45414E-02         0.00000E+00
    0.49747E-02        -0.44352E-02         0.00000E+00
    0.49070E-02        -0.43291E-02         0.00000E+00
    0.48371E-02        -0.42230E-02         0.00000E+00
    0.47651E-02        -0.41172E-02         0.00000E+00
    0.46908E-02        -0.40114E-02         0.00000E+00
    0.46144E-02        -0.39058E-02         0.00000E+00
    0.45359E-02        -0.38004E-02         0.00000E+00
    0.44553E-02        -0.36952E-02         0.00000E+00
    0.43726E-02        -0.35902E-02         0.00000E+00
    0.42878E-02        -0.34855E-02         0.00000E+00
    0.42009E-02        -0.33809E-02         0.00000E+00
    0.41120E-02        -0.32767E-02         0.00000E+00
    0.40211E-02        -0.31727E-02         0.00000E+00
    0.39281E-02        -0.30691E-02         0.00000E+00
    0.38332E-02        -0.29657E-02         0.00000E+00
    0.37362E-02        -0.28627E-02         0.00000E+00
    0.36373E-02        -0.27600E-02         0.00000E+00
    0.35365E-02        -0.26577E-02         0.00000E+00
    0.34337E-02        -0.25558E-02         0.00000E+00
    0.33291E-02        -0.24543E-02         0.00000E+00
    0.32225E-02        -0.23532E-02         0.00000E+00
    0.31140E-02        -0.22525E-02         0.00000E+00
    0.30037E-02        -0.21522E-02         0.00000E+00
    0.28916E-02        -0.20524E-02         0.00000E+00
    0.27776E-02        -0.19531E-02         0.00000E+00
    0.26619E-02        -0.18542E-02         0.00000E+00
    0.25444E-02        -0.17559E-02         0.00000E+00
    0.24251E-02        -0.16581E-02         0.00000E+00
    0.23040E-02        -0.15608E-02         0.00000E+00
    0.21813E-02        -0.14640E-02         0.00000E+00
    0.20568E-02        -0.13678E-02         0.00000E+00
    0.19307E-02        -0.12721E-02         0.00000E+00
    0.18029E-02        -0.11771E-02         0.00000E+00
    0.16735E-02        -0.10826E-02         0.00000E+00
    0.15424E-02        -0.98876E-03         0.00000E+00
    0.14098E-02        -0.89552E-03         0.00000E+00
    0.12756E-02        -0.80292E-03         0.00000E+00
    0.11398E-02        -0.71096E-03         0.00000E+00
    0.10025E-02        -0.61966E-03         0.00000E+00
    0.86363E-03        -0.52903E-03         0.00000E+00
    0.72330E-03        -0.43908E-03         0.00000E+00
    0.58150E-03        -0.34983E-03         0.00000E+00
    0.43825E-03        -0.26129E-03         0.00000E+00
    0.29356E-03        -0.17346E-03         0.00000E+00
    0.14747E-03        -0.86360E-04         0.00000E+00
    0.00000E+00         0.00000E+00         0.00000E+00
    0.55565E-02        -0.52514E-02         0.00000E+00
    0.54969E-02        -0.51390E-02         0.00000E+00
    0.54349E-02        -0.50265E-02         0.00000E+00
    0.53705E-02        -0.49142E-02         0.00000E+00
    0.53039E-02        -0.48018E-02         0.00000E+00
    0.52348E-02        -0.46896E-02         0.00000E+00
    0.51635E-02        -0.45774E-02         0.00000E+00
    0.50899E-02        -0.44654E-02         0.00000E+00
    0.50140E-02        -0.43535E-02         0.00000E+00
    0.49358E-02        -0.42417E-02         0.00000E+00
    0.48553E-02        -0.41302E-02         0.00000E+00
    0.47727E-02        -0.40188E-02         0.00000E+00
    0.46878E-02        -0.39076E-02         0.00000E+00
    0.46007E-02        -0.37966E-02         0.00000E+00
    0.45114E-02        -0.36859E-02         0.00000E+00
    0.44200E-02        -0.35755E-02         0.00000E+00
    0.43264E-02        -0.34653E-02         0.00000E+00
    0.42306E-02        -0.33554E-02         0.00000E+00
    0.41328E-02        -0.32459E-02         0.00000E+00
    0.40328E-02        -0.31366E-02         0.00000E+00
    0.39308E-02        -0.30277E-02         0.00000E+00
    0.38267E-02        -0.29192E-02         0.00000E+00
    0.37206E-02        -0.28111E-02         0.00000E+00
    0.36124E-02        -0.27033E-02         0.00000E+00
    0.35023E-02        -0.25960E-02         0.00000E+00
    0.33901E-02        -0.24891E-02         0.00000E+00
    0.32760E-02        -0.23827E-02         0.00000E+00
    0.31600E-02        -0.22767E-02         0.00000E+00
    0.30420E-02        -0.21711E-02         0.00000E+00
    0.29221E-02        -0.20661E-02         0.00000E+00
    0.28003E-02        -0.19616E-02         0.00000E+00
    0.26766E-02        -0.18576E-02         0.00000E+00
    0.25511E-02        -0.17542E-02         0.00000E+00
    0.24238E-02        -0.16513E-02         0.00000E+00
    0.22947E-02        -0.15489E-02         0.00000E+00
    0.21637E-02        -0.14472E-02         0.00000E+00
    0.20310E-02        -0.13460E-02         0.00000E+00
    0.18966E-02        -0.12455E-02         0.00000E+00
    0.17604E-02        -0.11456E-02         0.00000E+00
    0.16226E-02        -0.10463E-02         0.00000E+00
    0.14830E-02        -0.94765E-03         0.00000E+00
    0.13418E-02        -0.84968E-03         0.00000E+00
    0.11990E-02        -0.75239E-03         0.00000E+00
    0.10545E-02        -0.65579E-03         0.00000E+00
    0.90849E-03        -0.55990E-03         0.00000E+00
    0.76087E-03        -0.46472E-03         0.00000E+00
    0.61170E-03        -0.37027E-03         0.00000E+00
    0.46101E-03        -0.27656E-03         0.00000E+00
    0.30881E-03        -0.18360E-03         0.00000E+00
    0.15513E-03        -0.91413E-04         0.00000E+00
    0.00000E+00         0.00000E+00         0.00000E+00
    0.58474E-02        -0.55514E-02         0.00000E+00
    0.57846E-02        -0.54326E-02         0.00000E+00
    0.57192E-02        -0.53138E-02         0.00000E+00
    0.56514E-02        -0.51951E-02         0.00000E+00
    0.55811E-02        -0.50764E-02         0.00000E+00
    0.55084E-02        -0.49578E-02         0.00000E+00
    0.54332E-02        -0.48393E-02         0.00000E+00
    0.53556E-02        -0.47209E-02         0.00000E+00
    0.52757E-02        -0.46027E-02         0.00000E+00
    0.51933E-02        -0.44846E-02         0.00000E+00
    0.51086E-02        -0.43667E-02         0.00000E+00
    0.50215E-02        -0.42490E-02         0.00000E+00
    0.49321E-02        -0.41316E-02         0.00000E+00
    0.48404E-02        -0.40143E-02         0.00000E+00
    0.47464E-02        -0.38973E-02         0.00000E+00
    0.46502E-02        -0.37806E-02         0.00000E+00
    0.45516E-02        -0.36642E-02         0.00000E+00
    0.44508E-02        -0.35481E-02         0.00000E+00
    0.43478E-02        -0.34323E-02         0.00000E+00
    0.42427E-02        -0.33169E-02         0.00000E+00
    0.41353E-02        -0.32018E-02         0.00000E+00
    0.40257E-02        -0.30871E-02         0.00000E+00
    0.39140E-02        -0.29728E-02         0.00000E+00
    0.38002E-02        -0.28590E-02         0.00000E+00
    0.36843E-02        -0.27455E-02         0.00000E+00
    0.35663E-02        -0.26325E-02         0.00000E+00
    0.34462E-02        -0.25200E-02         0.00000E+00
    0.33241E-02        -0.24080E-02         0.00000E+00
    0.32000E-02        -0.22964E-02         0.00000E+00
    0.30738E-02        -0.21854E-02         0.00000E+00
    0.29457E-02        -0.20749E-02         0.00000E+00
    0.28156E-02        -0.19650E-02         0.00000E+00
    0.26835E-02        -0.18556E-02         0.00000E+00
    0.25496E-02        -0.17468E-02         0.00000E+00
    0.24137E-02        -0.16386E-02         0.00000E+00
    0.22760E-02        -0.15310E-02         0.00000E+00
    0.21364E-02        -0.14240E-02         0.00000E+00
    0.19950E-02        -0.13177E-02         0.00000E+00
    0.18518E-02        -0.12120E-02         0.00000E+00
    0.17067E-02        -0.11070E-02         0.00000E+00
    0.15600E-02        -0.10027E-02         0.00000E+00
    0.14114E-02        -0.89904E-03         0.00000E+00
    0.12612E-02        -0.79613E-03         0.00000E+00
    0.11092E-02        -0.69393E-03         0.00000E+00
    0.95560E-03        -0.59248E-03         0.00000E+00
    0.80033E-03        -0.49178E-03         0.00000E+00
    0.64342E-03        -0.39184E-03         0.00000E+00
    0.48491E-03        -0.29268E-03         0.00000E+00
    0.32483E-03        -0.19431E-03         0.00000E+00
    0.16318E-03        -0.96749E-04         0.00000E+00
    0.00000E+00         0.00000E+00         0.00000E+00
    0.61534E-02        -0.58678E-02         0.00000E+00
    0.60871E-02        -0.57423E-02         0.00000E+00
    0.60182E-02        -0.56168E-02         0.00000E+00
    0.59467E-02        -0.54914E-02         0.00000E+00
    0.58726E-02        -0.53660E-02         0.00000E+00
    0.57959E-02        -0.52407E-02         0.00000E+00
    0.57167E-02        -0.51155E-02         0.00000E+00
    0.56350E-02        -0.49905E-02         0.00000E+00
    0.55507E-02        -0.48656E-02         0.00000E+00
    0.54640E-02        -0.47408E-02         0.00000E+00
    0.53748E-02        -0.46163E-02         0.00000E+00
    0.52831E-02        -0.44920E-02         0.00000E+00
    0.51889E-02        -0.43678E-02         0.00000E+00
    0.50924E-02        -0.42440E-02         0.00000E+00
    0.49934E-02        -0.41204E-02         0.00000E+00
    0.48920E-02        -0.39971E-02         0.00000E+00
    0.47883E-02        -0.38741E-02         0.00000E+00
    0.46822E-02        -0.37514E-02         0.00000E+00
    0.45738E-02        -0.36290E-02         0.00000E+00
    0.44631E-02        -0.35071E-02         0.00000E+00
    0.43501E-02        -0.33855E-02         0.00000E+00
    0.42348E-02        -0.32643E-02         0.00000E+00
    0.41172E-02        -0.31435E-02         0.00000E+00
    0.39975E-02        -0.30232E-02         0.00000E+00
    0.38755E-02        -0.29033E-02         0.00000E+00
    0.37513E-02        -0.27839E-02         0.00000E+00
    0.36250E-02        -0.26650E-02         0.00000E+00
    0.34965E-02        -0.25465E-02         0.00000E+00
    0.33659E-02        -0.24286E-02         0.00000E+00
    0.32331E-02        -0.23113E-02         0.00000E+00
    0.30983E-02        -0.21945E-02         0.00000E+00
    0.29615E-02        -0.20783E-02         0.00000E+00
    0.28226E-02        -0.19626E-02         0.00000E+00
    0.26817E-02        -0.18476E-02         0.00000E+00
    0.25388E-02        -0.17332E-02         0.00000E+00
    0.23939E-02        -0.16195E-02         0.00000E+00
    0.22470E-02        -0.15063E-02         0.00000E+00
    0.20983E-02        -0.13939E-02         0.00000E+00
    0.19476E-02        -0.12822E-02         0.00000E+00
    0.17951E-02        -0.11711E-02         0.00000E+00
    0.16407E-02        -0.10608E-02         0.00000E+00
    0.14845E-02        -0.95117E-03         0.00000E+00
    0.13265E-02        -0.84232E-03         0.00000E+00
    0.11666E-02        -0.73422E-03         0.00000E+00
    0.10051E-02        -0.62690E-03         0.00000E+00
    0.84175E-03        -0.52036E-03         0.00000E+00
    0.67672E-03        -0.41463E-03         0.00000E+00
    0.51001E-03        -0.30972E-03         0.00000E+00
    0.34164E-03        -0.20563E-03         0.00000E+00
    0.17163E-03        -0.10239E-03         0.00000E+00
    0.00000E+00         0.00000E+00         0.00000E+00
    0.64750E-02        -0.62015E-02         0.00000E+00
    0.64051E-02        -0.60689E-02         0.00000E+00
    0.63324E-02        -0.59364E-02         0.00000E+00
    0.62571E-02        -0.58039E-02         0.00000E+00
    0.61790E-02        -0.56715E-02         0.00000E+00
    0.60982E-02        -0.55392E-02         0.00000E+00
    0.60147E-02        -0.54069E-02         0.00000E+00
    0.59286E-02        -0.52748E-02         0.00000E+00
    0.58398E-02        -0.51429E-02         0.00000E+00
    0.57484E-02        -0.50111E-02         0.00000E+00
    0.56544E-02        -0.48796E-02         0.00000E+00
    0.55579E-02        -0.47482E-02         0.00000E+00
    0.54587E-02        -0.46171E-02         0.00000E+00
    0.53570E-02        -0.44863E-02         0.00000E+00
    0.52528E-02        -0.43557E-02         0.00000E+00
    0.51461E-02        -0.42255E-02         0.00000E+00
    0.50369E-02        -0.40955E-02         0.00000E+00
    0.49252E-02        -0.39659E-02         0.00000E+00
    0.48111E-02        -0.38367E-02         0.00000E+00
    0.46946E-02        -0.37078E-02         0.00000E+00
    0.45756E-02        -0.35793E-02         0.00000E+00
    0.44543E-02        -0.34513E-02         0.00000E+00
    0.43306E-02        -0.33237E-02         0.00000E+00
    0.42046E-02        -0.31965E-02         0.00000E+00
    0.40762E-02        -0.30698E-02         0.00000E+00
    0.39456E-02        -0.29436E-02         0.00000E+00
    0.38126E-02        -0.28180E-02         0.00000E+00
    0.36775E-02        -0.26928E-02         0.00000E+00
    0.35400E-02        -0.25682E-02         0.00000E+00
    0.34004E-02        -0.24442E-02         0.00000E+00
    0.32586E-02        -0.23207E-02         0.00000E+00
    0.31147E-02        -0.21979E-02         0.00000E+00
    0.29685E-02        -0.20757E-02         0.00000E+00
    0.28203E-02        -0.19541E-02         0.00000E+00
    0.26700E-02        -0.18331E-02         0.00000E+00
    0.25176E-02        -0.17129E-02         0.00000E+00
    0.23632E-02        -0.15933E-02         0.00000E+00
    0.22067E-02        -0.14744E-02         0.00000E+00
    0.20483E-02        -0.13563E-02         0.00000E+00
    0.18878E-02        -0.12388E-02         0.00000E+00
    0.17255E-02        -0.11221E-02         0.00000E+00
    0.15612E-02        -0.10062E-02         0.00000E+00
    0.13950E-02        -0.89111E-03         0.00000E+00
    0.12269E-02        -0.77678E-03         0.00000E+00
    0.10570E-02        -0.66325E-03         0.00000E+00
    0.88522E-03        -0.55056E-03         0.00000E+00
    0.71167E-03        -0.43871E-03         0.00000E+00
    0.53635E-03        -0.32771E-03         0.00000E+00
    0.35928E-03        -0.21759E-03         0.00000E+00
    0.18049E-03        -0.10834E-03         0.00000E+00
    0.00000E+00         0.00000E+00         0.00000E+00
    0.68131E-02        -0.65535E-02         0.00000E+00
    0.67393E-02        -0.64135E-02         0.00000E+00
    0.66627E-02        -0.62735E-02         0.00000E+00
    0.65832E-02        -0.61336E-02         0.00000E+00
    0.65009E-02        -0.59938E-02         0.00000E+00
    0.64157E-02        -0.58540E-02         0.00000E+00
    0.63277E-02        -0.57144E-02         0.00000E+00
    0.62370E-02        -0.55749E-02         0.00000E+00
    0.61435E-02        -0.54355E-02         0.00000E+00
    0.60472E-02        -0.52964E-02         0.00000E+00
    0.59482E-02        -0.51574E-02         0.00000E+00
    0.58465E-02        -0.50187E-02         0.00000E+00
    0.57421E-02        -0.48802E-02         0.00000E+00
    0.56350E-02        -0.47420E-02         0.00000E+00
    0.55252E-02        -0.46041E-02         0.00000E+00
    0.54129E-02        -0.44665E-02         0.00000E+00
    0.52979E-02        -0.43292E-02         0.00000E+00
    0.51804E-02        -0.41923E-02         0.00000E+00
    0.50603E-02        -0.40558E-02         0.00000E+00
    0.49376E-02        -0.39196E-02         0.00000E+00
    0.48124E-02        -0.37839E-02         0.00000E+00
    0.46847E-02        -0.36487E-02         0.00000E+00
    0.45546E-02        -0.35138E-02         0.00000E+00
    0.44220E-02        -0.33795E-02         0.00000E+00
    0.42869E-02        -0.32456E-02         0.00000E+00
    0.41495E-02        -0.31123E-02         0.00000E+00
    0.40096E-02        -0.29795E-02         0.00000E+00
    0.38674E-02        -0.28473E-02         0.00000E+00
    0.37228E-02        -0.27156E-02         0.00000E+00
    0.35760E-02        -0.25845E-02         0.00000E+00
    0.34268E-02        -0.24541E-02         0.00000E+00
    0.32754E-02        -0.23242E-02         0.00000E+00
    0.31217E-02        -0.21951E-02         0.00000E+00
    0.29658E-02        -0.20665E-02         0.00000E+00
    0.28077E-02        -0.19387E-02         0.00000E+00
    0.26475E-02        -0.18116E-02         0.00000E+00
    0.24850E-02        -0.16851E-02         0.00000E+00
    0.23205E-02        -0.15595E-02         0.00000E+00
    0.21539E-02        -0.14345E-02         0.00000E+00
    0.19852E-02        -0.13104E-02         0.00000E+00
    0.18144E-02        -0.11870E-02         0.00000E+00
    0.16416E-02        -0.10644E-02         0.00000E+00
    0.14669E-02        -0.94267E-03         0.00000E+00
    0.12901E-02        -0.82175E-03         0.00000E+00
    0.11114E-02        -0.70168E-03         0.00000E+00
    0.93083E-03        -0.58248E-03         0.00000E+00
    0.74834E-03        -0.46416E-03         0.00000E+00
    0.56399E-03        -0.34673E-03         0.00000E+00
    0.37779E-03        -0.23022E-03         0.00000E+00
    0.18979E-03        -0.11464E-03         0.00000E+00
    0.00000E+00         0.00000E+00         0.00000E+00
    0.71683E-02        -0.69249E-02         0.00000E+00
    0.70905E-02        -0.67771E-02         0.00000E+00
    0.70097E-02        -0.66293E-02         0.00000E+00
    0.69258E-02        -0.64815E-02         0.00000E+00
    0.68390E-02        -0.63338E-02         0.00000E+00
    0.67492E-02        -0.61862E-02         0.00000E+00
    0.66565E-02        -0.60388E-02         0.00000E+00
    0.65609E-02        -0.58915E-02         0.00000E+00
    0.64623E-02        -0.57443E-02         0.00000E+00
    0.63609E-02        -0.55973E-02         0.00000E+00
    0.62566E-02        -0.54506E-02         0.00000E+00
    0.61495E-02        -0.53041E-02         0.00000E+00
    0.60395E-02        -0.51578E-02         0.00000E+00
    0.59268E-02        -0.50119E-02         0.00000E+00
    0.58112E-02        -0.48662E-02         0.00000E+00
    0.56929E-02        -0.47209E-02         0.00000E+00
    0.55719E-02        -0.45759E-02         0.00000E+00
    0.54482E-02        -0.44313E-02         0.00000E+00
    0.53217E-02        -0.42871E-02         0.00000E+00
    0.51927E-02        -0.41433E-02         0.00000E+00
    0.50609E-02        -0.40000E-02         0.00000E+00
    0.49266E-02        -0.38571E-02         0.00000E+00
    0.47896E-02        -0.37146E-02         0.00000E+00
    0.46501E-02        -0.35727E-02         0.00000E+00
    0.45080E-02        -0.34313E-02         0.00000E+00
    0.43634E-02        -0.32904E-02         0.00000E+00
    0.42163E-02        -0.31501E-02         0.00000E+00
    0.40667E-02        -0.30104E-02         0.00000E+00
    0.39146E-02        -0.28713E-02         0.00000E+00
    0.37601E-02        -0.27328E-02         0.00000E+00
    0.36033E-02        -0.25949E-02         0.00000E+00
    0.34440E-02        -0.24577E-02         0.00000E+00
    0.32824E-02        -0.23212E-02         0.00000E+00
    0.31184E-02        -0.21853E-02         0.00000E+00
    0.29522E-02        -0.20502E-02         0.00000E+00
    0.27836E-02        -0.19158E-02         0.00000E+00
    0.26128E-02        -0.17822E-02         0.00000E+00
    0.24398E-02        -0.16493E-02         0.00000E+00
    0.22646E-02        -0.15172E-02         0.00000E+00
    0.20872E-02        -0.13860E-02         0.00000E+00
    0.19077E-02        -0.12555E-02         0.00000E+00
    0.17260E-02        -0.11259E-02         0.00000E+00
    0.15422E-02        -0.99716E-03         0.00000E+00
    0.13564E-02        -0.86928E-03         0.00000E+00
    0.11685E-02        -0.74229E-03         0.00000E+00
    0.97867E-03        -0.61621E-03         0.00000E+00
    0.78680E-03        -0.49106E-03         0.00000E+00
    0.59297E-03        -0.36684E-03         0.00000E+00
    0.39720E-03        -0.24359E-03         0.00000E+00
    0.19954E-03        -0.12130E-03         0.00000E+00
    0.00000E+00         0.00000E+00         0.00000E+00
    0.75414E-02        -0.73168E-02         0.00000E+00
    0.74593E-02        -0.71607E-02         0.00000E+00
    0.73740E-02        -0.70046E-02         0.00000E+00
    0.72856E-02        -0.68486E-02         0.00000E+00
    0.71941E-02        -0.66927E-02         0.00000E+00
    0.70994E-02        -0.65369E-02         0.00000E+00
    0.70017E-02        -0.63811E-02         0.00000E+00
    0.69009E-02        -0.62256E-02         0.00000E+00
    0.67970E-02        -0.60702E-02         0.00000E+00
    0.66902E-02        -0.59150E-02         0.00000E+00
    0.65803E-02        -0.57601E-02         0.00000E+00
    0.64675E-02        -0.56054E-02         0.00000E+00
    0.63517E-02        -0.54509E-02         0.00000E+00
    0.62329E-02        -0.52968E-02         0.00000E+00
    0.61113E-02        -0.51430E-02         0.00000E+00
    0.59868E-02        -0.49895E-02         0.00000E+00
    0.58594E-02        -0.48364E-02         0.00000E+00
    0.57291E-02        -0.46837E-02         0.00000E+00
    0.55961E-02        -0.45314E-02         0.00000E+00
    0.54602E-02        -0.43795E-02         0.00000E+00
    0.53216E-02        -0.42281E-02         0.00000E+00
    0.51802E-02        -0.40771E-02         0.00000E+00
    0.50361E-02        -0.39267E-02         0.00000E+00
    0.48893E-02        -0.37768E-02         0.00000E+00
    0.47398E-02        -0.36274E-02         0.00000E+00
    0.45877E-02        -0.34786E-02         0.00000E+00
    0.44330E-02        -0.33303E-02         0.00000E+00
    0.42756E-02        -0.31827E-02         0.00000E+00
    0.41157E-02        -0.30357E-02         0.00000E+00
    0.39533E-02        -0.28894E-02         0.00000E+00
    0.37883E-02        -0.27437E-02         0.00000E+00
    0.36208E-02        -0.25987E-02         0.00000E+00
    0.34508E-02        -0.24544E-02         0.00000E+00
    0.32784E-02        -0.23109E-02         0.00000E+00
    0.31036E-02        -0.21681E-02         0.00000E+00
    0.29264E-02        -0.20260E-02         0.00000E+00
    0.27468E-02        -0.18848E-02         0.00000E+00
    0.25649E-02        -0.17443E-02         0.00000E+00
    0.23807E-02        -0.16047E-02         0.00000E+00
    0.21942E-02        -0.14659E-02         0.00000E+00
    0.20054E-02        -0.13280E-02         0.00000E+00
    0.18145E-02        -0.11909E-02         0.00000E+00
    0.16213E-02        -0.10548E-02         0.00000E+00
    0.14259E-02        -0.91954E-03         0.00000E+00
    0.12284E-02        -0.78524E-03         0.00000E+00
    0.10288E-02        -0.65189E-03         0.00000E+00
    0.82710E-03        -0.51951E-03         0.00000E+00
    0.62334E-03        -0.38811E-03         0.00000E+00
    0.41755E-03        -0.25772E-03         0.00000E+00
    0.20976E-03        -0.12834E-03         0.00000E+00
    0.00000E+00         0.00000E+00         0.00000E+00
    0.79331E-02        -0.77304E-02         0.00000E+00
    0.78465E-02        -0.75656E-02         0.00000E+00
    0.77565E-02        -0.74008E-02         0.00000E+00
    0.76633E-02        -0.72361E-02         0.00000E+00
    0.75667E-02        -0.70715E-02         0.00000E+00
    0.74669E-02        -0.69069E-02         0.00000E+00
    0.73639E-02        -0.67425E-02         0.00000E+00
    0.72577E-02        -0.65783E-02         0.00000E+00
    0.71483E-02        -0.64143E-02         0.00000E+00
    0.70357E-02        -0.62504E-02         0.00000E+00
    0.69199E-02        -0.60868E-02         0.00000E+00
    0.68011E-02        -0.59234E-02         0.00000E+00
    0.66791E-02        -0.57604E-02         0.00000E+00
    0.65541E-02        -0.55976E-02         0.00000E+00
    0.64260E-02        -0.54352E-02         0.00000E+00
    0.62949E-02        -0.52731E-02         0.00000E+00
    0.61608E-02        -0.51114E-02         0.00000E+00
    0.60238E-02        -0.49502E-02         0.00000E+00
    0.58837E-02        -0.47893E-02         0.00000E+00
    0.57408E-02        -0.46289E-02         0.00000E+00
    0.55949E-02        -0.44690E-02         0.00000E+00
    0.54462E-02        -0.43096E-02         0.00000E+00
    0.52946E-02        -0.41507E-02         0.00000E+00
    0.51401E-02        -0.39923E-02         0.00000E+00
    0.49829E-02        -0.38345E-02         0.00000E+00
    0.48229E-02        -0.36773E-02         0.00000E+00
    0.46601E-02        -0.35207E-02         0.00000E+00
    0.44947E-02        -0.33648E-02         0.00000E+00
    0.43265E-02        -0.32095E-02         0.00000E+00
    0.41557E-02        -0.30549E-02         0.00000E+00
    0.39822E-02        -0.29009E-02         0.00000E+00
    0.38061E-02        -0.27477E-02         0.00000E+00
    0.36274E-02        -0.25952E-02         0.00000E+00
    0.34461E-02        -0.24435E-02         0.00000E+00
    0.32623E-02        -0.22926E-02         0.00000E+00
    0.30760E-02        -0.21425E-02         0.00000E+00
    0.28872E-02        -0.19932E-02         0.00000E+00
    0.26960E-02        -0.18447E-02         0.00000E+00
    0.25024E-02        -0.16971E-02         0.00000E+00
    0.23063E-02        -0.15504E-02         0.00000E+00
    0.21079E-02        -0.14046E-02         0.00000E+00
    0.19071E-02        -0.12597E-02         0.00000E+00
    0.17041E-02        -0.11157E-02         0.00000E+00
    0.14987E-02        -0.97269E-03         0.00000E+00
    0.12912E-02        -0.83066E-03         0.00000E+00
    0.10813E-02        -0.68963E-03         0.00000E+00
    0.86934E-03        -0.54961E-03         0.00000E+00
    0.65517E-03        -0.41061E-03         0.00000E+00
    0.43887E-03        -0.27267E-03         0.00000E+00
    0.22047E-03        -0.13579E-03         0.00000E+00
    0.00000E+00         0.00000E+00         0.00000E+00
    0.83443E-02        -0.81669E-02         0.00000E+00
    0.82528E-02        -0.79929E-02         0.00000E+00
    0.81579E-02        -0.78190E-02         0.00000E+00
    0.80595E-02        -0.76451E-02         0.00000E+00
    0.79577E-02        -0.74713E-02         0.00000E+00
    0.78525E-02        -0.72976E-02         0.00000E+00
    0.77439E-02        -0.71241E-02         0.00000E+00
    0.76320E-02        -0.69507E-02         0.00000E+00
    0.75167E-02        -0.67775E-02         0.00000E+00
    0.73980E-02        -0.66045E-02         0.00000E+00
    0.72761E-02        -0.64318E-02         0.00000E+00
    0.71509E-02        -0.62593E-02         0.00000E+00
    0.70225E-02        -0.60871E-02         0.00000E+00
    0.68909E-02        -0.59153E-02         0.00000E+00
    0.67560E-02        -0.57438E-02         0.00000E+00
    0.66180E-02        -0.55727E-02         0.00000E+00
    0.64769E-02        -0.54019E-02         0.00000E+00
    0.63326E-02        -0.52316E-02         0.00000E+00
    0.61852E-02        -0.50618E-02         0.00000E+00
    0.60348E-02        -0.48924E-02         0.00000E+00
    0.58813E-02        -0.47235E-02         0.00000E+00
    0.57249E-02        -0.45551E-02         0.00000E+00
    0.55654E-02        -0.43873E-02         0.00000E+00
    0.54030E-02        -0.42201E-02         0.00000E+00
    0.52376E-02        -0.40534E-02         0.00000E+00
    0.50693E-02        -0.38873E-02         0.00000E+00
    0.48982E-02        -0.37219E-02         0.00000E+00
    0.47242E-02        -0.35572E-02         0.00000E+00
    0.45473E-02        -0.33931E-02         0.00000E+00
    0.43677E-02        -0.32298E-02         0.00000E+00
    0.41853E-02        -0.30671E-02         0.00000E+00
    0.40001E-02        -0.29052E-02         0.00000E+00
    0.38123E-02        -0.27441E-02         0.00000E+00
    0.36218E-02        -0.25838E-02         0.00000E+00
    0.34286E-02        -0.24243E-02         0.00000E+00
    0.32327E-02        -0.22656E-02         0.00000E+00
    0.30343E-02        -0.21078E-02         0.00000E+00
    0.28333E-02        -0.19509E-02         0.00000E+00
    0.26298E-02        -0.17949E-02         0.00000E+00
    0.24237E-02        -0.16398E-02         0.00000E+00
    0.22152E-02        -0.14856E-02         0.00000E+00
    0.20042E-02        -0.13324E-02         0.00000E+00
    0.17908E-02        -0.11802E-02         0.00000E+00
    0.15750E-02        -0.10289E-02         0.00000E+00
    0.13568E-02        -0.87872E-03         0.00000E+00
    0.11364E-02        -0.72956E-03         0.00000E+00
    0.91356E-03        -0.58145E-03         0.00000E+00
    0.68850E-03        -0.43442E-03         0.00000E+00
    0.46120E-03        -0.28849E-03         0.00000E+00
    0.23169E-03        -0.14368E-03         0.00000E+00
    0.00000E+00         0.00000E+00         0.00000E+00
    0.87756E-02        -0.86277E-02         0.00000E+00
    0.86791E-02        -0.84441E-02         0.00000E+00
    0.85789E-02        -0.82605E-02         0.00000E+00
    0.84752E-02        -0.80769E-02         0.00000E+00
    0.83678E-02        -0.78935E-02         0.00000E+00
    0.82569E-02        -0.77101E-02         0.00000E+00
    0.81424E-02        -0.75269E-02         0.00000E+00
    0.80244E-02        -0.73439E-02         0.00000E+00
    0.79029E-02        -0.71610E-02         0.00000E+00
    0.77779E-02        -0.69784E-02         0.00000E+00
    0.76495E-02        -0.67961E-02         0.00000E+00
    0.75176E-02        -0.66140E-02         0.00000E+00
    0.73824E-02        -0.64322E-02         0.00000E+00
    0.72438E-02        -0.62508E-02         0.00000E+00
    0.71018E-02        -0.60697E-02         0.00000E+00
    0.69565E-02        -0.58891E-02         0.00000E+00
    0.68080E-02        -0.57088E-02         0.00000E+00
    0.66562E-02        -0.55290E-02         0.00000E+00
    0.65011E-02        -0.53496E-02         0.00000E+00
    0.63428E-02        -0.51708E-02         0.00000E+00
    0.61814E-02        -0.49924E-02         0.00000E+00
    0.60168E-02        -0.48146E-02         0.00000E+00
    0.58490E-02        -0.46374E-02         0.00000E+00
    0.56782E-02        -0.44607E-02         0.00000E+00
    0.55043E-02        -0.42847E-02         0.00000E+00
    0.53274E-02        -0.41093E-02         0.00000E+00
    0.51474E-02        -0.39346E-02         0.00000E+00
    0.49644E-02        -0.37606E-02         0.00000E+00
    0.47785E-02        -0.35872E-02         0.00000E+00
    0.45897E-02        -0.34146E-02         0.00000E+00
    0.43980E-02        -0.32428E-02         0.00000E+00
    0.42033E-02        -0.30718E-02         0.00000E+00
    0.40059E-02        -0.29015E-02         0.00000E+00
    0.38056E-02        -0.27321E-02         0.00000E+00
    0.36026E-02        -0.25636E-02         0.00000E+00
    0.33968E-02        -0.23959E-02         0.00000E+00
    0.31882E-02        -0.22291E-02         0.00000E+00
    0.29770E-02        -0.20632E-02         0.00000E+00
    0.27631E-02        -0.18983E-02         0.00000E+00
    0.25466E-02        -0.17343E-02         0.00000E+00
    0.23275E-02        -0.15713E-02         0.00000E+00
    0.21058E-02        -0.14093E-02         0.00000E+00
    0.18816E-02        -0.12484E-02         0.00000E+00
    0.16548E-02        -0.10884E-02         0.00000E+00
    0.14256E-02        -0.92958E-03         0.00000E+00
    0.11939E-02        -0.77182E-03         0.00000E+00
    0.95985E-03        -0.61516E-03         0.00000E+00
    0.72339E-03        -0.45963E-03         0.00000E+00
    0.48457E-03        -0.30524E-03         0.00000E+00
    0.24343E-03        -0.15203E-03         0.00000E+00
    0.00000E+00         0.00000E+00         0.00000E+00
    0.92280E-02        -0.91143E-02         0.00000E+00
    0.91261E-02        -0.89204E-02         0.00000E+00
    0.90204E-02        -0.87266E-02         0.00000E+00
    0.89109E-02        -0.85329E-02         0.00000E+00
    0.87977E-02        -0.83392E-02         0.00000E+00
    0.86807E-02        -0.81457E-02         0.00000E+00
    0.85600E-02        -0.79523E-02         0.00000E+00
    0.84356E-02        -0.77591E-02         0.00000E+00
    0.83076E-02        -0.75661E-02         0.00000E+00
    0.81759E-02        -0.73733E-02         0.00000E+00
    0.80406E-02        -0.71809E-02         0.00000E+00
    0.79017E-02        -0.69887E-02         0.00000E+00
    0.77593E-02        -0.67968E-02         0.00000E+00
    0.76134E-02        -0.66052E-02         0.00000E+00
    0.74640E-02        -0.64141E-02         0.00000E+00
    0.73111E-02        -0.62233E-02         0.00000E+00
    0.71547E-02        -0.60330E-02         0.00000E+00
    0.69950E-02        -0.58432E-02         0.00000E+00
    0.68318E-02        -0.56538E-02         0.00000E+00
    0.66653E-02        -0.54649E-02         0.00000E+00
    0.64955E-02        -0.52766E-02         0.00000E+00
    0.63224E-02        -0.50888E-02         0.00000E+00
    0.61460E-02        -0.49017E-02         0.00000E+00
    0.59663E-02        -0.47151E-02         0.00000E+00
    0.57835E-02        -0.45292E-02         0.00000E+00
    0.55974E-02        -0.43440E-02         0.00000E+00
    0.54082E-02        -0.41594E-02         0.00000E+00
    0.52159E-02        -0.39756E-02         0.00000E+00
    0.50205E-02        -0.37925E-02         0.00000E+00
    0.48220E-02        -0.36102E-02         0.00000E+00
    0.46205E-02        -0.34286E-02         0.00000E+00
    0.44160E-02        -0.32479E-02         0.00000E+00
    0.42085E-02        -0.30680E-02         0.00000E+00
    0.39980E-02        -0.28890E-02         0.00000E+00
    0.37846E-02        -0.27109E-02         0.00000E+00
    0.35684E-02        -0.25337E-02         0.00000E+00
    0.33493E-02        -0.23574E-02         0.00000E+00
    0.31274E-02        -0.21820E-02         0.00000E+00
    0.29027E-02        -0.20077E-02         0.00000E+00
    0.26752E-02        -0.18343E-02         0.00000E+00
    0.24450E-02        -0.16620E-02         0.00000E+00
    0.22121E-02        -0.14907E-02         0.00000E+00
    0.19765E-02        -0.13205E-02         0.00000E+00
    0.17383E-02        -0.11514E-02         0.00000E+00
    0.14975E-02        -0.98342E-03         0.00000E+00
    0.12542E-02        -0.81656E-03         0.00000E+00
    0.10083E-02        -0.65085E-03         0.00000E+00
    0.75988E-03        -0.48632E-03         0.00000E+00
    0.50901E-03        -0.32298E-03         0.00000E+00
    0.25571E-03        -0.16087E-03         0.00000E+00
    0.00000E+00         0.00000E+00         0.00000E+00
    0.97022E-02        -0.96280E-02         0.00000E+00
    0.95946E-02        -0.94234E-02         0.00000E+00
    0.94830E-02        -0.92189E-02         0.00000E+00
    0.93675E-02        -0.90144E-02         0.00000E+00
    0.92480E-02        -0.88100E-02         0.00000E+00
    0.91247E-02        -0.86057E-02         0.00000E+00
    0.89974E-02        -0.84016E-02         0.00000E+00
    0.88663E-02        -0.81977E-02         0.00000E+00
    0.87314E-02        -0.79940E-02         0.00000E+00
    0.85927E-02        -0.77905E-02         0.00000E+00
    0.84502E-02        -0.75873E-02         0.00000E+00
    0.83039E-02        -0.73845E-02         0.00000E+00
    0.81540E-02        -0.71819E-02         0.00000E+00
    0.80004E-02        -0.69797E-02         0.00000E+00
    0.78431E-02        -0.67779E-02         0.00000E+00
    0.76821E-02        -0.65766E-02         0.00000E+00
    0.75176E-02        -0.63756E-02         0.00000E+00
    0.73495E-02        -0.61752E-02         0.00000E+00
    0.71779E-02        -0.59752E-02         0.00000E+00
    0.70028E-02        -0.57758E-02         0.00000E+00
    0.68242E-02        -0.55770E-02         0.00000E+00
    0.66421E-02        -0.53787E-02         0.00000E+00
    0.64566E-02        -0.51811E-02         0.00000E+00
    0.62677E-02        -0.49841E-02         0.00000E+00
    0.60755E-02        -0.47877E-02         0.00000E+00
    0.58799E-02        -0.45921E-02         0.00000E+00
    0.56811E-02        -0.43971E-02         0.00000E+00
    0.54789E-02        -0.42030E-02         0.00000E+00
    0.52735E-02        -0.40096E-02         0.00000E+00
    0.50650E-02        -0.38169E-02         0.00000E+00
    0.48532E-02        -0.36252E-02         0.00000E+00
    0.46383E-02        -0.34342E-02         0.00000E+00
    0.44203E-02        -0.32442E-02         0.00000E+00
    0.41992E-02        -0.30550E-02         0.00000E+00
    0.39750E-02        -0.28667E-02         0.00000E+00
    0.37478E-02        -0.26794E-02         0.00000E+00
    0.35177E-02        -0.24931E-02         0.00000E+00
    0.32845E-02        -0.23078E-02         0.00000E+00
    0.30485E-02        -0.21235E-02         0.00000E+00
    0.28096E-02        -0.19402E-02         0.00000E+00
    0.25678E-02        -0.17580E-02         0.00000E+00
    0.23232E-02        -0.15769E-02         0.00000E+00
    0.20758E-02        -0.13970E-02         0.00000E+00
    0.18256E-02        -0.12181E-02         0.00000E+00
    0.15727E-02        -0.10404E-02         0.00000E+00
    0.13171E-02        -0.86394E-03         0.00000E+00
    0.10589E-02        -0.68864E-03         0.00000E+00
    0.79802E-03        -0.51458E-03         0.00000E+00
    0.53456E-03        -0.34177E-03         0.00000E+00
    0.26854E-03        -0.17024E-03         0.00000E+00
    0.00000E+00         0.00000E+00         0.00000E+00
    0.10199E-01        -0.10171E-01         0.00000E+00
    0.10085E-01        -0.99546E-02         0.00000E+00
    0.99676E-02        -0.97387E-02         0.00000E+00
    0.98457E-02        -0.95229E-02         0.00000E+00
    0.97197E-02        -0.93072E-02         0.00000E+00
    0.95896E-02        -0.90917E-02         0.00000E+00
    0.94554E-02        -0.88762E-02         0.00000E+00
    0.93172E-02        -0.86610E-02         0.00000E+00
    0.91750E-02        -0.84460E-02         0.00000E+00
    0.90289E-02        -0.82313E-02         0.00000E+00
    0.88788E-02        -0.80168E-02         0.00000E+00
    0.87248E-02        -0.78027E-02         0.00000E+00
    0.85669E-02        -0.75889E-02         0.00000E+00
    0.84052E-02        -0.73755E-02         0.00000E+00
    0.82396E-02        -0.71624E-02         0.00000E+00
    0.80703E-02        -0.69499E-02         0.00000E+00
    0.78972E-02        -0.67378E-02         0.00000E+00
    0.77204E-02        -0.65261E-02         0.00000E+00
    0.75399E-02        -0.63151E-02         0.00000E+00
    0.73557E-02        -0.61045E-02         0.00000E+00
    0.71678E-02        -0.58946E-02         0.00000E+00
    0.69764E-02        -0.56852E-02         0.00000E+00
    0.67814E-02        -0.54765E-02         0.00000E+00
    0.65828E-02        -0.52685E-02         0.00000E+00
    0.63808E-02        -0.50611E-02         0.00000E+00
    0.61752E-02        -0.48545E-02         0.00000E+00
    0.59662E-02        -0.46486E-02         0.00000E+00
    0.57538E-02        -0.44435E-02         0.00000E+00
    0.55380E-02        -0.42392E-02         0.00000E+00
    0.53188E-02        -0.40357E-02         0.00000E+00
    0.50964E-02        -0.38331E-02         0.00000E+00
    0.48706E-02        -0.36314E-02         0.00000E+00
    0.46416E-02        -0.34305E-02         0.00000E+00
    0.44093E-02        -0.32306E-02         0.00000E+00
    0.41739E-02        -0.30317E-02         0.00000E+00
    0.39353E-02        -0.28338E-02         0.00000E+00
    0.36936E-02        -0.26368E-02         0.00000E+00
    0.34488E-02        -0.24409E-02         0.00000E+00
    0.32009E-02        -0.22461E-02         0.00000E+00
    0.29500E-02        -0.20524E-02         0.00000E+00
    0.26961E-02        -0.18597E-02         0.00000E+00
    0.24392E-02        -0.16682E-02         0.00000E+00
    0.21795E-02        -0.14779E-02         0.00000E+00
    0.19168E-02        -0.12888E-02         0.00000E+00
    0.16513E-02        -0.11008E-02         0.00000E+00
    0.13829E-02        -0.91413E-03         0.00000E+00
    0.11118E-02        -0.72869E-03         0.00000E+00
    0.83787E-03        -0.54453E-03         0.00000E+00
    0.56125E-03        -0.36168E-03         0.00000E+00
    0.28195E-03        -0.18017E-03         0.00000E+00
    0.00000E+00         0.00000E+00         0.00000E+00
    0.10719E-01        -0.10744E-01         0.00000E+00
    0.10599E-01        -0.10516E-01         0.00000E+00
    0.10475E-01        -0.10288E-01         0.00000E+00
    0.10346E-01        -0.10060E-01         0.00000E+00
    0.10213E-01        -0.98325E-02         0.00000E+00
    0.10076E-01        -0.96050E-02         0.00000E+00
    0.99346E-02        -0.93777E-02         0.00000E+00
    0.97890E-02        -0.91506E-02         0.00000E+00
    0.96391E-02        -0.89236E-02         0.00000E+00
    0.94852E-02        -0.86970E-02         0.00000E+00
    0.93271E-02        -0.84707E-02         0.00000E+00
    0.91649E-02        -0.82446E-02         0.00000E+00
    0.89987E-02        -0.80190E-02         0.00000E+00
    0.88285E-02        -0.77937E-02         0.00000E+00
    0.86542E-02        -0.75689E-02         0.00000E+00
    0.84761E-02        -0.73445E-02         0.00000E+00
    0.82940E-02        -0.71206E-02         0.00000E+00
    0.81080E-02        -0.68972E-02         0.00000E+00
    0.79181E-02        -0.66743E-02         0.00000E+00
    0.77244E-02        -0.64521E-02         0.00000E+00
    0.75269E-02        -0.62304E-02         0.00000E+00
    0.73257E-02        -0.60093E-02         0.00000E+00
    0.71207E-02        -0.57889E-02         0.00000E+00
    0.69120E-02        -0.55693E-02         0.00000E+00
    0.66996E-02        -0.53503E-02         0.00000E+00
    0.64836E-02        -0.51321E-02         0.00000E+00
    0.62641E-02        -0.49146E-02         0.00000E+00
    0.60409E-02        -0.46980E-02         0.00000E+00
    0.58142E-02        -0.44821E-02         0.00000E+00
    0.55840E-02        -0.42672E-02         0.00000E+00
    0.53503E-02        -0.40531E-02         0.00000E+00
    0.51132E-02        -0.38400E-02         0.00000E+00
    0.48727E-02        -0.36278E-02         0.00000E+00
    0.46288E-02        -0.34166E-02         0.00000E+00
    0.43816E-02        -0.32063E-02         0.00000E+00
    0.41310E-02        -0.29971E-02         0.00000E+00
    0.38772E-02        -0.27890E-02         0.00000E+00
    0.36202E-02        -0.25819E-02         0.00000E+00
    0.33600E-02        -0.23759E-02         0.00000E+00
    0.30966E-02        -0.21711E-02         0.00000E+00
    0.28300E-02        -0.19674E-02         0.00000E+00
    0.25604E-02        -0.17649E-02         0.00000E+00
    0.22877E-02        -0.15636E-02         0.00000E+00
    0.20120E-02        -0.13636E-02         0.00000E+00
    0.17332E-02        -0.11648E-02         0.00000E+00
    0.14516E-02        -0.96731E-03         0.00000E+00
    0.11670E-02        -0.77113E-03         0.00000E+00
    0.87946E-03        -0.57628E-03         0.00000E+00
    0.58911E-03        -0.38279E-03         0.00000E+00
    0.29595E-03        -0.19069E-03         0.00000E+00
    0.00000E+00         0.00000E+00         0.00000E+00
    0.11264E-01        -0.11349E-01         0.00000E+00
    0.11137E-01        -0.11108E-01         0.00000E+00
    0.11006E-01        -0.10868E-01         0.00000E+00
    0.10870E-01        -0.10628E-01         0.00000E+00
    0.10730E-01        -0.10388E-01         0.00000E+00
    0.10585E-01        -0.10147E-01         0.00000E+00
    0.10436E-01        -0.99076E-02         0.00000E+00
    0.10282E-01        -0.96679E-02         0.00000E+00
    0.10124E-01        -0.94284E-02         0.00000E+00
    0.99621E-02        -0.91892E-02         0.00000E+00
    0.97956E-02        -0.89504E-02         0.00000E+00
    0.96248E-02        -0.87118E-02         0.00000E+00
    0.94499E-02        -0.84737E-02         0.00000E+00
    0.92707E-02        -0.82359E-02         0.00000E+00
    0.90874E-02        -0.79986E-02         0.00000E+00
    0.88999E-02        -0.77617E-02         0.00000E+00
    0.87083E-02        -0.75254E-02         0.00000E+00
    0.85127E-02        -0.72895E-02         0.00000E+00
    0.83131E-02        -0.70543E-02         0.00000E+00
    0.81094E-02        -0.68196E-02         0.00000E+00
    0.79018E-02        -0.65856E-02         0.00000E+00
    0.76903E-02        -0.63522E-02         0.00000E+00
    0.74749E-02        -0.61195E-02         0.00000E+00
    0.72556E-02        -0.58875E-02         0.00000E+00
    0.70325E-02        -0.56562E-02         0.00000E+00
    0.68056E-02        -0.54258E-02         0.00000E+00
    0.65749E-02        -0.51961E-02         0.00000E+00
    0.63405E-02        -0.49673E-02         0.00000E+00
    0.61024E-02        -0.47393E-02         0.00000E+00
    0.58607E-02        -0.45122E-02         0.00000E+00
    0.56153E-02        -0.42861E-02         0.00000E+00
    0.53663E-02        -0.40609E-02         0.00000E+00
    0.51138E-02        -0.38366E-02         0.00000E+00
    0.48578E-02        -0.36134E-02         0.00000E+00
    0.45982E-02        -0.33913E-02         0.00000E+00
    0.43352E-02        -0.31701E-02         0.00000E+00
    0.40688E-02        -0.29501E-02         0.00000E+00
    0.37991E-02        -0.27312E-02         0.00000E+00
    0.35259E-02        -0.25135E-02         0.00000E+00
    0.32495E-02        -0.22969E-02         0.00000E+00
    0.29697E-02        -0.20815E-02         0.00000E+00
    0.26868E-02        -0.18674E-02         0.00000E+00
    0.24006E-02        -0.16545E-02         0.00000E+00
    0.21112E-02        -0.14429E-02         0.00000E+00
    0.18188E-02        -0.12326E-02         0.00000E+00
    0.15232E-02        -0.10237E-02         0.00000E+00
    0.12245E-02        -0.81612E-03         0.00000E+00
    0.92284E-03        -0.60993E-03         0.00000E+00
    0.61817E-03        -0.40517E-03         0.00000E+00
    0.31054E-03        -0.20185E-03         0.00000E+00
    0.00000E+00         0.00000E+00         0.00000E+00
    0.11833E-01        -0.11988E-01         0.00000E+00
    0.11699E-01        -0.11735E-01         0.00000E+00
    0.11560E-01        -0.11481E-01         0.00000E+00
    0.11417E-01        -0.11228E-01         0.00000E+00
    0.11269E-01        -0.10974E-01         0.00000E+00
    0.11117E-01        -0.10721E-01         0.00000E+00
    0.10959E-01        -0.10468E-01         0.00000E+00
    0.10797E-01        -0.10215E-01         0.00000E+00
    0.10631E-01        -0.99620E-02         0.00000E+00
    0.10460E-01        -0.97095E-02         0.00000E+00
    0.10285E-01        -0.94575E-02         0.00000E+00
    0.10105E-01        -0.92057E-02         0.00000E+00
    0.99209E-02        -0.89544E-02         0.00000E+00
    0.97324E-02        -0.87034E-02         0.00000E+00
    0.95395E-02        -0.84529E-02         0.00000E+00
    0.93423E-02        -0.82029E-02         0.00000E+00
    0.91408E-02        -0.79534E-02         0.00000E+00
    0.89351E-02        -0.77045E-02         0.00000E+00
    0.87252E-02        -0.74561E-02         0.00000E+00
    0.85112E-02        -0.72084E-02         0.00000E+00
    0.82930E-02        -0.69613E-02         0.00000E+00
    0.80707E-02        -0.67149E-02         0.00000E+00
    0.78444E-02        -0.64692E-02         0.00000E+00
    0.76140E-02        -0.62242E-02         0.00000E+00
    0.73796E-02        -0.59800E-02         0.00000E+00
    0.71413E-02        -0.57366E-02         0.00000E+00
    0.68990E-02        -0.54940E-02         0.00000E+00
    0.66529E-02        -0.52523E-02         0.00000E+00
    0.64029E-02        -0.50115E-02         0.00000E+00
    0.61491E-02        -0.47716E-02         0.00000E+00
    0.58915E-02        -0.45327E-02         0.00000E+00
    0.56302E-02        -0.42947E-02         0.00000E+00
    0.53651E-02        -0.40578E-02         0.00000E+00
    0.50964E-02        -0.38219E-02         0.00000E+00
    0.48240E-02        -0.35871E-02         0.00000E+00
    0.45481E-02        -0.33534E-02         0.00000E+00
    0.42685E-02        -0.31208E-02         0.00000E+00
    0.39854E-02        -0.28894E-02         0.00000E+00
    0.36989E-02        -0.26592E-02         0.00000E+00
    0.34088E-02        -0.24302E-02         0.00000E+00
    0.31153E-02        -0.22025E-02         0.00000E+00
    0.28185E-02        -0.19760E-02         0.00000E+00
    0.25182E-02        -0.17508E-02         0.00000E+00
    0.22147E-02        -0.15270E-02         0.00000E+00
    0.19079E-02        -0.13045E-02         0.00000E+00
    0.15978E-02        -0.10835E-02         0.00000E+00
    0.12845E-02        -0.86383E-03         0.00000E+00
    0.96805E-03        -0.64563E-03         0.00000E+00
    0.64845E-03        -0.42891E-03         0.00000E+00
    0.32576E-03        -0.21369E-03         0.00000E+00
    0.00000E+00         0.00000E+00         0.00000E+00
    0.12428E-01        -0.12664E-01         0.00000E+00
    0.12286E-01        -0.12397E-01         0.00000E+00
    0.12140E-01        -0.12129E-01         0.00000E+00
    0.11989E-01        -0.11861E-01         0.00000E+00
    0.11833E-01        -0.11594E-01         0.00000E+00
    0.11672E-01        -0.11327E-01         0.00000E+00
    0.11506E-01        -0.11060E-01         0.00000E+00
    0.11335E-01        -0.10793E-01         0.00000E+00
    0.11160E-01        -0.10526E-01         0.00000E+00
    0.10980E-01        -0.10260E-01         0.00000E+00
    0.10795E-01        -0.99936E-02         0.00000E+00
    0.10606E-01        -0.97279E-02         0.00000E+00
    0.10412E-01        -0.94627E-02         0.00000E+00
    0.10214E-01        -0.91978E-02         0.00000E+00
    0.10011E-01        -0.89335E-02         0.00000E+00
    0.98036E-02        -0.86696E-02         0.00000E+00
    0.95918E-02        -0.84062E-02         0.00000E+00
    0.93756E-02        -0.81435E-02         0.00000E+00
    0.91549E-02        -0.78813E-02         0.00000E+00
    0.89300E-02        -0.76197E-02         0.00000E+00
    0.87007E-02        -0.73589E-02         0.00000E+00
    0.84672E-02        -0.70987E-02         0.00000E+00
    0.82294E-02        -0.68392E-02         0.00000E+00
    0.79874E-02        -0.65806E-02         0.00000E+00
    0.77413E-02        -0.63227E-02         0.00000E+00
    0.74911E-02        -0.60656E-02         0.00000E+00
    0.72367E-02        -0.58094E-02         0.00000E+00
    0.69784E-02        -0.55541E-02         0.00000E+00
    0.67160E-02        -0.52997E-02         0.00000E+00
    0.64496E-02        -0.50463E-02         0.00000E+00
    0.61793E-02        -0.47939E-02         0.00000E+00
    0.59050E-02        -0.45425E-02         0.00000E+00
    0.56269E-02        -0.42921E-02         0.00000E+00
    0.53450E-02        -0.40428E-02         0.00000E+00
    0.50592E-02        -0.37946E-02         0.00000E+00
    0.47697E-02        -0.35476E-02         0.00000E+00
    0.44765E-02        -0.33017E-02         0.00000E+00
    0.41795E-02        -0.30571E-02         0.00000E+00
    0.38789E-02        -0.28137E-02         0.00000E+00
    0.35747E-02        -0.25715E-02         0.00000E+00
    0.32669E-02        -0.23307E-02         0.00000E+00
    0.29556E-02        -0.20911E-02         0.00000E+00
    0.26407E-02        -0.18530E-02         0.00000E+00
    0.23224E-02        -0.16162E-02         0.00000E+00
    0.20006E-02        -0.13808E-02         0.00000E+00
    0.16755E-02        -0.11469E-02         0.00000E+00
    0.13470E-02        -0.91444E-03         0.00000E+00
    0.10151E-02        -0.68350E-03         0.00000E+00
    0.67998E-03        -0.45409E-03         0.00000E+00
    0.34159E-03        -0.22625E-03         0.00000E+00
    0.00000E+00         0.00000E+00         0.00000E+00
    0.13049E-01        -0.13379E-01         0.00000E+00
    0.12900E-01        -0.13096E-01         0.00000E+00
    0.12745E-01        -0.12814E-01         0.00000E+00
    0.12586E-01        -0.12531E-01         0.00000E+00
    0.12421E-01        -0.12249E-01         0.00000E+00
    0.12251E-01        -0.11967E-01         0.00000E+00
    0.12076E-01        -0.11685E-01         0.00000E+00
    0.11896E-01        -0.11404E-01         0.00000E+00
    0.11712E-01        -0.11122E-01         0.00000E+00
    0.11522E-01        -0.10841E-01         0.00000E+00
    0.11328E-01        -0.10561E-01         0.00000E+00
    0.11129E-01        -0.10280E-01         0.00000E+00
    0.10925E-01        -0.10000E-01         0.00000E+00
    0.10716E-01        -0.97208E-02         0.00000E+00
    0.10502E-01        -0.94418E-02         0.00000E+00
    0.10284E-01        -0.91633E-02         0.00000E+00
    0.10062E-01        -0.88853E-02         0.00000E+00
    0.98343E-02        -0.86079E-02         0.00000E+00
    0.96025E-02        -0.83312E-02         0.00000E+00
    0.93661E-02        -0.80551E-02         0.00000E+00
    0.91253E-02        -0.77796E-02         0.00000E+00
    0.88800E-02        -0.75049E-02         0.00000E+00
    0.86303E-02        -0.72310E-02         0.00000E+00
    0.83762E-02        -0.69578E-02         0.00000E+00
    0.81178E-02        -0.66855E-02         0.00000E+00
    0.78552E-02        -0.64140E-02         0.00000E+00
    0.75882E-02        -0.61434E-02         0.00000E+00
    0.73171E-02        -0.58737E-02         0.00000E+00
    0.70417E-02        -0.56050E-02         0.00000E+00
    0.67622E-02        -0.53373E-02         0.00000E+00
    0.64786E-02        -0.50706E-02         0.00000E+00
    0.61910E-02        -0.48049E-02         0.00000E+00
    0.58992E-02        -0.45403E-02         0.00000E+00
    0.56035E-02        -0.42769E-02         0.00000E+00
    0.53038E-02        -0.40145E-02         0.00000E+00
    0.50002E-02        -0.37534E-02         0.00000E+00
    0.46927E-02        -0.34935E-02         0.00000E+00
    0.43814E-02        -0.32348E-02         0.00000E+00
    0.40662E-02        -0.29774E-02         0.00000E+00
    0.37473E-02        -0.27214E-02         0.00000E+00
    0.34246E-02        -0.24666E-02         0.00000E+00
    0.30982E-02        -0.22133E-02         0.00000E+00
    0.27681E-02        -0.19613E-02         0.00000E+00
    0.24344E-02        -0.17108E-02         0.00000E+00
    0.20971E-02        -0.14617E-02         0.00000E+00
    0.17563E-02        -0.12142E-02         0.00000E+00
    0.14119E-02        -0.96815E-03         0.00000E+00
    0.10641E-02        -0.72369E-03         0.00000E+00
    0.71276E-03        -0.48083E-03         0.00000E+00
    0.35806E-03        -0.23959E-03         0.00000E+00
    0.00000E+00         0.00000E+00         0.00000E+00
    0.13698E-01        -0.14134E-01         0.00000E+00
    0.13540E-01        -0.13836E-01         0.00000E+00
    0.13376E-01        -0.13538E-01         0.00000E+00
    0.13208E-01        -0.13240E-01         0.00000E+00
    0.13034E-01        -0.12942E-01         0.00000E+00
    0.12855E-01        -0.12644E-01         0.00000E+00
    0.12671E-01        -0.12347E-01         0.00000E+00
    0.12481E-01        -0.12050E-01         0.00000E+00
    0.12287E-01        -0.11753E-01         0.00000E+00
    0.12087E-01        -0.11457E-01         0.00000E+00
    0.11882E-01        -0.11160E-01         0.00000E+00
    0.11673E-01        -0.10864E-01         0.00000E+00
    0.11458E-01        -0.10569E-01         0.00000E+00
    0.11238E-01        -0.10274E-01         0.00000E+00
    0.11014E-01        -0.99796E-02         0.00000E+00
    0.10785E-01        -0.96856E-02         0.00000E+00
    0.10551E-01        -0.93922E-02         0.00000E+00
    0.10312E-01        -0.90994E-02         0.00000E+00
    0.10068E-01        -0.88073E-02         0.00000E+00
    0.98198E-02        -0.85158E-02         0.00000E+00
    0.95669E-02        -0.82250E-02         0.00000E+00
    0.93093E-02        -0.79350E-02         0.00000E+00
    0.90472E-02        -0.76457E-02         0.00000E+00
    0.87805E-02        -0.73573E-02         0.00000E+00
    0.85093E-02        -0.70697E-02         0.00000E+00
    0.82337E-02        -0.67830E-02         0.00000E+00
    0.79536E-02        -0.64971E-02         0.00000E+00
    0.76692E-02        -0.62123E-02         0.00000E+00
    0.73803E-02        -0.59284E-02         0.00000E+00
    0.70872E-02        -0.56455E-02         0.00000E+00
    0.67898E-02        -0.53637E-02         0.00000E+00
    0.64881E-02        -0.50830E-02         0.00000E+00
    0.61823E-02        -0.48034E-02         0.00000E+00
    0.58722E-02        -0.45249E-02         0.00000E+00
    0.55581E-02        -0.42477E-02         0.00000E+00
    0.52398E-02        -0.39716E-02         0.00000E+00
    0.49175E-02        -0.36968E-02         0.00000E+00
    0.45911E-02        -0.34233E-02         0.00000E+00
    0.42608E-02        -0.31511E-02         0.00000E+00
    0.39266E-02        -0.28803E-02         0.00000E+00
    0.35884E-02        -0.26108E-02         0.00000E+00
    0.32463E-02        -0.23428E-02         0.00000E+00
    0.29005E-02        -0.20763E-02         0.00000E+00
    0.25508E-02        -0.18112E-02         0.00000E+00
    0.21974E-02        -0.15476E-02         0.00000E+00
    0.18402E-02        -0.12856E-02         0.00000E+00
    0.14794E-02        -0.10252E-02         0.00000E+00
    0.11149E-02        -0.76636E-03         0.00000E+00
    0.74682E-03        -0.50921E-03         0.00000E+00
    0.37518E-03        -0.25375E-03         0.00000E+00
    0.00000E+00         0.00000E+00         0.00000E+00
    0.14373E-01        -0.14932E-01         0.00000E+00
    0.14206E-01        -0.14617E-01         0.00000E+00
    0.14034E-01        -0.14303E-01         0.00000E+00
    0.13856E-01        -0.13989E-01         0.00000E+00
    0.13673E-01        -0.13675E-01         0.00000E+00
    0.13484E-01        -0.13361E-01         0.00000E+00
    0.13289E-01        -0.13047E-01         0.00000E+00
    0.13090E-01        -0.12733E-01         0.00000E+00
    0.12885E-01        -0.12420E-01         0.00000E+00
    0.12675E-01        -0.12107E-01         0.00000E+00
    0.12459E-01        -0.11795E-01         0.00000E+00
    0.12238E-01        -0.11482E-01         0.00000E+00
    0.12013E-01        -0.11171E-01         0.00000E+00
    0.11782E-01        -0.10859E-01         0.00000E+00
    0.11546E-01        -0.10549E-01         0.00000E+00
    0.11305E-01        -0.10238E-01         0.00000E+00
    0.11059E-01        -0.99288E-02         0.00000E+00
    0.10808E-01        -0.96197E-02         0.00000E+00
    0.10552E-01        -0.93113E-02         0.00000E+00
    0.10291E-01        -0.90036E-02         0.00000E+00
    0.10026E-01        -0.86966E-02         0.00000E+00
    0.97554E-02        -0.83904E-02         0.00000E+00
    0.94803E-02        -0.80849E-02         0.00000E+00
    0.92005E-02        -0.77803E-02         0.00000E+00
    0.89160E-02        -0.74766E-02         0.00000E+00
    0.86268E-02        -0.71738E-02         0.00000E+00
    0.83331E-02        -0.68719E-02         0.00000E+00
    0.80348E-02        -0.65710E-02         0.00000E+00
    0.77319E-02        -0.62711E-02         0.00000E+00
    0.74246E-02        -0.59722E-02         0.00000E+00
    0.71128E-02        -0.56744E-02         0.00000E+00
    0.67966E-02        -0.53778E-02         0.00000E+00
    0.64760E-02        -0.50823E-02         0.00000E+00
    0.61511E-02        -0.47880E-02         0.00000E+00
    0.58219E-02        -0.44949E-02         0.00000E+00
    0.54884E-02        -0.42030E-02         0.00000E+00
    0.51507E-02        -0.39125E-02         0.00000E+00
    0.48088E-02        -0.36232E-02         0.00000E+00
    0.44627E-02        -0.33354E-02         0.00000E+00
    0.41126E-02        -0.30489E-02         0.00000E+00
    0.37583E-02        -0.27639E-02         0.00000E+00
    0.34001E-02        -0.24803E-02         0.00000E+00
    0.30378E-02        -0.21982E-02         0.00000E+00
    0.26715E-02        -0.19177E-02         0.00000E+00
    0.23014E-02        -0.16388E-02         0.00000E+00
    0.19273E-02        -0.13614E-02         0.00000E+00
    0.15494E-02        -0.10857E-02         0.00000E+00
    0.11677E-02        -0.81168E-03         0.00000E+00
    0.78216E-03        -0.53936E-03         0.00000E+00
    0.39293E-03        -0.26879E-03         0.00000E+00
    0.00000E+00         0.00000E+00         0.00000E+00
    0.15077E-01        -0.15775E-01         0.00000E+00
    0.14901E-01        -0.15444E-01         0.00000E+00
    0.14718E-01        -0.15112E-01         0.00000E+00
    0.14531E-01        -0.14781E-01         0.00000E+00
    0.14337E-01        -0.14449E-01         0.00000E+00
    0.14138E-01        -0.14118E-01         0.00000E+00
    0.13933E-01        -0.13787E-01         0.00000E+00
    0.13723E-01        -0.13456E-01         0.00000E+00
    0.13507E-01        -0.13126E-01         0.00000E+00
    0.13285E-01        -0.12796E-01         0.00000E+00
    0.13059E-01        -0.12466E-01         0.00000E+00
    0.12827E-01        -0.12136E-01         0.00000E+00
    0.12589E-01        -0.11807E-01         0.00000E+00
    0.12346E-01        -0.11479E-01         0.00000E+00
    0.12098E-01        -0.11151E-01         0.00000E+00
    0.11845E-01        -0.10824E-01         0.00000E+00
    0.11587E-01        -0.10497E-01         0.00000E+00
    0.11323E-01        -0.10170E-01         0.00000E+00
    0.11054E-01        -0.98449E-02         0.00000E+00
    0.10781E-01        -0.95201E-02         0.00000E+00
    0.10502E-01        -0.91960E-02         0.00000E+00
    0.10218E-01        -0.88726E-02         0.00000E+00
    0.99296E-02        -0.85501E-02         0.00000E+00
    0.96361E-02        -0.82285E-02         0.00000E+00
    0.93378E-02        -0.79077E-02         0.00000E+00
    0.90346E-02        -0.75879E-02         0.00000E+00
    0.87266E-02        -0.72690E-02         0.00000E+00
    0.84139E-02        -0.69511E-02         0.00000E+00
    0.80965E-02        -0.66343E-02         0.00000E+00
    0.77744E-02        -0.63185E-02         0.00000E+00
    0.74477E-02        -0.60038E-02         0.00000E+00
    0.71164E-02        -0.56903E-02         0.00000E+00
    0.67805E-02        -0.53780E-02         0.00000E+00
    0.64402E-02        -0.50669E-02         0.00000E+00
    0.60953E-02        -0.47570E-02         0.00000E+00
    0.57461E-02        -0.44484E-02         0.00000E+00
    0.53924E-02        -0.41412E-02         0.00000E+00
    0.50344E-02        -0.38353E-02         0.00000E+00
    0.46720E-02        -0.35309E-02         0.00000E+00
    0.43054E-02        -0.32278E-02         0.00000E+00
    0.39345E-02        -0.29263E-02         0.00000E+00
    0.35594E-02        -0.26262E-02         0.00000E+00
    0.31801E-02        -0.23278E-02         0.00000E+00
    0.27966E-02        -0.20308E-02         0.00000E+00
    0.24091E-02        -0.17356E-02         0.00000E+00
    0.20175E-02        -0.14419E-02         0.00000E+00
    0.16219E-02        -0.11500E-02         0.00000E+00
    0.12223E-02        -0.85982E-03         0.00000E+00
    0.81878E-03        -0.57139E-03         0.00000E+00
    0.41133E-03        -0.28477E-03         0.00000E+00
    0.00000E+00         0.00000E+00         0.00000E+00
    0.15809E-01        -0.16668E-01         0.00000E+00
    0.15623E-01        -0.16318E-01         0.00000E+00
    0.15430E-01        -0.15968E-01         0.00000E+00
    0.15232E-01        -0.15618E-01         0.00000E+00
    0.15028E-01        -0.15269E-01         0.00000E+00
    0.14817E-01        -0.14919E-01         0.00000E+00
    0.14602E-01        -0.14570E-01         0.00000E+00
    0.14380E-01        -0.14221E-01         0.00000E+00
    0.14153E-01        -0.13872E-01         0.00000E+00
    0.13920E-01        -0.13524E-01         0.00000E+00
    0.13681E-01        -0.13176E-01         0.00000E+00
    0.13437E-01        -0.12828E-01         0.00000E+00
    0.13187E-01        -0.12481E-01         0.00000E+00
    0.12932E-01        -0.12135E-01         0.00000E+00
    0.12671E-01        -0.11788E-01         0.00000E+00
    0.12405E-01        -0.11443E-01         0.00000E+00
    0.12134E-01        -0.11098E-01         0.00000E+00
    0.11857E-01        -0.10754E-01         0.00000E+00
    0.11575E-01        -0.10410E-01         0.00000E+00
    0.11288E-01        -0.10067E-01         0.00000E+00
    0.10995E-01        -0.97249E-02         0.00000E+00
    0.10698E-01        -0.93835E-02         0.00000E+00
    0.10395E-01        -0.90429E-02         0.00000E+00
    0.10087E-01        -0.87033E-02         0.00000E+00
    0.97746E-02        -0.83645E-02         0.00000E+00
    0.94569E-02        -0.80267E-02         0.00000E+00
    0.91341E-02        -0.76898E-02         0.00000E+00
    0.88065E-02        -0.73540E-02         0.00000E+00
    0.84739E-02        -0.70192E-02         0.00000E+00
    0.81365E-02        -0.66856E-02         0.00000E+00
    0.77944E-02        -0.63531E-02         0.00000E+00
    0.74474E-02        -0.60217E-02         0.00000E+00
    0.70957E-02        -0.56916E-02         0.00000E+00
    0.67394E-02        -0.53627E-02         0.00000E+00
    0.63784E-02        -0.50351E-02         0.00000E+00
    0.60127E-02        -0.47088E-02         0.00000E+00
    0.56425E-02        -0.43839E-02         0.00000E+00
    0.52678E-02        -0.40604E-02         0.00000E+00
    0.48885E-02        -0.37384E-02         0.00000E+00
    0.45048E-02        -0.34178E-02         0.00000E+00
    0.41167E-02        -0.30987E-02         0.00000E+00
    0.37242E-02        -0.27812E-02         0.00000E+00
    0.33273E-02        -0.24653E-02         0.00000E+00
    0.29261E-02        -0.21510E-02         0.00000E+00
    0.25206E-02        -0.18384E-02         0.00000E+00
    0.21109E-02        -0.15275E-02         0.00000E+00
    0.16970E-02        -0.12183E-02         0.00000E+00
    0.12789E-02        -0.91097E-03         0.00000E+00
    0.85667E-03        -0.60543E-03         0.00000E+00
    0.43036E-03        -0.30176E-03         0.00000E+00
    0.00000E+00         0.00000E+00         0.00000E+00
    0.16570E-01        -0.17611E-01         0.00000E+00
    0.16373E-01        -0.17242E-01         0.00000E+00
    0.16169E-01        -0.16873E-01         0.00000E+00
    0.15960E-01        -0.16504E-01         0.00000E+00
    0.15744E-01        -0.16135E-01         0.00000E+00
    0.15523E-01        -0.15767E-01         0.00000E+00
    0.15295E-01        -0.15398E-01         0.00000E+00
    0.15062E-01        -0.15030E-01         0.00000E+00
    0.14822E-01        -0.14662E-01         0.00000E+00
    0.14577E-01        -0.14295E-01         0.00000E+00
    0.14326E-01        -0.13928E-01         0.00000E+00
    0.14069E-01        -0.13561E-01         0.00000E+00
    0.13807E-01        -0.13195E-01         0.00000E+00
    0.13538E-01        -0.12829E-01         0.00000E+00
    0.13265E-01        -0.12463E-01         0.00000E+00
    0.12985E-01        -0.12099E-01         0.00000E+00
    0.12700E-01        -0.11735E-01         0.00000E+00
    0.12410E-01        -0.11371E-01         0.00000E+00
    0.12114E-01        -0.11008E-01         0.00000E+00
    0.11813E-01        -0.10646E-01         0.00000E+00
    0.11506E-01        -0.10285E-01         0.00000E+00
    0.11194E-01        -0.99247E-02         0.00000E+00
    0.10877E-01        -0.95651E-02         0.00000E+00
    0.10554E-01        -0.92063E-02         0.00000E+00
    0.10227E-01        -0.88485E-02         0.00000E+00
    0.98936E-02        -0.84917E-02         0.00000E+00
    0.95555E-02        -0.81359E-02         0.00000E+00
    0.92124E-02        -0.77811E-02         0.00000E+00
    0.88641E-02        -0.74274E-02         0.00000E+00
    0.85109E-02        -0.70748E-02         0.00000E+00
    0.81527E-02        -0.67234E-02         0.00000E+00
    0.77896E-02        -0.63732E-02         0.00000E+00
    0.74215E-02        -0.60242E-02         0.00000E+00
    0.70486E-02        -0.56765E-02         0.00000E+00
    0.66708E-02        -0.53301E-02         0.00000E+00
    0.62883E-02        -0.49851E-02         0.00000E+00
    0.59010E-02        -0.46415E-02         0.00000E+00
    0.55090E-02        -0.42993E-02         0.00000E+00
    0.51123E-02        -0.39586E-02         0.00000E+00
    0.47109E-02        -0.36194E-02         0.00000E+00
    0.43050E-02        -0.32818E-02         0.00000E+00
    0.38945E-02        -0.29457E-02         0.00000E+00
    0.34794E-02        -0.26113E-02         0.00000E+00
    0.30598E-02        -0.22786E-02         0.00000E+00
    0.26358E-02        -0.19476E-02         0.00000E+00
    0.22074E-02        -0.16184E-02         0.00000E+00
    0.17745E-02        -0.12909E-02         0.00000E+00
    0.13373E-02        -0.96533E-03         0.00000E+00
    0.89582E-03        -0.64162E-03         0.00000E+00
    0.45003E-03        -0.31983E-03         0.00000E+00
    0.00000E+00         0.00000E+00         0.00000E+00
    0.17359E-01        -0.18609E-01         0.00000E+00
    0.17150E-01        -0.18220E-01         0.00000E+00
    0.16936E-01        -0.17830E-01         0.00000E+00
    0.16714E-01        -0.17441E-01         0.00000E+00
    0.16487E-01        -0.17052E-01         0.00000E+00
    0.16253E-01        -0.16663E-01         0.00000E+00
    0.16014E-01        -0.16275E-01         0.00000E+00
    0.15768E-01        -0.15886E-01         0.00000E+00
    0.15516E-01        -0.15498E-01         0.00000E+00
    0.15258E-01        -0.15110E-01         0.00000E+00
    0.14994E-01        -0.14723E-01         0.00000E+00
    0.14724E-01        -0.14336E-01         0.00000E+00
    0.14448E-01        -0.13950E-01         0.00000E+00
    0.14166E-01        -0.13563E-01         0.00000E+00
    0.13878E-01        -0.13178E-01         0.00000E+00
    0.13585E-01        -0.12793E-01         0.00000E+00
    0.13286E-01        -0.12409E-01         0.00000E+00
    0.12981E-01        -0.12025E-01         0.00000E+00
    0.12671E-01        -0.11642E-01         0.00000E+00
    0.12355E-01        -0.11260E-01         0.00000E+00
    0.12034E-01        -0.10879E-01         0.00000E+00
    0.11707E-01        -0.10498E-01         0.00000E+00
    0.11374E-01        -0.10118E-01         0.00000E+00
    0.11036E-01        -0.97395E-02         0.00000E+00
    0.10693E-01        -0.93616E-02         0.00000E+00
    0.10344E-01        -0.89847E-02         0.00000E+00
    0.99905E-02        -0.86088E-02         0.00000E+00
    0.96313E-02        -0.82340E-02         0.00000E+00
    0.92669E-02        -0.78602E-02         0.00000E+00
    0.88973E-02        -0.74876E-02         0.00000E+00
    0.85225E-02        -0.71162E-02         0.00000E+00
    0.81426E-02        -0.67461E-02         0.00000E+00
    0.77576E-02        -0.63771E-02         0.00000E+00
    0.73676E-02        -0.60095E-02         0.00000E+00
    0.69725E-02        -0.56433E-02         0.00000E+00
    0.65725E-02        -0.52784E-02         0.00000E+00
    0.61676E-02        -0.49149E-02         0.00000E+00
    0.57577E-02        -0.45529E-02         0.00000E+00
    0.53430E-02        -0.41925E-02         0.00000E+00
    0.49235E-02        -0.38335E-02         0.00000E+00
    0.44991E-02        -0.34762E-02         0.00000E+00
    0.40701E-02        -0.31205E-02         0.00000E+00
    0.36362E-02        -0.27665E-02         0.00000E+00
    0.31977E-02        -0.24142E-02         0.00000E+00
    0.27546E-02        -0.20637E-02         0.00000E+00
    0.23068E-02        -0.17150E-02         0.00000E+00
    0.18545E-02        -0.13681E-02         0.00000E+00
    0.13976E-02        -0.10231E-02         0.00000E+00
    0.93619E-03        -0.68009E-03         0.00000E+00
    0.47031E-03        -0.33903E-03         0.00000E+00
    0.00000E+00         0.00000E+00         0.00000E+00
    0.18176E-01        -0.19664E-01         0.00000E+00
    0.17956E-01        -0.19254E-01         0.00000E+00
    0.17729E-01        -0.18843E-01         0.00000E+00
    0.17496E-01        -0.18433E-01         0.00000E+00
    0.17256E-01        -0.18022E-01         0.00000E+00
    0.17009E-01        -0.17612E-01         0.00000E+00
    0.16757E-01        -0.17202E-01         0.00000E+00
    0.16498E-01        -0.16792E-01         0.00000E+00
    0.16232E-01        -0.16383E-01         0.00000E+00
    0.15961E-01        -0.15974E-01         0.00000E+00
    0.15683E-01        -0.15565E-01         0.00000E+00
    0.15399E-01        -0.15157E-01         0.00000E+00
    0.15110E-01        -0.14749E-01         0.00000E+00
    0.14814E-01        -0.14341E-01         0.00000E+00
    0.14512E-01        -0.13935E-01         0.00000E+00
    0.14204E-01        -0.13528E-01         0.00000E+00
    0.13890E-01        -0.13123E-01         0.00000E+00
    0.13571E-01        -0.12718E-01         0.00000E+00
    0.13246E-01        -0.12314E-01         0.00000E+00
    0.12914E-01        -0.11910E-01         0.00000E+00
    0.12578E-01        -0.11507E-01         0.00000E+00
    0.12235E-01        -0.11106E-01         0.00000E+00
    0.11887E-01        -0.10705E-01         0.00000E+00
    0.11533E-01        -0.10305E-01         0.00000E+00
    0.11174E-01        -0.99054E-02         0.00000E+00
    0.10809E-01        -0.95073E-02         0.00000E+00
    0.10439E-01        -0.91102E-02         0.00000E+00
    0.10063E-01        -0.87141E-02         0.00000E+00
    0.96818E-02        -0.83192E-02         0.00000E+00
    0.92952E-02        -0.79255E-02         0.00000E+00
    0.89033E-02        -0.75329E-02         0.00000E+00
    0.85061E-02        -0.71416E-02         0.00000E+00
    0.81037E-02        -0.67516E-02         0.00000E+00
    0.76960E-02        -0.63629E-02         0.00000E+00
    0.72832E-02        -0.59756E-02         0.00000E+00
    0.68652E-02        -0.55896E-02         0.00000E+00
    0.64420E-02        -0.52052E-02         0.00000E+00
    0.60138E-02        -0.48222E-02         0.00000E+00
    0.55805E-02        -0.44408E-02         0.00000E+00
    0.51423E-02        -0.40609E-02         0.00000E+00
    0.46990E-02        -0.36827E-02         0.00000E+00
    0.42508E-02        -0.33062E-02         0.00000E+00
    0.37977E-02        -0.29314E-02         0.00000E+00
    0.33397E-02        -0.25583E-02         0.00000E+00
    0.28769E-02        -0.21871E-02         0.00000E+00
    0.24092E-02        -0.18177E-02         0.00000E+00
    0.19368E-02        -0.14501E-02         0.00000E+00
    0.14596E-02        -0.10846E-02         0.00000E+00
    0.97774E-03        -0.72101E-03         0.00000E+00
    0.49119E-03        -0.35946E-03         0.00000E+00
    0.00000E+00         0.00000E+00         0.00000E+00
    0.19022E-01        -0.20780E-01         0.00000E+00
    0.18789E-01        -0.20347E-01         0.00000E+00
    0.18549E-01        -0.19914E-01         0.00000E+00
    0.18303E-01        -0.19481E-01         0.00000E+00
    0.18050E-01        -0.19048E-01         0.00000E+00
    0.17790E-01        -0.18616E-01         0.00000E+00
    0.17524E-01        -0.18183E-01         0.00000E+00
    0.17251E-01        -0.17751E-01         0.00000E+00
    0.16972E-01        -0.17319E-01         0.00000E+00
    0.16686E-01        -0.16887E-01         0.00000E+00
    0.16395E-01        -0.16456E-01         0.00000E+00
    0.16096E-01        -0.16025E-01         0.00000E+00
    0.15792E-01        -0.15595E-01         0.00000E+00
    0.15481E-01        -0.15165E-01         0.00000E+00
    0.15165E-01        -0.14736E-01         0.00000E+00
    0.14842E-01        -0.14307E-01         0.00000E+00
    0.14513E-01        -0.13879E-01         0.00000E+00
    0.14178E-01        -0.13452E-01         0.00000E+00
    0.13837E-01        -0.13025E-01         0.00000E+00
    0.13490E-01        -0.12599E-01         0.00000E+00
    0.13138E-01        -0.12174E-01         0.00000E+00
    0.12779E-01        -0.11749E-01         0.00000E+00
    0.12415E-01        -0.11326E-01         0.00000E+00
    0.12044E-01        -0.10903E-01         0.00000E+00
    0.11668E-01        -0.10482E-01         0.00000E+00
    0.11287E-01        -0.10061E-01         0.00000E+00
    0.10900E-01        -0.96418E-02         0.00000E+00
    0.10507E-01        -0.92234E-02         0.00000E+00
    0.10108E-01        -0.88061E-02         0.00000E+00
    0.97043E-02        -0.83899E-02         0.00000E+00
    0.92947E-02        -0.79750E-02         0.00000E+00
    0.88798E-02        -0.75613E-02         0.00000E+00
    0.84593E-02        -0.71489E-02         0.00000E+00
    0.80335E-02        -0.67379E-02         0.00000E+00
    0.76023E-02        -0.63283E-02         0.00000E+00
    0.71658E-02        -0.59201E-02         0.00000E+00
    0.67240E-02        -0.55134E-02         0.00000E+00
    0.62769E-02        -0.51082E-02         0.00000E+00
    0.58245E-02        -0.47045E-02         0.00000E+00
    0.53670E-02        -0.43025E-02         0.00000E+00
    0.49043E-02        -0.39021E-02         0.00000E+00
    0.44365E-02        -0.35035E-02         0.00000E+00
    0.39635E-02        -0.31066E-02         0.00000E+00
    0.34855E-02        -0.27115E-02         0.00000E+00
    0.30024E-02        -0.23182E-02         0.00000E+00
    0.25144E-02        -0.19268E-02         0.00000E+00
    0.20213E-02        -0.15374E-02         0.00000E+00
    0.15233E-02        -0.11499E-02         0.00000E+00
    0.10204E-02        -0.76452E-03         0.00000E+00
    0.51263E-03        -0.38120E-03         0.00000E+00
    0.00000E+00         0.00000E+00         0.00000E+00
    0.19895E-01        -0.21961E-01         0.00000E+00
    0.19648E-01        -0.21504E-01         0.00000E+00
    0.19395E-01        -0.21047E-01         0.00000E+00
    0.19135E-01        -0.20590E-01         0.00000E+00
    0.18868E-01        -0.20134E-01         0.00000E+00
    0.18595E-01        -0.19677E-01         0.00000E+00
    0.18314E-01        -0.19221E-01         0.00000E+00
    0.18027E-01        -0.18765E-01         0.00000E+00
    0.17734E-01        -0.18310E-01         0.00000E+00
    0.17434E-01        -0.17854E-01         0.00000E+00
    0.17127E-01        -0.17399E-01         0.00000E+00
    0.16814E-01        -0.16945E-01         0.00000E+00
    0.16494E-01        -0.16491E-01         0.00000E+00
    0.16168E-01        -0.16037E-01         0.00000E+00
    0.15836E-01        -0.15584E-01         0.00000E+00
    0.15497E-01        -0.15132E-01         0.00000E+00
    0.15153E-01        -0.14680E-01         0.00000E+00
    0.14802E-01        -0.14229E-01         0.00000E+00
    0.14445E-01        -0.13778E-01         0.00000E+00
    0.14082E-01        -0.13329E-01         0.00000E+00
    0.13712E-01        -0.12880E-01         0.00000E+00
    0.13337E-01        -0.12432E-01         0.00000E+00
    0.12956E-01        -0.11985E-01         0.00000E+00
    0.12569E-01        -0.11538E-01         0.00000E+00
    0.12176E-01        -0.11093E-01         0.00000E+00
    0.11777E-01        -0.10649E-01         0.00000E+00
    0.11372E-01        -0.10206E-01         0.00000E+00
    0.10962E-01        -0.97634E-02         0.00000E+00
    0.10546E-01        -0.93224E-02         0.00000E+00
    0.10124E-01        -0.88826E-02         0.00000E+00
    0.96962E-02        -0.84440E-02         0.00000E+00
    0.92629E-02        -0.80066E-02         0.00000E+00
    0.88240E-02        -0.75706E-02         0.00000E+00
    0.83795E-02        -0.71360E-02         0.00000E+00
    0.79295E-02        -0.67027E-02         0.00000E+00
    0.74740E-02        -0.62709E-02         0.00000E+00
    0.70130E-02        -0.58406E-02         0.00000E+00
    0.65465E-02        -0.54118E-02         0.00000E+00
    0.60746E-02        -0.49846E-02         0.00000E+00
    0.55973E-02        -0.45591E-02         0.00000E+00
    0.51147E-02        -0.41352E-02         0.00000E+00
    0.46267E-02        -0.37131E-02         0.00000E+00
    0.41334E-02        -0.32928E-02         0.00000E+00
    0.36349E-02        -0.28742E-02         0.00000E+00
    0.31311E-02        -0.24576E-02         0.00000E+00
    0.26221E-02        -0.20429E-02         0.00000E+00
    0.21079E-02        -0.16302E-02         0.00000E+00
    0.15886E-02        -0.12194E-02         0.00000E+00
    0.10642E-02        -0.81082E-03         0.00000E+00
    0.53461E-03        -0.40432E-03         0.00000E+00
    0.00000E+00         0.00000E+00         0.00000E+00
    0.20794E-01        -0.23209E-01         0.00000E+00
    0.20534E-01        -0.22727E-01         0.00000E+00
    0.20267E-01        -0.22246E-01         0.00000E+00
    0.19992E-01        -0.21764E-01         0.00000E+00
    0.19711E-01        -0.21282E-01         0.00000E+00
    0.19422E-01        -0.20801E-01         0.00000E+00
    0.19127E-01        -0.20320E-01         0.00000E+00
    0.18825E-01        -0.19839E-01         0.00000E+00
    0.18516E-01        -0.19358E-01         0.00000E+00
    0.18201E-01        -0.18878E-01         0.00000E+00
    0.17879E-01        -0.18398E-01         0.00000E+00
    0.17550E-01        -0.17918E-01         0.00000E+00
    0.17215E-01        -0.17439E-01         0.00000E+00
    0.16873E-01        -0.16960E-01         0.00000E+00
    0.16525E-01        -0.16482E-01         0.00000E+00
    0.16170E-01        -0.16005E-01         0.00000E+00
    0.15809E-01        -0.15528E-01         0.00000E+00
    0.15441E-01        -0.15052E-01         0.00000E+00
    0.15068E-01        -0.14576E-01         0.00000E+00
    0.14688E-01        -0.14102E-01         0.00000E+00
    0.14302E-01        -0.13628E-01         0.00000E+00
    0.13909E-01        -0.13155E-01         0.00000E+00
    0.13511E-01        -0.12683E-01         0.00000E+00
    0.13106E-01        -0.12211E-01         0.00000E+00
    0.12696E-01        -0.11741E-01         0.00000E+00
    0.12279E-01        -0.11272E-01         0.00000E+00
    0.11856E-01        -0.10803E-01         0.00000E+00
    0.11428E-01        -0.10336E-01         0.00000E+00
    0.10993E-01        -0.98700E-02         0.00000E+00
    0.10553E-01        -0.94052E-02         0.00000E+00
    0.10107E-01        -0.89415E-02         0.00000E+00
    0.96547E-02        -0.84792E-02         0.00000E+00
    0.91969E-02        -0.80181E-02         0.00000E+00
    0.87334E-02        -0.75584E-02         0.00000E+00
    0.82641E-02        -0.71002E-02         0.00000E+00
    0.77891E-02        -0.66433E-02         0.00000E+00
    0.73084E-02        -0.61880E-02         0.00000E+00
    0.68222E-02        -0.57343E-02         0.00000E+00
    0.63303E-02        -0.52822E-02         0.00000E+00
    0.58328E-02        -0.48317E-02         0.00000E+00
    0.53297E-02        -0.43829E-02         0.00000E+00
    0.48212E-02        -0.39359E-02         0.00000E+00
    0.43071E-02        -0.34906E-02         0.00000E+00
    0.37876E-02        -0.30473E-02         0.00000E+00
    0.32627E-02        -0.26058E-02         0.00000E+00
    0.27323E-02        -0.21663E-02         0.00000E+00
    0.21965E-02        -0.17288E-02         0.00000E+00
    0.16553E-02        -0.12934E-02         0.00000E+00
    0.11089E-02        -0.86006E-03         0.00000E+00
    0.55708E-03        -0.42892E-03         0.00000E+00
    0.00000E+00         0.00000E+00         0.00000E+00
    0.21719E-01        -0.24529E-01         0.00000E+00
    0.21444E-01        -0.24021E-01         0.00000E+00
    0.21162E-01        -0.23513E-01         0.00000E+00
    0.20872E-01        -0.23005E-01         0.00000E+00
    0.20576E-01        -0.22497E-01         0.00000E+00
    0.20272E-01        -0.21989E-01         0.00000E+00
    0.19961E-01        -0.21482E-01         0.00000E+00
    0.19643E-01        -0.20974E-01         0.00000E+00
    0.19319E-01        -0.20467E-01         0.00000E+00
    0.18987E-01        -0.19961E-01         0.00000E+00
    0.18649E-01        -0.19454E-01         0.00000E+00
    0.18304E-01        -0.18948E-01         0.00000E+00
    0.17953E-01        -0.18443E-01         0.00000E+00
    0.17594E-01        -0.17938E-01         0.00000E+00
    0.17229E-01        -0.17434E-01         0.00000E+00
    0.16858E-01        -0.16930E-01         0.00000E+00
    0.16480E-01        -0.16426E-01         0.00000E+00
    0.16095E-01        -0.15924E-01         0.00000E+00
    0.15704E-01        -0.15422E-01         0.00000E+00
    0.15307E-01        -0.14921E-01         0.00000E+00
    0.14903E-01        -0.14420E-01         0.00000E+00
    0.14494E-01        -0.13921E-01         0.00000E+00
    0.14077E-01        -0.13422E-01         0.00000E+00
    0.13655E-01        -0.12924E-01         0.00000E+00
    0.13226E-01        -0.12428E-01         0.00000E+00
    0.12791E-01        -0.11932E-01         0.00000E+00
    0.12350E-01        -0.11437E-01         0.00000E+00
    0.11903E-01        -0.10943E-01         0.00000E+00
    0.11450E-01        -0.10451E-01         0.00000E+00
    0.10991E-01        -0.99595E-02         0.00000E+00
    0.10526E-01        -0.94694E-02         0.00000E+00
    0.10054E-01        -0.89805E-02         0.00000E+00
    0.95773E-02        -0.84930E-02         0.00000E+00
    0.90942E-02        -0.80068E-02         0.00000E+00
    0.86052E-02        -0.75220E-02         0.00000E+00
    0.81104E-02        -0.70387E-02         0.00000E+00
    0.76097E-02        -0.65570E-02         0.00000E+00
    0.71032E-02        -0.60768E-02         0.00000E+00
    0.65909E-02        -0.55982E-02         0.00000E+00
    0.60728E-02        -0.51212E-02         0.00000E+00
    0.55490E-02        -0.46460E-02         0.00000E+00
    0.50194E-02        -0.41726E-02         0.00000E+00
    0.44842E-02        -0.37009E-02         0.00000E+00
    0.39433E-02        -0.32312E-02         0.00000E+00
    0.33967E-02        -0.27634E-02         0.00000E+00
    0.28445E-02        -0.22975E-02         0.00000E+00
    0.22867E-02        -0.18337E-02         0.00000E+00
    0.17234E-02        -0.13720E-02         0.00000E+00
    0.11544E-02        -0.91245E-03         0.00000E+00
    0.57998E-03        -0.45509E-03         0.00000E+00
    0.00000E+00         0.00000E+00         0.00000E+00
    0.22668E-01        -0.25925E-01         0.00000E+00
    0.22377E-01        -0.25389E-01         0.00000E+00
    0.22079E-01        -0.24853E-01         0.00000E+00
    0.21774E-01        -0.24317E-01         0.00000E+00
    0.21461E-01        -0.23782E-01         0.00000E+00
    0.21141E-01        -0.23246E-01         0.00000E+00
    0.20814E-01        -0.22711E-01         0.00000E+00
    0.20480E-01        -0.22176E-01         0.00000E+00
    0.20139E-01        -0.21641E-01         0.00000E+00
    0.19791E-01        -0.21107E-01         0.00000E+00
    0.19436E-01        -0.20572E-01         0.00000E+00
    0.19074E-01        -0.20039E-01         0.00000E+00
    0.18706E-01        -0.19505E-01         0.00000E+00
    0.18330E-01        -0.18973E-01         0.00000E+00
    0.17948E-01        -0.18440E-01         0.00000E+00
    0.17560E-01        -0.17909E-01         0.00000E+00
    0.17164E-01        -0.17378E-01         0.00000E+00
    0.16762E-01        -0.16847E-01         0.00000E+00
    0.16353E-01        -0.16317E-01         0.00000E+00
    0.15938E-01        -0.15788E-01         0.00000E+00
    0.15517E-01        -0.15260E-01         0.00000E+00
    0.15089E-01        -0.14733E-01         0.00000E+00
    0.14654E-01        -0.14206E-01         0.00000E+00
    0.14213E-01        -0.13680E-01         0.00000E+00
    0.13766E-01        -0.13156E-01         0.00000E+00
    0.13313E-01        -0.12632E-01         0.00000E+00
    0.12853E-01        -0.12109E-01         0.00000E+00
    0.12387E-01        -0.11587E-01         0.00000E+00
    0.11915E-01        -0.11067E-01         0.00000E+00
    0.11436E-01        -0.10547E-01         0.00000E+00
    0.10952E-01        -0.10029E-01         0.00000E+00
    0.10461E-01        -0.95124E-02         0.00000E+00
    0.99640E-02        -0.89968E-02         0.00000E+00
    0.94610E-02        -0.84826E-02         0.00000E+00
    0.89520E-02        -0.79698E-02         0.00000E+00
    0.84369E-02        -0.74585E-02         0.00000E+00
    0.79158E-02        -0.69486E-02         0.00000E+00
    0.73887E-02        -0.64404E-02         0.00000E+00
    0.68557E-02        -0.59338E-02         0.00000E+00
    0.63167E-02        -0.54288E-02         0.00000E+00
    0.57717E-02        -0.49255E-02         0.00000E+00
    0.52208E-02        -0.44241E-02         0.00000E+00
    0.46641E-02        -0.39244E-02         0.00000E+00
    0.41014E-02        -0.34267E-02         0.00000E+00
    0.35329E-02        -0.29308E-02         0.00000E+00
    0.29586E-02        -0.24370E-02         0.00000E+00
    0.23785E-02        -0.19453E-02         0.00000E+00
    0.17925E-02        -0.14556E-02         0.00000E+00
    0.12008E-02        -0.96817E-03         0.00000E+00
    0.60325E-03        -0.48294E-03         0.00000E+00
    0.00000E+00         0.00000E+00         0.00000E+00
    0.23638E-01        -0.27400E-01         0.00000E+00
    0.23331E-01        -0.26835E-01         0.00000E+00
    0.23017E-01        -0.26270E-01         0.00000E+00
    0.22695E-01        -0.25705E-01         0.00000E+00
    0.22365E-01        -0.25140E-01         0.00000E+00
    0.22029E-01        -0.24575E-01         0.00000E+00
    0.21685E-01        -0.24011E-01         0.00000E+00
    0.21334E-01        -0.23447E-01         0.00000E+00
    0.20976E-01        -0.22882E-01         0.00000E+00
    0.20610E-01        -0.22319E-01         0.00000E+00
    0.20238E-01        -0.21755E-01         0.00000E+00
    0.19859E-01        -0.21192E-01         0.00000E+00
    0.19473E-01        -0.20630E-01         0.00000E+00
    0.19080E-01        -0.20068E-01         0.00000E+00
    0.18680E-01        -0.19506E-01         0.00000E+00
    0.18273E-01        -0.18945E-01         0.00000E+00
    0.17860E-01        -0.18385E-01         0.00000E+00
    0.17440E-01        -0.17825E-01         0.00000E+00
    0.17013E-01        -0.17266E-01         0.00000E+00
    0.16579E-01        -0.16707E-01         0.00000E+00
    0.16139E-01        -0.16149E-01         0.00000E+00
    0.15693E-01        -0.15592E-01         0.00000E+00
    0.15240E-01        -0.15036E-01         0.00000E+00
    0.14780E-01        -0.14481E-01         0.00000E+00
    0.14314E-01        -0.13927E-01         0.00000E+00
    0.13842E-01        -0.13374E-01         0.00000E+00
    0.13363E-01        -0.12821E-01         0.00000E+00
    0.12877E-01        -0.12270E-01         0.00000E+00
    0.12386E-01        -0.11720E-01         0.00000E+00
    0.11888E-01        -0.11171E-01         0.00000E+00
    0.11383E-01        -0.10623E-01         0.00000E+00
    0.10873E-01        -0.10077E-01         0.00000E+00
    0.10356E-01        -0.95313E-02         0.00000E+00
    0.98326E-02        -0.89875E-02         0.00000E+00
    0.93032E-02        -0.84450E-02         0.00000E+00
    0.87677E-02        -0.79039E-02         0.00000E+00
    0.82259E-02        -0.73644E-02         0.00000E+00
    0.76780E-02        -0.68265E-02         0.00000E+00
    0.71239E-02        -0.62901E-02         0.00000E+00
    0.65636E-02        -0.57554E-02         0.00000E+00
    0.59973E-02        -0.52224E-02         0.00000E+00
    0.54248E-02        -0.46912E-02         0.00000E+00
    0.48462E-02        -0.41619E-02         0.00000E+00
    0.42616E-02        -0.36344E-02         0.00000E+00
    0.36709E-02        -0.31089E-02         0.00000E+00
    0.30741E-02        -0.25853E-02         0.00000E+00
    0.24713E-02        -0.20639E-02         0.00000E+00
    0.18625E-02        -0.15446E-02         0.00000E+00
    0.12477E-02        -0.10274E-02         0.00000E+00
    0.62682E-03        -0.51256E-03         0.00000E+00
    0.00000E+00         0.00000E+00         0.00000E+00
    0.24628E-01        -0.28959E-01         0.00000E+00
    0.24304E-01        -0.28363E-01         0.00000E+00
    0.23972E-01        -0.27768E-01         0.00000E+00
    0.23632E-01        -0.27172E-01         0.00000E+00
    0.23286E-01        -0.26576E-01         0.00000E+00
    0.22931E-01        -0.25981E-01         0.00000E+00
    0.22570E-01        -0.25385E-01         0.00000E+00
    0.22201E-01        -0.24790E-01         0.00000E+00
    0.21825E-01        -0.24195E-01         0.00000E+00
    0.21442E-01        -0.23601E-01         0.00000E+00
    0.21052E-01        -0.23007E-01         0.00000E+00
    0.20655E-01        -0.22413E-01         0.00000E+00
    0.20251E-01        -0.21819E-01         0.00000E+00
    0.19839E-01        -0.21226E-01         0.00000E+00
    0.19421E-01        -0.20634E-01         0.00000E+00
    0.18996E-01        -0.20042E-01         0.00000E+00
    0.18564E-01        -0.19450E-01         0.00000E+00
    0.18126E-01        -0.18860E-01         0.00000E+00
    0.17680E-01        -0.18269E-01         0.00000E+00
    0.17228E-01        -0.17680E-01         0.00000E+00
    0.16770E-01        -0.17091E-01         0.00000E+00
    0.16304E-01        -0.16503E-01         0.00000E+00
    0.15832E-01        -0.15916E-01         0.00000E+00
    0.15353E-01        -0.15330E-01         0.00000E+00
    0.14868E-01        -0.14744E-01         0.00000E+00
    0.14376E-01        -0.14160E-01         0.00000E+00
    0.13878E-01        -0.13576E-01         0.00000E+00
    0.13373E-01        -0.12994E-01         0.00000E+00
    0.12861E-01        -0.12412E-01         0.00000E+00
    0.12343E-01        -0.11832E-01         0.00000E+00
    0.11819E-01        -0.11253E-01         0.00000E+00
    0.11288E-01        -0.10675E-01         0.00000E+00
    0.10751E-01        -0.10098E-01         0.00000E+00
    0.10208E-01        -0.95230E-02         0.00000E+00
    0.96577E-02        -0.89491E-02         0.00000E+00
    0.91014E-02        -0.83767E-02         0.00000E+00
    0.85387E-02        -0.78057E-02         0.00000E+00
    0.79697E-02        -0.72362E-02         0.00000E+00
    0.73944E-02        -0.66684E-02         0.00000E+00
    0.68127E-02        -0.61022E-02         0.00000E+00
    0.62248E-02        -0.55377E-02         0.00000E+00
    0.56305E-02        -0.49750E-02         0.00000E+00
    0.50299E-02        -0.44141E-02         0.00000E+00
    0.44231E-02        -0.38551E-02         0.00000E+00
    0.38100E-02        -0.32980E-02         0.00000E+00
    0.31906E-02        -0.27430E-02         0.00000E+00
    0.25650E-02        -0.21900E-02         0.00000E+00
    0.19331E-02        -0.16391E-02         0.00000E+00
    0.12950E-02        -0.10905E-02         0.00000E+00
    0.65060E-03        -0.54407E-03         0.00000E+00
    0.00000E+00         0.00000E+00         0.00000E+00
    0.25634E-01        -0.30606E-01         0.00000E+00
    0.25292E-01        -0.29978E-01         0.00000E+00
    0.24942E-01        -0.29350E-01         0.00000E+00
    0.24584E-01        -0.28722E-01         0.00000E+00
    0.24219E-01        -0.28094E-01         0.00000E+00
    0.23847E-01        -0.27466E-01         0.00000E+00
    0.23467E-01        -0.26838E-01         0.00000E+00
    0.23080E-01        -0.26211E-01         0.00000E+00
    0.22686E-01        -0.25583E-01         0.00000E+00
    0.22284E-01        -0.24956E-01         0.00000E+00
    0.21875E-01        -0.24330E-01         0.00000E+00
    0.21460E-01        -0.23703E-01         0.00000E+00
    0.21037E-01        -0.23077E-01         0.00000E+00
    0.20607E-01        -0.22452E-01         0.00000E+00
    0.20170E-01        -0.21827E-01         0.00000E+00
    0.19726E-01        -0.21202E-01         0.00000E+00
    0.19276E-01        -0.20578E-01         0.00000E+00
    0.18818E-01        -0.19955E-01         0.00000E+00
    0.18354E-01        -0.19332E-01         0.00000E+00
    0.17882E-01        -0.18710E-01         0.00000E+00
    0.17404E-01        -0.18088E-01         0.00000E+00
    0.16920E-01        -0.17467E-01         0.00000E+00
    0.16428E-01        -0.16847E-01         0.00000E+00
    0.15930E-01        -0.16228E-01         0.00000E+00
    0.15425E-01        -0.15610E-01         0.00000E+00
    0.14914E-01        -0.14992E-01         0.00000E+00
    0.14396E-01        -0.14376E-01         0.00000E+00
    0.13871E-01        -0.13760E-01         0.00000E+00
    0.13340E-01        -0.13146E-01         0.00000E+00
    0.12802E-01        -0.12532E-01         0.00000E+00
    0.12257E-01        -0.11920E-01         0.00000E+00
    0.11706E-01        -0.11309E-01         0.00000E+00
    0.11149E-01        -0.10699E-01         0.00000E+00
    0.10584E-01        -0.10091E-01         0.00000E+00
    0.10014E-01        -0.94838E-02         0.00000E+00
    0.94366E-02        -0.88781E-02         0.00000E+00
    0.88529E-02        -0.82739E-02         0.00000E+00
    0.82627E-02        -0.76711E-02         0.00000E+00
    0.76661E-02        -0.70699E-02         0.00000E+00
    0.70629E-02        -0.64703E-02         0.00000E+00
    0.64532E-02        -0.58725E-02         0.00000E+00
    0.58370E-02        -0.52763E-02         0.00000E+00
    0.52144E-02        -0.46820E-02         0.00000E+00
    0.45853E-02        -0.40895E-02         0.00000E+00
    0.39497E-02        -0.34990E-02         0.00000E+00
    0.33076E-02        -0.29105E-02         0.00000E+00
    0.26590E-02        -0.23240E-02         0.00000E+00
    0.20040E-02        -0.17396E-02         0.00000E+00
    0.13425E-02        -0.11575E-02         0.00000E+00
    0.67447E-03        -0.57757E-03         0.00000E+00
    0.00000E+00         0.00000E+00         0.00000E+00
    0.26653E-01        -0.32346E-01         0.00000E+00
    0.26292E-01        -0.31684E-01         0.00000E+00
    0.25923E-01        -0.31021E-01         0.00000E+00
    0.25547E-01        -0.30359E-01         0.00000E+00
    0.25163E-01        -0.29697E-01         0.00000E+00
    0.24771E-01        -0.29035E-01         0.00000E+00
    0.24372E-01        -0.28373E-01         0.00000E+00
    0.23966E-01        -0.27712E-01         0.00000E+00
    0.23553E-01        -0.27050E-01         0.00000E+00
    0.23132E-01        -0.26389E-01         0.00000E+00
    0.22705E-01        -0.25728E-01         0.00000E+00
    0.22270E-01        -0.25068E-01         0.00000E+00
    0.21828E-01        -0.24408E-01         0.00000E+00
    0.21379E-01        -0.23748E-01         0.00000E+00
    0.20923E-01        -0.23088E-01         0.00000E+00
    0.20460E-01        -0.22429E-01         0.00000E+00
    0.19990E-01        -0.21771E-01         0.00000E+00
    0.19513E-01        -0.21113E-01         0.00000E+00
    0.19029E-01        -0.20456E-01         0.00000E+00
    0.18539E-01        -0.19799E-01         0.00000E+00
    0.18041E-01        -0.19143E-01         0.00000E+00
    0.17537E-01        -0.18488E-01         0.00000E+00
    0.17026E-01        -0.17833E-01         0.00000E+00
    0.16508E-01        -0.17179E-01         0.00000E+00
    0.15984E-01        -0.16526E-01         0.00000E+00
    0.15452E-01        -0.15874E-01         0.00000E+00
    0.14914E-01        -0.15223E-01         0.00000E+00
    0.14370E-01        -0.14572E-01         0.00000E+00
    0.13818E-01        -0.13923E-01         0.00000E+00
    0.13260E-01        -0.13275E-01         0.00000E+00
    0.12695E-01        -0.12627E-01         0.00000E+00
    0.12124E-01        -0.11981E-01         0.00000E+00
    0.11546E-01        -0.11337E-01         0.00000E+00
    0.10961E-01        -0.10693E-01         0.00000E+00
    0.10370E-01        -0.10051E-01         0.00000E+00
    0.97717E-02        -0.94099E-02         0.00000E+00
    0.91670E-02        -0.87704E-02         0.00000E+00
    0.85556E-02        -0.81324E-02         0.00000E+00
    0.79375E-02        -0.74959E-02         0.00000E+00
    0.73128E-02        -0.68610E-02         0.00000E+00
    0.66815E-02        -0.62277E-02         0.00000E+00
    0.60434E-02        -0.55962E-02         0.00000E+00
    0.53987E-02        -0.49664E-02         0.00000E+00
    0.47473E-02        -0.43385E-02         0.00000E+00
    0.40892E-02        -0.37124E-02         0.00000E+00
    0.34245E-02        -0.30884E-02         0.00000E+00
    0.27530E-02        -0.24663E-02         0.00000E+00
    0.20748E-02        -0.18464E-02         0.00000E+00
    0.13899E-02        -0.12287E-02         0.00000E+00
    0.69834E-03        -0.61318E-03         0.00000E+00
    0.00000E+00         0.00000E+00         0.00000E+00
    0.27681E-01        -0.34182E-01         0.00000E+00
    0.27300E-01        -0.33484E-01         0.00000E+00
    0.26911E-01        -0.32786E-01         0.00000E+00
    0.26515E-01        -0.32088E-01         0.00000E+00
    0.26111E-01        -0.31390E-01         0.00000E+00
    0.25700E-01        -0.30692E-01         0.00000E+00
    0.25282E-01        -0.29995E-01         0.00000E+00
    0.24856E-01        -0.29297E-01         0.00000E+00
    0.24423E-01        -0.28600E-01         0.00000E+00
    0.23983E-01        -0.27903E-01         0.00000E+00
    0.23536E-01        -0.27206E-01         0.00000E+00
    0.23081E-01        -0.26509E-01         0.00000E+00
    0.22620E-01        -0.25813E-01         0.00000E+00
    0.22151E-01        -0.25117E-01         0.00000E+00
    0.21676E-01        -0.24422E-01         0.00000E+00
    0.21193E-01        -0.23727E-01         0.00000E+00
    0.20704E-01        -0.23032E-01         0.00000E+00
    0.20207E-01        -0.22338E-01         0.00000E+00
    0.19704E-01        -0.21644E-01         0.00000E+00
    0.19194E-01        -0.20951E-01         0.00000E+00
    0.18676E-01        -0.20259E-01         0.00000E+00
    0.18153E-01        -0.19567E-01         0.00000E+00
    0.17622E-01        -0.18876E-01         0.00000E+00
    0.17084E-01        -0.18186E-01         0.00000E+00
    0.16540E-01        -0.17496E-01         0.00000E+00
    0.15989E-01        -0.16807E-01         0.00000E+00
    0.15431E-01        -0.16119E-01         0.00000E+00
    0.14866E-01        -0.15432E-01         0.00000E+00
    0.14295E-01        -0.14746E-01         0.00000E+00
    0.13716E-01        -0.14061E-01         0.00000E+00
    0.13131E-01        -0.13377E-01         0.00000E+00
    0.12540E-01        -0.12694E-01         0.00000E+00
    0.11941E-01        -0.12012E-01         0.00000E+00
    0.11336E-01        -0.11331E-01         0.00000E+00
    0.10724E-01        -0.10652E-01         0.00000E+00
    0.10105E-01        -0.99736E-02         0.00000E+00
    0.94791E-02        -0.92968E-02         0.00000E+00
    0.88466E-02        -0.86215E-02         0.00000E+00
    0.82073E-02        -0.79476E-02         0.00000E+00
    0.75612E-02        -0.72753E-02         0.00000E+00
    0.69082E-02        -0.66046E-02         0.00000E+00
    0.62484E-02        -0.59355E-02         0.00000E+00
    0.55818E-02        -0.52682E-02         0.00000E+00
    0.49083E-02        -0.46027E-02         0.00000E+00
    0.42279E-02        -0.39390E-02         0.00000E+00
    0.35406E-02        -0.32773E-02         0.00000E+00
    0.28464E-02        -0.26175E-02         0.00000E+00
    0.21452E-02        -0.19598E-02         0.00000E+00
    0.14371E-02        -0.13043E-02         0.00000E+00
    0.72205E-03        -0.65101E-03         0.00000E+00
    0.00000E+00         0.00000E+00         0.00000E+00
    0.28713E-01        -0.36120E-01         0.00000E+00
    0.28311E-01        -0.35384E-01         0.00000E+00
    0.27902E-01        -0.34648E-01         0.00000E+00
    0.27485E-01        -0.33913E-01         0.00000E+00
    0.27061E-01        -0.33177E-01         0.00000E+00
    0.26630E-01        -0.32441E-01         0.00000E+00
    0.26191E-01        -0.31706E-01         0.00000E+00
    0.25745E-01        -0.30971E-01         0.00000E+00
    0.25292E-01        -0.30236E-01         0.00000E+00
    0.24832E-01        -0.29501E-01         0.00000E+00
    0.24364E-01        -0.28766E-01         0.00000E+00
    0.23890E-01        -0.28032E-01         0.00000E+00
    0.23408E-01        -0.27298E-01         0.00000E+00
    0.22920E-01        -0.26564E-01         0.00000E+00
    0.22425E-01        -0.25830E-01         0.00000E+00
    0.21922E-01        -0.25097E-01         0.00000E+00
    0.21413E-01        -0.24365E-01         0.00000E+00
    0.20897E-01        -0.23632E-01         0.00000E+00
    0.20373E-01        -0.22901E-01         0.00000E+00
    0.19843E-01        -0.22169E-01         0.00000E+00
    0.19307E-01        -0.21439E-01         0.00000E+00
    0.18763E-01        -0.20708E-01         0.00000E+00
    0.18212E-01        -0.19979E-01         0.00000E+00
    0.17655E-01        -0.19250E-01         0.00000E+00
    0.17091E-01        -0.18522E-01         0.00000E+00
    0.16520E-01        -0.17794E-01         0.00000E+00
    0.15942E-01        -0.17068E-01         0.00000E+00
    0.15357E-01        -0.16342E-01         0.00000E+00
    0.14766E-01        -0.15617E-01         0.00000E+00
    0.14167E-01        -0.14893E-01         0.00000E+00
    0.13562E-01        -0.14170E-01         0.00000E+00
    0.12950E-01        -0.13448E-01         0.00000E+00
    0.12331E-01        -0.12727E-01         0.00000E+00
    0.11706E-01        -0.12007E-01         0.00000E+00
    0.11073E-01        -0.11288E-01         0.00000E+00
    0.10434E-01        -0.10571E-01         0.00000E+00
    0.97872E-02        -0.98546E-02         0.00000E+00
    0.91339E-02        -0.91398E-02         0.00000E+00
    0.84736E-02        -0.84264E-02         0.00000E+00
    0.78063E-02        -0.77145E-02         0.00000E+00
    0.71321E-02        -0.70041E-02         0.00000E+00
    0.64508E-02        -0.62954E-02         0.00000E+00
    0.57625E-02        -0.55883E-02         0.00000E+00
    0.50671E-02        -0.48829E-02         0.00000E+00
    0.43647E-02        -0.41794E-02         0.00000E+00
    0.36552E-02        -0.34777E-02         0.00000E+00
    0.29385E-02        -0.27779E-02         0.00000E+00
    0.22147E-02        -0.20802E-02         0.00000E+00
    0.14837E-02        -0.13846E-02         0.00000E+00
    0.74546E-03        -0.69119E-03         0.00000E+00
    0.00000E+00         0.00000E+00         0.00000E+00
    0.29743E-01        -0.38162E-01         0.00000E+00
    0.29320E-01        -0.37387E-01         0.00000E+00
    0.28889E-01        -0.36612E-01         0.00000E+00
    0.28451E-01        -0.35837E-01         0.00000E+00
    0.28006E-01        -0.35062E-01         0.00000E+00
    0.27554E-01        -0.34287E-01         0.00000E+00
    0.27094E-01        -0.33512E-01         0.00000E+00
    0.26628E-01        -0.32737E-01         0.00000E+00
    0.26154E-01        -0.31962E-01         0.00000E+00
    0.25673E-01        -0.31187E-01         0.00000E+00
    0.25185E-01        -0.30413E-01         0.00000E+00
    0.24690E-01        -0.29639E-01         0.00000E+00
    0.24189E-01        -0.28865E-01         0.00000E+00
    0.23680E-01        -0.28091E-01         0.00000E+00
    0.23164E-01        -0.27318E-01         0.00000E+00
    0.22642E-01        -0.26545E-01         0.00000E+00
    0.22113E-01        -0.25772E-01         0.00000E+00
    0.21576E-01        -0.25000E-01         0.00000E+00
    0.21033E-01        -0.24228E-01         0.00000E+00
    0.20484E-01        -0.23456E-01         0.00000E+00
    0.19927E-01        -0.22685E-01         0.00000E+00
    0.19363E-01        -0.21914E-01         0.00000E+00
    0.18793E-01        -0.21144E-01         0.00000E+00
    0.18216E-01        -0.20375E-01         0.00000E+00
    0.17632E-01        -0.19606E-01         0.00000E+00
    0.17041E-01        -0.18838E-01         0.00000E+00
    0.16444E-01        -0.18071E-01         0.00000E+00
    0.15839E-01        -0.17304E-01         0.00000E+00
    0.15228E-01        -0.16538E-01         0.00000E+00
    0.14610E-01        -0.15773E-01         0.00000E+00
    0.13985E-01        -0.15009E-01         0.00000E+00
    0.13353E-01        -0.14245E-01         0.00000E+00
    0.12714E-01        -0.13483E-01         0.00000E+00
    0.12068E-01        -0.12722E-01         0.00000E+00
    0.11416E-01        -0.11962E-01         0.00000E+00
    0.10756E-01        -0.11203E-01         0.00000E+00
    0.10089E-01        -0.10445E-01         0.00000E+00
    0.94153E-02        -0.96887E-02         0.00000E+00
    0.87344E-02        -0.89336E-02         0.00000E+00
    0.80464E-02        -0.81798E-02         0.00000E+00
    0.73513E-02        -0.74275E-02         0.00000E+00
    0.66490E-02        -0.66767E-02         0.00000E+00
    0.59395E-02        -0.59276E-02         0.00000E+00
    0.52227E-02        -0.51800E-02         0.00000E+00
    0.44987E-02        -0.44342E-02         0.00000E+00
    0.37674E-02        -0.36902E-02         0.00000E+00
    0.30288E-02        -0.29481E-02         0.00000E+00
    0.22827E-02        -0.22080E-02         0.00000E+00
    0.15293E-02        -0.14698E-02         0.00000E+00
    0.76839E-03        -0.73382E-03         0.00000E+00
    0.00000E+00         0.00000E+00         0.00000E+00
    0.30765E-01        -0.40315E-01         0.00000E+00
    0.30319E-01        -0.39498E-01         0.00000E+00
    0.29867E-01        -0.38681E-01         0.00000E+00
    0.29407E-01        -0.37865E-01         0.00000E+00
    0.28940E-01        -0.37048E-01         0.00000E+00
    0.28466E-01        -0.36231E-01         0.00000E+00
    0.27985E-01        -0.35415E-01         0.00000E+00
    0.27497E-01        -0.34598E-01         0.00000E+00
    0.27003E-01        -0.33782E-01         0.00000E+00
    0.26501E-01        -0.32966E-01         0.00000E+00
    0.25992E-01        -0.32150E-01         0.00000E+00
    0.25477E-01        -0.31334E-01         0.00000E+00
    0.24955E-01        -0.30518E-01         0.00000E+00
    0.24426E-01        -0.29702E-01         0.00000E+00
    0.23890E-01        -0.28887E-01         0.00000E+00
    0.23347E-01        -0.28072E-01         0.00000E+00
    0.22798E-01        -0.27257E-01         0.00000E+00
    0.22242E-01        -0.26443E-01         0.00000E+00
    0.21679E-01        -0.25628E-01         0.00000E+00
    0.21109E-01        -0.24814E-01         0.00000E+00
    0.20533E-01        -0.24001E-01         0.00000E+00
    0.19950E-01        -0.23188E-01         0.00000E+00
    0.19360E-01        -0.22375E-01         0.00000E+00
    0.18763E-01        -0.21563E-01         0.00000E+00
    0.18160E-01        -0.20752E-01         0.00000E+00
    0.17550E-01        -0.19941E-01         0.00000E+00
    0.16933E-01        -0.19130E-01         0.00000E+00
    0.16309E-01        -0.18321E-01         0.00000E+00
    0.15678E-01        -0.17512E-01         0.00000E+00
    0.15041E-01        -0.16703E-01         0.00000E+00
    0.14396E-01        -0.15896E-01         0.00000E+00
    0.13745E-01        -0.15089E-01         0.00000E+00
    0.13086E-01        -0.14283E-01         0.00000E+00
    0.12421E-01        -0.13479E-01         0.00000E+00
    0.11748E-01        -0.12675E-01         0.00000E+00
    0.11069E-01        -0.11872E-01         0.00000E+00
    0.10382E-01        -0.11070E-01         0.00000E+00
    0.96886E-02        -0.10270E-01         0.00000E+00
    0.89876E-02        -0.94704E-02         0.00000E+00
    0.82795E-02        -0.86724E-02         0.00000E+00
    0.75640E-02        -0.78758E-02         0.00000E+00
    0.68413E-02        -0.70806E-02         0.00000E+00
    0.61112E-02        -0.62869E-02         0.00000E+00
    0.53737E-02        -0.54948E-02         0.00000E+00
    0.46288E-02        -0.47043E-02         0.00000E+00
    0.38764E-02        -0.39155E-02         0.00000E+00
    0.31164E-02        -0.31285E-02         0.00000E+00
    0.23488E-02        -0.23434E-02         0.00000E+00
    0.15736E-02        -0.15602E-02         0.00000E+00
    0.79067E-03        -0.77904E-03         0.00000E+00
    0.00000E+00         0.00000E+00         0.00000E+00
    0.31772E-01        -0.42581E-01         0.00000E+00
    0.31303E-01        -0.41721E-01         0.00000E+00
    0.30828E-01        -0.40861E-01         0.00000E+00
    0.30345E-01        -0.40000E-01         0.00000E+00
    0.29856E-01        -0.39140E-01         0.00000E+00
    0.29360E-01        -0.38280E-01         0.00000E+00
    0.28857E-01        -0.37420E-01         0.00000E+00
    0.28348E-01        -0.36560E-01         0.00000E+00
    0.27832E-01        -0.35700E-01         0.00000E+00
    0.27309E-01        -0.34840E-01         0.00000E+00
    0.26779E-01        -0.33980E-01         0.00000E+00
    0.26243E-01        -0.33120E-01         0.00000E+00
    0.25700E-01        -0.32260E-01         0.00000E+00
    0.25150E-01        -0.31401E-01         0.00000E+00
    0.24594E-01        -0.30541E-01         0.00000E+00
    0.24032E-01        -0.29682E-01         0.00000E+00
    0.23462E-01        -0.28823E-01         0.00000E+00
    0.22886E-01        -0.27964E-01         0.00000E+00
    0.22304E-01        -0.27106E-01         0.00000E+00
    0.21715E-01        -0.26247E-01         0.00000E+00
    0.21119E-01        -0.25389E-01         0.00000E+00
    0.20516E-01        -0.24532E-01         0.00000E+00
    0.19907E-01        -0.23674E-01         0.00000E+00
    0.19292E-01        -0.22817E-01         0.00000E+00
    0.18669E-01        -0.21961E-01         0.00000E+00
    0.18040E-01        -0.21105E-01         0.00000E+00
    0.17404E-01        -0.20249E-01         0.00000E+00
    0.16761E-01        -0.19394E-01         0.00000E+00
    0.16111E-01        -0.18540E-01         0.00000E+00
    0.15455E-01        -0.17686E-01         0.00000E+00
    0.14792E-01        -0.16833E-01         0.00000E+00
    0.14121E-01        -0.15981E-01         0.00000E+00
    0.13444E-01        -0.15129E-01         0.00000E+00
    0.12760E-01        -0.14278E-01         0.00000E+00
    0.12068E-01        -0.13428E-01         0.00000E+00
    0.11370E-01        -0.12579E-01         0.00000E+00
    0.10664E-01        -0.11731E-01         0.00000E+00
    0.99510E-02        -0.10884E-01         0.00000E+00
    0.92308E-02        -0.10038E-01         0.00000E+00
    0.85033E-02        -0.91936E-02         0.00000E+00
    0.77684E-02        -0.83501E-02         0.00000E+00
    0.70260E-02        -0.75080E-02         0.00000E+00
    0.62762E-02        -0.66673E-02         0.00000E+00
    0.55187E-02        -0.58280E-02         0.00000E+00
    0.47537E-02        -0.49902E-02         0.00000E+00
    0.39810E-02        -0.41540E-02         0.00000E+00
    0.32005E-02        -0.33195E-02         0.00000E+00
    0.24123E-02        -0.24868E-02         0.00000E+00
    0.16161E-02        -0.16559E-02         0.00000E+00
    0.81207E-03        -0.82695E-03         0.00000E+00
    0.00000E+00         0.00000E+00         0.00000E+00
    0.32755E-01        -0.44965E-01         0.00000E+00
    0.32263E-01        -0.44059E-01         0.00000E+00
    0.31764E-01        -0.43153E-01         0.00000E+00
    0.31258E-01        -0.42248E-01         0.00000E+00
    0.30746E-01        -0.41342E-01         0.00000E+00
    0.30228E-01        -0.40436E-01         0.00000E+00
    0.29703E-01        -0.39530E-01         0.00000E+00
    0.29171E-01        -0.38624E-01         0.00000E+00
    0.28633E-01        -0.37719E-01         0.00000E+00
    0.28089E-01        -0.36813E-01         0.00000E+00
    0.27538E-01        -0.35907E-01         0.00000E+00
    0.26981E-01        -0.35001E-01         0.00000E+00
    0.26417E-01        -0.34095E-01         0.00000E+00
    0.25848E-01        -0.33190E-01         0.00000E+00
    0.25271E-01        -0.32284E-01         0.00000E+00
    0.24689E-01        -0.31379E-01         0.00000E+00
    0.24099E-01        -0.30473E-01         0.00000E+00
    0.23504E-01        -0.29568E-01         0.00000E+00
    0.22902E-01        -0.28663E-01         0.00000E+00
    0.22294E-01        -0.27758E-01         0.00000E+00
    0.21679E-01        -0.26853E-01         0.00000E+00
    0.21057E-01        -0.25948E-01         0.00000E+00
    0.20430E-01        -0.25044E-01         0.00000E+00
    0.19795E-01        -0.24140E-01         0.00000E+00
    0.19154E-01        -0.23236E-01         0.00000E+00
    0.18506E-01        -0.22333E-01         0.00000E+00
    0.17852E-01        -0.21430E-01         0.00000E+00
    0.17191E-01        -0.20527E-01         0.00000E+00
    0.16523E-01        -0.19625E-01         0.00000E+00
    0.15849E-01        -0.18723E-01         0.00000E+00
    0.15167E-01        -0.17822E-01         0.00000E+00
    0.14479E-01        -0.16921E-01         0.00000E+00
    0.13783E-01        -0.16022E-01         0.00000E+00
    0.13081E-01        -0.15122E-01         0.00000E+00
    0.12372E-01        -0.14224E-01         0.00000E+00
    0.11655E-01        -0.13326E-01         0.00000E+00
    0.10931E-01        -0.12429E-01         0.00000E+00
    0.10200E-01        -0.11533E-01         0.00000E+00
    0.94613E-02        -0.10638E-01         0.00000E+00
    0.87154E-02        -0.97443E-02         0.00000E+00
    0.79620E-02        -0.88515E-02         0.00000E+00
    0.72010E-02        -0.79598E-02         0.00000E+00
    0.64324E-02        -0.70694E-02         0.00000E+00
    0.56562E-02        -0.61803E-02         0.00000E+00
    0.48721E-02        -0.52926E-02         0.00000E+00
    0.40802E-02        -0.44064E-02         0.00000E+00
    0.32803E-02        -0.35217E-02         0.00000E+00
    0.24724E-02        -0.26386E-02         0.00000E+00
    0.16565E-02        -0.17572E-02         0.00000E+00
    0.83236E-03        -0.87767E-03         0.00000E+00
    0.00000E+00         0.00000E+00         0.00000E+00
    0.33705E-01        -0.47471E-01         0.00000E+00
    0.33188E-01        -0.46517E-01         0.00000E+00
    0.32666E-01        -0.45564E-01         0.00000E+00
    0.32136E-01        -0.44610E-01         0.00000E+00
    0.31601E-01        -0.43656E-01         0.00000E+00
    0.31060E-01        -0.42703E-01         0.00000E+00
    0.30512E-01        -0.41749E-01         0.00000E+00
    0.29959E-01        -0.40795E-01         0.00000E+00
    0.29399E-01        -0.39842E-01         0.00000E+00
    0.28833E-01        -0.38888E-01         0.00000E+00
    0.28261E-01        -0.37934E-01         0.00000E+00
    0.27683E-01        -0.36980E-01         0.00000E+00
    0.27099E-01        -0.36026E-01         0.00000E+00
    0.26509E-01        -0.35072E-01         0.00000E+00
    0.25913E-01        -0.34118E-01         0.00000E+00
    0.25310E-01        -0.33164E-01         0.00000E+00
    0.24702E-01        -0.32210E-01         0.00000E+00
    0.24087E-01        -0.31256E-01         0.00000E+00
    0.23466E-01        -0.30302E-01         0.00000E+00
    0.22839E-01        -0.29348E-01         0.00000E+00
    0.22206E-01        -0.28394E-01         0.00000E+00
    0.21566E-01        -0.27440E-01         0.00000E+00
    0.20920E-01        -0.26487E-01         0.00000E+00
    0.20268E-01        -0.25533E-01         0.00000E+00
    0.19609E-01        -0.24580E-01         0.00000E+00
    0.18944E-01        -0.23627E-01         0.00000E+00
    0.18272E-01        -0.22674E-01         0.00000E+00
    0.17594E-01        -0.21721E-01         0.00000E+00
    0.16909E-01        -0.20769E-01         0.00000E+00
    0.16217E-01        -0.19817E-01         0.00000E+00
    0.15518E-01        -0.18865E-01         0.00000E+00
    0.14813E-01        -0.17914E-01         0.00000E+00
    0.14100E-01        -0.16963E-01         0.00000E+00
    0.13381E-01        -0.16013E-01         0.00000E+00
    0.12655E-01        -0.15063E-01         0.00000E+00
    0.11921E-01        -0.14114E-01         0.00000E+00
    0.11180E-01        -0.13166E-01         0.00000E+00
    0.10432E-01        -0.12218E-01         0.00000E+00
    0.96762E-02        -0.11272E-01         0.00000E+00
    0.89132E-02        -0.10326E-01         0.00000E+00
    0.81425E-02        -0.93809E-02         0.00000E+00
    0.73642E-02        -0.84370E-02         0.00000E+00
    0.65781E-02        -0.74942E-02         0.00000E+00
    0.57843E-02        -0.65526E-02         0.00000E+00
    0.49825E-02        -0.56121E-02         0.00000E+00
    0.41726E-02        -0.46730E-02         0.00000E+00
    0.33547E-02        -0.37353E-02         0.00000E+00
    0.25286E-02        -0.27990E-02         0.00000E+00
    0.16941E-02        -0.18644E-02         0.00000E+00
    0.85131E-03        -0.93131E-03         0.00000E+00
    0.00000E+00         0.00000E+00         0.00000E+00
    0.34612E-01        -0.50101E-01         0.00000E+00
    0.34070E-01        -0.49097E-01         0.00000E+00
    0.33523E-01        -0.48094E-01         0.00000E+00
    0.32970E-01        -0.47091E-01         0.00000E+00
    0.32411E-01        -0.46087E-01         0.00000E+00
    0.31846E-01        -0.45083E-01         0.00000E+00
    0.31276E-01        -0.44080E-01         0.00000E+00
    0.30700E-01        -0.43076E-01         0.00000E+00
    0.30119E-01        -0.42072E-01         0.00000E+00
    0.29532E-01        -0.41068E-01         0.00000E+00
    0.28939E-01        -0.40064E-01         0.00000E+00
    0.28340E-01        -0.39060E-01         0.00000E+00
    0.27736E-01        -0.38055E-01         0.00000E+00
    0.27126E-01        -0.37051E-01         0.00000E+00
    0.26510E-01        -0.36046E-01         0.00000E+00
    0.25889E-01        -0.35041E-01         0.00000E+00
    0.25261E-01        -0.34036E-01         0.00000E+00
    0.24628E-01        -0.33031E-01         0.00000E+00
    0.23989E-01        -0.32026E-01         0.00000E+00
    0.23344E-01        -0.31021E-01         0.00000E+00
    0.22693E-01        -0.30015E-01         0.00000E+00
    0.22036E-01        -0.29010E-01         0.00000E+00
    0.21373E-01        -0.28005E-01         0.00000E+00
    0.20704E-01        -0.26999E-01         0.00000E+00
    0.20028E-01        -0.25994E-01         0.00000E+00
    0.19346E-01        -0.24989E-01         0.00000E+00
    0.18658E-01        -0.23983E-01         0.00000E+00
    0.17963E-01        -0.22978E-01         0.00000E+00
    0.17262E-01        -0.21973E-01         0.00000E+00
    0.16554E-01        -0.20968E-01         0.00000E+00
    0.15840E-01        -0.19963E-01         0.00000E+00
    0.15119E-01        -0.18959E-01         0.00000E+00
    0.14390E-01        -0.17955E-01         0.00000E+00
    0.13655E-01        -0.16951E-01         0.00000E+00
    0.12913E-01        -0.15948E-01         0.00000E+00
    0.12164E-01        -0.14945E-01         0.00000E+00
    0.11408E-01        -0.13943E-01         0.00000E+00
    0.10644E-01        -0.12941E-01         0.00000E+00
    0.98725E-02        -0.11940E-01         0.00000E+00
    0.90937E-02        -0.10939E-01         0.00000E+00
    0.83073E-02        -0.99393E-02         0.00000E+00
    0.75131E-02        -0.89404E-02         0.00000E+00
    0.67111E-02        -0.79424E-02         0.00000E+00
    0.59012E-02        -0.69454E-02         0.00000E+00
    0.50832E-02        -0.59494E-02         0.00000E+00
    0.42571E-02        -0.49545E-02         0.00000E+00
    0.34227E-02        -0.39608E-02         0.00000E+00
    0.25799E-02        -0.29685E-02         0.00000E+00
    0.17285E-02        -0.19775E-02         0.00000E+00
    0.86863E-03        -0.98796E-03         0.00000E+00
    0.00000E+00         0.00000E+00         0.00000E+00
    0.35464E-01        -0.52859E-01         0.00000E+00
    0.34897E-01        -0.51803E-01         0.00000E+00
    0.34325E-01        -0.50748E-01         0.00000E+00
    0.33747E-01        -0.49692E-01         0.00000E+00
    0.33164E-01        -0.48637E-01         0.00000E+00
    0.32577E-01        -0.47581E-01         0.00000E+00
    0.31984E-01        -0.46525E-01         0.00000E+00
    0.31386E-01        -0.45469E-01         0.00000E+00
    0.30782E-01        -0.44412E-01         0.00000E+00
    0.30174E-01        -0.43356E-01         0.00000E+00
    0.29561E-01        -0.42299E-01         0.00000E+00
    0.28942E-01        -0.41242E-01         0.00000E+00
    0.28318E-01        -0.40185E-01         0.00000E+00
    0.27689E-01        -0.39128E-01         0.00000E+00
    0.27054E-01        -0.38070E-01         0.00000E+00
    0.26414E-01        -0.37012E-01         0.00000E+00
    0.25769E-01        -0.35954E-01         0.00000E+00
    0.25118E-01        -0.34896E-01         0.00000E+00
    0.24462E-01        -0.33837E-01         0.00000E+00
    0.23800E-01        -0.32778E-01         0.00000E+00
    0.23132E-01        -0.31719E-01         0.00000E+00
    0.22459E-01        -0.30659E-01         0.00000E+00
    0.21779E-01        -0.29600E-01         0.00000E+00
    0.21094E-01        -0.28540E-01         0.00000E+00
    0.20403E-01        -0.27480E-01         0.00000E+00
    0.19706E-01        -0.26420E-01         0.00000E+00
    0.19003E-01        -0.25360E-01         0.00000E+00
    0.18293E-01        -0.24300E-01         0.00000E+00
    0.17577E-01        -0.23240E-01         0.00000E+00
    0.16855E-01        -0.22179E-01         0.00000E+00
    0.16126E-01        -0.21119E-01         0.00000E+00
    0.15391E-01        -0.20059E-01         0.00000E+00
    0.14648E-01        -0.18999E-01         0.00000E+00
    0.13899E-01        -0.17939E-01         0.00000E+00
    0.13143E-01        -0.16879E-01         0.00000E+00
    0.12380E-01        -0.15819E-01         0.00000E+00
    0.11609E-01        -0.14760E-01         0.00000E+00
    0.10832E-01        -0.13701E-01         0.00000E+00
    0.10047E-01        -0.12643E-01         0.00000E+00
    0.92538E-02        -0.11585E-01         0.00000E+00
    0.84535E-02        -0.10528E-01         0.00000E+00
    0.76453E-02        -0.94708E-02         0.00000E+00
    0.68292E-02        -0.84147E-02         0.00000E+00
    0.60050E-02        -0.73593E-02         0.00000E+00
    0.51727E-02        -0.63048E-02         0.00000E+00
    0.43321E-02        -0.52512E-02         0.00000E+00
    0.34830E-02        -0.41986E-02         0.00000E+00
    0.26254E-02        -0.31471E-02         0.00000E+00
    0.17592E-02        -0.20968E-02         0.00000E+00
    0.88405E-03        -0.10477E-02         0.00000E+00
    0.00000E+00         0.00000E+00         0.00000E+00
    0.36248E-01        -0.55747E-01         0.00000E+00
    0.35655E-01        -0.54637E-01         0.00000E+00
    0.35057E-01        -0.53527E-01         0.00000E+00
    0.34455E-01        -0.52417E-01         0.00000E+00
    0.33849E-01        -0.51307E-01         0.00000E+00
    0.33238E-01        -0.50197E-01         0.00000E+00
    0.32623E-01        -0.49086E-01         0.00000E+00
    0.32003E-01        -0.47976E-01         0.00000E+00
    0.31378E-01        -0.46865E-01         0.00000E+00
    0.30749E-01        -0.45754E-01         0.00000E+00
    0.30116E-01        -0.44642E-01         0.00000E+00
    0.29477E-01        -0.43530E-01         0.00000E+00
    0.28834E-01        -0.42418E-01         0.00000E+00
    0.28187E-01        -0.41305E-01         0.00000E+00
    0.27534E-01        -0.40192E-01         0.00000E+00
    0.26877E-01        -0.39079E-01         0.00000E+00
    0.26214E-01        -0.37965E-01         0.00000E+00
    0.25547E-01        -0.36851E-01         0.00000E+00
    0.24874E-01        -0.35736E-01         0.00000E+00
    0.24197E-01        -0.34621E-01         0.00000E+00
    0.23514E-01        -0.33506E-01         0.00000E+00
    0.22825E-01        -0.32390E-01         0.00000E+00
    0.22132E-01        -0.31274E-01         0.00000E+00
    0.21432E-01        -0.30157E-01         0.00000E+00
    0.20727E-01        -0.29041E-01         0.00000E+00
    0.20016E-01        -0.27923E-01         0.00000E+00
    0.19299E-01        -0.26806E-01         0.00000E+00
    0.18577E-01        -0.25688E-01         0.00000E+00
    0.17848E-01        -0.24570E-01         0.00000E+00
    0.17113E-01        -0.23451E-01         0.00000E+00
    0.16371E-01        -0.22333E-01         0.00000E+00
    0.15623E-01        -0.21214E-01         0.00000E+00
    0.14869E-01        -0.20095E-01         0.00000E+00
    0.14107E-01        -0.18976E-01         0.00000E+00
    0.13339E-01        -0.17857E-01         0.00000E+00
    0.12564E-01        -0.16739E-01         0.00000E+00
    0.11782E-01        -0.15620E-01         0.00000E+00
    0.10992E-01        -0.14501E-01         0.00000E+00
    0.10195E-01        -0.13382E-01         0.00000E+00
    0.93904E-02        -0.12264E-01         0.00000E+00
    0.85781E-02        -0.11146E-01         0.00000E+00
    0.77579E-02        -0.10029E-01         0.00000E+00
    0.69298E-02        -0.89115E-02         0.00000E+00
    0.60936E-02        -0.77949E-02         0.00000E+00
    0.52491E-02        -0.66789E-02         0.00000E+00
    0.43961E-02        -0.55636E-02         0.00000E+00
    0.35346E-02        -0.44490E-02         0.00000E+00
    0.26644E-02        -0.33352E-02         0.00000E+00
    0.17853E-02        -0.22224E-02         0.00000E+00
    0.89726E-03        -0.11107E-02         0.00000E+00
    0.00000E+00         0.00000E+00         0.00000E+00
    0.36949E-01        -0.58767E-01         0.00000E+00
    0.36330E-01        -0.57600E-01         0.00000E+00
    0.35707E-01        -0.56434E-01         0.00000E+00
    0.35081E-01        -0.55267E-01         0.00000E+00
    0.34451E-01        -0.54101E-01         0.00000E+00
    0.33817E-01        -0.52934E-01         0.00000E+00
    0.33180E-01        -0.51766E-01         0.00000E+00
    0.32538E-01        -0.50599E-01         0.00000E+00
    0.31893E-01        -0.49431E-01         0.00000E+00
    0.31244E-01        -0.48263E-01         0.00000E+00
    0.30591E-01        -0.47094E-01         0.00000E+00
    0.29934E-01        -0.45925E-01         0.00000E+00
    0.29273E-01        -0.44755E-01         0.00000E+00
    0.28608E-01        -0.43585E-01         0.00000E+00
    0.27939E-01        -0.42414E-01         0.00000E+00
    0.27265E-01        -0.41243E-01         0.00000E+00
    0.26587E-01        -0.40071E-01         0.00000E+00
    0.25905E-01        -0.38899E-01         0.00000E+00
    0.25217E-01        -0.37726E-01         0.00000E+00
    0.24526E-01        -0.36552E-01         0.00000E+00
    0.23829E-01        -0.35378E-01         0.00000E+00
    0.23127E-01        -0.34203E-01         0.00000E+00
    0.22420E-01        -0.33028E-01         0.00000E+00
    0.21709E-01        -0.31852E-01         0.00000E+00
    0.20991E-01        -0.30676E-01         0.00000E+00
    0.20269E-01        -0.29499E-01         0.00000E+00
    0.19540E-01        -0.28321E-01         0.00000E+00
    0.18806E-01        -0.27143E-01         0.00000E+00
    0.18067E-01        -0.25964E-01         0.00000E+00
    0.17321E-01        -0.24785E-01         0.00000E+00
    0.16569E-01        -0.23606E-01         0.00000E+00
    0.15811E-01        -0.22426E-01         0.00000E+00
    0.15046E-01        -0.21246E-01         0.00000E+00
    0.14275E-01        -0.20065E-01         0.00000E+00
    0.13497E-01        -0.18884E-01         0.00000E+00
    0.12712E-01        -0.17703E-01         0.00000E+00
    0.11920E-01        -0.16522E-01         0.00000E+00
    0.11120E-01        -0.15340E-01         0.00000E+00
    0.10314E-01        -0.14159E-01         0.00000E+00
    0.94997E-02        -0.12977E-01         0.00000E+00
    0.86779E-02        -0.11796E-01         0.00000E+00
    0.78482E-02        -0.10615E-01         0.00000E+00
    0.70105E-02        -0.94334E-02         0.00000E+00
    0.61647E-02        -0.82525E-02         0.00000E+00
    0.53104E-02        -0.70719E-02         0.00000E+00
    0.44476E-02        -0.58917E-02         0.00000E+00
    0.35762E-02        -0.47121E-02         0.00000E+00
    0.26958E-02        -0.35330E-02         0.00000E+00
    0.18065E-02        -0.23545E-02         0.00000E+00
    0.90793E-03        -0.11768E-02         0.00000E+00
    0.00000E+00         0.00000E+00         0.00000E+00
    0.37552E-01        -0.61919E-01         0.00000E+00
    0.36906E-01        -0.60694E-01         0.00000E+00
    0.36259E-01        -0.59469E-01         0.00000E+00
    0.35608E-01        -0.58243E-01         0.00000E+00
    0.34955E-01        -0.57017E-01         0.00000E+00
    0.34299E-01        -0.55791E-01         0.00000E+00
    0.33640E-01        -0.54565E-01         0.00000E+00
    0.32978E-01        -0.53338E-01         0.00000E+00
    0.32313E-01        -0.52111E-01         0.00000E+00
    0.31645E-01        -0.50884E-01         0.00000E+00
    0.30974E-01        -0.49655E-01         0.00000E+00
    0.30300E-01        -0.48427E-01         0.00000E+00
    0.29622E-01        -0.47197E-01         0.00000E+00
    0.28941E-01        -0.45967E-01         0.00000E+00
    0.28256E-01        -0.44736E-01         0.00000E+00
    0.27568E-01        -0.43505E-01         0.00000E+00
    0.26876E-01        -0.42273E-01         0.00000E+00
    0.26180E-01        -0.41040E-01         0.00000E+00
    0.25480E-01        -0.39806E-01         0.00000E+00
    0.24776E-01        -0.38571E-01         0.00000E+00
    0.24067E-01        -0.37336E-01         0.00000E+00
    0.23354E-01        -0.36100E-01         0.00000E+00
    0.22636E-01        -0.34863E-01         0.00000E+00
    0.21914E-01        -0.33625E-01         0.00000E+00
    0.21187E-01        -0.32386E-01         0.00000E+00
    0.20455E-01        -0.31147E-01         0.00000E+00
    0.19717E-01        -0.29907E-01         0.00000E+00
    0.18974E-01        -0.28666E-01         0.00000E+00
    0.18226E-01        -0.27424E-01         0.00000E+00
    0.17472E-01        -0.26182E-01         0.00000E+00
    0.16712E-01        -0.24938E-01         0.00000E+00
    0.15946E-01        -0.23695E-01         0.00000E+00
    0.15174E-01        -0.22450E-01         0.00000E+00
    0.14395E-01        -0.21205E-01         0.00000E+00
    0.13610E-01        -0.19959E-01         0.00000E+00
    0.12818E-01        -0.18713E-01         0.00000E+00
    0.12019E-01        -0.17467E-01         0.00000E+00
    0.11213E-01        -0.16220E-01         0.00000E+00
    0.10399E-01        -0.14972E-01         0.00000E+00
    0.95783E-02        -0.13725E-01         0.00000E+00
    0.87497E-02        -0.12477E-01         0.00000E+00
    0.79132E-02        -0.11229E-01         0.00000E+00
    0.70687E-02        -0.99804E-02         0.00000E+00
    0.62160E-02        -0.87322E-02         0.00000E+00
    0.53548E-02        -0.74840E-02         0.00000E+00
    0.44850E-02        -0.62359E-02         0.00000E+00
    0.36063E-02        -0.49880E-02         0.00000E+00
    0.27187E-02        -0.37404E-02         0.00000E+00
    0.18219E-02        -0.24931E-02         0.00000E+00
    0.91575E-03        -0.12463E-02         0.00000E+00
    0.00000E+00         0.00000E+00         0.00000E+00
    0.38037E-01        -0.65204E-01         0.00000E+00
    0.37366E-01        -0.63918E-01         0.00000E+00
    0.36694E-01        -0.62631E-01         0.00000E+00
    0.36020E-01        -0.61345E-01         0.00000E+00
    0.35344E-01        -0.60058E-01         0.00000E+00
    0.34666E-01        -0.58770E-01         0.00000E+00
    0.33987E-01        -0.57483E-01         0.00000E+00
    0.33306E-01        -0.56195E-01         0.00000E+00
    0.32622E-01        -0.54906E-01         0.00000E+00
    0.31937E-01        -0.53617E-01         0.00000E+00
    0.31249E-01        -0.52327E-01         0.00000E+00
    0.30559E-01        -0.51036E-01         0.00000E+00
    0.29866E-01        -0.49744E-01         0.00000E+00
    0.29170E-01        -0.48452E-01         0.00000E+00
    0.28472E-01        -0.47159E-01         0.00000E+00
    0.27771E-01        -0.45865E-01         0.00000E+00
    0.27067E-01        -0.44570E-01         0.00000E+00
    0.26360E-01        -0.43274E-01         0.00000E+00
    0.25649E-01        -0.41977E-01         0.00000E+00
    0.24935E-01        -0.40679E-01         0.00000E+00
    0.24217E-01        -0.39380E-01         0.00000E+00
    0.23495E-01        -0.38079E-01         0.00000E+00
    0.22769E-01        -0.36778E-01         0.00000E+00
    0.22039E-01        -0.35476E-01         0.00000E+00
    0.21305E-01        -0.34173E-01         0.00000E+00
    0.20565E-01        -0.32868E-01         0.00000E+00
    0.19821E-01        -0.31563E-01         0.00000E+00
    0.19072E-01        -0.30256E-01         0.00000E+00
    0.18318E-01        -0.28949E-01         0.00000E+00
    0.17559E-01        -0.27640E-01         0.00000E+00
    0.16794E-01        -0.26331E-01         0.00000E+00
    0.16023E-01        -0.25020E-01         0.00000E+00
    0.15246E-01        -0.23709E-01         0.00000E+00
    0.14463E-01        -0.22396E-01         0.00000E+00
    0.13673E-01        -0.21083E-01         0.00000E+00
    0.12877E-01        -0.19769E-01         0.00000E+00
    0.12074E-01        -0.18455E-01         0.00000E+00
    0.11264E-01        -0.17139E-01         0.00000E+00
    0.10447E-01        -0.15823E-01         0.00000E+00
    0.96222E-02        -0.14506E-01         0.00000E+00
    0.87899E-02        -0.13189E-01         0.00000E+00
    0.79498E-02        -0.11871E-01         0.00000E+00
    0.71016E-02        -0.10553E-01         0.00000E+00
    0.62451E-02        -0.92341E-02         0.00000E+00
    0.53801E-02        -0.79151E-02         0.00000E+00
    0.45064E-02        -0.65960E-02         0.00000E+00
    0.36238E-02        -0.52767E-02         0.00000E+00
    0.27321E-02        -0.39574E-02         0.00000E+00
    0.18310E-02        -0.26381E-02         0.00000E+00
    0.92038E-03        -0.13190E-02         0.00000E+00
    0.00000E+00         0.00000E+00         0.00000E+00
    0.38387E-01        -0.68619E-01         0.00000E+00
    0.37691E-01        -0.67270E-01         0.00000E+00
    0.36994E-01        -0.65920E-01         0.00000E+00
    0.36297E-01        -0.64570E-01         0.00000E+00
    0.35600E-01        -0.63220E-01         0.00000E+00
    0.34902E-01        -0.61869E-01         0.00000E+00
    0.34203E-01        -0.60518E-01         0.00000E+00
    0.33504E-01        -0.59166E-01         0.00000E+00
    0.32804E-01        -0.57813E-01         0.00000E+00
    0.32102E-01        -0.56460E-01         0.00000E+00
    0.31399E-01        -0.55106E-01         0.00000E+00
    0.30695E-01        -0.53751E-01         0.00000E+00
    0.29990E-01        -0.52395E-01         0.00000E+00
    0.29282E-01        -0.51038E-01         0.00000E+00
    0.28573E-01        -0.49680E-01         0.00000E+00
    0.27862E-01        -0.48321E-01         0.00000E+00
    0.27148E-01        -0.46961E-01         0.00000E+00
    0.26432E-01        -0.45599E-01         0.00000E+00
    0.25713E-01        -0.44237E-01         0.00000E+00
    0.24992E-01        -0.42873E-01         0.00000E+00
    0.24267E-01        -0.41507E-01         0.00000E+00
    0.23539E-01        -0.40141E-01         0.00000E+00
    0.22808E-01        -0.38773E-01         0.00000E+00
    0.22073E-01        -0.37404E-01         0.00000E+00
    0.21334E-01        -0.36033E-01         0.00000E+00
    0.20591E-01        -0.34661E-01         0.00000E+00
    0.19844E-01        -0.33288E-01         0.00000E+00
    0.19092E-01        -0.31913E-01         0.00000E+00
    0.18335E-01        -0.30538E-01         0.00000E+00
    0.17573E-01        -0.29160E-01         0.00000E+00
    0.16806E-01        -0.27782E-01         0.00000E+00
    0.16034E-01        -0.26402E-01         0.00000E+00
    0.15255E-01        -0.25021E-01         0.00000E+00
    0.14471E-01        -0.23639E-01         0.00000E+00
    0.13681E-01        -0.22255E-01         0.00000E+00
    0.12884E-01        -0.20870E-01         0.00000E+00
    0.12080E-01        -0.19485E-01         0.00000E+00
    0.11270E-01        -0.18098E-01         0.00000E+00
    0.10453E-01        -0.16710E-01         0.00000E+00
    0.96277E-02        -0.15321E-01         0.00000E+00
    0.87952E-02        -0.13932E-01         0.00000E+00
    0.79548E-02        -0.12541E-01         0.00000E+00
    0.71064E-02        -0.11150E-01         0.00000E+00
    0.62496E-02        -0.97577E-02         0.00000E+00
    0.53844E-02        -0.83651E-02         0.00000E+00
    0.45103E-02        -0.69719E-02         0.00000E+00
    0.36272E-02        -0.55782E-02         0.00000E+00
    0.27349E-02        -0.41840E-02         0.00000E+00
    0.18330E-02        -0.27896E-02         0.00000E+00
    0.92149E-03        -0.13949E-02         0.00000E+00
    0.00000E+00         0.00000E+00         0.00000E+00
    0.38578E-01        -0.72162E-01         0.00000E+00
    0.37857E-01        -0.70747E-01         0.00000E+00
    0.37138E-01        -0.69332E-01         0.00000E+00
    0.36420E-01        -0.67916E-01         0.00000E+00
    0.35702E-01        -0.66500E-01         0.00000E+00
    0.34986E-01        -0.65084E-01         0.00000E+00
    0.34270E-01        -0.63667E-01         0.00000E+00
    0.33554E-01        -0.62249E-01         0.00000E+00
    0.32839E-01        -0.60831E-01         0.00000E+00
    0.32124E-01        -0.59411E-01         0.00000E+00
    0.31409E-01        -0.57991E-01         0.00000E+00
    0.30693E-01        -0.56569E-01         0.00000E+00
    0.29977E-01        -0.55147E-01         0.00000E+00
    0.29260E-01        -0.53723E-01         0.00000E+00
    0.28543E-01        -0.52298E-01         0.00000E+00
    0.27824E-01        -0.50871E-01         0.00000E+00
    0.27104E-01        -0.49444E-01         0.00000E+00
    0.26382E-01        -0.48014E-01         0.00000E+00
    0.25659E-01        -0.46584E-01         0.00000E+00
    0.24933E-01        -0.45151E-01         0.00000E+00
    0.24205E-01        -0.43718E-01         0.00000E+00
    0.23474E-01        -0.42282E-01         0.00000E+00
    0.22741E-01        -0.40845E-01         0.00000E+00
    0.22005E-01        -0.39407E-01         0.00000E+00
    0.21265E-01        -0.37966E-01         0.00000E+00
    0.20522E-01        -0.36524E-01         0.00000E+00
    0.19774E-01        -0.35081E-01         0.00000E+00
    0.19023E-01        -0.33635E-01         0.00000E+00
    0.18267E-01        -0.32189E-01         0.00000E+00
    0.17507E-01        -0.30740E-01         0.00000E+00
    0.16742E-01        -0.29290E-01         0.00000E+00
    0.15972E-01        -0.27838E-01         0.00000E+00
    0.15196E-01        -0.26385E-01         0.00000E+00
    0.14414E-01        -0.24930E-01         0.00000E+00
    0.13627E-01        -0.23473E-01         0.00000E+00
    0.12833E-01        -0.22015E-01         0.00000E+00
    0.12033E-01        -0.20556E-01         0.00000E+00
    0.11226E-01        -0.19095E-01         0.00000E+00
    0.10412E-01        -0.17633E-01         0.00000E+00
    0.95907E-02        -0.16169E-01         0.00000E+00
    0.87618E-02        -0.14704E-01         0.00000E+00
    0.79251E-02        -0.13238E-01         0.00000E+00
    0.70803E-02        -0.11771E-01         0.00000E+00
    0.62272E-02        -0.10303E-01         0.00000E+00
    0.53655E-02        -0.88332E-02         0.00000E+00
    0.44949E-02        -0.73630E-02         0.00000E+00
    0.36152E-02        -0.58918E-02         0.00000E+00
    0.27261E-02        -0.44199E-02         0.00000E+00
    0.18274E-02        -0.29472E-02         0.00000E+00
    0.91874E-03        -0.14739E-02         0.00000E+00
    0.00000E+00         0.00000E+00         0.00000E+00
    0.38586E-01        -0.75827E-01         0.00000E+00
    0.37843E-01        -0.74345E-01         0.00000E+00
    0.37102E-01        -0.72862E-01         0.00000E+00
    0.36364E-01        -0.71378E-01         0.00000E+00
    0.35629E-01        -0.69895E-01         0.00000E+00
    0.34896E-01        -0.68411E-01         0.00000E+00
    0.34165E-01        -0.66926E-01         0.00000E+00
    0.33436E-01        -0.65440E-01         0.00000E+00
    0.32708E-01        -0.63953E-01         0.00000E+00
    0.31982E-01        -0.62465E-01         0.00000E+00
    0.31257E-01        -0.60976E-01         0.00000E+00
    0.30533E-01        -0.59486E-01         0.00000E+00
    0.29810E-01        -0.57995E-01         0.00000E+00
    0.29087E-01        -0.56502E-01         0.00000E+00
    0.28365E-01        -0.55007E-01         0.00000E+00
    0.27642E-01        -0.53511E-01         0.00000E+00
    0.26919E-01        -0.52014E-01         0.00000E+00
    0.26195E-01        -0.50515E-01         0.00000E+00
    0.25470E-01        -0.49013E-01         0.00000E+00
    0.24744E-01        -0.47511E-01         0.00000E+00
    0.24017E-01        -0.46006E-01         0.00000E+00
    0.23288E-01        -0.44499E-01         0.00000E+00
    0.22556E-01        -0.42991E-01         0.00000E+00
    0.21822E-01        -0.41480E-01         0.00000E+00
    0.21086E-01        -0.39968E-01         0.00000E+00
    0.20346E-01        -0.38454E-01         0.00000E+00
    0.19604E-01        -0.36937E-01         0.00000E+00
    0.18857E-01        -0.35419E-01         0.00000E+00
    0.18107E-01        -0.33899E-01         0.00000E+00
    0.17352E-01        -0.32376E-01         0.00000E+00
    0.16593E-01        -0.30852E-01         0.00000E+00
    0.15829E-01        -0.29326E-01         0.00000E+00
    0.15060E-01        -0.27797E-01         0.00000E+00
    0.14285E-01        -0.26267E-01         0.00000E+00
    0.13505E-01        -0.24735E-01         0.00000E+00
    0.12719E-01        -0.23201E-01         0.00000E+00
    0.11926E-01        -0.21666E-01         0.00000E+00
    0.11127E-01        -0.20128E-01         0.00000E+00
    0.10321E-01        -0.18589E-01         0.00000E+00
    0.95073E-02        -0.17048E-01         0.00000E+00
    0.86863E-02        -0.15505E-01         0.00000E+00
    0.78575E-02        -0.13961E-01         0.00000E+00
    0.70207E-02        -0.12415E-01         0.00000E+00
    0.61754E-02        -0.10867E-01         0.00000E+00
    0.53215E-02        -0.93187E-02         0.00000E+00
    0.44586E-02        -0.77685E-02         0.00000E+00
    0.35864E-02        -0.62171E-02         0.00000E+00
    0.27048E-02        -0.46645E-02         0.00000E+00
    0.18133E-02        -0.31107E-02         0.00000E+00
    0.91183E-03        -0.15558E-02         0.00000E+00
    0.00000E+00         0.00000E+00         0.00000E+00
    0.38385E-01        -0.79607E-01         0.00000E+00
    0.37621E-01        -0.78054E-01         0.00000E+00
    0.36861E-01        -0.76502E-01         0.00000E+00
    0.36106E-01        -0.74949E-01         0.00000E+00
    0.35356E-01        -0.73395E-01         0.00000E+00
    0.34609E-01        -0.71841E-01         0.00000E+00
    0.33866E-01        -0.70286E-01         0.00000E+00
    0.33126E-01        -0.68730E-01         0.00000E+00
    0.32390E-01        -0.67173E-01         0.00000E+00
    0.31656E-01        -0.65615E-01         0.00000E+00
    0.30925E-01        -0.64056E-01         0.00000E+00
    0.30197E-01        -0.62495E-01         0.00000E+00
    0.29470E-01        -0.60932E-01         0.00000E+00
    0.28745E-01        -0.59368E-01         0.00000E+00
    0.28021E-01        -0.57802E-01         0.00000E+00
    0.27299E-01        -0.56235E-01         0.00000E+00
    0.26577E-01        -0.54665E-01         0.00000E+00
    0.25855E-01        -0.53094E-01         0.00000E+00
    0.25134E-01        -0.51520E-01         0.00000E+00
    0.24412E-01        -0.49944E-01         0.00000E+00
    0.23689E-01        -0.48367E-01         0.00000E+00
    0.22966E-01        -0.46787E-01         0.00000E+00
    0.22241E-01        -0.45204E-01         0.00000E+00
    0.21514E-01        -0.43620E-01         0.00000E+00
    0.20786E-01        -0.42033E-01         0.00000E+00
    0.20055E-01        -0.40444E-01         0.00000E+00
    0.19321E-01        -0.38853E-01         0.00000E+00
    0.18584E-01        -0.37259E-01         0.00000E+00
    0.17844E-01        -0.35663E-01         0.00000E+00
    0.17099E-01        -0.34065E-01         0.00000E+00
    0.16351E-01        -0.32464E-01         0.00000E+00
    0.15598E-01        -0.30861E-01         0.00000E+00
    0.14841E-01        -0.29255E-01         0.00000E+00
    0.14078E-01        -0.27648E-01         0.00000E+00
    0.13310E-01        -0.26038E-01         0.00000E+00
    0.12535E-01        -0.24425E-01         0.00000E+00
    0.11755E-01        -0.22811E-01         0.00000E+00
    0.10968E-01        -0.21194E-01         0.00000E+00
    0.10174E-01        -0.19576E-01         0.00000E+00
    0.93736E-02        -0.17955E-01         0.00000E+00
    0.85652E-02        -0.16332E-01         0.00000E+00
    0.77490E-02        -0.14707E-01         0.00000E+00
    0.69246E-02        -0.13080E-01         0.00000E+00
    0.60918E-02        -0.11451E-01         0.00000E+00
    0.52503E-02        -0.98199E-02         0.00000E+00
    0.43997E-02        -0.81873E-02         0.00000E+00
    0.35397E-02        -0.65530E-02         0.00000E+00
    0.26700E-02        -0.49171E-02         0.00000E+00
    0.17904E-02        -0.32795E-02         0.00000E+00
    0.90045E-03        -0.16405E-02         0.00000E+00
    0.00000E+00         0.00000E+00         0.00000E+00
    0.37946E-01        -0.83489E-01         0.00000E+00
    0.37164E-01        -0.81865E-01         0.00000E+00
    0.36388E-01        -0.80241E-01         0.00000E+00
    0.35619E-01        -0.78617E-01         0.00000E+00
    0.34856E-01        -0.76991E-01         0.00000E+00
    0.34099E-01        -0.75365E-01         0.00000E+00
    0.33348E-01        -0.73739E-01         0.00000E+00
    0.32601E-01        -0.72111E-01         0.00000E+00
    0.31860E-01        -0.70481E-01         0.00000E+00
    0.31123E-01        -0.68851E-01         0.00000E+00
    0.30391E-01        -0.67219E-01         0.00000E+00
    0.29662E-01        -0.65585E-01         0.00000E+00
    0.28936E-01        -0.63950E-01         0.00000E+00
    0.28214E-01        -0.62312E-01         0.00000E+00
    0.27494E-01        -0.60673E-01         0.00000E+00
    0.26776E-01        -0.59032E-01         0.00000E+00
    0.26060E-01        -0.57388E-01         0.00000E+00
    0.25346E-01        -0.55742E-01         0.00000E+00
    0.24633E-01        -0.54094E-01         0.00000E+00
    0.23920E-01        -0.52444E-01         0.00000E+00
    0.23208E-01        -0.50791E-01         0.00000E+00
    0.22495E-01        -0.49135E-01         0.00000E+00
    0.21782E-01        -0.47478E-01         0.00000E+00
    0.21068E-01        -0.45817E-01         0.00000E+00
    0.20352E-01        -0.44154E-01         0.00000E+00
    0.19635E-01        -0.42488E-01         0.00000E+00
    0.18915E-01        -0.40820E-01         0.00000E+00
    0.18193E-01        -0.39149E-01         0.00000E+00
    0.17468E-01        -0.37475E-01         0.00000E+00
    0.16740E-01        -0.35798E-01         0.00000E+00
    0.16008E-01        -0.34119E-01         0.00000E+00
    0.15272E-01        -0.32437E-01         0.00000E+00
    0.14531E-01        -0.30753E-01         0.00000E+00
    0.13785E-01        -0.29065E-01         0.00000E+00
    0.13034E-01        -0.27375E-01         0.00000E+00
    0.12277E-01        -0.25683E-01         0.00000E+00
    0.11514E-01        -0.23988E-01         0.00000E+00
    0.10745E-01        -0.22290E-01         0.00000E+00
    0.99689E-02        -0.20589E-01         0.00000E+00
    0.91857E-02        -0.18886E-01         0.00000E+00
    0.83950E-02        -0.17181E-01         0.00000E+00
    0.75964E-02        -0.15473E-01         0.00000E+00
    0.67896E-02        -0.13763E-01         0.00000E+00
    0.59743E-02        -0.12050E-01         0.00000E+00
    0.51501E-02        -0.10335E-01         0.00000E+00
    0.43167E-02        -0.86176E-02         0.00000E+00
    0.34737E-02        -0.68982E-02         0.00000E+00
    0.26209E-02        -0.51767E-02         0.00000E+00
    0.17578E-02        -0.34531E-02         0.00000E+00
    0.88432E-03        -0.17275E-02         0.00000E+00
    0.00000E+00         0.00000E+00         0.00000E+00
    0.37236E-01        -0.87460E-01         0.00000E+00
    0.36439E-01        -0.85763E-01         0.00000E+00
    0.35652E-01        -0.84065E-01         0.00000E+00
    0.34872E-01        -0.82367E-01         0.00000E+00
    0.34102E-01        -0.80668E-01         0.00000E+00
    0.33339E-01        -0.78969E-01         0.00000E+00
    0.32584E-01        -0.77268E-01         0.00000E+00
    0.31836E-01        -0.75566E-01         0.00000E+00
    0.31095E-01        -0.73863E-01         0.00000E+00
    0.30360E-01        -0.72158E-01         0.00000E+00
    0.29630E-01        -0.70452E-01         0.00000E+00
    0.28907E-01        -0.68744E-01         0.00000E+00
    0.28188E-01        -0.67033E-01         0.00000E+00
    0.27473E-01        -0.65321E-01         0.00000E+00
    0.26763E-01        -0.63606E-01         0.00000E+00
    0.26056E-01        -0.61890E-01         0.00000E+00
    0.25352E-01        -0.60170E-01         0.00000E+00
    0.24650E-01        -0.58448E-01         0.00000E+00
    0.23951E-01        -0.56724E-01         0.00000E+00
    0.23254E-01        -0.54997E-01         0.00000E+00
    0.22557E-01        -0.53267E-01         0.00000E+00
    0.21861E-01        -0.51535E-01         0.00000E+00
    0.21166E-01        -0.49799E-01         0.00000E+00
    0.20470E-01        -0.48061E-01         0.00000E+00
    0.19774E-01        -0.46320E-01         0.00000E+00
    0.19076E-01        -0.44576E-01         0.00000E+00
    0.18377E-01        -0.42829E-01         0.00000E+00
    0.17676E-01        -0.41078E-01         0.00000E+00
    0.16972E-01        -0.39325E-01         0.00000E+00
    0.16265E-01        -0.37569E-01         0.00000E+00
    0.15555E-01        -0.35809E-01         0.00000E+00
    0.14841E-01        -0.34047E-01         0.00000E+00
    0.14123E-01        -0.32281E-01         0.00000E+00
    0.13400E-01        -0.30513E-01         0.00000E+00
    0.12672E-01        -0.28741E-01         0.00000E+00
    0.11938E-01        -0.26966E-01         0.00000E+00
    0.11198E-01        -0.25189E-01         0.00000E+00
    0.10452E-01        -0.23408E-01         0.00000E+00
    0.96996E-02        -0.21624E-01         0.00000E+00
    0.89397E-02        -0.19837E-01         0.00000E+00
    0.81722E-02        -0.18048E-01         0.00000E+00
    0.73968E-02        -0.16255E-01         0.00000E+00
    0.66130E-02        -0.14460E-01         0.00000E+00
    0.58205E-02        -0.12662E-01         0.00000E+00
    0.50190E-02        -0.10861E-01         0.00000E+00
    0.42081E-02        -0.90571E-02         0.00000E+00
    0.33874E-02        -0.72508E-02         0.00000E+00
    0.25565E-02        -0.54418E-02         0.00000E+00
    0.17153E-02        -0.36304E-02         0.00000E+00
    0.86318E-03        -0.18164E-02         0.00000E+00
    0.00000E+00         0.00000E+00         0.00000E+00
    0.36222E-01        -0.91499E-01         0.00000E+00
    0.35415E-01        -0.89727E-01         0.00000E+00
    0.34620E-01        -0.87954E-01         0.00000E+00
    0.33836E-01        -0.86181E-01         0.00000E+00
    0.33063E-01        -0.84407E-01         0.00000E+00
    0.32300E-01        -0.82632E-01         0.00000E+00
    0.31547E-01        -0.80856E-01         0.00000E+00
    0.30803E-01        -0.79079E-01         0.00000E+00
    0.30067E-01        -0.77300E-01         0.00000E+00
    0.29340E-01        -0.75519E-01         0.00000E+00
    0.28621E-01        -0.73737E-01         0.00000E+00
    0.27908E-01        -0.71952E-01         0.00000E+00
    0.27202E-01        -0.70166E-01         0.00000E+00
    0.26502E-01        -0.68377E-01         0.00000E+00
    0.25808E-01        -0.66585E-01         0.00000E+00
    0.25118E-01        -0.64791E-01         0.00000E+00
    0.24433E-01        -0.62995E-01         0.00000E+00
    0.23751E-01        -0.61195E-01         0.00000E+00
    0.23072E-01        -0.59393E-01         0.00000E+00
    0.22396E-01        -0.57588E-01         0.00000E+00
    0.21723E-01        -0.55780E-01         0.00000E+00
    0.21050E-01        -0.53969E-01         0.00000E+00
    0.20379E-01        -0.52155E-01         0.00000E+00
    0.19709E-01        -0.50337E-01         0.00000E+00
    0.19038E-01        -0.48517E-01         0.00000E+00
    0.18367E-01        -0.46693E-01         0.00000E+00
    0.17694E-01        -0.44865E-01         0.00000E+00
    0.17020E-01        -0.43035E-01         0.00000E+00
    0.16344E-01        -0.41201E-01         0.00000E+00
    0.15666E-01        -0.39364E-01         0.00000E+00
    0.14984E-01        -0.37523E-01         0.00000E+00
    0.14299E-01        -0.35679E-01         0.00000E+00
    0.13610E-01        -0.33831E-01         0.00000E+00
    0.12916E-01        -0.31980E-01         0.00000E+00
    0.12217E-01        -0.30126E-01         0.00000E+00
    0.11513E-01        -0.28268E-01         0.00000E+00
    0.10802E-01        -0.26406E-01         0.00000E+00
    0.10086E-01        -0.24541E-01         0.00000E+00
    0.93624E-02        -0.22673E-01         0.00000E+00
    0.86318E-02        -0.20802E-01         0.00000E+00
    0.78935E-02        -0.18927E-01         0.00000E+00
    0.71471E-02        -0.17049E-01         0.00000E+00
    0.63922E-02        -0.15167E-01         0.00000E+00
    0.56284E-02        -0.13282E-01         0.00000E+00
    0.48552E-02        -0.11394E-01         0.00000E+00
    0.40724E-02        -0.95027E-02         0.00000E+00
    0.32795E-02        -0.76083E-02         0.00000E+00
    0.24762E-02        -0.57107E-02         0.00000E+00
    0.16621E-02        -0.38102E-02         0.00000E+00
    0.83678E-03        -0.19065E-02         0.00000E+00
    0.00000E+00         0.00000E+00         0.00000E+00
    0.34864E-01        -0.95580E-01         0.00000E+00
    0.34053E-01        -0.93731E-01         0.00000E+00
    0.33257E-01        -0.91882E-01         0.00000E+00
    0.32475E-01        -0.90032E-01         0.00000E+00
    0.31706E-01        -0.88182E-01         0.00000E+00
    0.30950E-01        -0.86330E-01         0.00000E+00
    0.30206E-01        -0.84477E-01         0.00000E+00
    0.29473E-01        -0.82623E-01         0.00000E+00
    0.28751E-01        -0.80767E-01         0.00000E+00
    0.28039E-01        -0.78909E-01         0.00000E+00
    0.27336E-01        -0.77049E-01         0.00000E+00
    0.26643E-01        -0.75187E-01         0.00000E+00
    0.25957E-01        -0.73323E-01         0.00000E+00
    0.25279E-01        -0.71456E-01         0.00000E+00
    0.24608E-01        -0.69586E-01         0.00000E+00
    0.23943E-01        -0.67714E-01         0.00000E+00
    0.23284E-01        -0.65839E-01         0.00000E+00
    0.22629E-01        -0.63961E-01         0.00000E+00
    0.21979E-01        -0.62080E-01         0.00000E+00
    0.21332E-01        -0.60196E-01         0.00000E+00
    0.20689E-01        -0.58308E-01         0.00000E+00
    0.20048E-01        -0.56418E-01         0.00000E+00
    0.19408E-01        -0.54523E-01         0.00000E+00
    0.18770E-01        -0.52626E-01         0.00000E+00
    0.18132E-01        -0.50725E-01         0.00000E+00
    0.17495E-01        -0.48821E-01         0.00000E+00
    0.16856E-01        -0.46913E-01         0.00000E+00
    0.16217E-01        -0.45001E-01         0.00000E+00
    0.15576E-01        -0.43086E-01         0.00000E+00
    0.14933E-01        -0.41167E-01         0.00000E+00
    0.14286E-01        -0.39244E-01         0.00000E+00
    0.13637E-01        -0.37318E-01         0.00000E+00
    0.12984E-01        -0.35387E-01         0.00000E+00
    0.12326E-01        -0.33454E-01         0.00000E+00
    0.11663E-01        -0.31516E-01         0.00000E+00
    0.10995E-01        -0.29574E-01         0.00000E+00
    0.10321E-01        -0.27629E-01         0.00000E+00
    0.96401E-02        -0.25680E-01         0.00000E+00
    0.89527E-02        -0.23727E-01         0.00000E+00
    0.82578E-02        -0.21770E-01         0.00000E+00
    0.75551E-02        -0.19810E-01         0.00000E+00
    0.68441E-02        -0.17845E-01         0.00000E+00
    0.61243E-02        -0.15877E-01         0.00000E+00
    0.53954E-02        -0.13905E-01         0.00000E+00
    0.46567E-02        -0.11930E-01         0.00000E+00
    0.39081E-02        -0.99505E-02         0.00000E+00
    0.31489E-02        -0.79676E-02         0.00000E+00
    0.23789E-02        -0.59810E-02         0.00000E+00
    0.15977E-02        -0.39909E-02         0.00000E+00
    0.80485E-03        -0.19972E-02         0.00000E+00
    0.00000E+00         0.00000E+00         0.00000E+00
    0.33123E-01        -0.99670E-01         0.00000E+00
    0.32316E-01        -0.97743E-01         0.00000E+00
    0.31527E-01        -0.95816E-01         0.00000E+00
    0.30754E-01        -0.93889E-01         0.00000E+00
    0.29998E-01        -0.91960E-01         0.00000E+00
    0.29257E-01        -0.90031E-01         0.00000E+00
    0.28530E-01        -0.88100E-01         0.00000E+00
    0.27817E-01        -0.86167E-01         0.00000E+00
    0.27117E-01        -0.84233E-01         0.00000E+00
    0.26429E-01        -0.82297E-01         0.00000E+00
    0.25752E-01        -0.80358E-01         0.00000E+00
    0.25086E-01        -0.78418E-01         0.00000E+00
    0.24430E-01        -0.76474E-01         0.00000E+00
    0.23783E-01        -0.74529E-01         0.00000E+00
    0.23144E-01        -0.72580E-01         0.00000E+00
    0.22512E-01        -0.70628E-01         0.00000E+00
    0.21887E-01        -0.68674E-01         0.00000E+00
    0.21268E-01        -0.66717E-01         0.00000E+00
    0.20655E-01        -0.64756E-01         0.00000E+00
    0.20046E-01        -0.62792E-01         0.00000E+00
    0.19440E-01        -0.60825E-01         0.00000E+00
    0.18838E-01        -0.58854E-01         0.00000E+00
    0.18239E-01        -0.56880E-01         0.00000E+00
    0.17641E-01        -0.54902E-01         0.00000E+00
    0.17044E-01        -0.52921E-01         0.00000E+00
    0.16448E-01        -0.50936E-01         0.00000E+00
    0.15852E-01        -0.48947E-01         0.00000E+00
    0.15255E-01        -0.46954E-01         0.00000E+00
    0.14657E-01        -0.44958E-01         0.00000E+00
    0.14056E-01        -0.42958E-01         0.00000E+00
    0.13453E-01        -0.40953E-01         0.00000E+00
    0.12847E-01        -0.38945E-01         0.00000E+00
    0.12237E-01        -0.36933E-01         0.00000E+00
    0.11622E-01        -0.34916E-01         0.00000E+00
    0.11003E-01        -0.32896E-01         0.00000E+00
    0.10378E-01        -0.30872E-01         0.00000E+00
    0.97471E-02        -0.28843E-01         0.00000E+00
    0.91097E-02        -0.26810E-01         0.00000E+00
    0.84652E-02        -0.24773E-01         0.00000E+00
    0.78132E-02        -0.22732E-01         0.00000E+00
    0.71530E-02        -0.20686E-01         0.00000E+00
    0.64842E-02        -0.18637E-01         0.00000E+00
    0.58063E-02        -0.16583E-01         0.00000E+00
    0.51188E-02        -0.14524E-01         0.00000E+00
    0.44212E-02        -0.12462E-01         0.00000E+00
    0.37132E-02        -0.10395E-01         0.00000E+00
    0.29942E-02        -0.83247E-02         0.00000E+00
    0.22637E-02        -0.62497E-02         0.00000E+00
    0.15215E-02        -0.41706E-02         0.00000E+00
    0.76707E-03        -0.20873E-02         0.00000E+00
    0.00000E+00         0.00000E+00         0.00000E+00
    0.30956E-01        -0.10373E+00         0.00000E+00
    0.30163E-01        -0.10172E+00         0.00000E+00
    0.29390E-01        -0.99715E-01         0.00000E+00
    0.28637E-01        -0.97708E-01         0.00000E+00
    0.27903E-01        -0.95701E-01         0.00000E+00
    0.27187E-01        -0.93692E-01         0.00000E+00
    0.26488E-01        -0.91682E-01         0.00000E+00
    0.25805E-01        -0.89670E-01         0.00000E+00
    0.25137E-01        -0.87657E-01         0.00000E+00
    0.24483E-01        -0.85641E-01         0.00000E+00
    0.23843E-01        -0.83623E-01         0.00000E+00
    0.23214E-01        -0.81603E-01         0.00000E+00
    0.22597E-01        -0.79581E-01         0.00000E+00
    0.21991E-01        -0.77555E-01         0.00000E+00
    0.21393E-01        -0.75527E-01         0.00000E+00
    0.20805E-01        -0.73496E-01         0.00000E+00
    0.20224E-01        -0.71462E-01         0.00000E+00
    0.19650E-01        -0.69425E-01         0.00000E+00
    0.19083E-01        -0.67385E-01         0.00000E+00
    0.18520E-01        -0.65341E-01         0.00000E+00
    0.17963E-01        -0.63294E-01         0.00000E+00
    0.17409E-01        -0.61244E-01         0.00000E+00
    0.16858E-01        -0.59190E-01         0.00000E+00
    0.16309E-01        -0.57133E-01         0.00000E+00
    0.15762E-01        -0.55072E-01         0.00000E+00
    0.15216E-01        -0.53007E-01         0.00000E+00
    0.14670E-01        -0.50939E-01         0.00000E+00
    0.14123E-01        -0.48866E-01         0.00000E+00
    0.13575E-01        -0.46790E-01         0.00000E+00
    0.13026E-01        -0.44710E-01         0.00000E+00
    0.12474E-01        -0.42625E-01         0.00000E+00
    0.11919E-01        -0.40537E-01         0.00000E+00
    0.11360E-01        -0.38444E-01         0.00000E+00
    0.10796E-01        -0.36347E-01         0.00000E+00
    0.10228E-01        -0.34246E-01         0.00000E+00
    0.96543E-02        -0.32140E-01         0.00000E+00
    0.90744E-02        -0.30030E-01         0.00000E+00
    0.84877E-02        -0.27915E-01         0.00000E+00
    0.78937E-02        -0.25796E-01         0.00000E+00
    0.72919E-02        -0.23672E-01         0.00000E+00
    0.66817E-02        -0.21544E-01         0.00000E+00
    0.60624E-02        -0.19411E-01         0.00000E+00
    0.54337E-02        -0.17273E-01         0.00000E+00
    0.47949E-02        -0.15131E-01         0.00000E+00
    0.41456E-02        -0.12983E-01         0.00000E+00
    0.34851E-02        -0.10831E-01         0.00000E+00
    0.28131E-02        -0.86746E-02         0.00000E+00
    0.21291E-02        -0.65131E-02         0.00000E+00
    0.14325E-02        -0.43468E-02         0.00000E+00
    0.72297E-03        -0.21758E-02         0.00000E+00
    0.00000E+00         0.00000E+00         0.00000E+00
    0.28317E-01        -0.10769E+00         0.00000E+00
    0.27549E-01        -0.10561E+00         0.00000E+00
    0.26806E-01        -0.10352E+00         0.00000E+00
    0.26085E-01        -0.10144E+00         0.00000E+00
    0.25386E-01        -0.99350E-01         0.00000E+00
    0.24708E-01        -0.97261E-01         0.00000E+00
    0.24049E-01        -0.95171E-01         0.00000E+00
    0.23408E-01        -0.93080E-01         0.00000E+00
    0.22784E-01        -0.90987E-01         0.00000E+00
    0.22177E-01        -0.88891E-01         0.00000E+00
    0.21584E-01        -0.86794E-01         0.00000E+00
    0.21005E-01        -0.84694E-01         0.00000E+00
    0.20438E-01        -0.82591E-01         0.00000E+00
    0.19883E-01        -0.80487E-01         0.00000E+00
    0.19339E-01        -0.78379E-01         0.00000E+00
    0.18804E-01        -0.76269E-01         0.00000E+00
    0.18278E-01        -0.74156E-01         0.00000E+00
    0.17760E-01        -0.72040E-01         0.00000E+00
    0.17248E-01        -0.69920E-01         0.00000E+00
    0.16742E-01        -0.67798E-01         0.00000E+00
    0.16241E-01        -0.65673E-01         0.00000E+00
    0.15745E-01        -0.63544E-01         0.00000E+00
    0.15251E-01        -0.61413E-01         0.00000E+00
    0.14761E-01        -0.59277E-01         0.00000E+00
    0.14272E-01        -0.57139E-01         0.00000E+00
    0.13784E-01        -0.54996E-01         0.00000E+00
    0.13297E-01        -0.52850E-01         0.00000E+00
    0.12809E-01        -0.50700E-01         0.00000E+00
    0.12321E-01        -0.48547E-01         0.00000E+00
    0.11830E-01        -0.46389E-01         0.00000E+00
    0.11337E-01        -0.44228E-01         0.00000E+00
    0.10841E-01        -0.42062E-01         0.00000E+00
    0.10342E-01        -0.39892E-01         0.00000E+00
    0.98376E-02        -0.37718E-01         0.00000E+00
    0.93286E-02        -0.35539E-01         0.00000E+00
    0.88139E-02        -0.33356E-01         0.00000E+00
    0.82929E-02        -0.31168E-01         0.00000E+00
    0.77651E-02        -0.28975E-01         0.00000E+00
    0.72297E-02        -0.26777E-01         0.00000E+00
    0.66861E-02        -0.24575E-01         0.00000E+00
    0.61338E-02        -0.22367E-01         0.00000E+00
    0.55722E-02        -0.20154E-01         0.00000E+00
    0.50006E-02        -0.17936E-01         0.00000E+00
    0.44185E-02        -0.15713E-01         0.00000E+00
    0.38252E-02        -0.13485E-01         0.00000E+00
    0.32202E-02        -0.11251E-01         0.00000E+00
    0.26029E-02        -0.90116E-02         0.00000E+00
    0.19728E-02        -0.67669E-02         0.00000E+00
    0.13292E-02        -0.45167E-02         0.00000E+00
    0.67183E-03        -0.22611E-02         0.00000E+00
    0.00000E+00         0.00000E+00         0.00000E+00
    0.25160E-01        -0.11151E+00         0.00000E+00
    0.24433E-01        -0.10934E+00         0.00000E+00
    0.23734E-01        -0.10717E+00         0.00000E+00
    0.23061E-01        -0.10501E+00         0.00000E+00
    0.22412E-01        -0.10284E+00         0.00000E+00
    0.21786E-01        -0.10067E+00         0.00000E+00
    0.21183E-01        -0.98501E-01         0.00000E+00
    0.20599E-01        -0.96330E-01         0.00000E+00
    0.20034E-01        -0.94156E-01         0.00000E+00
    0.19486E-01        -0.91981E-01         0.00000E+00
    0.18955E-01        -0.89804E-01         0.00000E+00
    0.18438E-01        -0.87624E-01         0.00000E+00
    0.17935E-01        -0.85443E-01         0.00000E+00
    0.17444E-01        -0.83259E-01         0.00000E+00
    0.16964E-01        -0.81073E-01         0.00000E+00
    0.16495E-01        -0.78885E-01         0.00000E+00
    0.16034E-01        -0.76694E-01         0.00000E+00
    0.15582E-01        -0.74500E-01         0.00000E+00
    0.15136E-01        -0.72304E-01         0.00000E+00
    0.14697E-01        -0.70106E-01         0.00000E+00
    0.14262E-01        -0.67905E-01         0.00000E+00
    0.13833E-01        -0.65700E-01         0.00000E+00
    0.13406E-01        -0.63494E-01         0.00000E+00
    0.12982E-01        -0.61284E-01         0.00000E+00
    0.12561E-01        -0.59071E-01         0.00000E+00
    0.12140E-01        -0.56855E-01         0.00000E+00
    0.11720E-01        -0.54635E-01         0.00000E+00
    0.11299E-01        -0.52412E-01         0.00000E+00
    0.10878E-01        -0.50186E-01         0.00000E+00
    0.10455E-01        -0.47956E-01         0.00000E+00
    0.10029E-01        -0.45722E-01         0.00000E+00
    0.96007E-02        -0.43484E-01         0.00000E+00
    0.91685E-02        -0.41242E-01         0.00000E+00
    0.87319E-02        -0.38996E-01         0.00000E+00
    0.82903E-02        -0.36745E-01         0.00000E+00
    0.78431E-02        -0.34489E-01         0.00000E+00
    0.73895E-02        -0.32229E-01         0.00000E+00
    0.69289E-02        -0.29964E-01         0.00000E+00
    0.64607E-02        -0.27694E-01         0.00000E+00
    0.59841E-02        -0.25418E-01         0.00000E+00
    0.54986E-02        -0.23137E-01         0.00000E+00
    0.50034E-02        -0.20850E-01         0.00000E+00
    0.44978E-02        -0.18558E-01         0.00000E+00
    0.39812E-02        -0.16260E-01         0.00000E+00
    0.34529E-02        -0.13955E-01         0.00000E+00
    0.29122E-02        -0.11645E-01         0.00000E+00
    0.23585E-02        -0.93287E-02         0.00000E+00
    0.17911E-02        -0.70060E-02         0.00000E+00
    0.12093E-02        -0.46770E-02         0.00000E+00
    0.61245E-03        -0.23417E-02         0.00000E+00
    0.00000E+00         0.00000E+00         0.00000E+00
    0.21438E-01        -0.11507E+00         0.00000E+00
    0.20771E-01        -0.11283E+00         0.00000E+00
    0.20135E-01        -0.11058E+00         0.00000E+00
    0.19529E-01        -0.10833E+00         0.00000E+00
    0.18949E-01        -0.10609E+00         0.00000E+00
    0.18395E-01        -0.10384E+00         0.00000E+00
    0.17864E-01        -0.10159E+00         0.00000E+00
    0.17355E-01        -0.99336E-01         0.00000E+00
    0.16865E-01        -0.97083E-01         0.00000E+00
    0.16394E-01        -0.94828E-01         0.00000E+00
    0.15939E-01        -0.92572E-01         0.00000E+00
    0.15499E-01        -0.90314E-01         0.00000E+00
    0.15073E-01        -0.88055E-01         0.00000E+00
    0.14660E-01        -0.85794E-01         0.00000E+00
    0.14257E-01        -0.83531E-01         0.00000E+00
    0.13865E-01        -0.81267E-01         0.00000E+00
    0.13481E-01        -0.79001E-01         0.00000E+00
    0.13105E-01        -0.76734E-01         0.00000E+00
    0.12736E-01        -0.74464E-01         0.00000E+00
    0.12372E-01        -0.72193E-01         0.00000E+00
    0.12014E-01        -0.69920E-01         0.00000E+00
    0.11660E-01        -0.67645E-01         0.00000E+00
    0.11309E-01        -0.65368E-01         0.00000E+00
    0.10960E-01        -0.63089E-01         0.00000E+00
    0.10613E-01        -0.60808E-01         0.00000E+00
    0.10268E-01        -0.58524E-01         0.00000E+00
    0.99221E-02        -0.56237E-01         0.00000E+00
    0.95765E-02        -0.53948E-01         0.00000E+00
    0.92298E-02        -0.51656E-01         0.00000E+00
    0.88816E-02        -0.49360E-01         0.00000E+00
    0.85311E-02        -0.47061E-01         0.00000E+00
    0.81777E-02        -0.44758E-01         0.00000E+00
    0.78208E-02        -0.42452E-01         0.00000E+00
    0.74597E-02        -0.40141E-01         0.00000E+00
    0.70937E-02        -0.37827E-01         0.00000E+00
    0.67223E-02        -0.35507E-01         0.00000E+00
    0.63448E-02        -0.33183E-01         0.00000E+00
    0.59604E-02        -0.30853E-01         0.00000E+00
    0.55685E-02        -0.28519E-01         0.00000E+00
    0.51683E-02        -0.26178E-01         0.00000E+00
    0.47591E-02        -0.23832E-01         0.00000E+00
    0.43402E-02        -0.21480E-01         0.00000E+00
    0.39108E-02        -0.19121E-01         0.00000E+00
    0.34701E-02        -0.16756E-01         0.00000E+00
    0.30173E-02        -0.14383E-01         0.00000E+00
    0.25516E-02        -0.12004E-01         0.00000E+00
    0.20721E-02        -0.96182E-02         0.00000E+00
    0.15780E-02        -0.72247E-02         0.00000E+00
    0.10685E-02        -0.48239E-02         0.00000E+00
    0.54278E-03        -0.24157E-02         0.00000E+00
    0.00000E+00         0.00000E+00         0.00000E+00
    0.17102E-01        -0.11829E+00         0.00000E+00
    0.16521E-01        -0.11596E+00         0.00000E+00
    0.15975E-01        -0.11364E+00         0.00000E+00
    0.15459E-01        -0.11131E+00         0.00000E+00
    0.14972E-01        -0.10898E+00         0.00000E+00
    0.14512E-01        -0.10665E+00         0.00000E+00
    0.14076E-01        -0.10432E+00         0.00000E+00
    0.13661E-01        -0.10199E+00         0.00000E+00
    0.13266E-01        -0.99658E-01         0.00000E+00
    0.12889E-01        -0.97326E-01         0.00000E+00
    0.12528E-01        -0.94992E-01         0.00000E+00
    0.12181E-01        -0.92659E-01         0.00000E+00
    0.11847E-01        -0.90325E-01         0.00000E+00
    0.11524E-01        -0.87990E-01         0.00000E+00
    0.11211E-01        -0.85655E-01         0.00000E+00
    0.10907E-01        -0.83320E-01         0.00000E+00
    0.10610E-01        -0.80984E-01         0.00000E+00
    0.10321E-01        -0.78649E-01         0.00000E+00
    0.10037E-01        -0.76312E-01         0.00000E+00
    0.97577E-02        -0.73975E-01         0.00000E+00
    0.94829E-02        -0.71638E-01         0.00000E+00
    0.92115E-02        -0.69300E-01         0.00000E+00
    0.89429E-02        -0.66961E-01         0.00000E+00
    0.86763E-02        -0.64621E-01         0.00000E+00
    0.84112E-02        -0.62279E-01         0.00000E+00
    0.81468E-02        -0.59936E-01         0.00000E+00
    0.78828E-02        -0.57592E-01         0.00000E+00
    0.76183E-02        -0.55245E-01         0.00000E+00
    0.73530E-02        -0.52897E-01         0.00000E+00
    0.70862E-02        -0.50546E-01         0.00000E+00
    0.68174E-02        -0.48192E-01         0.00000E+00
    0.65460E-02        -0.45835E-01         0.00000E+00
    0.62715E-02        -0.43474E-01         0.00000E+00
    0.59932E-02        -0.41110E-01         0.00000E+00
    0.57107E-02        -0.38742E-01         0.00000E+00
    0.54233E-02        -0.36369E-01         0.00000E+00
    0.51304E-02        -0.33992E-01         0.00000E+00
    0.48313E-02        -0.31609E-01         0.00000E+00
    0.45252E-02        -0.29221E-01         0.00000E+00
    0.42116E-02        -0.26827E-01         0.00000E+00
    0.38895E-02        -0.24427E-01         0.00000E+00
    0.35582E-02        -0.22020E-01         0.00000E+00
    0.32168E-02        -0.19606E-01         0.00000E+00
    0.28644E-02        -0.17184E-01         0.00000E+00
    0.24998E-02        -0.14755E-01         0.00000E+00
    0.21222E-02        -0.12317E-01         0.00000E+00
    0.17305E-02        -0.98714E-02         0.00000E+00
    0.13235E-02        -0.74169E-02         0.00000E+00
    0.90022E-03        -0.49536E-02         0.00000E+00
    0.45949E-03        -0.24814E-02         0.00000E+00
    0.00000E+00         0.00000E+00         0.00000E+00
    0.12110E-01        -0.12100E+00         0.00000E+00
    0.11648E-01        -0.11860E+00         0.00000E+00
    0.11223E-01        -0.11619E+00         0.00000E+00
    0.10831E-01        -0.11378E+00         0.00000E+00
    0.10468E-01        -0.11138E+00         0.00000E+00
    0.10131E-01        -0.10897E+00         0.00000E+00
    0.98159E-02        -0.10656E+00         0.00000E+00
    0.95205E-02        -0.10415E+00         0.00000E+00
    0.92420E-02        -0.10174E+00         0.00000E+00
    0.89783E-02        -0.99336E-01         0.00000E+00
    0.87275E-02        -0.96930E-01         0.00000E+00
    0.84880E-02        -0.94527E-01         0.00000E+00
    0.82583E-02        -0.92125E-01         0.00000E+00
    0.80373E-02        -0.89725E-01         0.00000E+00
    0.78239E-02        -0.87326E-01         0.00000E+00
    0.76170E-02        -0.84929E-01         0.00000E+00
    0.74158E-02        -0.82534E-01         0.00000E+00
    0.72195E-02        -0.80140E-01         0.00000E+00
    0.70275E-02        -0.77747E-01         0.00000E+00
    0.68390E-02        -0.75356E-01         0.00000E+00
    0.66535E-02        -0.72966E-01         0.00000E+00
    0.64705E-02        -0.70576E-01         0.00000E+00
    0.62893E-02        -0.68187E-01         0.00000E+00
    0.61096E-02        -0.65798E-01         0.00000E+00
    0.59308E-02        -0.63409E-01         0.00000E+00
    0.57525E-02        -0.61020E-01         0.00000E+00
    0.55743E-02        -0.58630E-01         0.00000E+00
    0.53958E-02        -0.56239E-01         0.00000E+00
    0.52166E-02        -0.53847E-01         0.00000E+00
    0.50362E-02        -0.51453E-01         0.00000E+00
    0.48542E-02        -0.49057E-01         0.00000E+00
    0.46703E-02        -0.46658E-01         0.00000E+00
    0.44840E-02        -0.44257E-01         0.00000E+00
    0.42949E-02        -0.41853E-01         0.00000E+00
    0.41025E-02        -0.39445E-01         0.00000E+00
    0.39064E-02        -0.37032E-01         0.00000E+00
    0.37059E-02        -0.34616E-01         0.00000E+00
    0.35007E-02        -0.32194E-01         0.00000E+00
    0.32900E-02        -0.29766E-01         0.00000E+00
    0.30732E-02        -0.27333E-01         0.00000E+00
    0.28496E-02        -0.24893E-01         0.00000E+00
    0.26183E-02        -0.22445E-01         0.00000E+00
    0.23786E-02        -0.19990E-01         0.00000E+00
    0.21292E-02        -0.17526E-01         0.00000E+00
    0.18691E-02        -0.15054E-01         0.00000E+00
    0.15969E-02        -0.12572E-01         0.00000E+00
    0.13112E-02        -0.10079E-01         0.00000E+00
    0.10103E-02        -0.75761E-02         0.00000E+00
    0.69238E-03        -0.50619E-02         0.00000E+00
    0.35595E-03        -0.25365E-02         0.00000E+00
    0.00000E+00         0.00000E+00         0.00000E+00
    0.64119E-02        -0.12301E+00         0.00000E+00
    0.61238E-02        -0.12052E+00         0.00000E+00
    0.58745E-02        -0.11803E+00         0.00000E+00
    0.56542E-02        -0.11554E+00         0.00000E+00
    0.54562E-02        -0.11306E+00         0.00000E+00
    0.52761E-02        -0.11057E+00         0.00000E+00
    0.51104E-02        -0.10809E+00         0.00000E+00
    0.49567E-02        -0.10562E+00         0.00000E+00
    0.48130E-02        -0.10315E+00         0.00000E+00
    0.46778E-02        -0.10068E+00         0.00000E+00
    0.45499E-02        -0.98216E-01         0.00000E+00
    0.44281E-02        -0.95758E-01         0.00000E+00
    0.43117E-02        -0.93304E-01         0.00000E+00
    0.42000E-02        -0.90855E-01         0.00000E+00
    0.40923E-02        -0.88410E-01         0.00000E+00
    0.39880E-02        -0.85969E-01         0.00000E+00
    0.38867E-02        -0.83531E-01         0.00000E+00
    0.37880E-02        -0.81097E-01         0.00000E+00
    0.36914E-02        -0.78666E-01         0.00000E+00
    0.35967E-02        -0.76237E-01         0.00000E+00
    0.35035E-02        -0.73811E-01         0.00000E+00
    0.34116E-02        -0.71387E-01         0.00000E+00
    0.33206E-02        -0.68965E-01         0.00000E+00
    0.32303E-02        -0.66544E-01         0.00000E+00
    0.31404E-02        -0.64124E-01         0.00000E+00
    0.30508E-02        -0.61704E-01         0.00000E+00
    0.29612E-02        -0.59285E-01         0.00000E+00
    0.28714E-02        -0.56866E-01         0.00000E+00
    0.27812E-02        -0.54446E-01         0.00000E+00
    0.26904E-02        -0.52025E-01         0.00000E+00
    0.25987E-02        -0.49603E-01         0.00000E+00
    0.25059E-02        -0.47179E-01         0.00000E+00
    0.24118E-02        -0.44752E-01         0.00000E+00
    0.23162E-02        -0.42323E-01         0.00000E+00
    0.22188E-02        -0.39890E-01         0.00000E+00
    0.21193E-02        -0.37454E-01         0.00000E+00
    0.20175E-02        -0.35013E-01         0.00000E+00
    0.19130E-02        -0.32568E-01         0.00000E+00
    0.18054E-02        -0.30117E-01         0.00000E+00
    0.16944E-02        -0.27660E-01         0.00000E+00
    0.15795E-02        -0.25196E-01         0.00000E+00
    0.14602E-02        -0.22724E-01         0.00000E+00
    0.13357E-02        -0.20245E-01         0.00000E+00
    0.12054E-02        -0.17756E-01         0.00000E+00
    0.10683E-02        -0.15258E-01         0.00000E+00
    0.92324E-03        -0.12749E-01         0.00000E+00
    0.76863E-03        -0.10228E-01         0.00000E+00
    0.60247E-03        -0.76935E-02         0.00000E+00
    0.42196E-03        -0.51451E-02         0.00000E+00
    0.22312E-03        -0.25810E-02         0.00000E+00
    0.00000E+00         0.00000E+00         0.00000E+00
    0.00000E+00        -0.12388E+00         0.00000E+00
    0.00000E+00        -0.12132E+00         0.00000E+00
    0.00000E+00        -0.11877E+00         0.00000E+00
    0.00000E+00        -0.11623E+00         0.00000E+00
    0.00000E+00        -0.11370E+00         0.00000E+00
    0.00000E+00        -0.11117E+00         0.00000E+00
    0.00000E+00        -0.10866E+00         0.00000E+00
    0.00000E+00        -0.10615E+00         0.00000E+00
    0.00000E+00        -0.10365E+00         0.00000E+00
    0.00000E+00        -0.10116E+00         0.00000E+00
    0.00000E+00        -0.98672E-01         0.00000E+00
    0.00000E+00        -0.96192E-01         0.00000E+00
    0.00000E+00        -0.93719E-01         0.00000E+00
    0.00000E+00        -0.91251E-01         0.00000E+00
    0.00000E+00        -0.88788E-01         0.00000E+00
    0.00000E+00        -0.86331E-01         0.00000E+00
    0.00000E+00        -0.83878E-01         0.00000E+00
    0.00000E+00        -0.81429E-01         0.00000E+00
    0.00000E+00        -0.78983E-01         0.00000E+00
    0.00000E+00        -0.76541E-01         0.00000E+00
    0.00000E+00        -0.74103E-01         0.00000E+00
    0.00000E+00        -0.71666E-01         0.00000E+00
    0.00000E+00        -0.69232E-01         0.00000E+00
    0.00000E+00        -0.66800E-01         0.00000E+00
    0.00000E+00        -0.64369E-01         0.00000E+00
    0.00000E+00        -0.61939E-01         0.00000E+00
    0.00000E+00        -0.59510E-01         0.00000E+00
    0.00000E+00        -0.57081E-01         0.00000E+00
    0.00000E+00        -0.54652E-01         0.00000E+00
    0.00000E+00        -0.52221E-01         0.00000E+00
    0.00000E+00        -0.49790E-01         0.00000E+00
    0.00000E+00        -0.47357E-01         0.00000E+00
    0.00000E+00        -0.44922E-01         0.00000E+00
    0.00000E+00        -0.42484E-01         0.00000E+00
    0.00000E+00        -0.40044E-01         0.00000E+00
    0.00000E+00        -0.37599E-01         0.00000E+00
    0.00000E+00        -0.35151E-01         0.00000E+00
    0.00000E+00        -0.32697E-01         0.00000E+00
    0.00000E+00        -0.30238E-01         0.00000E+00
    0.00000E+00        -0.27774E-01         0.00000E+00
    0.00000E+00        -0.25302E-01         0.00000E+00
    0.00000E+00        -0.22823E-01         0.00000E+00
    0.00000E+00        -0.20336E-01         0.00000E+00
    0.00000E+00        -0.17839E-01         0.00000E+00
    0.00000E+00        -0.15333E-01         0.00000E+00
    0.00000E+00        -0.12815E-01         0.00000E+00
    0.00000E+00        -0.10285E-01         0.00000E+00
    0.00000E+00        -0.77405E-02         0.00000E+00
    0.00000E+00        -0.51800E-02         0.00000E+00
    0.00000E+00        -0.26010E-02         0.00000E+00
    0.00000E+00         0.00000E+00         0.00000E+00
CELL_DATA       5000
VECTORS vDarcy double 
    0.26184E-08         0.14004E-11         0.00000E+00
    0.26174E-08         0.38139E-11         0.00000E+00
    0.26155E-08         0.57613E-11         0.00000E+00
    0.26128E-08         0.73538E-11         0.00000E+00
    0.26096E-08         0.86706E-11         0.00000E+00
    0.26059E-08         0.97693E-11         0.00000E+00
    0.26018E-08         0.10693E-10         0.00000E+00
    0.25974E-08         0.11473E-10         0.00000E+00
    0.25927E-08         0.12134E-10         0.00000E+00
    0.25877E-08         0.12696E-10         0.00000E+00
    0.25826E-08         0.13173E-10         0.00000E+00
    0.25772E-08         0.13577E-10         0.00000E+00
    0.25717E-08         0.13917E-10         0.00000E+00
    0.25661E-08         0.14202E-10         0.00000E+00
    0.25604E-08         0.14438E-10         0.00000E+00
    0.25545E-08         0.14629E-10         0.00000E+00
    0.25487E-08         0.14780E-10         0.00000E+00
    0.25427E-08         0.14894E-10         0.00000E+00
    0.25368E-08         0.14975E-10         0.00000E+00
    0.25308E-08         0.15024E-10         0.00000E+00
    0.25247E-08         0.15044E-10         0.00000E+00
    0.25187E-08         0.15035E-10         0.00000E+00
    0.25127E-08         0.15000E-10         0.00000E+00
    0.25067E-08         0.14940E-10         0.00000E+00
    0.25008E-08         0.14854E-10         0.00000E+00
    0.24948E-08         0.14743E-10         0.00000E+00
    0.24890E-08         0.14609E-10         0.00000E+00
    0.24832E-08         0.14450E-10         0.00000E+00
    0.24774E-08         0.14267E-10         0.00000E+00
    0.24718E-08         0.14060E-10         0.00000E+00
    0.24662E-08         0.13827E-10         0.00000E+00
    0.24607E-08         0.13568E-10         0.00000E+00
    0.24553E-08         0.13283E-10         0.00000E+00
    0.24501E-08         0.12971E-10         0.00000E+00
    0.24450E-08         0.12628E-10         0.00000E+00
    0.24400E-08         0.12255E-10         0.00000E+00
    0.24352E-08         0.11849E-10         0.00000E+00
    0.24305E-08         0.11407E-10         0.00000E+00
    0.24260E-08         0.10926E-10         0.00000E+00
    0.24218E-08         0.10403E-10         0.00000E+00
    0.24177E-08         0.98328E-11         0.00000E+00
    0.24139E-08         0.92101E-11         0.00000E+00
    0.24104E-08         0.85280E-11         0.00000E+00
    0.24071E-08         0.77777E-11         0.00000E+00
    0.24042E-08         0.69482E-11         0.00000E+00
    0.24016E-08         0.60251E-11         0.00000E+00
    0.23994E-08         0.49896E-11         0.00000E+00
    0.23976E-08         0.38163E-11         0.00000E+00
    0.23964E-08         0.24701E-11         0.00000E+00
    0.23957E-08         0.90191E-12         0.00000E+00
    0.24926E-08         0.29379E-11         0.00000E+00
    0.24925E-08         0.82594E-11         0.00000E+00
    0.24921E-08         0.12848E-10         0.00000E+00
    0.24914E-08         0.16814E-10         0.00000E+00
    0.24904E-08         0.20249E-10         0.00000E+00
    0.24891E-08         0.23230E-10         0.00000E+00
    0.24875E-08         0.25823E-10         0.00000E+00
    0.24856E-08         0.28079E-10         0.00000E+00
    0.24834E-08         0.30044E-10         0.00000E+00
    0.24809E-08         0.31754E-10         0.00000E+00
    0.24783E-08         0.33239E-10         0.00000E+00
    0.24754E-08         0.34526E-10         0.00000E+00
    0.24724E-08         0.35635E-10         0.00000E+00
    0.24692E-08         0.36585E-10         0.00000E+00
    0.24659E-08         0.37391E-10         0.00000E+00
    0.24624E-08         0.38065E-10         0.00000E+00
    0.24588E-08         0.38620E-10         0.00000E+00
    0.24552E-08         0.39063E-10         0.00000E+00
    0.24514E-08         0.39403E-10         0.00000E+00
    0.24476E-08         0.39645E-10         0.00000E+00
    0.24437E-08         0.39796E-10         0.00000E+00
    0.24398E-08         0.39860E-10         0.00000E+00
    0.24359E-08         0.39841E-10         0.00000E+00
    0.24320E-08         0.39740E-10         0.00000E+00
    0.24280E-08         0.39562E-10         0.00000E+00
    0.24241E-08         0.39306E-10         0.00000E+00
    0.24202E-08         0.38974E-10         0.00000E+00
    0.24163E-08         0.38567E-10         0.00000E+00
    0.24125E-08         0.38085E-10         0.00000E+00
    0.24087E-08         0.37526E-10         0.00000E+00
    0.24049E-08         0.36890E-10         0.00000E+00
    0.24013E-08         0.36175E-10         0.00000E+00
    0.23977E-08         0.35379E-10         0.00000E+00
    0.23942E-08         0.34498E-10         0.00000E+00
    0.23909E-08         0.33529E-10         0.00000E+00
    0.23876E-08         0.32468E-10         0.00000E+00
    0.23845E-08         0.31310E-10         0.00000E+00
    0.23815E-08         0.30048E-10         0.00000E+00
    0.23787E-08         0.28674E-10         0.00000E+00
    0.23761E-08         0.27181E-10         0.00000E+00
    0.23736E-08         0.25558E-10         0.00000E+00
    0.23714E-08         0.23793E-10         0.00000E+00
    0.23694E-08         0.21871E-10         0.00000E+00
    0.23675E-08         0.19775E-10         0.00000E+00
    0.23660E-08         0.17484E-10         0.00000E+00
    0.23647E-08         0.14974E-10         0.00000E+00
    0.23636E-08         0.12215E-10         0.00000E+00
    0.23629E-08         0.91721E-11         0.00000E+00
    0.23624E-08         0.58019E-11         0.00000E+00
    0.23622E-08         0.20536E-11         0.00000E+00
    0.23975E-08         0.31092E-11         0.00000E+00
    0.23974E-08         0.90191E-11         0.00000E+00
    0.23974E-08         0.14458E-10         0.00000E+00
    0.23972E-08         0.19429E-10         0.00000E+00
    0.23969E-08         0.23951E-10         0.00000E+00
    0.23966E-08         0.28049E-10         0.00000E+00
    0.23960E-08         0.31749E-10         0.00000E+00
    0.23954E-08         0.35081E-10         0.00000E+00
    0.23945E-08         0.38073E-10         0.00000E+00
    0.23936E-08         0.40751E-10         0.00000E+00
    0.23924E-08         0.43140E-10         0.00000E+00
    0.23912E-08         0.45262E-10         0.00000E+00
    0.23897E-08         0.47138E-10         0.00000E+00
    0.23882E-08         0.48785E-10         0.00000E+00
    0.23865E-08         0.50220E-10         0.00000E+00
    0.23848E-08         0.51457E-10         0.00000E+00
    0.23829E-08         0.52507E-10         0.00000E+00
    0.23809E-08         0.53383E-10         0.00000E+00
    0.23788E-08         0.54094E-10         0.00000E+00
    0.23767E-08         0.54648E-10         0.00000E+00
    0.23745E-08         0.55052E-10         0.00000E+00
    0.23723E-08         0.55312E-10         0.00000E+00
    0.23700E-08         0.55433E-10         0.00000E+00
    0.23677E-08         0.55419E-10         0.00000E+00
    0.23653E-08         0.55273E-10         0.00000E+00
    0.23630E-08         0.54999E-10         0.00000E+00
    0.23607E-08         0.54596E-10         0.00000E+00
    0.23583E-08         0.54067E-10         0.00000E+00
    0.23560E-08         0.53411E-10         0.00000E+00
    0.23537E-08         0.52629E-10         0.00000E+00
    0.23514E-08         0.51718E-10         0.00000E+00
    0.23492E-08         0.50677E-10         0.00000E+00
    0.23471E-08         0.49503E-10         0.00000E+00
    0.23450E-08         0.48193E-10         0.00000E+00
    0.23430E-08         0.46743E-10         0.00000E+00
    0.23410E-08         0.45148E-10         0.00000E+00
    0.23392E-08         0.43401E-10         0.00000E+00
    0.23375E-08         0.41496E-10         0.00000E+00
    0.23358E-08         0.39426E-10         0.00000E+00
    0.23343E-08         0.37181E-10         0.00000E+00
    0.23329E-08         0.34752E-10         0.00000E+00
    0.23317E-08         0.32127E-10         0.00000E+00
    0.23306E-08         0.29294E-10         0.00000E+00
    0.23296E-08         0.26239E-10         0.00000E+00
    0.23288E-08         0.22949E-10         0.00000E+00
    0.23281E-08         0.19408E-10         0.00000E+00
    0.23276E-08         0.15602E-10         0.00000E+00
    0.23272E-08         0.11515E-10         0.00000E+00
    0.23269E-08         0.71375E-11         0.00000E+00
    0.23268E-08         0.24616E-11         0.00000E+00
    0.23257E-08         0.30782E-11         0.00000E+00
    0.23258E-08         0.89950E-11         0.00000E+00
    0.23258E-08         0.14556E-10         0.00000E+00
    0.23259E-08         0.19766E-10         0.00000E+00
    0.23260E-08         0.24628E-10         0.00000E+00
    0.23260E-08         0.29149E-10         0.00000E+00
    0.23260E-08         0.33335E-10         0.00000E+00
    0.23259E-08         0.37197E-10         0.00000E+00
    0.23258E-08         0.40746E-10         0.00000E+00
    0.23256E-08         0.43995E-10         0.00000E+00
    0.23253E-08         0.46954E-10         0.00000E+00
    0.23249E-08         0.49638E-10         0.00000E+00
    0.23245E-08         0.52058E-10         0.00000E+00
    0.23239E-08         0.54226E-10         0.00000E+00
    0.23233E-08         0.56153E-10         0.00000E+00
    0.23227E-08         0.57849E-10         0.00000E+00
    0.23219E-08         0.59324E-10         0.00000E+00
    0.23211E-08         0.60587E-10         0.00000E+00
    0.23202E-08         0.61646E-10         0.00000E+00
    0.23192E-08         0.62508E-10         0.00000E+00
    0.23182E-08         0.63178E-10         0.00000E+00
    0.23172E-08         0.63664E-10         0.00000E+00
    0.23161E-08         0.63968E-10         0.00000E+00
    0.23149E-08         0.64095E-10         0.00000E+00
    0.23138E-08         0.64049E-10         0.00000E+00
    0.23126E-08         0.63831E-10         0.00000E+00
    0.23114E-08         0.63444E-10         0.00000E+00
    0.23102E-08         0.62889E-10         0.00000E+00
    0.23090E-08         0.62166E-10         0.00000E+00
    0.23078E-08         0.61274E-10         0.00000E+00
    0.23067E-08         0.60214E-10         0.00000E+00
    0.23055E-08         0.58984E-10         0.00000E+00
    0.23044E-08         0.57581E-10         0.00000E+00
    0.23033E-08         0.56002E-10         0.00000E+00
    0.23023E-08         0.54246E-10         0.00000E+00
    0.23013E-08         0.52306E-10         0.00000E+00
    0.23003E-08         0.50180E-10         0.00000E+00
    0.22994E-08         0.47862E-10         0.00000E+00
    0.22986E-08         0.45346E-10         0.00000E+00
    0.22978E-08         0.42626E-10         0.00000E+00
    0.22971E-08         0.39696E-10         0.00000E+00
    0.22965E-08         0.36548E-10         0.00000E+00
    0.22960E-08         0.33175E-10         0.00000E+00
    0.22955E-08         0.29571E-10         0.00000E+00
    0.22951E-08         0.25726E-10         0.00000E+00
    0.22948E-08         0.21636E-10         0.00000E+00
    0.22945E-08         0.17292E-10         0.00000E+00
    0.22944E-08         0.12689E-10         0.00000E+00
    0.22942E-08         0.78220E-11         0.00000E+00
    0.22942E-08         0.26843E-11         0.00000E+00
    0.22738E-08         0.29161E-11         0.00000E+00
    0.22739E-08         0.85764E-11         0.00000E+00
    0.22740E-08         0.13973E-10         0.00000E+00
    0.22742E-08         0.19100E-10         0.00000E+00
    0.22744E-08         0.23954E-10         0.00000E+00
    0.22747E-08         0.28534E-10         0.00000E+00
    0.22749E-08         0.32840E-10         0.00000E+00
    0.22751E-08         0.36874E-10         0.00000E+00
    0.22753E-08         0.40637E-10         0.00000E+00
    0.22755E-08         0.44133E-10         0.00000E+00
    0.22757E-08         0.47367E-10         0.00000E+00
    0.22759E-08         0.50342E-10         0.00000E+00
    0.22760E-08         0.53065E-10         0.00000E+00
    0.22760E-08         0.55540E-10         0.00000E+00
    0.22760E-08         0.57773E-10         0.00000E+00
    0.22760E-08         0.59770E-10         0.00000E+00
    0.22759E-08         0.61536E-10         0.00000E+00
    0.22758E-08         0.63076E-10         0.00000E+00
    0.22757E-08         0.64394E-10         0.00000E+00
    0.22755E-08         0.65496E-10         0.00000E+00
    0.22753E-08         0.66385E-10         0.00000E+00
    0.22750E-08         0.67066E-10         0.00000E+00
    0.22747E-08         0.67541E-10         0.00000E+00
    0.22744E-08         0.67813E-10         0.00000E+00
    0.22740E-08         0.67885E-10         0.00000E+00
    0.22736E-08         0.67758E-10         0.00000E+00
    0.22732E-08         0.67434E-10         0.00000E+00
    0.22728E-08         0.66914E-10         0.00000E+00
    0.22724E-08         0.66198E-10         0.00000E+00
    0.22720E-08         0.65286E-10         0.00000E+00
    0.22716E-08         0.64178E-10         0.00000E+00
    0.22711E-08         0.62873E-10         0.00000E+00
    0.22707E-08         0.61370E-10         0.00000E+00
    0.22703E-08         0.59666E-10         0.00000E+00
    0.22699E-08         0.57760E-10         0.00000E+00
    0.22696E-08         0.55650E-10         0.00000E+00
    0.22692E-08         0.53332E-10         0.00000E+00
    0.22689E-08         0.50803E-10         0.00000E+00
    0.22686E-08         0.48061E-10         0.00000E+00
    0.22683E-08         0.45101E-10         0.00000E+00
    0.22681E-08         0.41921E-10         0.00000E+00
    0.22678E-08         0.38515E-10         0.00000E+00
    0.22676E-08         0.34881E-10         0.00000E+00
    0.22675E-08         0.31015E-10         0.00000E+00
    0.22674E-08         0.26914E-10         0.00000E+00
    0.22673E-08         0.22573E-10         0.00000E+00
    0.22672E-08         0.17990E-10         0.00000E+00
    0.22671E-08         0.13163E-10         0.00000E+00
    0.22671E-08         0.80881E-11         0.00000E+00
    0.22671E-08         0.27651E-11         0.00000E+00
    0.22394E-08         0.27105E-11         0.00000E+00
    0.22394E-08         0.80036E-11         0.00000E+00
    0.22396E-08         0.13098E-10         0.00000E+00
    0.22398E-08         0.17986E-10         0.00000E+00
    0.22401E-08         0.22659E-10         0.00000E+00
    0.22404E-08         0.27113E-10         0.00000E+00
    0.22408E-08         0.31343E-10         0.00000E+00
    0.22411E-08         0.35345E-10         0.00000E+00
    0.22415E-08         0.39118E-10         0.00000E+00
    0.22419E-08         0.42659E-10         0.00000E+00
    0.22423E-08         0.45967E-10         0.00000E+00
    0.22427E-08         0.49044E-10         0.00000E+00
    0.22431E-08         0.51888E-10         0.00000E+00
    0.22435E-08         0.54502E-10         0.00000E+00
    0.22439E-08         0.56886E-10         0.00000E+00
    0.22442E-08         0.59041E-10         0.00000E+00
    0.22445E-08         0.60971E-10         0.00000E+00
    0.22448E-08         0.62675E-10         0.00000E+00
    0.22451E-08         0.64157E-10         0.00000E+00
    0.22454E-08         0.65419E-10         0.00000E+00
    0.22456E-08         0.66461E-10         0.00000E+00
    0.22458E-08         0.67286E-10         0.00000E+00
    0.22460E-08         0.67895E-10         0.00000E+00
    0.22462E-08         0.68290E-10         0.00000E+00
    0.22463E-08         0.68472E-10         0.00000E+00
    0.22464E-08         0.68441E-10         0.00000E+00
    0.22465E-08         0.68198E-10         0.00000E+00
    0.22466E-08         0.67745E-10         0.00000E+00
    0.22467E-08         0.67080E-10         0.00000E+00
    0.22468E-08         0.66205E-10         0.00000E+00
    0.22468E-08         0.65118E-10         0.00000E+00
    0.22469E-08         0.63820E-10         0.00000E+00
    0.22469E-08         0.62309E-10         0.00000E+00
    0.22469E-08         0.60584E-10         0.00000E+00
    0.22470E-08         0.58645E-10         0.00000E+00
    0.22470E-08         0.56490E-10         0.00000E+00
    0.22470E-08         0.54118E-10         0.00000E+00
    0.22470E-08         0.51527E-10         0.00000E+00
    0.22471E-08         0.48715E-10         0.00000E+00
    0.22471E-08         0.45681E-10         0.00000E+00
    0.22471E-08         0.42423E-10         0.00000E+00
    0.22472E-08         0.38938E-10         0.00000E+00
    0.22472E-08         0.35227E-10         0.00000E+00
    0.22472E-08         0.31286E-10         0.00000E+00
    0.22473E-08         0.27115E-10         0.00000E+00
    0.22473E-08         0.22711E-10         0.00000E+00
    0.22473E-08         0.18076E-10         0.00000E+00
    0.22473E-08         0.13206E-10         0.00000E+00
    0.22474E-08         0.81032E-11         0.00000E+00
    0.22474E-08         0.27660E-11         0.00000E+00
    0.22206E-08         0.24968E-11         0.00000E+00
    0.22206E-08         0.73950E-11         0.00000E+00
    0.22208E-08         0.12142E-10         0.00000E+00
    0.22210E-08         0.16729E-10         0.00000E+00
    0.22213E-08         0.21145E-10         0.00000E+00
    0.22216E-08         0.25385E-10         0.00000E+00
    0.22220E-08         0.29439E-10         0.00000E+00
    0.22224E-08         0.33304E-10         0.00000E+00
    0.22229E-08         0.36973E-10         0.00000E+00
    0.22233E-08         0.40442E-10         0.00000E+00
    0.22238E-08         0.43708E-10         0.00000E+00
    0.22244E-08         0.46767E-10         0.00000E+00
    0.22249E-08         0.49617E-10         0.00000E+00
    0.22254E-08         0.52256E-10         0.00000E+00
    0.22259E-08         0.54682E-10         0.00000E+00
    0.22264E-08         0.56895E-10         0.00000E+00
    0.22270E-08         0.58893E-10         0.00000E+00
    0.22275E-08         0.60676E-10         0.00000E+00
    0.22280E-08         0.62243E-10         0.00000E+00
    0.22285E-08         0.63594E-10         0.00000E+00
    0.22289E-08         0.64730E-10         0.00000E+00
    0.22294E-08         0.65649E-10         0.00000E+00
    0.22299E-08         0.66352E-10         0.00000E+00
    0.22303E-08         0.66840E-10         0.00000E+00
    0.22307E-08         0.67111E-10         0.00000E+00
    0.22311E-08         0.67167E-10         0.00000E+00
    0.22315E-08         0.67006E-10         0.00000E+00
    0.22319E-08         0.66630E-10         0.00000E+00
    0.22322E-08         0.66037E-10         0.00000E+00
    0.22326E-08         0.65227E-10         0.00000E+00
    0.22329E-08         0.64201E-10         0.00000E+00
    0.22332E-08         0.62957E-10         0.00000E+00
    0.22335E-08         0.61496E-10         0.00000E+00
    0.22338E-08         0.59815E-10         0.00000E+00
    0.22341E-08         0.57916E-10         0.00000E+00
    0.22343E-08         0.55798E-10         0.00000E+00
    0.22346E-08         0.53458E-10         0.00000E+00
    0.22348E-08         0.50898E-10         0.00000E+00
    0.22350E-08         0.48115E-10         0.00000E+00
    0.22352E-08         0.45110E-10         0.00000E+00
    0.22354E-08         0.41882E-10         0.00000E+00
    0.22356E-08         0.38430E-10         0.00000E+00
    0.22358E-08         0.34753E-10         0.00000E+00
    0.22359E-08         0.30852E-10         0.00000E+00
    0.22360E-08         0.26726E-10         0.00000E+00
    0.22361E-08         0.22374E-10         0.00000E+00
    0.22362E-08         0.17797E-10         0.00000E+00
    0.22363E-08         0.12995E-10         0.00000E+00
    0.22364E-08         0.79684E-11         0.00000E+00
    0.22364E-08         0.27181E-11         0.00000E+00
    0.22160E-08         0.22972E-11         0.00000E+00
    0.22161E-08         0.68191E-11         0.00000E+00
    0.22162E-08         0.11224E-10         0.00000E+00
    0.22165E-08         0.15502E-10         0.00000E+00
    0.22167E-08         0.19643E-10         0.00000E+00
    0.22170E-08         0.23638E-10         0.00000E+00
    0.22174E-08         0.27479E-10         0.00000E+00
    0.22178E-08         0.31159E-10         0.00000E+00
    0.22182E-08         0.34672E-10         0.00000E+00
    0.22187E-08         0.38011E-10         0.00000E+00
    0.22192E-08         0.41171E-10         0.00000E+00
    0.22197E-08         0.44148E-10         0.00000E+00
    0.22203E-08         0.46937E-10         0.00000E+00
    0.22208E-08         0.49534E-10         0.00000E+00
    0.22214E-08         0.51937E-10         0.00000E+00
    0.22220E-08         0.54141E-10         0.00000E+00
    0.22226E-08         0.56145E-10         0.00000E+00
    0.22231E-08         0.57946E-10         0.00000E+00
    0.22237E-08         0.59543E-10         0.00000E+00
    0.22243E-08         0.60934E-10         0.00000E+00
    0.22249E-08         0.62116E-10         0.00000E+00
    0.22255E-08         0.63090E-10         0.00000E+00
    0.22260E-08         0.63853E-10         0.00000E+00
    0.22266E-08         0.64404E-10         0.00000E+00
    0.22271E-08         0.64744E-10         0.00000E+00
    0.22276E-08         0.64870E-10         0.00000E+00
    0.22282E-08         0.64782E-10         0.00000E+00
    0.22287E-08         0.64480E-10         0.00000E+00
    0.22291E-08         0.63963E-10         0.00000E+00
    0.22296E-08         0.63229E-10         0.00000E+00
    0.22301E-08         0.62279E-10         0.00000E+00
    0.22305E-08         0.61113E-10         0.00000E+00
    0.22309E-08         0.59729E-10         0.00000E+00
    0.22313E-08         0.58127E-10         0.00000E+00
    0.22317E-08         0.56306E-10         0.00000E+00
    0.22321E-08         0.54267E-10         0.00000E+00
    0.22325E-08         0.52008E-10         0.00000E+00
    0.22328E-08         0.49530E-10         0.00000E+00
    0.22331E-08         0.46832E-10         0.00000E+00
    0.22334E-08         0.43913E-10         0.00000E+00
    0.22337E-08         0.40775E-10         0.00000E+00
    0.22339E-08         0.37416E-10         0.00000E+00
    0.22341E-08         0.33837E-10         0.00000E+00
    0.22343E-08         0.30038E-10         0.00000E+00
    0.22345E-08         0.26019E-10         0.00000E+00
    0.22347E-08         0.21781E-10         0.00000E+00
    0.22348E-08         0.17324E-10         0.00000E+00
    0.22349E-08         0.12648E-10         0.00000E+00
    0.22349E-08         0.77546E-11         0.00000E+00
    0.22350E-08         0.26447E-11         0.00000E+00
    0.22247E-08         0.21237E-11         0.00000E+00
    0.22248E-08         0.63141E-11         0.00000E+00
    0.22249E-08         0.10411E-10         0.00000E+00
    0.22251E-08         0.14404E-10         0.00000E+00
    0.22253E-08         0.18283E-10         0.00000E+00
    0.22256E-08         0.22040E-10         0.00000E+00
    0.22259E-08         0.25666E-10         0.00000E+00
    0.22263E-08         0.29154E-10         0.00000E+00
    0.22267E-08         0.32495E-10         0.00000E+00
    0.22271E-08         0.35683E-10         0.00000E+00
    0.22275E-08         0.38713E-10         0.00000E+00
    0.22280E-08         0.41578E-10         0.00000E+00
    0.22285E-08         0.44274E-10         0.00000E+00
    0.22291E-08         0.46795E-10         0.00000E+00
    0.22296E-08         0.49138E-10         0.00000E+00
    0.22301E-08         0.51297E-10         0.00000E+00
    0.22307E-08         0.53271E-10         0.00000E+00
    0.22313E-08         0.55054E-10         0.00000E+00
    0.22319E-08         0.56645E-10         0.00000E+00
    0.22324E-08         0.58041E-10         0.00000E+00
    0.22330E-08         0.59239E-10         0.00000E+00
    0.22336E-08         0.60237E-10         0.00000E+00
    0.22342E-08         0.61033E-10         0.00000E+00
    0.22347E-08         0.61626E-10         0.00000E+00
    0.22353E-08         0.62013E-10         0.00000E+00
    0.22358E-08         0.62193E-10         0.00000E+00
    0.22364E-08         0.62165E-10         0.00000E+00
    0.22369E-08         0.61927E-10         0.00000E+00
    0.22374E-08         0.61479E-10         0.00000E+00
    0.22379E-08         0.60820E-10         0.00000E+00
    0.22384E-08         0.59948E-10         0.00000E+00
    0.22389E-08         0.58864E-10         0.00000E+00
    0.22394E-08         0.57565E-10         0.00000E+00
    0.22398E-08         0.56052E-10         0.00000E+00
    0.22402E-08         0.54325E-10         0.00000E+00
    0.22406E-08         0.52382E-10         0.00000E+00
    0.22410E-08         0.50223E-10         0.00000E+00
    0.22414E-08         0.47849E-10         0.00000E+00
    0.22417E-08         0.45259E-10         0.00000E+00
    0.22420E-08         0.42452E-10         0.00000E+00
    0.22423E-08         0.39430E-10         0.00000E+00
    0.22426E-08         0.36192E-10         0.00000E+00
    0.22428E-08         0.32738E-10         0.00000E+00
    0.22430E-08         0.29069E-10         0.00000E+00
    0.22432E-08         0.25185E-10         0.00000E+00
    0.22434E-08         0.21086E-10         0.00000E+00
    0.22435E-08         0.16774E-10         0.00000E+00
    0.22436E-08         0.12248E-10         0.00000E+00
    0.22437E-08         0.75107E-11         0.00000E+00
    0.22437E-08         0.25619E-11         0.00000E+00
    0.22458E-08         0.19821E-11         0.00000E+00
    0.22458E-08         0.58990E-11         0.00000E+00
    0.22459E-08         0.97373E-11         0.00000E+00
    0.22461E-08         0.13487E-10         0.00000E+00
    0.22463E-08         0.17139E-10         0.00000E+00
    0.22465E-08         0.20685E-10         0.00000E+00
    0.22468E-08         0.24116E-10         0.00000E+00
    0.22470E-08         0.27424E-10         0.00000E+00
    0.22474E-08         0.30602E-10         0.00000E+00
    0.22477E-08         0.33643E-10         0.00000E+00
    0.22481E-08         0.36541E-10         0.00000E+00
    0.22485E-08         0.39289E-10         0.00000E+00
    0.22490E-08         0.41882E-10         0.00000E+00
    0.22494E-08         0.44315E-10         0.00000E+00
    0.22499E-08         0.46583E-10         0.00000E+00
    0.22504E-08         0.48681E-10         0.00000E+00
    0.22509E-08         0.50605E-10         0.00000E+00
    0.22514E-08         0.52352E-10         0.00000E+00
    0.22519E-08         0.53918E-10         0.00000E+00
    0.22524E-08         0.55299E-10         0.00000E+00
    0.22529E-08         0.56492E-10         0.00000E+00
    0.22534E-08         0.57495E-10         0.00000E+00
    0.22540E-08         0.58305E-10         0.00000E+00
    0.22545E-08         0.58920E-10         0.00000E+00
    0.22550E-08         0.59338E-10         0.00000E+00
    0.22555E-08         0.59556E-10         0.00000E+00
    0.22560E-08         0.59573E-10         0.00000E+00
    0.22565E-08         0.59388E-10         0.00000E+00
    0.22570E-08         0.58999E-10         0.00000E+00
    0.22575E-08         0.58404E-10         0.00000E+00
    0.22579E-08         0.57603E-10         0.00000E+00
    0.22584E-08         0.56594E-10         0.00000E+00
    0.22588E-08         0.55377E-10         0.00000E+00
    0.22592E-08         0.53951E-10         0.00000E+00
    0.22596E-08         0.52314E-10         0.00000E+00
    0.22600E-08         0.50468E-10         0.00000E+00
    0.22604E-08         0.48411E-10         0.00000E+00
    0.22607E-08         0.46142E-10         0.00000E+00
    0.22610E-08         0.43663E-10         0.00000E+00
    0.22613E-08         0.40972E-10         0.00000E+00
    0.22616E-08         0.38069E-10         0.00000E+00
    0.22619E-08         0.34955E-10         0.00000E+00
    0.22621E-08         0.31630E-10         0.00000E+00
    0.22623E-08         0.28094E-10         0.00000E+00
    0.22625E-08         0.24348E-10         0.00000E+00
    0.22626E-08         0.20392E-10         0.00000E+00
    0.22627E-08         0.16226E-10         0.00000E+00
    0.22628E-08         0.11852E-10         0.00000E+00
    0.22629E-08         0.72699E-11         0.00000E+00
    0.22629E-08         0.24806E-11         0.00000E+00
    0.22786E-08         0.18743E-11         0.00000E+00
    0.22786E-08         0.55807E-11         0.00000E+00
    0.22787E-08         0.92168E-11         0.00000E+00
    0.22788E-08         0.12774E-10         0.00000E+00
    0.22789E-08         0.16242E-10         0.00000E+00
    0.22791E-08         0.19614E-10         0.00000E+00
    0.22793E-08         0.22882E-10         0.00000E+00
    0.22795E-08         0.26038E-10         0.00000E+00
    0.22798E-08         0.29075E-10         0.00000E+00
    0.22800E-08         0.31985E-10         0.00000E+00
    0.22803E-08         0.34764E-10         0.00000E+00
    0.22807E-08         0.37404E-10         0.00000E+00
    0.22810E-08         0.39901E-10         0.00000E+00
    0.22814E-08         0.42247E-10         0.00000E+00
    0.22817E-08         0.44440E-10         0.00000E+00
    0.22821E-08         0.46474E-10         0.00000E+00
    0.22825E-08         0.48344E-10         0.00000E+00
    0.22829E-08         0.50046E-10         0.00000E+00
    0.22834E-08         0.51577E-10         0.00000E+00
    0.22838E-08         0.52932E-10         0.00000E+00
    0.22842E-08         0.54110E-10         0.00000E+00
    0.22846E-08         0.55106E-10         0.00000E+00
    0.22851E-08         0.55917E-10         0.00000E+00
    0.22855E-08         0.56541E-10         0.00000E+00
    0.22859E-08         0.56976E-10         0.00000E+00
    0.22864E-08         0.57219E-10         0.00000E+00
    0.22868E-08         0.57268E-10         0.00000E+00
    0.22872E-08         0.57122E-10         0.00000E+00
    0.22876E-08         0.56778E-10         0.00000E+00
    0.22880E-08         0.56235E-10         0.00000E+00
    0.22884E-08         0.55492E-10         0.00000E+00
    0.22888E-08         0.54547E-10         0.00000E+00
    0.22892E-08         0.53400E-10         0.00000E+00
    0.22895E-08         0.52049E-10         0.00000E+00
    0.22899E-08         0.50493E-10         0.00000E+00
    0.22902E-08         0.48732E-10         0.00000E+00
    0.22905E-08         0.46766E-10         0.00000E+00
    0.22908E-08         0.44593E-10         0.00000E+00
    0.22911E-08         0.42213E-10         0.00000E+00
    0.22914E-08         0.39627E-10         0.00000E+00
    0.22916E-08         0.36834E-10         0.00000E+00
    0.22918E-08         0.33834E-10         0.00000E+00
    0.22920E-08         0.30627E-10         0.00000E+00
    0.22922E-08         0.27213E-10         0.00000E+00
    0.22923E-08         0.23592E-10         0.00000E+00
    0.22925E-08         0.19766E-10         0.00000E+00
    0.22926E-08         0.15734E-10         0.00000E+00
    0.22927E-08         0.11496E-10         0.00000E+00
    0.22927E-08         0.70540E-11         0.00000E+00
    0.22927E-08         0.24078E-11         0.00000E+00
    0.23225E-08         0.17996E-11         0.00000E+00
    0.23226E-08         0.53582E-11         0.00000E+00
    0.23226E-08         0.88497E-11         0.00000E+00
    0.23227E-08         0.12266E-10         0.00000E+00
    0.23228E-08         0.15598E-10         0.00000E+00
    0.23229E-08         0.18839E-10         0.00000E+00
    0.23230E-08         0.21982E-10         0.00000E+00
    0.23232E-08         0.25019E-10         0.00000E+00
    0.23233E-08         0.27943E-10         0.00000E+00
    0.23235E-08         0.30749E-10         0.00000E+00
    0.23238E-08         0.33430E-10         0.00000E+00
    0.23240E-08         0.35979E-10         0.00000E+00
    0.23242E-08         0.38393E-10         0.00000E+00
    0.23245E-08         0.40665E-10         0.00000E+00
    0.23248E-08         0.42790E-10         0.00000E+00
    0.23250E-08         0.44764E-10         0.00000E+00
    0.23253E-08         0.46583E-10         0.00000E+00
    0.23256E-08         0.48241E-10         0.00000E+00
    0.23259E-08         0.49736E-10         0.00000E+00
    0.23263E-08         0.51063E-10         0.00000E+00
    0.23266E-08         0.52219E-10         0.00000E+00
    0.23269E-08         0.53200E-10         0.00000E+00
    0.23272E-08         0.54005E-10         0.00000E+00
    0.23276E-08         0.54629E-10         0.00000E+00
    0.23279E-08         0.55071E-10         0.00000E+00
    0.23282E-08         0.55327E-10         0.00000E+00
    0.23286E-08         0.55397E-10         0.00000E+00
    0.23289E-08         0.55276E-10         0.00000E+00
    0.23292E-08         0.54964E-10         0.00000E+00
    0.23295E-08         0.54460E-10         0.00000E+00
    0.23298E-08         0.53760E-10         0.00000E+00
    0.23301E-08         0.52864E-10         0.00000E+00
    0.23304E-08         0.51771E-10         0.00000E+00
    0.23307E-08         0.50480E-10         0.00000E+00
    0.23310E-08         0.48989E-10         0.00000E+00
    0.23312E-08         0.47297E-10         0.00000E+00
    0.23315E-08         0.45404E-10         0.00000E+00
    0.23317E-08         0.43310E-10         0.00000E+00
    0.23319E-08         0.41013E-10         0.00000E+00
    0.23321E-08         0.38513E-10         0.00000E+00
    0.23323E-08         0.35811E-10         0.00000E+00
    0.23325E-08         0.32905E-10         0.00000E+00
    0.23326E-08         0.29796E-10         0.00000E+00
    0.23328E-08         0.26483E-10         0.00000E+00
    0.23329E-08         0.22967E-10         0.00000E+00
    0.23330E-08         0.19248E-10         0.00000E+00
    0.23331E-08         0.15327E-10         0.00000E+00
    0.23331E-08         0.11202E-10         0.00000E+00
    0.23332E-08         0.68760E-11         0.00000E+00
    0.23332E-08         0.23479E-11         0.00000E+00
    0.23773E-08         0.17559E-11         0.00000E+00
    0.23773E-08         0.52260E-11         0.00000E+00
    0.23773E-08         0.86280E-11         0.00000E+00
    0.23773E-08         0.11954E-10         0.00000E+00
    0.23774E-08         0.15198E-10         0.00000E+00
    0.23774E-08         0.18351E-10         0.00000E+00
    0.23775E-08         0.21408E-10         0.00000E+00
    0.23776E-08         0.24362E-10         0.00000E+00
    0.23777E-08         0.27206E-10         0.00000E+00
    0.23778E-08         0.29935E-10         0.00000E+00
    0.23780E-08         0.32543E-10         0.00000E+00
    0.23781E-08         0.35024E-10         0.00000E+00
    0.23782E-08         0.37374E-10         0.00000E+00
    0.23784E-08         0.39586E-10         0.00000E+00
    0.23786E-08         0.41657E-10         0.00000E+00
    0.23788E-08         0.43582E-10         0.00000E+00
    0.23789E-08         0.45357E-10         0.00000E+00
    0.23791E-08         0.46977E-10         0.00000E+00
    0.23793E-08         0.48438E-10         0.00000E+00
    0.23795E-08         0.49738E-10         0.00000E+00
    0.23798E-08         0.50871E-10         0.00000E+00
    0.23800E-08         0.51836E-10         0.00000E+00
    0.23802E-08         0.52630E-10         0.00000E+00
    0.23804E-08         0.53248E-10         0.00000E+00
    0.23806E-08         0.53689E-10         0.00000E+00
    0.23809E-08         0.53950E-10         0.00000E+00
    0.23811E-08         0.54029E-10         0.00000E+00
    0.23813E-08         0.53923E-10         0.00000E+00
    0.23815E-08         0.53631E-10         0.00000E+00
    0.23817E-08         0.53150E-10         0.00000E+00
    0.23819E-08         0.52479E-10         0.00000E+00
    0.23821E-08         0.51617E-10         0.00000E+00
    0.23823E-08         0.50562E-10         0.00000E+00
    0.23825E-08         0.49312E-10         0.00000E+00
    0.23827E-08         0.47867E-10         0.00000E+00
    0.23829E-08         0.46226E-10         0.00000E+00
    0.23831E-08         0.44387E-10         0.00000E+00
    0.23832E-08         0.42350E-10         0.00000E+00
    0.23834E-08         0.40114E-10         0.00000E+00
    0.23835E-08         0.37679E-10         0.00000E+00
    0.23837E-08         0.35044E-10         0.00000E+00
    0.23838E-08         0.32209E-10         0.00000E+00
    0.23839E-08         0.29173E-10         0.00000E+00
    0.23840E-08         0.25937E-10         0.00000E+00
    0.23841E-08         0.22499E-10         0.00000E+00
    0.23841E-08         0.18861E-10         0.00000E+00
    0.23842E-08         0.15022E-10         0.00000E+00
    0.23842E-08         0.10983E-10         0.00000E+00
    0.23843E-08         0.67433E-11         0.00000E+00
    0.23843E-08         0.23033E-11         0.00000E+00
    0.24425E-08         0.17402E-11         0.00000E+00
    0.24425E-08         0.51759E-11         0.00000E+00
    0.24425E-08         0.85392E-11         0.00000E+00
    0.24425E-08         0.11824E-10         0.00000E+00
    0.24425E-08         0.15022E-10         0.00000E+00
    0.24425E-08         0.18130E-10         0.00000E+00
    0.24425E-08         0.21139E-10         0.00000E+00
    0.24425E-08         0.24045E-10         0.00000E+00
    0.24426E-08         0.26841E-10         0.00000E+00
    0.24426E-08         0.29523E-10         0.00000E+00
    0.24427E-08         0.32084E-10         0.00000E+00
    0.24427E-08         0.34521E-10         0.00000E+00
    0.24428E-08         0.36827E-10         0.00000E+00
    0.24428E-08         0.38998E-10         0.00000E+00
    0.24429E-08         0.41031E-10         0.00000E+00
    0.24430E-08         0.42919E-10         0.00000E+00
    0.24431E-08         0.44661E-10         0.00000E+00
    0.24432E-08         0.46250E-10         0.00000E+00
    0.24433E-08         0.47685E-10         0.00000E+00
    0.24434E-08         0.48960E-10         0.00000E+00
    0.24435E-08         0.50074E-10         0.00000E+00
    0.24436E-08         0.51022E-10         0.00000E+00
    0.24437E-08         0.51802E-10         0.00000E+00
    0.24438E-08         0.52411E-10         0.00000E+00
    0.24439E-08         0.52846E-10         0.00000E+00
    0.24440E-08         0.53104E-10         0.00000E+00
    0.24441E-08         0.53184E-10         0.00000E+00
    0.24443E-08         0.53083E-10         0.00000E+00
    0.24444E-08         0.52799E-10         0.00000E+00
    0.24445E-08         0.52330E-10         0.00000E+00
    0.24446E-08         0.51674E-10         0.00000E+00
    0.24447E-08         0.50830E-10         0.00000E+00
    0.24448E-08         0.49796E-10         0.00000E+00
    0.24449E-08         0.48572E-10         0.00000E+00
    0.24450E-08         0.47154E-10         0.00000E+00
    0.24451E-08         0.45543E-10         0.00000E+00
    0.24452E-08         0.43738E-10         0.00000E+00
    0.24453E-08         0.41737E-10         0.00000E+00
    0.24454E-08         0.39539E-10         0.00000E+00
    0.24455E-08         0.37145E-10         0.00000E+00
    0.24456E-08         0.34553E-10         0.00000E+00
    0.24456E-08         0.31762E-10         0.00000E+00
    0.24457E-08         0.28774E-10         0.00000E+00
    0.24457E-08         0.25586E-10         0.00000E+00
    0.24458E-08         0.22199E-10         0.00000E+00
    0.24458E-08         0.18613E-10         0.00000E+00
    0.24459E-08         0.14828E-10         0.00000E+00
    0.24459E-08         0.10843E-10         0.00000E+00
    0.24459E-08         0.66585E-11         0.00000E+00
    0.24459E-08         0.22748E-11         0.00000E+00
    0.25179E-08         0.17493E-11         0.00000E+00
    0.25179E-08         0.51985E-11         0.00000E+00
    0.25179E-08         0.85687E-11         0.00000E+00
    0.25179E-08         0.11854E-10         0.00000E+00
    0.25178E-08         0.15049E-10         0.00000E+00
    0.25178E-08         0.18149E-10         0.00000E+00
    0.25178E-08         0.21146E-10         0.00000E+00
    0.25178E-08         0.24037E-10         0.00000E+00
    0.25177E-08         0.26817E-10         0.00000E+00
    0.25177E-08         0.29479E-10         0.00000E+00
    0.25177E-08         0.32020E-10         0.00000E+00
    0.25177E-08         0.34435E-10         0.00000E+00
    0.25176E-08         0.36719E-10         0.00000E+00
    0.25176E-08         0.38868E-10         0.00000E+00
    0.25176E-08         0.40878E-10         0.00000E+00
    0.25176E-08         0.42744E-10         0.00000E+00
    0.25176E-08         0.44464E-10         0.00000E+00
    0.25176E-08         0.46033E-10         0.00000E+00
    0.25176E-08         0.47449E-10         0.00000E+00
    0.25176E-08         0.48706E-10         0.00000E+00
    0.25176E-08         0.49803E-10         0.00000E+00
    0.25176E-08         0.50736E-10         0.00000E+00
    0.25176E-08         0.51503E-10         0.00000E+00
    0.25176E-08         0.52100E-10         0.00000E+00
    0.25176E-08         0.52526E-10         0.00000E+00
    0.25176E-08         0.52776E-10         0.00000E+00
    0.25176E-08         0.52851E-10         0.00000E+00
    0.25176E-08         0.52746E-10         0.00000E+00
    0.25177E-08         0.52460E-10         0.00000E+00
    0.25177E-08         0.51991E-10         0.00000E+00
    0.25177E-08         0.51338E-10         0.00000E+00
    0.25177E-08         0.50498E-10         0.00000E+00
    0.25177E-08         0.49471E-10         0.00000E+00
    0.25178E-08         0.48254E-10         0.00000E+00
    0.25178E-08         0.46846E-10         0.00000E+00
    0.25178E-08         0.45246E-10         0.00000E+00
    0.25178E-08         0.43454E-10         0.00000E+00
    0.25179E-08         0.41468E-10         0.00000E+00
    0.25179E-08         0.39286E-10         0.00000E+00
    0.25179E-08         0.36909E-10         0.00000E+00
    0.25179E-08         0.34336E-10         0.00000E+00
    0.25179E-08         0.31566E-10         0.00000E+00
    0.25179E-08         0.28598E-10         0.00000E+00
    0.25180E-08         0.25432E-10         0.00000E+00
    0.25180E-08         0.22068E-10         0.00000E+00
    0.25180E-08         0.18505E-10         0.00000E+00
    0.25180E-08         0.14743E-10         0.00000E+00
    0.25180E-08         0.10782E-10         0.00000E+00
    0.25180E-08         0.66219E-11         0.00000E+00
    0.25180E-08         0.22626E-11         0.00000E+00
    0.26035E-08         0.17800E-11         0.00000E+00
    0.26034E-08         0.52844E-11         0.00000E+00
    0.26034E-08         0.87017E-11         0.00000E+00
    0.26034E-08         0.12027E-10         0.00000E+00
    0.26033E-08         0.15254E-10         0.00000E+00
    0.26032E-08         0.18380E-10         0.00000E+00
    0.26032E-08         0.21398E-10         0.00000E+00
    0.26031E-08         0.24305E-10         0.00000E+00
    0.26030E-08         0.27095E-10         0.00000E+00
    0.26029E-08         0.29765E-10         0.00000E+00
    0.26028E-08         0.32310E-10         0.00000E+00
    0.26028E-08         0.34725E-10         0.00000E+00
    0.26027E-08         0.37007E-10         0.00000E+00
    0.26026E-08         0.39152E-10         0.00000E+00
    0.26025E-08         0.41156E-10         0.00000E+00
    0.26024E-08         0.43014E-10         0.00000E+00
    0.26023E-08         0.44725E-10         0.00000E+00
    0.26022E-08         0.46284E-10         0.00000E+00
    0.26021E-08         0.47689E-10         0.00000E+00
    0.26020E-08         0.48935E-10         0.00000E+00
    0.26019E-08         0.50020E-10         0.00000E+00
    0.26018E-08         0.50941E-10         0.00000E+00
    0.26017E-08         0.51696E-10         0.00000E+00
    0.26016E-08         0.52281E-10         0.00000E+00
    0.26016E-08         0.52695E-10         0.00000E+00
    0.26015E-08         0.52934E-10         0.00000E+00
    0.26014E-08         0.52997E-10         0.00000E+00
    0.26013E-08         0.52882E-10         0.00000E+00
    0.26013E-08         0.52586E-10         0.00000E+00
    0.26012E-08         0.52108E-10         0.00000E+00
    0.26011E-08         0.51446E-10         0.00000E+00
    0.26011E-08         0.50598E-10         0.00000E+00
    0.26010E-08         0.49562E-10         0.00000E+00
    0.26009E-08         0.48338E-10         0.00000E+00
    0.26009E-08         0.46924E-10         0.00000E+00
    0.26008E-08         0.45318E-10         0.00000E+00
    0.26008E-08         0.43520E-10         0.00000E+00
    0.26007E-08         0.41528E-10         0.00000E+00
    0.26007E-08         0.39342E-10         0.00000E+00
    0.26007E-08         0.36961E-10         0.00000E+00
    0.26006E-08         0.34383E-10         0.00000E+00
    0.26006E-08         0.31608E-10         0.00000E+00
    0.26006E-08         0.28636E-10         0.00000E+00
    0.26005E-08         0.25466E-10         0.00000E+00
    0.26005E-08         0.22098E-10         0.00000E+00
    0.26005E-08         0.18530E-10         0.00000E+00
    0.26005E-08         0.14764E-10         0.00000E+00
    0.26005E-08         0.10797E-10         0.00000E+00
    0.26005E-08         0.66317E-11         0.00000E+00
    0.26004E-08         0.22661E-11         0.00000E+00
    0.26990E-08         0.18290E-11         0.00000E+00
    0.26990E-08         0.54247E-11         0.00000E+00
    0.26990E-08         0.89237E-11         0.00000E+00
    0.26989E-08         0.12321E-10         0.00000E+00
    0.26988E-08         0.15614E-10         0.00000E+00
    0.26987E-08         0.18796E-10         0.00000E+00
    0.26986E-08         0.21864E-10         0.00000E+00
    0.26985E-08         0.24813E-10         0.00000E+00
    0.26984E-08         0.27640E-10         0.00000E+00
    0.26982E-08         0.30341E-10         0.00000E+00
    0.26981E-08         0.32912E-10         0.00000E+00
    0.26979E-08         0.35348E-10         0.00000E+00
    0.26978E-08         0.37647E-10         0.00000E+00
    0.26976E-08         0.39805E-10         0.00000E+00
    0.26974E-08         0.41818E-10         0.00000E+00
    0.26973E-08         0.43682E-10         0.00000E+00
    0.26971E-08         0.45396E-10         0.00000E+00
    0.26969E-08         0.46955E-10         0.00000E+00
    0.26968E-08         0.48357E-10         0.00000E+00
    0.26966E-08         0.49599E-10         0.00000E+00
    0.26964E-08         0.50677E-10         0.00000E+00
    0.26962E-08         0.51590E-10         0.00000E+00
    0.26961E-08         0.52335E-10         0.00000E+00
    0.26959E-08         0.52909E-10         0.00000E+00
    0.26957E-08         0.53310E-10         0.00000E+00
    0.26956E-08         0.53535E-10         0.00000E+00
    0.26954E-08         0.53584E-10         0.00000E+00
    0.26953E-08         0.53452E-10         0.00000E+00
    0.26951E-08         0.53139E-10         0.00000E+00
    0.26949E-08         0.52644E-10         0.00000E+00
    0.26948E-08         0.51963E-10         0.00000E+00
    0.26947E-08         0.51095E-10         0.00000E+00
    0.26945E-08         0.50040E-10         0.00000E+00
    0.26944E-08         0.48795E-10         0.00000E+00
    0.26943E-08         0.47360E-10         0.00000E+00
    0.26942E-08         0.45732E-10         0.00000E+00
    0.26940E-08         0.43911E-10         0.00000E+00
    0.26939E-08         0.41896E-10         0.00000E+00
    0.26938E-08         0.39686E-10         0.00000E+00
    0.26937E-08         0.37279E-10         0.00000E+00
    0.26937E-08         0.34676E-10         0.00000E+00
    0.26936E-08         0.31875E-10         0.00000E+00
    0.26935E-08         0.28875E-10         0.00000E+00
    0.26934E-08         0.25677E-10         0.00000E+00
    0.26934E-08         0.22279E-10         0.00000E+00
    0.26933E-08         0.18681E-10         0.00000E+00
    0.26933E-08         0.14883E-10         0.00000E+00
    0.26933E-08         0.10885E-10         0.00000E+00
    0.26933E-08         0.66850E-11         0.00000E+00
    0.26932E-08         0.22842E-11         0.00000E+00
    0.28046E-08         0.18936E-11         0.00000E+00
    0.28046E-08         0.56113E-11         0.00000E+00
    0.28045E-08         0.92217E-11         0.00000E+00
    0.28044E-08         0.12721E-10         0.00000E+00
    0.28043E-08         0.16105E-10         0.00000E+00
    0.28042E-08         0.19370E-10         0.00000E+00
    0.28041E-08         0.22513E-10         0.00000E+00
    0.28039E-08         0.25529E-10         0.00000E+00
    0.28038E-08         0.28416E-10         0.00000E+00
    0.28036E-08         0.31169E-10         0.00000E+00
    0.28034E-08         0.33786E-10         0.00000E+00
    0.28032E-08         0.36262E-10         0.00000E+00
    0.28030E-08         0.38595E-10         0.00000E+00
    0.28027E-08         0.40781E-10         0.00000E+00
    0.28025E-08         0.42817E-10         0.00000E+00
    0.28023E-08         0.44700E-10         0.00000E+00
    0.28020E-08         0.46428E-10         0.00000E+00
    0.28018E-08         0.47998E-10         0.00000E+00
    0.28016E-08         0.49406E-10         0.00000E+00
    0.28013E-08         0.50650E-10         0.00000E+00
    0.28011E-08         0.51727E-10         0.00000E+00
    0.28008E-08         0.52636E-10         0.00000E+00
    0.28006E-08         0.53373E-10         0.00000E+00
    0.28003E-08         0.53937E-10         0.00000E+00
    0.28001E-08         0.54325E-10         0.00000E+00
    0.27999E-08         0.54535E-10         0.00000E+00
    0.27996E-08         0.54565E-10         0.00000E+00
    0.27994E-08         0.54413E-10         0.00000E+00
    0.27992E-08         0.54078E-10         0.00000E+00
    0.27989E-08         0.53557E-10         0.00000E+00
    0.27987E-08         0.52850E-10         0.00000E+00
    0.27985E-08         0.51954E-10         0.00000E+00
    0.27983E-08         0.50868E-10         0.00000E+00
    0.27981E-08         0.49591E-10         0.00000E+00
    0.27979E-08         0.48121E-10         0.00000E+00
    0.27978E-08         0.46457E-10         0.00000E+00
    0.27976E-08         0.44598E-10         0.00000E+00
    0.27974E-08         0.42544E-10         0.00000E+00
    0.27973E-08         0.40292E-10         0.00000E+00
    0.27971E-08         0.37843E-10         0.00000E+00
    0.27970E-08         0.35194E-10         0.00000E+00
    0.27969E-08         0.32347E-10         0.00000E+00
    0.27968E-08         0.29299E-10         0.00000E+00
    0.27967E-08         0.26050E-10         0.00000E+00
    0.27966E-08         0.22600E-10         0.00000E+00
    0.27965E-08         0.18948E-10         0.00000E+00
    0.27965E-08         0.15094E-10         0.00000E+00
    0.27964E-08         0.11038E-10         0.00000E+00
    0.27964E-08         0.67785E-11         0.00000E+00
    0.27964E-08         0.23160E-11         0.00000E+00
    0.29203E-08         0.19714E-11         0.00000E+00
    0.29202E-08         0.58370E-11         0.00000E+00
    0.29202E-08         0.95841E-11         0.00000E+00
    0.29201E-08         0.13209E-10         0.00000E+00
    0.29199E-08         0.16709E-10         0.00000E+00
    0.29198E-08         0.20080E-10         0.00000E+00
    0.29196E-08         0.23320E-10         0.00000E+00
    0.29195E-08         0.26424E-10         0.00000E+00
    0.29192E-08         0.29390E-10         0.00000E+00
    0.29190E-08         0.32214E-10         0.00000E+00
    0.29188E-08         0.34894E-10         0.00000E+00
    0.29185E-08         0.37427E-10         0.00000E+00
    0.29183E-08         0.39809E-10         0.00000E+00
    0.29180E-08         0.42037E-10         0.00000E+00
    0.29177E-08         0.44110E-10         0.00000E+00
    0.29174E-08         0.46024E-10         0.00000E+00
    0.29171E-08         0.47776E-10         0.00000E+00
    0.29168E-08         0.49365E-10         0.00000E+00
    0.29165E-08         0.50787E-10         0.00000E+00
    0.29162E-08         0.52040E-10         0.00000E+00
    0.29159E-08         0.53122E-10         0.00000E+00
    0.29156E-08         0.54030E-10         0.00000E+00
    0.29153E-08         0.54763E-10         0.00000E+00
    0.29150E-08         0.55318E-10         0.00000E+00
    0.29147E-08         0.55693E-10         0.00000E+00
    0.29144E-08         0.55886E-10         0.00000E+00
    0.29141E-08         0.55897E-10         0.00000E+00
    0.29138E-08         0.55721E-10         0.00000E+00
    0.29135E-08         0.55359E-10         0.00000E+00
    0.29132E-08         0.54808E-10         0.00000E+00
    0.29129E-08         0.54067E-10         0.00000E+00
    0.29126E-08         0.53135E-10         0.00000E+00
    0.29124E-08         0.52009E-10         0.00000E+00
    0.29121E-08         0.50689E-10         0.00000E+00
    0.29119E-08         0.49174E-10         0.00000E+00
    0.29117E-08         0.47462E-10         0.00000E+00
    0.29114E-08         0.45552E-10         0.00000E+00
    0.29112E-08         0.43443E-10         0.00000E+00
    0.29110E-08         0.41135E-10         0.00000E+00
    0.29108E-08         0.38626E-10         0.00000E+00
    0.29107E-08         0.35916E-10         0.00000E+00
    0.29105E-08         0.33004E-10         0.00000E+00
    0.29104E-08         0.29889E-10         0.00000E+00
    0.29102E-08         0.26570E-10         0.00000E+00
    0.29101E-08         0.23047E-10         0.00000E+00
    0.29100E-08         0.19320E-10         0.00000E+00
    0.29100E-08         0.15388E-10         0.00000E+00
    0.29099E-08         0.11251E-10         0.00000E+00
    0.29099E-08         0.69086E-11         0.00000E+00
    0.29099E-08         0.23601E-11         0.00000E+00
    0.30460E-08         0.20604E-11         0.00000E+00
    0.30460E-08         0.60958E-11         0.00000E+00
    0.30459E-08         0.10001E-10         0.00000E+00
    0.30458E-08         0.13773E-10         0.00000E+00
    0.30457E-08         0.17409E-10         0.00000E+00
    0.30455E-08         0.20906E-10         0.00000E+00
    0.30453E-08         0.24261E-10         0.00000E+00
    0.30451E-08         0.27471E-10         0.00000E+00
    0.30449E-08         0.30533E-10         0.00000E+00
    0.30446E-08         0.33445E-10         0.00000E+00
    0.30444E-08         0.36204E-10         0.00000E+00
    0.30441E-08         0.38807E-10         0.00000E+00
    0.30438E-08         0.41252E-10         0.00000E+00
    0.30435E-08         0.43536E-10         0.00000E+00
    0.30431E-08         0.45657E-10         0.00000E+00
    0.30428E-08         0.47611E-10         0.00000E+00
    0.30425E-08         0.49398E-10         0.00000E+00
    0.30421E-08         0.51014E-10         0.00000E+00
    0.30417E-08         0.52457E-10         0.00000E+00
    0.30414E-08         0.53726E-10         0.00000E+00
    0.30410E-08         0.54817E-10         0.00000E+00
    0.30407E-08         0.55729E-10         0.00000E+00
    0.30403E-08         0.56460E-10         0.00000E+00
    0.30399E-08         0.57008E-10         0.00000E+00
    0.30395E-08         0.57372E-10         0.00000E+00
    0.30392E-08         0.57549E-10         0.00000E+00
    0.30388E-08         0.57537E-10         0.00000E+00
    0.30385E-08         0.57336E-10         0.00000E+00
    0.30381E-08         0.56943E-10         0.00000E+00
    0.30378E-08         0.56357E-10         0.00000E+00
    0.30374E-08         0.55577E-10         0.00000E+00
    0.30371E-08         0.54601E-10         0.00000E+00
    0.30368E-08         0.53428E-10         0.00000E+00
    0.30365E-08         0.52057E-10         0.00000E+00
    0.30362E-08         0.50486E-10         0.00000E+00
    0.30359E-08         0.48715E-10         0.00000E+00
    0.30357E-08         0.46743E-10         0.00000E+00
    0.30354E-08         0.44568E-10         0.00000E+00
    0.30352E-08         0.42190E-10         0.00000E+00
    0.30350E-08         0.39607E-10         0.00000E+00
    0.30347E-08         0.36820E-10         0.00000E+00
    0.30346E-08         0.33827E-10         0.00000E+00
    0.30344E-08         0.30628E-10         0.00000E+00
    0.30342E-08         0.27222E-10         0.00000E+00
    0.30341E-08         0.23608E-10         0.00000E+00
    0.30340E-08         0.19787E-10         0.00000E+00
    0.30339E-08         0.15757E-10         0.00000E+00
    0.30338E-08         0.11519E-10         0.00000E+00
    0.30338E-08         0.70718E-11         0.00000E+00
    0.30338E-08         0.24154E-11         0.00000E+00
    0.31821E-08         0.21587E-11         0.00000E+00
    0.31821E-08         0.63825E-11         0.00000E+00
    0.31820E-08         0.10464E-10         0.00000E+00
    0.31819E-08         0.14401E-10         0.00000E+00
    0.31818E-08         0.18190E-10         0.00000E+00
    0.31816E-08         0.21829E-10         0.00000E+00
    0.31814E-08         0.25316E-10         0.00000E+00
    0.31811E-08         0.28647E-10         0.00000E+00
    0.31809E-08         0.31821E-10         0.00000E+00
    0.31806E-08         0.34835E-10         0.00000E+00
    0.31803E-08         0.37687E-10         0.00000E+00
    0.31800E-08         0.40374E-10         0.00000E+00
    0.31796E-08         0.42893E-10         0.00000E+00
    0.31793E-08         0.45244E-10         0.00000E+00
    0.31789E-08         0.47422E-10         0.00000E+00
    0.31785E-08         0.49427E-10         0.00000E+00
    0.31781E-08         0.51257E-10         0.00000E+00
    0.31778E-08         0.52908E-10         0.00000E+00
    0.31773E-08         0.54379E-10         0.00000E+00
    0.31769E-08         0.55668E-10         0.00000E+00
    0.31765E-08         0.56774E-10         0.00000E+00
    0.31761E-08         0.57694E-10         0.00000E+00
    0.31757E-08         0.58426E-10         0.00000E+00
    0.31753E-08         0.58969E-10         0.00000E+00
    0.31749E-08         0.59322E-10         0.00000E+00
    0.31744E-08         0.59482E-10         0.00000E+00
    0.31740E-08         0.59448E-10         0.00000E+00
    0.31736E-08         0.59219E-10         0.00000E+00
    0.31732E-08         0.58792E-10         0.00000E+00
    0.31728E-08         0.58168E-10         0.00000E+00
    0.31725E-08         0.57344E-10         0.00000E+00
    0.31721E-08         0.56319E-10         0.00000E+00
    0.31717E-08         0.55092E-10         0.00000E+00
    0.31714E-08         0.53662E-10         0.00000E+00
    0.31710E-08         0.52028E-10         0.00000E+00
    0.31707E-08         0.50189E-10         0.00000E+00
    0.31704E-08         0.48144E-10         0.00000E+00
    0.31701E-08         0.45892E-10         0.00000E+00
    0.31698E-08         0.43432E-10         0.00000E+00
    0.31696E-08         0.40764E-10         0.00000E+00
    0.31693E-08         0.37886E-10         0.00000E+00
    0.31691E-08         0.34798E-10         0.00000E+00
    0.31689E-08         0.31500E-10         0.00000E+00
    0.31688E-08         0.27991E-10         0.00000E+00
    0.31686E-08         0.24270E-10         0.00000E+00
    0.31685E-08         0.20338E-10         0.00000E+00
    0.31684E-08         0.16193E-10         0.00000E+00
    0.31683E-08         0.11835E-10         0.00000E+00
    0.31682E-08         0.72645E-11         0.00000E+00
    0.31682E-08         0.24807E-11         0.00000E+00
    0.33287E-08         0.22649E-11         0.00000E+00
    0.33287E-08         0.66929E-11         0.00000E+00
    0.33286E-08         0.10966E-10         0.00000E+00
    0.33285E-08         0.15083E-10         0.00000E+00
    0.33283E-08         0.19040E-10         0.00000E+00
    0.33281E-08         0.22836E-10         0.00000E+00
    0.33279E-08         0.26469E-10         0.00000E+00
    0.33277E-08         0.29935E-10         0.00000E+00
    0.33274E-08         0.33234E-10         0.00000E+00
    0.33271E-08         0.36362E-10         0.00000E+00
    0.33267E-08         0.39318E-10         0.00000E+00
    0.33264E-08         0.42099E-10         0.00000E+00
    0.33260E-08         0.44704E-10         0.00000E+00
    0.33256E-08         0.47131E-10         0.00000E+00
    0.33252E-08         0.49377E-10         0.00000E+00
    0.33248E-08         0.51440E-10         0.00000E+00
    0.33244E-08         0.53320E-10         0.00000E+00
    0.33240E-08         0.55013E-10         0.00000E+00
    0.33235E-08         0.56518E-10         0.00000E+00
    0.33231E-08         0.57834E-10         0.00000E+00
    0.33226E-08         0.58958E-10         0.00000E+00
    0.33221E-08         0.59889E-10         0.00000E+00
    0.33217E-08         0.60626E-10         0.00000E+00
    0.33212E-08         0.61166E-10         0.00000E+00
    0.33208E-08         0.61509E-10         0.00000E+00
    0.33203E-08         0.61652E-10         0.00000E+00
    0.33199E-08         0.61595E-10         0.00000E+00
    0.33194E-08         0.61336E-10         0.00000E+00
    0.33190E-08         0.60874E-10         0.00000E+00
    0.33185E-08         0.60208E-10         0.00000E+00
    0.33181E-08         0.59336E-10         0.00000E+00
    0.33177E-08         0.58258E-10         0.00000E+00
    0.33173E-08         0.56972E-10         0.00000E+00
    0.33169E-08         0.55477E-10         0.00000E+00
    0.33165E-08         0.53772E-10         0.00000E+00
    0.33162E-08         0.51857E-10         0.00000E+00
    0.33158E-08         0.49731E-10         0.00000E+00
    0.33155E-08         0.47392E-10         0.00000E+00
    0.33152E-08         0.44840E-10         0.00000E+00
    0.33149E-08         0.42075E-10         0.00000E+00
    0.33146E-08         0.39095E-10         0.00000E+00
    0.33144E-08         0.35900E-10         0.00000E+00
    0.33142E-08         0.32490E-10         0.00000E+00
    0.33140E-08         0.28865E-10         0.00000E+00
    0.33138E-08         0.25022E-10         0.00000E+00
    0.33137E-08         0.20963E-10         0.00000E+00
    0.33135E-08         0.16688E-10         0.00000E+00
    0.33134E-08         0.12194E-10         0.00000E+00
    0.33134E-08         0.74835E-11         0.00000E+00
    0.33134E-08         0.25550E-11         0.00000E+00
    0.34861E-08         0.23780E-11         0.00000E+00
    0.34860E-08         0.70236E-11         0.00000E+00
    0.34859E-08         0.11502E-10         0.00000E+00
    0.34858E-08         0.15812E-10         0.00000E+00
    0.34856E-08         0.19950E-10         0.00000E+00
    0.34854E-08         0.23915E-10         0.00000E+00
    0.34852E-08         0.27706E-10         0.00000E+00
    0.34849E-08         0.31319E-10         0.00000E+00
    0.34846E-08         0.34753E-10         0.00000E+00
    0.34843E-08         0.38006E-10         0.00000E+00
    0.34839E-08         0.41077E-10         0.00000E+00
    0.34836E-08         0.43963E-10         0.00000E+00
    0.34832E-08         0.46662E-10         0.00000E+00
    0.34828E-08         0.49173E-10         0.00000E+00
    0.34823E-08         0.51495E-10         0.00000E+00
    0.34819E-08         0.53624E-10         0.00000E+00
    0.34814E-08         0.55560E-10         0.00000E+00
    0.34810E-08         0.57302E-10         0.00000E+00
    0.34805E-08         0.58846E-10         0.00000E+00
    0.34800E-08         0.60193E-10         0.00000E+00
    0.34795E-08         0.61339E-10         0.00000E+00
    0.34790E-08         0.62285E-10         0.00000E+00
    0.34785E-08         0.63028E-10         0.00000E+00
    0.34780E-08         0.63567E-10         0.00000E+00
    0.34775E-08         0.63901E-10         0.00000E+00
    0.34770E-08         0.64029E-10         0.00000E+00
    0.34765E-08         0.63948E-10         0.00000E+00
    0.34760E-08         0.63659E-10         0.00000E+00
    0.34756E-08         0.63160E-10         0.00000E+00
    0.34751E-08         0.62449E-10         0.00000E+00
    0.34746E-08         0.61526E-10         0.00000E+00
    0.34742E-08         0.60390E-10         0.00000E+00
    0.34737E-08         0.59040E-10         0.00000E+00
    0.34733E-08         0.57475E-10         0.00000E+00
    0.34729E-08         0.55694E-10         0.00000E+00
    0.34725E-08         0.53696E-10         0.00000E+00
    0.34721E-08         0.51480E-10         0.00000E+00
    0.34718E-08         0.49047E-10         0.00000E+00
    0.34714E-08         0.46394E-10         0.00000E+00
    0.34711E-08         0.43522E-10         0.00000E+00
    0.34708E-08         0.40431E-10         0.00000E+00
    0.34706E-08         0.37118E-10         0.00000E+00
    0.34703E-08         0.33585E-10         0.00000E+00
    0.34701E-08         0.29830E-10         0.00000E+00
    0.34699E-08         0.25854E-10         0.00000E+00
    0.34698E-08         0.21656E-10         0.00000E+00
    0.34696E-08         0.17235E-10         0.00000E+00
    0.34695E-08         0.12592E-10         0.00000E+00
    0.34695E-08         0.77260E-11         0.00000E+00
    0.34694E-08         0.26373E-11         0.00000E+00
    0.36544E-08         0.24969E-11         0.00000E+00
    0.36544E-08         0.73719E-11         0.00000E+00
    0.36543E-08         0.12067E-10         0.00000E+00
    0.36542E-08         0.16581E-10         0.00000E+00
    0.36540E-08         0.20911E-10         0.00000E+00
    0.36538E-08         0.25057E-10         0.00000E+00
    0.36535E-08         0.29015E-10         0.00000E+00
    0.36532E-08         0.32785E-10         0.00000E+00
    0.36529E-08         0.36365E-10         0.00000E+00
    0.36526E-08         0.39752E-10         0.00000E+00
    0.36522E-08         0.42946E-10         0.00000E+00
    0.36518E-08         0.45945E-10         0.00000E+00
    0.36514E-08         0.48747E-10         0.00000E+00
    0.36510E-08         0.51351E-10         0.00000E+00
    0.36505E-08         0.53754E-10         0.00000E+00
    0.36500E-08         0.55956E-10         0.00000E+00
    0.36495E-08         0.57955E-10         0.00000E+00
    0.36490E-08         0.59750E-10         0.00000E+00
    0.36485E-08         0.61338E-10         0.00000E+00
    0.36480E-08         0.62720E-10         0.00000E+00
    0.36475E-08         0.63893E-10         0.00000E+00
    0.36470E-08         0.64856E-10         0.00000E+00
    0.36464E-08         0.65608E-10         0.00000E+00
    0.36459E-08         0.66148E-10         0.00000E+00
    0.36454E-08         0.66474E-10         0.00000E+00
    0.36448E-08         0.66586E-10         0.00000E+00
    0.36443E-08         0.66482E-10         0.00000E+00
    0.36438E-08         0.66162E-10         0.00000E+00
    0.36433E-08         0.65623E-10         0.00000E+00
    0.36428E-08         0.64866E-10         0.00000E+00
    0.36423E-08         0.63890E-10         0.00000E+00
    0.36418E-08         0.62692E-10         0.00000E+00
    0.36413E-08         0.61274E-10         0.00000E+00
    0.36409E-08         0.59634E-10         0.00000E+00
    0.36404E-08         0.57771E-10         0.00000E+00
    0.36400E-08         0.55684E-10         0.00000E+00
    0.36396E-08         0.53373E-10         0.00000E+00
    0.36392E-08         0.50838E-10         0.00000E+00
    0.36389E-08         0.48077E-10         0.00000E+00
    0.36385E-08         0.45091E-10         0.00000E+00
    0.36382E-08         0.41878E-10         0.00000E+00
    0.36379E-08         0.38438E-10         0.00000E+00
    0.36377E-08         0.34772E-10         0.00000E+00
    0.36374E-08         0.30878E-10         0.00000E+00
    0.36372E-08         0.26756E-10         0.00000E+00
    0.36371E-08         0.22407E-10         0.00000E+00
    0.36369E-08         0.17829E-10         0.00000E+00
    0.36368E-08         0.13024E-10         0.00000E+00
    0.36367E-08         0.79893E-11         0.00000E+00
    0.36367E-08         0.27266E-11         0.00000E+00
    0.38342E-08         0.26210E-11         0.00000E+00
    0.38341E-08         0.77355E-11         0.00000E+00
    0.38340E-08         0.12657E-10         0.00000E+00
    0.38339E-08         0.17385E-10         0.00000E+00
    0.38337E-08         0.21917E-10         0.00000E+00
    0.38335E-08         0.26252E-10         0.00000E+00
    0.38332E-08         0.30388E-10         0.00000E+00
    0.38329E-08         0.34324E-10         0.00000E+00
    0.38326E-08         0.38057E-10         0.00000E+00
    0.38322E-08         0.41587E-10         0.00000E+00
    0.38318E-08         0.44913E-10         0.00000E+00
    0.38314E-08         0.48032E-10         0.00000E+00
    0.38310E-08         0.50943E-10         0.00000E+00
    0.38305E-08         0.53646E-10         0.00000E+00
    0.38300E-08         0.56137E-10         0.00000E+00
    0.38295E-08         0.58418E-10         0.00000E+00
    0.38290E-08         0.60484E-10         0.00000E+00
    0.38285E-08         0.62337E-10         0.00000E+00
    0.38280E-08         0.63974E-10         0.00000E+00
    0.38274E-08         0.65394E-10         0.00000E+00
    0.38269E-08         0.66597E-10         0.00000E+00
    0.38263E-08         0.67580E-10         0.00000E+00
    0.38258E-08         0.68343E-10         0.00000E+00
    0.38252E-08         0.68885E-10         0.00000E+00
    0.38246E-08         0.69205E-10         0.00000E+00
    0.38241E-08         0.69301E-10         0.00000E+00
    0.38235E-08         0.69174E-10         0.00000E+00
    0.38230E-08         0.68821E-10         0.00000E+00
    0.38224E-08         0.68242E-10         0.00000E+00
    0.38219E-08         0.67437E-10         0.00000E+00
    0.38214E-08         0.66405E-10         0.00000E+00
    0.38209E-08         0.65144E-10         0.00000E+00
    0.38204E-08         0.63654E-10         0.00000E+00
    0.38199E-08         0.61934E-10         0.00000E+00
    0.38194E-08         0.59985E-10         0.00000E+00
    0.38190E-08         0.57804E-10         0.00000E+00
    0.38186E-08         0.55392E-10         0.00000E+00
    0.38181E-08         0.52749E-10         0.00000E+00
    0.38178E-08         0.49873E-10         0.00000E+00
    0.38174E-08         0.46764E-10         0.00000E+00
    0.38171E-08         0.43423E-10         0.00000E+00
    0.38168E-08         0.39848E-10         0.00000E+00
    0.38165E-08         0.36040E-10         0.00000E+00
    0.38163E-08         0.31997E-10         0.00000E+00
    0.38160E-08         0.27721E-10         0.00000E+00
    0.38159E-08         0.23210E-10         0.00000E+00
    0.38157E-08         0.18465E-10         0.00000E+00
    0.38156E-08         0.13485E-10         0.00000E+00
    0.38155E-08         0.82708E-11         0.00000E+00
    0.38155E-08         0.28221E-11         0.00000E+00
    0.40257E-08         0.27497E-11         0.00000E+00
    0.40256E-08         0.81129E-11         0.00000E+00
    0.40255E-08         0.13270E-10         0.00000E+00
    0.40254E-08         0.18221E-10         0.00000E+00
    0.40252E-08         0.22963E-10         0.00000E+00
    0.40249E-08         0.27496E-10         0.00000E+00
    0.40247E-08         0.31817E-10         0.00000E+00
    0.40243E-08         0.35926E-10         0.00000E+00
    0.40240E-08         0.39821E-10         0.00000E+00
    0.40236E-08         0.43501E-10         0.00000E+00
    0.40232E-08         0.46965E-10         0.00000E+00
    0.40228E-08         0.50211E-10         0.00000E+00
    0.40223E-08         0.53238E-10         0.00000E+00
    0.40219E-08         0.56045E-10         0.00000E+00
    0.40214E-08         0.58630E-10         0.00000E+00
    0.40208E-08         0.60993E-10         0.00000E+00
    0.40203E-08         0.63133E-10         0.00000E+00
    0.40198E-08         0.65047E-10         0.00000E+00
    0.40192E-08         0.66736E-10         0.00000E+00
    0.40186E-08         0.68198E-10         0.00000E+00
    0.40181E-08         0.69433E-10         0.00000E+00
    0.40175E-08         0.70438E-10         0.00000E+00
    0.40169E-08         0.71214E-10         0.00000E+00
    0.40163E-08         0.71760E-10         0.00000E+00
    0.40157E-08         0.72074E-10         0.00000E+00
    0.40151E-08         0.72155E-10         0.00000E+00
    0.40145E-08         0.72004E-10         0.00000E+00
    0.40140E-08         0.71619E-10         0.00000E+00
    0.40134E-08         0.70999E-10         0.00000E+00
    0.40128E-08         0.70144E-10         0.00000E+00
    0.40123E-08         0.69053E-10         0.00000E+00
    0.40118E-08         0.67725E-10         0.00000E+00
    0.40112E-08         0.66161E-10         0.00000E+00
    0.40107E-08         0.64359E-10         0.00000E+00
    0.40102E-08         0.62318E-10         0.00000E+00
    0.40098E-08         0.60040E-10         0.00000E+00
    0.40093E-08         0.57522E-10         0.00000E+00
    0.40089E-08         0.54765E-10         0.00000E+00
    0.40085E-08         0.51768E-10         0.00000E+00
    0.40081E-08         0.48531E-10         0.00000E+00
    0.40078E-08         0.45054E-10         0.00000E+00
    0.40075E-08         0.41337E-10         0.00000E+00
    0.40072E-08         0.37378E-10         0.00000E+00
    0.40069E-08         0.33179E-10         0.00000E+00
    0.40067E-08         0.28739E-10         0.00000E+00
    0.40065E-08         0.24058E-10         0.00000E+00
    0.40063E-08         0.19136E-10         0.00000E+00
    0.40062E-08         0.13973E-10         0.00000E+00
    0.40061E-08         0.85684E-11         0.00000E+00
    0.40061E-08         0.29230E-11         0.00000E+00
    0.42293E-08         0.28826E-11         0.00000E+00
    0.42292E-08         0.85026E-11         0.00000E+00
    0.42291E-08         0.13904E-10         0.00000E+00
    0.42290E-08         0.19085E-10         0.00000E+00
    0.42288E-08         0.24045E-10         0.00000E+00
    0.42285E-08         0.28783E-10         0.00000E+00
    0.42283E-08         0.33297E-10         0.00000E+00
    0.42279E-08         0.37586E-10         0.00000E+00
    0.42276E-08         0.41649E-10         0.00000E+00
    0.42272E-08         0.45485E-10         0.00000E+00
    0.42268E-08         0.49093E-10         0.00000E+00
    0.42263E-08         0.52471E-10         0.00000E+00
    0.42259E-08         0.55619E-10         0.00000E+00
    0.42254E-08         0.58536E-10         0.00000E+00
    0.42248E-08         0.61219E-10         0.00000E+00
    0.42243E-08         0.63670E-10         0.00000E+00
    0.42238E-08         0.65886E-10         0.00000E+00
    0.42232E-08         0.67866E-10         0.00000E+00
    0.42226E-08         0.69610E-10         0.00000E+00
    0.42220E-08         0.71117E-10         0.00000E+00
    0.42214E-08         0.72386E-10         0.00000E+00
    0.42208E-08         0.73415E-10         0.00000E+00
    0.42202E-08         0.74206E-10         0.00000E+00
    0.42196E-08         0.74756E-10         0.00000E+00
    0.42190E-08         0.75064E-10         0.00000E+00
    0.42184E-08         0.75131E-10         0.00000E+00
    0.42178E-08         0.74956E-10         0.00000E+00
    0.42172E-08         0.74537E-10         0.00000E+00
    0.42166E-08         0.73875E-10         0.00000E+00
    0.42160E-08         0.72969E-10         0.00000E+00
    0.42154E-08         0.71818E-10         0.00000E+00
    0.42149E-08         0.70421E-10         0.00000E+00
    0.42143E-08         0.68780E-10         0.00000E+00
    0.42138E-08         0.66892E-10         0.00000E+00
    0.42133E-08         0.64757E-10         0.00000E+00
    0.42128E-08         0.62376E-10         0.00000E+00
    0.42124E-08         0.59748E-10         0.00000E+00
    0.42119E-08         0.56873E-10         0.00000E+00
    0.42115E-08         0.53750E-10         0.00000E+00
    0.42111E-08         0.50379E-10         0.00000E+00
    0.42107E-08         0.46761E-10         0.00000E+00
    0.42104E-08         0.42894E-10         0.00000E+00
    0.42101E-08         0.38780E-10         0.00000E+00
    0.42098E-08         0.34417E-10         0.00000E+00
    0.42096E-08         0.29806E-10         0.00000E+00
    0.42094E-08         0.24946E-10         0.00000E+00
    0.42092E-08         0.19839E-10         0.00000E+00
    0.42091E-08         0.14483E-10         0.00000E+00
    0.42090E-08         0.88800E-11         0.00000E+00
    0.42090E-08         0.30288E-11         0.00000E+00
    0.44456E-08         0.30193E-11         0.00000E+00
    0.44455E-08         0.89036E-11         0.00000E+00
    0.44454E-08         0.14556E-10         0.00000E+00
    0.44452E-08         0.19975E-10         0.00000E+00
    0.44450E-08         0.25160E-10         0.00000E+00
    0.44448E-08         0.30109E-10         0.00000E+00
    0.44445E-08         0.34822E-10         0.00000E+00
    0.44442E-08         0.39298E-10         0.00000E+00
    0.44438E-08         0.43535E-10         0.00000E+00
    0.44434E-08         0.47533E-10         0.00000E+00
    0.44430E-08         0.51290E-10         0.00000E+00
    0.44425E-08         0.54806E-10         0.00000E+00
    0.44420E-08         0.58079E-10         0.00000E+00
    0.44415E-08         0.61109E-10         0.00000E+00
    0.44410E-08         0.63895E-10         0.00000E+00
    0.44404E-08         0.66436E-10         0.00000E+00
    0.44399E-08         0.68732E-10         0.00000E+00
    0.44393E-08         0.70781E-10         0.00000E+00
    0.44387E-08         0.72583E-10         0.00000E+00
    0.44381E-08         0.74136E-10         0.00000E+00
    0.44374E-08         0.75441E-10         0.00000E+00
    0.44368E-08         0.76497E-10         0.00000E+00
    0.44362E-08         0.77303E-10         0.00000E+00
    0.44356E-08         0.77858E-10         0.00000E+00
    0.44349E-08         0.78162E-10         0.00000E+00
    0.44343E-08         0.78215E-10         0.00000E+00
    0.44337E-08         0.78015E-10         0.00000E+00
    0.44331E-08         0.77562E-10         0.00000E+00
    0.44325E-08         0.76857E-10         0.00000E+00
    0.44319E-08         0.75898E-10         0.00000E+00
    0.44313E-08         0.74685E-10         0.00000E+00
    0.44307E-08         0.73218E-10         0.00000E+00
    0.44301E-08         0.71496E-10         0.00000E+00
    0.44296E-08         0.69520E-10         0.00000E+00
    0.44291E-08         0.67288E-10         0.00000E+00
    0.44286E-08         0.64801E-10         0.00000E+00
    0.44281E-08         0.62059E-10         0.00000E+00
    0.44276E-08         0.59061E-10         0.00000E+00
    0.44272E-08         0.55807E-10         0.00000E+00
    0.44268E-08         0.52298E-10         0.00000E+00
    0.44264E-08         0.48533E-10         0.00000E+00
    0.44261E-08         0.44512E-10         0.00000E+00
    0.44258E-08         0.40234E-10         0.00000E+00
    0.44255E-08         0.35702E-10         0.00000E+00
    0.44252E-08         0.30913E-10         0.00000E+00
    0.44250E-08         0.25869E-10         0.00000E+00
    0.44249E-08         0.20569E-10         0.00000E+00
    0.44247E-08         0.15014E-10         0.00000E+00
    0.44246E-08         0.92037E-11         0.00000E+00
    0.44246E-08         0.31386E-11         0.00000E+00
    0.46750E-08         0.31595E-11         0.00000E+00
    0.46749E-08         0.93152E-11         0.00000E+00
    0.46748E-08         0.15225E-10         0.00000E+00
    0.46746E-08         0.20889E-10         0.00000E+00
    0.46744E-08         0.26304E-10         0.00000E+00
    0.46742E-08         0.31472E-10         0.00000E+00
    0.46739E-08         0.36389E-10         0.00000E+00
    0.46735E-08         0.41057E-10         0.00000E+00
    0.46732E-08         0.45473E-10         0.00000E+00
    0.46727E-08         0.49637E-10         0.00000E+00
    0.46723E-08         0.53548E-10         0.00000E+00
    0.46718E-08         0.57206E-10         0.00000E+00
    0.46713E-08         0.60609E-10         0.00000E+00
    0.46708E-08         0.63756E-10         0.00000E+00
    0.46703E-08         0.66648E-10         0.00000E+00
    0.46697E-08         0.69284E-10         0.00000E+00
    0.46691E-08         0.71662E-10         0.00000E+00
    0.46685E-08         0.73782E-10         0.00000E+00
    0.46679E-08         0.75643E-10         0.00000E+00
    0.46673E-08         0.77246E-10         0.00000E+00
    0.46666E-08         0.78589E-10         0.00000E+00
    0.46660E-08         0.79671E-10         0.00000E+00
    0.46653E-08         0.80493E-10         0.00000E+00
    0.46647E-08         0.81055E-10         0.00000E+00
    0.46641E-08         0.81354E-10         0.00000E+00
    0.46634E-08         0.81392E-10         0.00000E+00
    0.46628E-08         0.81168E-10         0.00000E+00
    0.46621E-08         0.80681E-10         0.00000E+00
    0.46615E-08         0.79931E-10         0.00000E+00
    0.46609E-08         0.78918E-10         0.00000E+00
    0.46603E-08         0.77641E-10         0.00000E+00
    0.46597E-08         0.76101E-10         0.00000E+00
    0.46591E-08         0.74298E-10         0.00000E+00
    0.46586E-08         0.72230E-10         0.00000E+00
    0.46580E-08         0.69898E-10         0.00000E+00
    0.46575E-08         0.67302E-10         0.00000E+00
    0.46570E-08         0.64442E-10         0.00000E+00
    0.46565E-08         0.61318E-10         0.00000E+00
    0.46561E-08         0.57930E-10         0.00000E+00
    0.46557E-08         0.54277E-10         0.00000E+00
    0.46553E-08         0.50361E-10         0.00000E+00
    0.46549E-08         0.46180E-10         0.00000E+00
    0.46546E-08         0.41736E-10         0.00000E+00
    0.46543E-08         0.37027E-10         0.00000E+00
    0.46541E-08         0.32056E-10         0.00000E+00
    0.46539E-08         0.26821E-10         0.00000E+00
    0.46537E-08         0.21322E-10         0.00000E+00
    0.46535E-08         0.15561E-10         0.00000E+00
    0.46535E-08         0.95377E-11         0.00000E+00
    0.46534E-08         0.32520E-11         0.00000E+00
    0.49180E-08         0.33030E-11         0.00000E+00
    0.49180E-08         0.97365E-11         0.00000E+00
    0.49179E-08         0.15911E-10         0.00000E+00
    0.49177E-08         0.21824E-10         0.00000E+00
    0.49175E-08         0.27477E-10         0.00000E+00
    0.49172E-08         0.32867E-10         0.00000E+00
    0.49169E-08         0.37995E-10         0.00000E+00
    0.49166E-08         0.42859E-10         0.00000E+00
    0.49162E-08         0.47459E-10         0.00000E+00
    0.49158E-08         0.51793E-10         0.00000E+00
    0.49153E-08         0.55863E-10         0.00000E+00
    0.49148E-08         0.59666E-10         0.00000E+00
    0.49143E-08         0.63202E-10         0.00000E+00
    0.49138E-08         0.66470E-10         0.00000E+00
    0.49132E-08         0.69471E-10         0.00000E+00
    0.49127E-08         0.72202E-10         0.00000E+00
    0.49121E-08         0.74665E-10         0.00000E+00
    0.49114E-08         0.76858E-10         0.00000E+00
    0.49108E-08         0.78781E-10         0.00000E+00
    0.49102E-08         0.80434E-10         0.00000E+00
    0.49095E-08         0.81816E-10         0.00000E+00
    0.49089E-08         0.82927E-10         0.00000E+00
    0.49082E-08         0.83766E-10         0.00000E+00
    0.49075E-08         0.84333E-10         0.00000E+00
    0.49069E-08         0.84628E-10         0.00000E+00
    0.49062E-08         0.84651E-10         0.00000E+00
    0.49056E-08         0.84402E-10         0.00000E+00
    0.49049E-08         0.83879E-10         0.00000E+00
    0.49043E-08         0.83084E-10         0.00000E+00
    0.49036E-08         0.82016E-10         0.00000E+00
    0.49030E-08         0.80674E-10         0.00000E+00
    0.49024E-08         0.79059E-10         0.00000E+00
    0.49018E-08         0.77172E-10         0.00000E+00
    0.49013E-08         0.75010E-10         0.00000E+00
    0.49007E-08         0.72576E-10         0.00000E+00
    0.49002E-08         0.69868E-10         0.00000E+00
    0.48997E-08         0.66888E-10         0.00000E+00
    0.48992E-08         0.63634E-10         0.00000E+00
    0.48987E-08         0.60107E-10         0.00000E+00
    0.48983E-08         0.56308E-10         0.00000E+00
    0.48979E-08         0.52236E-10         0.00000E+00
    0.48975E-08         0.47892E-10         0.00000E+00
    0.48972E-08         0.43276E-10         0.00000E+00
    0.48969E-08         0.38387E-10         0.00000E+00
    0.48967E-08         0.33228E-10         0.00000E+00
    0.48964E-08         0.27797E-10         0.00000E+00
    0.48963E-08         0.22095E-10         0.00000E+00
    0.48961E-08         0.16123E-10         0.00000E+00
    0.48960E-08         0.98803E-11         0.00000E+00
    0.48960E-08         0.33682E-11         0.00000E+00
    0.51754E-08         0.34497E-11         0.00000E+00
    0.51754E-08         0.10167E-10         0.00000E+00
    0.51752E-08         0.16611E-10         0.00000E+00
    0.51751E-08         0.22780E-10         0.00000E+00
    0.51749E-08         0.28674E-10         0.00000E+00
    0.51746E-08         0.34293E-10         0.00000E+00
    0.51743E-08         0.39635E-10         0.00000E+00
    0.51739E-08         0.44700E-10         0.00000E+00
    0.51735E-08         0.49488E-10         0.00000E+00
    0.51731E-08         0.53997E-10         0.00000E+00
    0.51726E-08         0.58228E-10         0.00000E+00
    0.51722E-08         0.62179E-10         0.00000E+00
    0.51716E-08         0.65851E-10         0.00000E+00
    0.51711E-08         0.69243E-10         0.00000E+00
    0.51705E-08         0.72354E-10         0.00000E+00
    0.51699E-08         0.75185E-10         0.00000E+00
    0.51693E-08         0.77734E-10         0.00000E+00
    0.51687E-08         0.80002E-10         0.00000E+00
    0.51680E-08         0.81988E-10         0.00000E+00
    0.51674E-08         0.83692E-10         0.00000E+00
    0.51667E-08         0.85114E-10         0.00000E+00
    0.51661E-08         0.86253E-10         0.00000E+00
    0.51654E-08         0.87109E-10         0.00000E+00
    0.51647E-08         0.87683E-10         0.00000E+00
    0.51640E-08         0.87973E-10         0.00000E+00
    0.51634E-08         0.87981E-10         0.00000E+00
    0.51627E-08         0.87705E-10         0.00000E+00
    0.51620E-08         0.87147E-10         0.00000E+00
    0.51614E-08         0.86305E-10         0.00000E+00
    0.51607E-08         0.85180E-10         0.00000E+00
    0.51601E-08         0.83772E-10         0.00000E+00
    0.51595E-08         0.82081E-10         0.00000E+00
    0.51589E-08         0.80106E-10         0.00000E+00
    0.51583E-08         0.77850E-10         0.00000E+00
    0.51577E-08         0.75310E-10         0.00000E+00
    0.51572E-08         0.72488E-10         0.00000E+00
    0.51567E-08         0.69384E-10         0.00000E+00
    0.51562E-08         0.65998E-10         0.00000E+00
    0.51557E-08         0.62330E-10         0.00000E+00
    0.51553E-08         0.58381E-10         0.00000E+00
    0.51549E-08         0.54150E-10         0.00000E+00
    0.51545E-08         0.49639E-10         0.00000E+00
    0.51542E-08         0.44847E-10         0.00000E+00
    0.51539E-08         0.39775E-10         0.00000E+00
    0.51536E-08         0.34424E-10         0.00000E+00
    0.51534E-08         0.28793E-10         0.00000E+00
    0.51532E-08         0.22883E-10         0.00000E+00
    0.51531E-08         0.16695E-10         0.00000E+00
    0.51530E-08         0.10230E-10         0.00000E+00
    0.51529E-08         0.34868E-11         0.00000E+00
    0.54477E-08         0.35993E-11         0.00000E+00
    0.54477E-08         0.10606E-10         0.00000E+00
    0.54475E-08         0.17325E-10         0.00000E+00
    0.54474E-08         0.23755E-10         0.00000E+00
    0.54471E-08         0.29896E-10         0.00000E+00
    0.54469E-08         0.35746E-10         0.00000E+00
    0.54466E-08         0.41307E-10         0.00000E+00
    0.54462E-08         0.46577E-10         0.00000E+00
    0.54458E-08         0.51556E-10         0.00000E+00
    0.54454E-08         0.56243E-10         0.00000E+00
    0.54449E-08         0.60638E-10         0.00000E+00
    0.54444E-08         0.64741E-10         0.00000E+00
    0.54439E-08         0.68551E-10         0.00000E+00
    0.54433E-08         0.72068E-10         0.00000E+00
    0.54427E-08         0.75292E-10         0.00000E+00
    0.54421E-08         0.78223E-10         0.00000E+00
    0.54415E-08         0.80860E-10         0.00000E+00
    0.54409E-08         0.83204E-10         0.00000E+00
    0.54402E-08         0.85253E-10         0.00000E+00
    0.54396E-08         0.87009E-10         0.00000E+00
    0.54389E-08         0.88471E-10         0.00000E+00
    0.54382E-08         0.89639E-10         0.00000E+00
    0.54375E-08         0.90512E-10         0.00000E+00
    0.54368E-08         0.91092E-10         0.00000E+00
    0.54361E-08         0.91377E-10         0.00000E+00
    0.54355E-08         0.91369E-10         0.00000E+00
    0.54348E-08         0.91067E-10         0.00000E+00
    0.54341E-08         0.90471E-10         0.00000E+00
    0.54334E-08         0.89581E-10         0.00000E+00
    0.54328E-08         0.88398E-10         0.00000E+00
    0.54321E-08         0.86922E-10         0.00000E+00
    0.54315E-08         0.85152E-10         0.00000E+00
    0.54309E-08         0.83090E-10         0.00000E+00
    0.54303E-08         0.80736E-10         0.00000E+00
    0.54297E-08         0.78089E-10         0.00000E+00
    0.54292E-08         0.75151E-10         0.00000E+00
    0.54287E-08         0.71921E-10         0.00000E+00
    0.54282E-08         0.68400E-10         0.00000E+00
    0.54277E-08         0.64588E-10         0.00000E+00
    0.54273E-08         0.60486E-10         0.00000E+00
    0.54269E-08         0.56094E-10         0.00000E+00
    0.54265E-08         0.51413E-10         0.00000E+00
    0.54261E-08         0.46443E-10         0.00000E+00
    0.54258E-08         0.41184E-10         0.00000E+00
    0.54256E-08         0.35637E-10         0.00000E+00
    0.54254E-08         0.29804E-10         0.00000E+00
    0.54252E-08         0.23683E-10         0.00000E+00
    0.54250E-08         0.17276E-10         0.00000E+00
    0.54249E-08         0.10584E-10         0.00000E+00
    0.54249E-08         0.36070E-11         0.00000E+00
    0.57356E-08         0.37516E-11         0.00000E+00
    0.57356E-08         0.11053E-10         0.00000E+00
    0.57355E-08         0.18052E-10         0.00000E+00
    0.57353E-08         0.24747E-10         0.00000E+00
    0.57351E-08         0.31138E-10         0.00000E+00
    0.57348E-08         0.37225E-10         0.00000E+00
    0.57345E-08         0.43008E-10         0.00000E+00
    0.57341E-08         0.48486E-10         0.00000E+00
    0.57337E-08         0.53658E-10         0.00000E+00
    0.57333E-08         0.58526E-10         0.00000E+00
    0.57328E-08         0.63088E-10         0.00000E+00
    0.57323E-08         0.67344E-10         0.00000E+00
    0.57317E-08         0.71294E-10         0.00000E+00
    0.57312E-08         0.74938E-10         0.00000E+00
    0.57306E-08         0.78276E-10         0.00000E+00
    0.57300E-08         0.81308E-10         0.00000E+00
    0.57293E-08         0.84034E-10         0.00000E+00
    0.57287E-08         0.86454E-10         0.00000E+00
    0.57280E-08         0.88568E-10         0.00000E+00
    0.57274E-08         0.90375E-10         0.00000E+00
    0.57267E-08         0.91877E-10         0.00000E+00
    0.57260E-08         0.93073E-10         0.00000E+00
    0.57253E-08         0.93964E-10         0.00000E+00
    0.57246E-08         0.94549E-10         0.00000E+00
    0.57239E-08         0.94828E-10         0.00000E+00
    0.57232E-08         0.94803E-10         0.00000E+00
    0.57225E-08         0.94473E-10         0.00000E+00
    0.57218E-08         0.93838E-10         0.00000E+00
    0.57212E-08         0.92900E-10         0.00000E+00
    0.57205E-08         0.91657E-10         0.00000E+00
    0.57199E-08         0.90111E-10         0.00000E+00
    0.57192E-08         0.88262E-10         0.00000E+00
    0.57186E-08         0.86111E-10         0.00000E+00
    0.57180E-08         0.83657E-10         0.00000E+00
    0.57174E-08         0.80901E-10         0.00000E+00
    0.57169E-08         0.77844E-10         0.00000E+00
    0.57164E-08         0.74487E-10         0.00000E+00
    0.57159E-08         0.70829E-10         0.00000E+00
    0.57154E-08         0.66871E-10         0.00000E+00
    0.57149E-08         0.62614E-10         0.00000E+00
    0.57145E-08         0.58059E-10         0.00000E+00
    0.57141E-08         0.53205E-10         0.00000E+00
    0.57138E-08         0.48054E-10         0.00000E+00
    0.57135E-08         0.42607E-10         0.00000E+00
    0.57132E-08         0.36863E-10         0.00000E+00
    0.57130E-08         0.30824E-10         0.00000E+00
    0.57128E-08         0.24490E-10         0.00000E+00
    0.57127E-08         0.17863E-10         0.00000E+00
    0.57126E-08         0.10942E-10         0.00000E+00
    0.57125E-08         0.37283E-11         0.00000E+00
    0.60399E-08         0.39064E-11         0.00000E+00
    0.60399E-08         0.11507E-10         0.00000E+00
    0.60397E-08         0.18790E-10         0.00000E+00
    0.60396E-08         0.25754E-10         0.00000E+00
    0.60393E-08         0.32399E-10         0.00000E+00
    0.60391E-08         0.38726E-10         0.00000E+00
    0.60387E-08         0.44734E-10         0.00000E+00
    0.60384E-08         0.50422E-10         0.00000E+00
    0.60380E-08         0.55791E-10         0.00000E+00
    0.60375E-08         0.60840E-10         0.00000E+00
    0.60370E-08         0.65571E-10         0.00000E+00
    0.60365E-08         0.69981E-10         0.00000E+00
    0.60360E-08         0.74073E-10         0.00000E+00
    0.60354E-08         0.77845E-10         0.00000E+00
    0.60348E-08         0.81298E-10         0.00000E+00
    0.60342E-08         0.84431E-10         0.00000E+00
    0.60335E-08         0.87246E-10         0.00000E+00
    0.60329E-08         0.89742E-10         0.00000E+00
    0.60322E-08         0.91920E-10         0.00000E+00
    0.60315E-08         0.93779E-10         0.00000E+00
    0.60309E-08         0.95321E-10         0.00000E+00
    0.60302E-08         0.96545E-10         0.00000E+00
    0.60295E-08         0.97451E-10         0.00000E+00
    0.60288E-08         0.98040E-10         0.00000E+00
    0.60281E-08         0.98313E-10         0.00000E+00
    0.60274E-08         0.98270E-10         0.00000E+00
    0.60267E-08         0.97911E-10         0.00000E+00
    0.60260E-08         0.97237E-10         0.00000E+00
    0.60253E-08         0.96248E-10         0.00000E+00
    0.60246E-08         0.94945E-10         0.00000E+00
    0.60240E-08         0.93328E-10         0.00000E+00
    0.60234E-08         0.91397E-10         0.00000E+00
    0.60227E-08         0.89154E-10         0.00000E+00
    0.60221E-08         0.86600E-10         0.00000E+00
    0.60216E-08         0.83733E-10         0.00000E+00
    0.60210E-08         0.80556E-10         0.00000E+00
    0.60205E-08         0.77069E-10         0.00000E+00
    0.60200E-08         0.73273E-10         0.00000E+00
    0.60195E-08         0.69168E-10         0.00000E+00
    0.60190E-08         0.64754E-10         0.00000E+00
    0.60186E-08         0.60034E-10         0.00000E+00
    0.60183E-08         0.55007E-10         0.00000E+00
    0.60179E-08         0.49674E-10         0.00000E+00
    0.60176E-08         0.44036E-10         0.00000E+00
    0.60173E-08         0.38094E-10         0.00000E+00
    0.60171E-08         0.31849E-10         0.00000E+00
    0.60169E-08         0.25301E-10         0.00000E+00
    0.60168E-08         0.18451E-10         0.00000E+00
    0.60167E-08         0.11301E-10         0.00000E+00
    0.60166E-08         0.38500E-11         0.00000E+00
    0.63614E-08         0.40633E-11         0.00000E+00
    0.63613E-08         0.11967E-10         0.00000E+00
    0.63612E-08         0.19538E-10         0.00000E+00
    0.63610E-08         0.26774E-10         0.00000E+00
    0.63608E-08         0.33677E-10         0.00000E+00
    0.63605E-08         0.40245E-10         0.00000E+00
    0.63602E-08         0.46480E-10         0.00000E+00
    0.63598E-08         0.52381E-10         0.00000E+00
    0.63594E-08         0.57947E-10         0.00000E+00
    0.63589E-08         0.63180E-10         0.00000E+00
    0.63584E-08         0.68080E-10         0.00000E+00
    0.63579E-08         0.72646E-10         0.00000E+00
    0.63574E-08         0.76879E-10         0.00000E+00
    0.63568E-08         0.80779E-10         0.00000E+00
    0.63562E-08         0.84347E-10         0.00000E+00
    0.63556E-08         0.87582E-10         0.00000E+00
    0.63549E-08         0.90486E-10         0.00000E+00
    0.63543E-08         0.93057E-10         0.00000E+00
    0.63536E-08         0.95298E-10         0.00000E+00
    0.63529E-08         0.97209E-10         0.00000E+00
    0.63522E-08         0.98789E-10         0.00000E+00
    0.63515E-08         0.10004E-09         0.00000E+00
    0.63508E-08         0.10096E-09         0.00000E+00
    0.63501E-08         0.10155E-09         0.00000E+00
    0.63494E-08         0.10182E-09         0.00000E+00
    0.63487E-08         0.10176E-09         0.00000E+00
    0.63480E-08         0.10137E-09         0.00000E+00
    0.63473E-08         0.10065E-09         0.00000E+00
    0.63467E-08         0.99610E-10         0.00000E+00
    0.63460E-08         0.98245E-10         0.00000E+00
    0.63453E-08         0.96555E-10         0.00000E+00
    0.63447E-08         0.94542E-10         0.00000E+00
    0.63441E-08         0.92207E-10         0.00000E+00
    0.63435E-08         0.89550E-10         0.00000E+00
    0.63429E-08         0.86572E-10         0.00000E+00
    0.63423E-08         0.83273E-10         0.00000E+00
    0.63418E-08         0.79656E-10         0.00000E+00
    0.63413E-08         0.75720E-10         0.00000E+00
    0.63408E-08         0.71466E-10         0.00000E+00
    0.63404E-08         0.66896E-10         0.00000E+00
    0.63400E-08         0.62009E-10         0.00000E+00
    0.63396E-08         0.56808E-10         0.00000E+00
    0.63393E-08         0.51293E-10         0.00000E+00
    0.63390E-08         0.45464E-10         0.00000E+00
    0.63387E-08         0.39324E-10         0.00000E+00
    0.63385E-08         0.32872E-10         0.00000E+00
    0.63383E-08         0.26110E-10         0.00000E+00
    0.63381E-08         0.19038E-10         0.00000E+00
    0.63380E-08         0.11658E-10         0.00000E+00
    0.63380E-08         0.39712E-11         0.00000E+00
    0.67008E-08         0.42221E-11         0.00000E+00
    0.67007E-08         0.12433E-10         0.00000E+00
    0.67006E-08         0.20294E-10         0.00000E+00
    0.67004E-08         0.27805E-10         0.00000E+00
    0.67002E-08         0.34967E-10         0.00000E+00
    0.66999E-08         0.41779E-10         0.00000E+00
    0.66996E-08         0.48242E-10         0.00000E+00
    0.66992E-08         0.54356E-10         0.00000E+00
    0.66988E-08         0.60121E-10         0.00000E+00
    0.66983E-08         0.65538E-10         0.00000E+00
    0.66978E-08         0.70607E-10         0.00000E+00
    0.66973E-08         0.75329E-10         0.00000E+00
    0.66968E-08         0.79703E-10         0.00000E+00
    0.66962E-08         0.83731E-10         0.00000E+00
    0.66956E-08         0.87412E-10         0.00000E+00
    0.66950E-08         0.90748E-10         0.00000E+00
    0.66943E-08         0.93739E-10         0.00000E+00
    0.66937E-08         0.96386E-10         0.00000E+00
    0.66930E-08         0.98689E-10         0.00000E+00
    0.66923E-08         0.10065E-09         0.00000E+00
    0.66916E-08         0.10227E-09         0.00000E+00
    0.66909E-08         0.10354E-09         0.00000E+00
    0.66902E-08         0.10448E-09         0.00000E+00
    0.66895E-08         0.10507E-09         0.00000E+00
    0.66888E-08         0.10533E-09         0.00000E+00
    0.66881E-08         0.10524E-09         0.00000E+00
    0.66874E-08         0.10482E-09         0.00000E+00
    0.66867E-08         0.10406E-09         0.00000E+00
    0.66861E-08         0.10297E-09         0.00000E+00
    0.66854E-08         0.10154E-09         0.00000E+00
    0.66847E-08         0.99777E-10         0.00000E+00
    0.66841E-08         0.97681E-10         0.00000E+00
    0.66835E-08         0.95252E-10         0.00000E+00
    0.66829E-08         0.92491E-10         0.00000E+00
    0.66823E-08         0.89400E-10         0.00000E+00
    0.66818E-08         0.85980E-10         0.00000E+00
    0.66812E-08         0.82231E-10         0.00000E+00
    0.66807E-08         0.78155E-10         0.00000E+00
    0.66803E-08         0.73753E-10         0.00000E+00
    0.66798E-08         0.69025E-10         0.00000E+00
    0.66794E-08         0.63973E-10         0.00000E+00
    0.66790E-08         0.58598E-10         0.00000E+00
    0.66787E-08         0.52901E-10         0.00000E+00
    0.66784E-08         0.46882E-10         0.00000E+00
    0.66781E-08         0.40544E-10         0.00000E+00
    0.66779E-08         0.33887E-10         0.00000E+00
    0.66777E-08         0.26912E-10         0.00000E+00
    0.66776E-08         0.19620E-10         0.00000E+00
    0.66775E-08         0.12013E-10         0.00000E+00
    0.66775E-08         0.40913E-11         0.00000E+00
    0.70591E-08         0.43822E-11         0.00000E+00
    0.70591E-08         0.12902E-10         0.00000E+00
    0.70589E-08         0.21056E-10         0.00000E+00
    0.70588E-08         0.28843E-10         0.00000E+00
    0.70585E-08         0.36265E-10         0.00000E+00
    0.70582E-08         0.43322E-10         0.00000E+00
    0.70579E-08         0.50013E-10         0.00000E+00
    0.70575E-08         0.56341E-10         0.00000E+00
    0.70571E-08         0.62304E-10         0.00000E+00
    0.70567E-08         0.67905E-10         0.00000E+00
    0.70562E-08         0.73143E-10         0.00000E+00
    0.70556E-08         0.78018E-10         0.00000E+00
    0.70551E-08         0.82533E-10         0.00000E+00
    0.70545E-08         0.86687E-10         0.00000E+00
    0.70539E-08         0.90481E-10         0.00000E+00
    0.70533E-08         0.93916E-10         0.00000E+00
    0.70526E-08         0.96993E-10         0.00000E+00
    0.70520E-08         0.99713E-10         0.00000E+00
    0.70513E-08         0.10208E-09         0.00000E+00
    0.70506E-08         0.10408E-09         0.00000E+00
    0.70500E-08         0.10574E-09         0.00000E+00
    0.70493E-08         0.10704E-09         0.00000E+00
    0.70486E-08         0.10798E-09         0.00000E+00
    0.70479E-08         0.10858E-09         0.00000E+00
    0.70472E-08         0.10882E-09         0.00000E+00
    0.70465E-08         0.10871E-09         0.00000E+00
    0.70458E-08         0.10826E-09         0.00000E+00
    0.70451E-08         0.10746E-09         0.00000E+00
    0.70444E-08         0.10631E-09         0.00000E+00
    0.70438E-08         0.10481E-09         0.00000E+00
    0.70431E-08         0.10298E-09         0.00000E+00
    0.70425E-08         0.10079E-09         0.00000E+00
    0.70419E-08         0.98270E-10         0.00000E+00
    0.70413E-08         0.95406E-10         0.00000E+00
    0.70407E-08         0.92202E-10         0.00000E+00
    0.70402E-08         0.88659E-10         0.00000E+00
    0.70397E-08         0.84779E-10         0.00000E+00
    0.70392E-08         0.80564E-10         0.00000E+00
    0.70387E-08         0.76013E-10         0.00000E+00
    0.70383E-08         0.71128E-10         0.00000E+00
    0.70379E-08         0.65912E-10         0.00000E+00
    0.70375E-08         0.60364E-10         0.00000E+00
    0.70372E-08         0.54486E-10         0.00000E+00
    0.70369E-08         0.48280E-10         0.00000E+00
    0.70366E-08         0.41746E-10         0.00000E+00
    0.70364E-08         0.34886E-10         0.00000E+00
    0.70362E-08         0.27701E-10         0.00000E+00
    0.70361E-08         0.20192E-10         0.00000E+00
    0.70360E-08         0.12361E-10         0.00000E+00
    0.70360E-08         0.42093E-11         0.00000E+00
    0.74373E-08         0.45430E-11         0.00000E+00
    0.74373E-08         0.13373E-10         0.00000E+00
    0.74371E-08         0.21820E-10         0.00000E+00
    0.74369E-08         0.29884E-10         0.00000E+00
    0.74367E-08         0.37566E-10         0.00000E+00
    0.74364E-08         0.44867E-10         0.00000E+00
    0.74361E-08         0.51787E-10         0.00000E+00
    0.74357E-08         0.58326E-10         0.00000E+00
    0.74353E-08         0.64487E-10         0.00000E+00
    0.74349E-08         0.70269E-10         0.00000E+00
    0.74344E-08         0.75674E-10         0.00000E+00
    0.74338E-08         0.80702E-10         0.00000E+00
    0.74333E-08         0.85355E-10         0.00000E+00
    0.74327E-08         0.89633E-10         0.00000E+00
    0.74321E-08         0.93538E-10         0.00000E+00
    0.74315E-08         0.97069E-10         0.00000E+00
    0.74309E-08         0.10023E-09         0.00000E+00
    0.74302E-08         0.10302E-09         0.00000E+00
    0.74296E-08         0.10544E-09         0.00000E+00
    0.74289E-08         0.10749E-09         0.00000E+00
    0.74282E-08         0.10918E-09         0.00000E+00
    0.74275E-08         0.11050E-09         0.00000E+00
    0.74268E-08         0.11145E-09         0.00000E+00
    0.74261E-08         0.11205E-09         0.00000E+00
    0.74254E-08         0.11228E-09         0.00000E+00
    0.74248E-08         0.11215E-09         0.00000E+00
    0.74241E-08         0.11166E-09         0.00000E+00
    0.74234E-08         0.11081E-09         0.00000E+00
    0.74228E-08         0.10960E-09         0.00000E+00
    0.74221E-08         0.10804E-09         0.00000E+00
    0.74215E-08         0.10613E-09         0.00000E+00
    0.74209E-08         0.10386E-09         0.00000E+00
    0.74203E-08         0.10124E-09         0.00000E+00
    0.74197E-08         0.98273E-10         0.00000E+00
    0.74191E-08         0.94956E-10         0.00000E+00
    0.74186E-08         0.91291E-10         0.00000E+00
    0.74181E-08         0.87281E-10         0.00000E+00
    0.74176E-08         0.82926E-10         0.00000E+00
    0.74171E-08         0.78229E-10         0.00000E+00
    0.74167E-08         0.73189E-10         0.00000E+00
    0.74163E-08         0.67810E-10         0.00000E+00
    0.74160E-08         0.62092E-10         0.00000E+00
    0.74157E-08         0.56037E-10         0.00000E+00
    0.74154E-08         0.49645E-10         0.00000E+00
    0.74151E-08         0.42920E-10         0.00000E+00
    0.74149E-08         0.35861E-10         0.00000E+00
    0.74147E-08         0.28471E-10         0.00000E+00
    0.74146E-08         0.20750E-10         0.00000E+00
    0.74145E-08         0.12701E-10         0.00000E+00
    0.74145E-08         0.43242E-11         0.00000E+00
    0.78364E-08         0.47040E-11         0.00000E+00
    0.78363E-08         0.13844E-10         0.00000E+00
    0.78362E-08         0.22584E-10         0.00000E+00
    0.78360E-08         0.30924E-10         0.00000E+00
    0.78358E-08         0.38864E-10         0.00000E+00
    0.78355E-08         0.46407E-10         0.00000E+00
    0.78352E-08         0.53553E-10         0.00000E+00
    0.78348E-08         0.60303E-10         0.00000E+00
    0.78344E-08         0.66658E-10         0.00000E+00
    0.78339E-08         0.72619E-10         0.00000E+00
    0.78335E-08         0.78188E-10         0.00000E+00
    0.78329E-08         0.83366E-10         0.00000E+00
    0.78324E-08         0.88153E-10         0.00000E+00
    0.78318E-08         0.92552E-10         0.00000E+00
    0.78312E-08         0.96563E-10         0.00000E+00
    0.78306E-08         0.10019E-09         0.00000E+00
    0.78300E-08         0.10343E-09         0.00000E+00
    0.78294E-08         0.10629E-09         0.00000E+00
    0.78287E-08         0.10876E-09         0.00000E+00
    0.78280E-08         0.11085E-09         0.00000E+00
    0.78274E-08         0.11257E-09         0.00000E+00
    0.78267E-08         0.11391E-09         0.00000E+00
    0.78260E-08         0.11487E-09         0.00000E+00
    0.78253E-08         0.11546E-09         0.00000E+00
    0.78247E-08         0.11567E-09         0.00000E+00
    0.78240E-08         0.11551E-09         0.00000E+00
    0.78233E-08         0.11499E-09         0.00000E+00
    0.78227E-08         0.11409E-09         0.00000E+00
    0.78220E-08         0.11283E-09         0.00000E+00
    0.78214E-08         0.11120E-09         0.00000E+00
    0.78208E-08         0.10921E-09         0.00000E+00
    0.78202E-08         0.10686E-09         0.00000E+00
    0.78196E-08         0.10414E-09         0.00000E+00
    0.78191E-08         0.10107E-09         0.00000E+00
    0.78185E-08         0.97639E-10         0.00000E+00
    0.78180E-08         0.93854E-10         0.00000E+00
    0.78175E-08         0.89715E-10         0.00000E+00
    0.78170E-08         0.85223E-10         0.00000E+00
    0.78166E-08         0.80381E-10         0.00000E+00
    0.78162E-08         0.75190E-10         0.00000E+00
    0.78158E-08         0.69651E-10         0.00000E+00
    0.78155E-08         0.63767E-10         0.00000E+00
    0.78152E-08         0.57538E-10         0.00000E+00
    0.78149E-08         0.50967E-10         0.00000E+00
    0.78147E-08         0.44055E-10         0.00000E+00
    0.78144E-08         0.36803E-10         0.00000E+00
    0.78143E-08         0.29214E-10         0.00000E+00
    0.78142E-08         0.21288E-10         0.00000E+00
    0.78141E-08         0.13028E-10         0.00000E+00
    0.78140E-08         0.44348E-11         0.00000E+00
    0.82574E-08         0.48641E-11         0.00000E+00
    0.82574E-08         0.14313E-10         0.00000E+00
    0.82572E-08         0.23343E-10         0.00000E+00
    0.82571E-08         0.31955E-10         0.00000E+00
    0.82568E-08         0.40152E-10         0.00000E+00
    0.82565E-08         0.47933E-10         0.00000E+00
    0.82562E-08         0.55301E-10         0.00000E+00
    0.82559E-08         0.62257E-10         0.00000E+00
    0.82554E-08         0.68802E-10         0.00000E+00
    0.82550E-08         0.74939E-10         0.00000E+00
    0.82545E-08         0.80667E-10         0.00000E+00
    0.82540E-08         0.85989E-10         0.00000E+00
    0.82535E-08         0.90907E-10         0.00000E+00
    0.82529E-08         0.95422E-10         0.00000E+00
    0.82524E-08         0.99536E-10         0.00000E+00
    0.82518E-08         0.10325E-09         0.00000E+00
    0.82511E-08         0.10657E-09         0.00000E+00
    0.82505E-08         0.10948E-09         0.00000E+00
    0.82499E-08         0.11201E-09         0.00000E+00
    0.82492E-08         0.11414E-09         0.00000E+00
    0.82486E-08         0.11588E-09         0.00000E+00
    0.82479E-08         0.11724E-09         0.00000E+00
    0.82473E-08         0.11820E-09         0.00000E+00
    0.82466E-08         0.11878E-09         0.00000E+00
    0.82460E-08         0.11898E-09         0.00000E+00
    0.82453E-08         0.11879E-09         0.00000E+00
    0.82447E-08         0.11822E-09         0.00000E+00
    0.82440E-08         0.11728E-09         0.00000E+00
    0.82434E-08         0.11596E-09         0.00000E+00
    0.82428E-08         0.11426E-09         0.00000E+00
    0.82422E-08         0.11219E-09         0.00000E+00
    0.82417E-08         0.10975E-09         0.00000E+00
    0.82411E-08         0.10694E-09         0.00000E+00
    0.82406E-08         0.10377E-09         0.00000E+00
    0.82400E-08         0.10023E-09         0.00000E+00
    0.82395E-08         0.96322E-10         0.00000E+00
    0.82391E-08         0.92056E-10         0.00000E+00
    0.82386E-08         0.87431E-10         0.00000E+00
    0.82382E-08         0.82448E-10         0.00000E+00
    0.82378E-08         0.77108E-10         0.00000E+00
    0.82375E-08         0.71415E-10         0.00000E+00
    0.82371E-08         0.65370E-10         0.00000E+00
    0.82368E-08         0.58974E-10         0.00000E+00
    0.82366E-08         0.52229E-10         0.00000E+00
    0.82363E-08         0.45138E-10         0.00000E+00
    0.82362E-08         0.37701E-10         0.00000E+00
    0.82360E-08         0.29922E-10         0.00000E+00
    0.82359E-08         0.21800E-10         0.00000E+00
    0.82358E-08         0.13339E-10         0.00000E+00
    0.82358E-08         0.45398E-11         0.00000E+00
    0.87016E-08         0.50224E-11         0.00000E+00
    0.87015E-08         0.14775E-10         0.00000E+00
    0.87014E-08         0.24091E-10         0.00000E+00
    0.87012E-08         0.32972E-10         0.00000E+00
    0.87010E-08         0.41419E-10         0.00000E+00
    0.87007E-08         0.49434E-10         0.00000E+00
    0.87004E-08         0.57018E-10         0.00000E+00
    0.87000E-08         0.64175E-10         0.00000E+00
    0.86996E-08         0.70904E-10         0.00000E+00
    0.86992E-08         0.77209E-10         0.00000E+00
    0.86987E-08         0.83091E-10         0.00000E+00
    0.86982E-08         0.88552E-10         0.00000E+00
    0.86977E-08         0.93594E-10         0.00000E+00
    0.86972E-08         0.98219E-10         0.00000E+00
    0.86966E-08         0.10243E-09         0.00000E+00
    0.86961E-08         0.10623E-09         0.00000E+00
    0.86955E-08         0.10961E-09         0.00000E+00
    0.86949E-08         0.11259E-09         0.00000E+00
    0.86942E-08         0.11516E-09         0.00000E+00
    0.86936E-08         0.11732E-09         0.00000E+00
    0.86930E-08         0.11909E-09         0.00000E+00
    0.86924E-08         0.12045E-09         0.00000E+00
    0.86917E-08         0.12141E-09         0.00000E+00
    0.86911E-08         0.12198E-09         0.00000E+00
    0.86905E-08         0.12215E-09         0.00000E+00
    0.86899E-08         0.12194E-09         0.00000E+00
    0.86893E-08         0.12133E-09         0.00000E+00
    0.86887E-08         0.12033E-09         0.00000E+00
    0.86881E-08         0.11895E-09         0.00000E+00
    0.86875E-08         0.11718E-09         0.00000E+00
    0.86869E-08         0.11504E-09         0.00000E+00
    0.86864E-08         0.11251E-09         0.00000E+00
    0.86858E-08         0.10961E-09         0.00000E+00
    0.86853E-08         0.10633E-09         0.00000E+00
    0.86849E-08         0.10269E-09         0.00000E+00
    0.86844E-08         0.98665E-10         0.00000E+00
    0.86839E-08         0.94277E-10         0.00000E+00
    0.86835E-08         0.89522E-10         0.00000E+00
    0.86831E-08         0.84403E-10         0.00000E+00
    0.86828E-08         0.78922E-10         0.00000E+00
    0.86824E-08         0.73080E-10         0.00000E+00
    0.86821E-08         0.66881E-10         0.00000E+00
    0.86818E-08         0.60326E-10         0.00000E+00
    0.86816E-08         0.53416E-10         0.00000E+00
    0.86814E-08         0.46155E-10         0.00000E+00
    0.86812E-08         0.38544E-10         0.00000E+00
    0.86811E-08         0.30585E-10         0.00000E+00
    0.86810E-08         0.22279E-10         0.00000E+00
    0.86809E-08         0.13630E-10         0.00000E+00
    0.86808E-08         0.46378E-11         0.00000E+00
    0.91701E-08         0.51776E-11         0.00000E+00
    0.91700E-08         0.15228E-10         0.00000E+00
    0.91699E-08         0.24823E-10         0.00000E+00
    0.91697E-08         0.33964E-10         0.00000E+00
    0.91695E-08         0.42654E-10         0.00000E+00
    0.91692E-08         0.50895E-10         0.00000E+00
    0.91689E-08         0.58689E-10         0.00000E+00
    0.91686E-08         0.66037E-10         0.00000E+00
    0.91682E-08         0.72944E-10         0.00000E+00
    0.91678E-08         0.79409E-10         0.00000E+00
    0.91673E-08         0.85437E-10         0.00000E+00
    0.91668E-08         0.91029E-10         0.00000E+00
    0.91663E-08         0.96187E-10         0.00000E+00
    0.91658E-08         0.10091E-09         0.00000E+00
    0.91653E-08         0.10521E-09         0.00000E+00
    0.91647E-08         0.10909E-09         0.00000E+00
    0.91642E-08         0.11254E-09         0.00000E+00
    0.91636E-08         0.11556E-09         0.00000E+00
    0.91630E-08         0.11817E-09         0.00000E+00
    0.91624E-08         0.12037E-09         0.00000E+00
    0.91618E-08         0.12214E-09         0.00000E+00
    0.91612E-08         0.12351E-09         0.00000E+00
    0.91606E-08         0.12447E-09         0.00000E+00
    0.91601E-08         0.12502E-09         0.00000E+00
    0.91595E-08         0.12517E-09         0.00000E+00
    0.91589E-08         0.12492E-09         0.00000E+00
    0.91583E-08         0.12426E-09         0.00000E+00
    0.91578E-08         0.12322E-09         0.00000E+00
    0.91572E-08         0.12177E-09         0.00000E+00
    0.91567E-08         0.11994E-09         0.00000E+00
    0.91561E-08         0.11772E-09         0.00000E+00
    0.91556E-08         0.11511E-09         0.00000E+00
    0.91551E-08         0.11211E-09         0.00000E+00
    0.91547E-08         0.10874E-09         0.00000E+00
    0.91542E-08         0.10498E-09         0.00000E+00
    0.91538E-08         0.10085E-09         0.00000E+00
    0.91534E-08         0.96344E-10         0.00000E+00
    0.91530E-08         0.91466E-10         0.00000E+00
    0.91526E-08         0.86217E-10         0.00000E+00
    0.91523E-08         0.80602E-10         0.00000E+00
    0.91520E-08         0.74621E-10         0.00000E+00
    0.91517E-08         0.68277E-10         0.00000E+00
    0.91515E-08         0.61572E-10         0.00000E+00
    0.91512E-08         0.54509E-10         0.00000E+00
    0.91510E-08         0.47090E-10         0.00000E+00
    0.91509E-08         0.39317E-10         0.00000E+00
    0.91507E-08         0.31192E-10         0.00000E+00
    0.91506E-08         0.22717E-10         0.00000E+00
    0.91506E-08         0.13895E-10         0.00000E+00
    0.91505E-08         0.47272E-11         0.00000E+00
    0.96642E-08         0.53280E-11         0.00000E+00
    0.96641E-08         0.15667E-10         0.00000E+00
    0.96640E-08         0.25531E-10         0.00000E+00
    0.96638E-08         0.34923E-10         0.00000E+00
    0.96636E-08         0.43846E-10         0.00000E+00
    0.96634E-08         0.52302E-10         0.00000E+00
    0.96631E-08         0.60294E-10         0.00000E+00
    0.96628E-08         0.67824E-10         0.00000E+00
    0.96624E-08         0.74897E-10         0.00000E+00
    0.96620E-08         0.81513E-10         0.00000E+00
    0.96616E-08         0.87676E-10         0.00000E+00
    0.96611E-08         0.93389E-10         0.00000E+00
    0.96607E-08         0.98654E-10         0.00000E+00
    0.96602E-08         0.10347E-09         0.00000E+00
    0.96597E-08         0.10785E-09         0.00000E+00
    0.96591E-08         0.11179E-09         0.00000E+00
    0.96586E-08         0.11530E-09         0.00000E+00
    0.96581E-08         0.11837E-09         0.00000E+00
    0.96575E-08         0.12101E-09         0.00000E+00
    0.96570E-08         0.12322E-09         0.00000E+00
    0.96564E-08         0.12501E-09         0.00000E+00
    0.96559E-08         0.12638E-09         0.00000E+00
    0.96553E-08         0.12733E-09         0.00000E+00
    0.96548E-08         0.12786E-09         0.00000E+00
    0.96542E-08         0.12798E-09         0.00000E+00
    0.96537E-08         0.12769E-09         0.00000E+00
    0.96532E-08         0.12699E-09         0.00000E+00
    0.96527E-08         0.12589E-09         0.00000E+00
    0.96522E-08         0.12438E-09         0.00000E+00
    0.96517E-08         0.12248E-09         0.00000E+00
    0.96512E-08         0.12018E-09         0.00000E+00
    0.96507E-08         0.11749E-09         0.00000E+00
    0.96503E-08         0.11440E-09         0.00000E+00
    0.96499E-08         0.11093E-09         0.00000E+00
    0.96495E-08         0.10708E-09         0.00000E+00
    0.96491E-08         0.10284E-09         0.00000E+00
    0.96487E-08         0.98222E-10         0.00000E+00
    0.96484E-08         0.93228E-10         0.00000E+00
    0.96480E-08         0.87859E-10         0.00000E+00
    0.96478E-08         0.82118E-10         0.00000E+00
    0.96475E-08         0.76008E-10         0.00000E+00
    0.96472E-08         0.69531E-10         0.00000E+00
    0.96470E-08         0.62690E-10         0.00000E+00
    0.96468E-08         0.55487E-10         0.00000E+00
    0.96466E-08         0.47925E-10         0.00000E+00
    0.96465E-08         0.40006E-10         0.00000E+00
    0.96464E-08         0.31732E-10         0.00000E+00
    0.96463E-08         0.23106E-10         0.00000E+00
    0.96462E-08         0.14130E-10         0.00000E+00
    0.96462E-08         0.48059E-11         0.00000E+00
    0.10185E-07         0.54720E-11         0.00000E+00
    0.10185E-07         0.16085E-10         0.00000E+00
    0.10185E-07         0.26205E-10         0.00000E+00
    0.10185E-07         0.35835E-10         0.00000E+00
    0.10185E-07         0.44977E-10         0.00000E+00
    0.10185E-07         0.53635E-10         0.00000E+00
    0.10184E-07         0.61812E-10         0.00000E+00
    0.10184E-07         0.69511E-10         0.00000E+00
    0.10184E-07         0.76736E-10         0.00000E+00
    0.10183E-07         0.83490E-10         0.00000E+00
    0.10183E-07         0.89776E-10         0.00000E+00
    0.10182E-07         0.95597E-10         0.00000E+00
    0.10182E-07         0.10096E-09         0.00000E+00
    0.10182E-07         0.10586E-09         0.00000E+00
    0.10181E-07         0.11031E-09         0.00000E+00
    0.10181E-07         0.11430E-09         0.00000E+00
    0.10180E-07         0.11785E-09         0.00000E+00
    0.10180E-07         0.12096E-09         0.00000E+00
    0.10179E-07         0.12362E-09         0.00000E+00
    0.10179E-07         0.12585E-09         0.00000E+00
    0.10178E-07         0.12764E-09         0.00000E+00
    0.10178E-07         0.12900E-09         0.00000E+00
    0.10177E-07         0.12993E-09         0.00000E+00
    0.10177E-07         0.13044E-09         0.00000E+00
    0.10176E-07         0.13052E-09         0.00000E+00
    0.10176E-07         0.13019E-09         0.00000E+00
    0.10175E-07         0.12945E-09         0.00000E+00
    0.10175E-07         0.12829E-09         0.00000E+00
    0.10174E-07         0.12672E-09         0.00000E+00
    0.10174E-07         0.12475E-09         0.00000E+00
    0.10174E-07         0.12238E-09         0.00000E+00
    0.10173E-07         0.11960E-09         0.00000E+00
    0.10173E-07         0.11644E-09         0.00000E+00
    0.10172E-07         0.11288E-09         0.00000E+00
    0.10172E-07         0.10893E-09         0.00000E+00
    0.10172E-07         0.10459E-09         0.00000E+00
    0.10171E-07         0.99869E-10         0.00000E+00
    0.10171E-07         0.94768E-10         0.00000E+00
    0.10171E-07         0.89289E-10         0.00000E+00
    0.10171E-07         0.83435E-10         0.00000E+00
    0.10170E-07         0.77209E-10         0.00000E+00
    0.10170E-07         0.70614E-10         0.00000E+00
    0.10170E-07         0.63652E-10         0.00000E+00
    0.10170E-07         0.56325E-10         0.00000E+00
    0.10170E-07         0.48638E-10         0.00000E+00
    0.10170E-07         0.40592E-10         0.00000E+00
    0.10169E-07         0.32190E-10         0.00000E+00
    0.10169E-07         0.23434E-10         0.00000E+00
    0.10169E-07         0.14327E-10         0.00000E+00
    0.10169E-07         0.48721E-11         0.00000E+00
    0.10735E-07         0.56073E-11         0.00000E+00
    0.10735E-07         0.16478E-10         0.00000E+00
    0.10735E-07         0.26836E-10         0.00000E+00
    0.10735E-07         0.36686E-10         0.00000E+00
    0.10734E-07         0.46029E-10         0.00000E+00
    0.10734E-07         0.54872E-10         0.00000E+00
    0.10734E-07         0.63217E-10         0.00000E+00
    0.10734E-07         0.71068E-10         0.00000E+00
    0.10733E-07         0.78429E-10         0.00000E+00
    0.10733E-07         0.85304E-10         0.00000E+00
    0.10733E-07         0.91698E-10         0.00000E+00
    0.10732E-07         0.97612E-10         0.00000E+00
    0.10732E-07         0.10305E-09         0.00000E+00
    0.10732E-07         0.10802E-09         0.00000E+00
    0.10731E-07         0.11253E-09         0.00000E+00
    0.10731E-07         0.11657E-09         0.00000E+00
    0.10730E-07         0.12015E-09         0.00000E+00
    0.10730E-07         0.12328E-09         0.00000E+00
    0.10729E-07         0.12595E-09         0.00000E+00
    0.10729E-07         0.12818E-09         0.00000E+00
    0.10729E-07         0.12997E-09         0.00000E+00
    0.10728E-07         0.13131E-09         0.00000E+00
    0.10728E-07         0.13222E-09         0.00000E+00
    0.10727E-07         0.13270E-09         0.00000E+00
    0.10727E-07         0.13275E-09         0.00000E+00
    0.10726E-07         0.13237E-09         0.00000E+00
    0.10726E-07         0.13158E-09         0.00000E+00
    0.10726E-07         0.13036E-09         0.00000E+00
    0.10725E-07         0.12874E-09         0.00000E+00
    0.10725E-07         0.12670E-09         0.00000E+00
    0.10725E-07         0.12425E-09         0.00000E+00
    0.10724E-07         0.12141E-09         0.00000E+00
    0.10724E-07         0.11816E-09         0.00000E+00
    0.10724E-07         0.11451E-09         0.00000E+00
    0.10723E-07         0.11048E-09         0.00000E+00
    0.10723E-07         0.10605E-09         0.00000E+00
    0.10723E-07         0.10124E-09         0.00000E+00
    0.10723E-07         0.96042E-10         0.00000E+00
    0.10722E-07         0.90466E-10         0.00000E+00
    0.10722E-07         0.84514E-10         0.00000E+00
    0.10722E-07         0.78188E-10         0.00000E+00
    0.10722E-07         0.71491E-10         0.00000E+00
    0.10722E-07         0.64427E-10         0.00000E+00
    0.10722E-07         0.56997E-10         0.00000E+00
    0.10721E-07         0.49207E-10         0.00000E+00
    0.10721E-07         0.41057E-10         0.00000E+00
    0.10721E-07         0.32551E-10         0.00000E+00
    0.10721E-07         0.23692E-10         0.00000E+00
    0.10721E-07         0.14481E-10         0.00000E+00
    0.10721E-07         0.49232E-11         0.00000E+00
    0.11315E-07         0.57314E-11         0.00000E+00
    0.11315E-07         0.16837E-10         0.00000E+00
    0.11315E-07         0.27412E-10         0.00000E+00
    0.11314E-07         0.37458E-10         0.00000E+00
    0.11314E-07         0.46982E-10         0.00000E+00
    0.11314E-07         0.55988E-10         0.00000E+00
    0.11314E-07         0.64479E-10         0.00000E+00
    0.11314E-07         0.72462E-10         0.00000E+00
    0.11313E-07         0.79939E-10         0.00000E+00
    0.11313E-07         0.86916E-10         0.00000E+00
    0.11313E-07         0.93398E-10         0.00000E+00
    0.11312E-07         0.99388E-10         0.00000E+00
    0.11312E-07         0.10489E-09         0.00000E+00
    0.11312E-07         0.10991E-09         0.00000E+00
    0.11311E-07         0.11446E-09         0.00000E+00
    0.11311E-07         0.11853E-09         0.00000E+00
    0.11311E-07         0.12213E-09         0.00000E+00
    0.11310E-07         0.12526E-09         0.00000E+00
    0.11310E-07         0.12794E-09         0.00000E+00
    0.11310E-07         0.13016E-09         0.00000E+00
    0.11309E-07         0.13193E-09         0.00000E+00
    0.11309E-07         0.13326E-09         0.00000E+00
    0.11308E-07         0.13414E-09         0.00000E+00
    0.11308E-07         0.13458E-09         0.00000E+00
    0.11308E-07         0.13459E-09         0.00000E+00
    0.11308E-07         0.13416E-09         0.00000E+00
    0.11307E-07         0.13332E-09         0.00000E+00
    0.11307E-07         0.13204E-09         0.00000E+00
    0.11307E-07         0.13036E-09         0.00000E+00
    0.11306E-07         0.12825E-09         0.00000E+00
    0.11306E-07         0.12574E-09         0.00000E+00
    0.11306E-07         0.12282E-09         0.00000E+00
    0.11306E-07         0.11950E-09         0.00000E+00
    0.11305E-07         0.11579E-09         0.00000E+00
    0.11305E-07         0.11167E-09         0.00000E+00
    0.11305E-07         0.10717E-09         0.00000E+00
    0.11305E-07         0.10227E-09         0.00000E+00
    0.11305E-07         0.96999E-10         0.00000E+00
    0.11304E-07         0.91342E-10         0.00000E+00
    0.11304E-07         0.85309E-10         0.00000E+00
    0.11304E-07         0.78902E-10         0.00000E+00
    0.11304E-07         0.72125E-10         0.00000E+00
    0.11304E-07         0.64981E-10         0.00000E+00
    0.11304E-07         0.57473E-10         0.00000E+00
    0.11304E-07         0.49604E-10         0.00000E+00
    0.11304E-07         0.41378E-10         0.00000E+00
    0.11304E-07         0.32797E-10         0.00000E+00
    0.11304E-07         0.23865E-10         0.00000E+00
    0.11304E-07         0.14584E-10         0.00000E+00
    0.11304E-07         0.49567E-11         0.00000E+00
    0.11926E-07         0.58413E-11         0.00000E+00
    0.11926E-07         0.17154E-10         0.00000E+00
    0.11926E-07         0.27917E-10         0.00000E+00
    0.11926E-07         0.38133E-10         0.00000E+00
    0.11926E-07         0.47810E-10         0.00000E+00
    0.11925E-07         0.56952E-10         0.00000E+00
    0.11925E-07         0.65565E-10         0.00000E+00
    0.11925E-07         0.73653E-10         0.00000E+00
    0.11925E-07         0.81222E-10         0.00000E+00
    0.11925E-07         0.88278E-10         0.00000E+00
    0.11924E-07         0.94825E-10         0.00000E+00
    0.11924E-07         0.10087E-09         0.00000E+00
    0.11924E-07         0.10641E-09         0.00000E+00
    0.11924E-07         0.11147E-09         0.00000E+00
    0.11923E-07         0.11603E-09         0.00000E+00
    0.11923E-07         0.12011E-09         0.00000E+00
    0.11923E-07         0.12372E-09         0.00000E+00
    0.11922E-07         0.12685E-09         0.00000E+00
    0.11922E-07         0.12952E-09         0.00000E+00
    0.11922E-07         0.13172E-09         0.00000E+00
    0.11922E-07         0.13346E-09         0.00000E+00
    0.11921E-07         0.13475E-09         0.00000E+00
    0.11921E-07         0.13560E-09         0.00000E+00
    0.11921E-07         0.13600E-09         0.00000E+00
    0.11921E-07         0.13596E-09         0.00000E+00
    0.11920E-07         0.13549E-09         0.00000E+00
    0.11920E-07         0.13458E-09         0.00000E+00
    0.11920E-07         0.13326E-09         0.00000E+00
    0.11920E-07         0.13151E-09         0.00000E+00
    0.11920E-07         0.12935E-09         0.00000E+00
    0.11920E-07         0.12677E-09         0.00000E+00
    0.11919E-07         0.12379E-09         0.00000E+00
    0.11919E-07         0.12041E-09         0.00000E+00
    0.11919E-07         0.11662E-09         0.00000E+00
    0.11919E-07         0.11244E-09         0.00000E+00
    0.11919E-07         0.10788E-09         0.00000E+00
    0.11919E-07         0.10292E-09         0.00000E+00
    0.11919E-07         0.97582E-10         0.00000E+00
    0.11919E-07         0.91864E-10         0.00000E+00
    0.11919E-07         0.85771E-10         0.00000E+00
    0.11919E-07         0.79306E-10         0.00000E+00
    0.11919E-07         0.72474E-10         0.00000E+00
    0.11918E-07         0.65276E-10         0.00000E+00
    0.11918E-07         0.57718E-10         0.00000E+00
    0.11918E-07         0.49802E-10         0.00000E+00
    0.11918E-07         0.41532E-10         0.00000E+00
    0.11918E-07         0.32910E-10         0.00000E+00
    0.11918E-07         0.23941E-10         0.00000E+00
    0.11918E-07         0.14626E-10         0.00000E+00
    0.11918E-07         0.49696E-11         0.00000E+00
    0.12571E-07         0.59336E-11         0.00000E+00
    0.12571E-07         0.17419E-10         0.00000E+00
    0.12571E-07         0.28335E-10         0.00000E+00
    0.12571E-07         0.38688E-10         0.00000E+00
    0.12571E-07         0.48485E-10         0.00000E+00
    0.12570E-07         0.57731E-10         0.00000E+00
    0.12570E-07         0.66434E-10         0.00000E+00
    0.12570E-07         0.74598E-10         0.00000E+00
    0.12570E-07         0.82230E-10         0.00000E+00
    0.12570E-07         0.89336E-10         0.00000E+00
    0.12570E-07         0.95922E-10         0.00000E+00
    0.12569E-07         0.10199E-09         0.00000E+00
    0.12569E-07         0.10756E-09         0.00000E+00
    0.12569E-07         0.11262E-09         0.00000E+00
    0.12569E-07         0.11718E-09         0.00000E+00
    0.12569E-07         0.12126E-09         0.00000E+00
    0.12568E-07         0.12485E-09         0.00000E+00
    0.12568E-07         0.12796E-09         0.00000E+00
    0.12568E-07         0.13059E-09         0.00000E+00
    0.12568E-07         0.13276E-09         0.00000E+00
    0.12568E-07         0.13447E-09         0.00000E+00
    0.12568E-07         0.13572E-09         0.00000E+00
    0.12568E-07         0.13652E-09         0.00000E+00
    0.12567E-07         0.13687E-09         0.00000E+00
    0.12567E-07         0.13678E-09         0.00000E+00
    0.12567E-07         0.13625E-09         0.00000E+00
    0.12567E-07         0.13530E-09         0.00000E+00
    0.12567E-07         0.13391E-09         0.00000E+00
    0.12567E-07         0.13211E-09         0.00000E+00
    0.12567E-07         0.12989E-09         0.00000E+00
    0.12567E-07         0.12726E-09         0.00000E+00
    0.12567E-07         0.12423E-09         0.00000E+00
    0.12567E-07         0.12079E-09         0.00000E+00
    0.12567E-07         0.11695E-09         0.00000E+00
    0.12567E-07         0.11272E-09         0.00000E+00
    0.12567E-07         0.10811E-09         0.00000E+00
    0.12567E-07         0.10311E-09         0.00000E+00
    0.12567E-07         0.97727E-10         0.00000E+00
    0.12567E-07         0.91971E-10         0.00000E+00
    0.12567E-07         0.85843E-10         0.00000E+00
    0.12567E-07         0.79348E-10         0.00000E+00
    0.12567E-07         0.72489E-10         0.00000E+00
    0.12567E-07         0.65270E-10         0.00000E+00
    0.12567E-07         0.57695E-10         0.00000E+00
    0.12567E-07         0.49767E-10         0.00000E+00
    0.12567E-07         0.41490E-10         0.00000E+00
    0.12567E-07         0.32868E-10         0.00000E+00
    0.12567E-07         0.23903E-10         0.00000E+00
    0.12567E-07         0.14599E-10         0.00000E+00
    0.12567E-07         0.49588E-11         0.00000E+00
    0.13251E-07         0.60044E-11         0.00000E+00
    0.13251E-07         0.17619E-10         0.00000E+00
    0.13251E-07         0.28647E-10         0.00000E+00
    0.13251E-07         0.39096E-10         0.00000E+00
    0.13251E-07         0.48974E-10         0.00000E+00
    0.13251E-07         0.58286E-10         0.00000E+00
    0.13250E-07         0.67041E-10         0.00000E+00
    0.13250E-07         0.75245E-10         0.00000E+00
    0.13250E-07         0.82905E-10         0.00000E+00
    0.13250E-07         0.90028E-10         0.00000E+00
    0.13250E-07         0.96621E-10         0.00000E+00
    0.13250E-07         0.10269E-09         0.00000E+00
    0.13250E-07         0.10824E-09         0.00000E+00
    0.13250E-07         0.11329E-09         0.00000E+00
    0.13250E-07         0.11783E-09         0.00000E+00
    0.13250E-07         0.12187E-09         0.00000E+00
    0.13250E-07         0.12542E-09         0.00000E+00
    0.13250E-07         0.12849E-09         0.00000E+00
    0.13250E-07         0.13109E-09         0.00000E+00
    0.13249E-07         0.13321E-09         0.00000E+00
    0.13249E-07         0.13486E-09         0.00000E+00
    0.13249E-07         0.13606E-09         0.00000E+00
    0.13249E-07         0.13680E-09         0.00000E+00
    0.13249E-07         0.13710E-09         0.00000E+00
    0.13250E-07         0.13695E-09         0.00000E+00
    0.13250E-07         0.13637E-09         0.00000E+00
    0.13250E-07         0.13536E-09         0.00000E+00
    0.13250E-07         0.13392E-09         0.00000E+00
    0.13250E-07         0.13207E-09         0.00000E+00
    0.13250E-07         0.12980E-09         0.00000E+00
    0.13250E-07         0.12712E-09         0.00000E+00
    0.13250E-07         0.12404E-09         0.00000E+00
    0.13250E-07         0.12056E-09         0.00000E+00
    0.13250E-07         0.11669E-09         0.00000E+00
    0.13250E-07         0.11243E-09         0.00000E+00
    0.13250E-07         0.10778E-09         0.00000E+00
    0.13251E-07         0.10276E-09         0.00000E+00
    0.13251E-07         0.97365E-10         0.00000E+00
    0.13251E-07         0.91598E-10         0.00000E+00
    0.13251E-07         0.85465E-10         0.00000E+00
    0.13251E-07         0.78971E-10         0.00000E+00
    0.13251E-07         0.72120E-10         0.00000E+00
    0.13251E-07         0.64916E-10         0.00000E+00
    0.13251E-07         0.57363E-10         0.00000E+00
    0.13252E-07         0.49464E-10         0.00000E+00
    0.13252E-07         0.41224E-10         0.00000E+00
    0.13252E-07         0.32646E-10         0.00000E+00
    0.13252E-07         0.23734E-10         0.00000E+00
    0.13252E-07         0.14491E-10         0.00000E+00
    0.13252E-07         0.49205E-11         0.00000E+00
    0.13968E-07         0.60491E-11         0.00000E+00
    0.13968E-07         0.17742E-10         0.00000E+00
    0.13968E-07         0.28832E-10         0.00000E+00
    0.13968E-07         0.39329E-10         0.00000E+00
    0.13968E-07         0.49239E-10         0.00000E+00
    0.13968E-07         0.58572E-10         0.00000E+00
    0.13968E-07         0.67335E-10         0.00000E+00
    0.13968E-07         0.75537E-10         0.00000E+00
    0.13968E-07         0.83184E-10         0.00000E+00
    0.13968E-07         0.90286E-10         0.00000E+00
    0.13968E-07         0.96849E-10         0.00000E+00
    0.13968E-07         0.10288E-09         0.00000E+00
    0.13968E-07         0.10839E-09         0.00000E+00
    0.13968E-07         0.11339E-09         0.00000E+00
    0.13968E-07         0.11787E-09         0.00000E+00
    0.13968E-07         0.12186E-09         0.00000E+00
    0.13968E-07         0.12535E-09         0.00000E+00
    0.13968E-07         0.12836E-09         0.00000E+00
    0.13968E-07         0.13089E-09         0.00000E+00
    0.13968E-07         0.13294E-09         0.00000E+00
    0.13969E-07         0.13453E-09         0.00000E+00
    0.13969E-07         0.13566E-09         0.00000E+00
    0.13969E-07         0.13634E-09         0.00000E+00
    0.13969E-07         0.13657E-09         0.00000E+00
    0.13969E-07         0.13636E-09         0.00000E+00
    0.13970E-07         0.13572E-09         0.00000E+00
    0.13970E-07         0.13466E-09         0.00000E+00
    0.13970E-07         0.13317E-09         0.00000E+00
    0.13970E-07         0.13127E-09         0.00000E+00
    0.13970E-07         0.12896E-09         0.00000E+00
    0.13971E-07         0.12624E-09         0.00000E+00
    0.13971E-07         0.12313E-09         0.00000E+00
    0.13971E-07         0.11963E-09         0.00000E+00
    0.13971E-07         0.11574E-09         0.00000E+00
    0.13972E-07         0.11147E-09         0.00000E+00
    0.13972E-07         0.10682E-09         0.00000E+00
    0.13972E-07         0.10180E-09         0.00000E+00
    0.13973E-07         0.96417E-10         0.00000E+00
    0.13973E-07         0.90671E-10         0.00000E+00
    0.13973E-07         0.84567E-10         0.00000E+00
    0.13973E-07         0.78112E-10         0.00000E+00
    0.13973E-07         0.71308E-10         0.00000E+00
    0.13974E-07         0.64161E-10         0.00000E+00
    0.13974E-07         0.56675E-10         0.00000E+00
    0.13974E-07         0.48853E-10         0.00000E+00
    0.13974E-07         0.40700E-10         0.00000E+00
    0.13974E-07         0.32220E-10         0.00000E+00
    0.13974E-07         0.23416E-10         0.00000E+00
    0.13974E-07         0.14292E-10         0.00000E+00
    0.13974E-07         0.48510E-11         0.00000E+00
    0.14725E-07         0.60627E-11         0.00000E+00
    0.14725E-07         0.17772E-10         0.00000E+00
    0.14725E-07         0.28866E-10         0.00000E+00
    0.14725E-07         0.39352E-10         0.00000E+00
    0.14725E-07         0.49240E-10         0.00000E+00
    0.14725E-07         0.58539E-10         0.00000E+00
    0.14725E-07         0.67259E-10         0.00000E+00
    0.14725E-07         0.75408E-10         0.00000E+00
    0.14725E-07         0.82996E-10         0.00000E+00
    0.14725E-07         0.90032E-10         0.00000E+00
    0.14725E-07         0.96523E-10         0.00000E+00
    0.14725E-07         0.10248E-09         0.00000E+00
    0.14725E-07         0.10791E-09         0.00000E+00
    0.14726E-07         0.11282E-09         0.00000E+00
    0.14726E-07         0.11722E-09         0.00000E+00
    0.14726E-07         0.12112E-09         0.00000E+00
    0.14726E-07         0.12452E-09         0.00000E+00
    0.14726E-07         0.12744E-09         0.00000E+00
    0.14727E-07         0.12988E-09         0.00000E+00
    0.14727E-07         0.13185E-09         0.00000E+00
    0.14727E-07         0.13336E-09         0.00000E+00
    0.14728E-07         0.13441E-09         0.00000E+00
    0.14728E-07         0.13501E-09         0.00000E+00
    0.14728E-07         0.13517E-09         0.00000E+00
    0.14729E-07         0.13490E-09         0.00000E+00
    0.14729E-07         0.13420E-09         0.00000E+00
    0.14730E-07         0.13308E-09         0.00000E+00
    0.14730E-07         0.13155E-09         0.00000E+00
    0.14730E-07         0.12961E-09         0.00000E+00
    0.14731E-07         0.12726E-09         0.00000E+00
    0.14731E-07         0.12453E-09         0.00000E+00
    0.14732E-07         0.12140E-09         0.00000E+00
    0.14732E-07         0.11789E-09         0.00000E+00
    0.14733E-07         0.11400E-09         0.00000E+00
    0.14733E-07         0.10975E-09         0.00000E+00
    0.14733E-07         0.10512E-09         0.00000E+00
    0.14734E-07         0.10014E-09         0.00000E+00
    0.14734E-07         0.94800E-10         0.00000E+00
    0.14735E-07         0.89110E-10         0.00000E+00
    0.14735E-07         0.83076E-10         0.00000E+00
    0.14735E-07         0.76701E-10         0.00000E+00
    0.14736E-07         0.69991E-10         0.00000E+00
    0.14736E-07         0.62950E-10         0.00000E+00
    0.14736E-07         0.55582E-10         0.00000E+00
    0.14737E-07         0.47891E-10         0.00000E+00
    0.14737E-07         0.39883E-10         0.00000E+00
    0.14737E-07         0.31560E-10         0.00000E+00
    0.14737E-07         0.22927E-10         0.00000E+00
    0.14737E-07         0.13988E-10         0.00000E+00
    0.14737E-07         0.47460E-11         0.00000E+00
    0.15523E-07         0.60395E-11         0.00000E+00
    0.15523E-07         0.17694E-10         0.00000E+00
    0.15523E-07         0.28720E-10         0.00000E+00
    0.15523E-07         0.39128E-10         0.00000E+00
    0.15523E-07         0.48928E-10         0.00000E+00
    0.15523E-07         0.58132E-10         0.00000E+00
    0.15523E-07         0.66748E-10         0.00000E+00
    0.15523E-07         0.74788E-10         0.00000E+00
    0.15523E-07         0.82262E-10         0.00000E+00
    0.15524E-07         0.89179E-10         0.00000E+00
    0.15524E-07         0.95549E-10         0.00000E+00
    0.15524E-07         0.10138E-09         0.00000E+00
    0.15524E-07         0.10669E-09         0.00000E+00
    0.15525E-07         0.11147E-09         0.00000E+00
    0.15525E-07         0.11575E-09         0.00000E+00
    0.15525E-07         0.11953E-09         0.00000E+00
    0.15526E-07         0.12281E-09         0.00000E+00
    0.15526E-07         0.12562E-09         0.00000E+00
    0.15527E-07         0.12795E-09         0.00000E+00
    0.15527E-07         0.12981E-09         0.00000E+00
    0.15528E-07         0.13122E-09         0.00000E+00
    0.15528E-07         0.13217E-09         0.00000E+00
    0.15529E-07         0.13269E-09         0.00000E+00
    0.15530E-07         0.13277E-09         0.00000E+00
    0.15530E-07         0.13243E-09         0.00000E+00
    0.15531E-07         0.13167E-09         0.00000E+00
    0.15531E-07         0.13050E-09         0.00000E+00
    0.15532E-07         0.12892E-09         0.00000E+00
    0.15533E-07         0.12695E-09         0.00000E+00
    0.15533E-07         0.12459E-09         0.00000E+00
    0.15534E-07         0.12184E-09         0.00000E+00
    0.15535E-07         0.11872E-09         0.00000E+00
    0.15535E-07         0.11523E-09         0.00000E+00
    0.15536E-07         0.11137E-09         0.00000E+00
    0.15536E-07         0.10715E-09         0.00000E+00
    0.15537E-07         0.10259E-09         0.00000E+00
    0.15538E-07         0.97673E-10         0.00000E+00
    0.15538E-07         0.92419E-10         0.00000E+00
    0.15539E-07         0.86830E-10         0.00000E+00
    0.15539E-07         0.80910E-10         0.00000E+00
    0.15540E-07         0.74665E-10         0.00000E+00
    0.15540E-07         0.68100E-10         0.00000E+00
    0.15541E-07         0.61220E-10         0.00000E+00
    0.15541E-07         0.54029E-10         0.00000E+00
    0.15541E-07         0.46532E-10         0.00000E+00
    0.15542E-07         0.38733E-10         0.00000E+00
    0.15542E-07         0.30637E-10         0.00000E+00
    0.15542E-07         0.22247E-10         0.00000E+00
    0.15542E-07         0.13567E-10         0.00000E+00
    0.15542E-07         0.46008E-11         0.00000E+00
    0.16364E-07         0.59731E-11         0.00000E+00
    0.16364E-07         0.17488E-10         0.00000E+00
    0.16364E-07         0.28365E-10         0.00000E+00
    0.16364E-07         0.38616E-10         0.00000E+00
    0.16364E-07         0.48253E-10         0.00000E+00
    0.16365E-07         0.57288E-10         0.00000E+00
    0.16365E-07         0.65732E-10         0.00000E+00
    0.16365E-07         0.73597E-10         0.00000E+00
    0.16366E-07         0.80893E-10         0.00000E+00
    0.16366E-07         0.87632E-10         0.00000E+00
    0.16366E-07         0.93825E-10         0.00000E+00
    0.16367E-07         0.99482E-10         0.00000E+00
    0.16367E-07         0.10461E-09         0.00000E+00
    0.16368E-07         0.10923E-09         0.00000E+00
    0.16368E-07         0.11334E-09         0.00000E+00
    0.16369E-07         0.11696E-09         0.00000E+00
    0.16370E-07         0.12009E-09         0.00000E+00
    0.16370E-07         0.12275E-09         0.00000E+00
    0.16371E-07         0.12494E-09         0.00000E+00
    0.16372E-07         0.12668E-09         0.00000E+00
    0.16372E-07         0.12796E-09         0.00000E+00
    0.16373E-07         0.12881E-09         0.00000E+00
    0.16374E-07         0.12923E-09         0.00000E+00
    0.16375E-07         0.12922E-09         0.00000E+00
    0.16376E-07         0.12881E-09         0.00000E+00
    0.16376E-07         0.12798E-09         0.00000E+00
    0.16377E-07         0.12676E-09         0.00000E+00
    0.16378E-07         0.12515E-09         0.00000E+00
    0.16379E-07         0.12316E-09         0.00000E+00
    0.16380E-07         0.12079E-09         0.00000E+00
    0.16381E-07         0.11806E-09         0.00000E+00
    0.16382E-07         0.11496E-09         0.00000E+00
    0.16383E-07         0.11151E-09         0.00000E+00
    0.16383E-07         0.10771E-09         0.00000E+00
    0.16384E-07         0.10358E-09         0.00000E+00
    0.16385E-07         0.99102E-10         0.00000E+00
    0.16386E-07         0.94300E-10         0.00000E+00
    0.16387E-07         0.89176E-10         0.00000E+00
    0.16387E-07         0.83735E-10         0.00000E+00
    0.16388E-07         0.77982E-10         0.00000E+00
    0.16389E-07         0.71923E-10         0.00000E+00
    0.16389E-07         0.65562E-10         0.00000E+00
    0.16390E-07         0.58906E-10         0.00000E+00
    0.16390E-07         0.51959E-10         0.00000E+00
    0.16391E-07         0.44725E-10         0.00000E+00
    0.16391E-07         0.37210E-10         0.00000E+00
    0.16391E-07         0.29416E-10         0.00000E+00
    0.16392E-07         0.21349E-10         0.00000E+00
    0.16392E-07         0.13013E-10         0.00000E+00
    0.16392E-07         0.44105E-11         0.00000E+00
    0.17252E-07         0.58565E-11         0.00000E+00
    0.17252E-07         0.17134E-10         0.00000E+00
    0.17252E-07         0.27767E-10         0.00000E+00
    0.17252E-07         0.37771E-10         0.00000E+00
    0.17252E-07         0.47157E-10         0.00000E+00
    0.17253E-07         0.55940E-10         0.00000E+00
    0.17253E-07         0.64132E-10         0.00000E+00
    0.17253E-07         0.71745E-10         0.00000E+00
    0.17254E-07         0.78793E-10         0.00000E+00
    0.17254E-07         0.85287E-10         0.00000E+00
    0.17255E-07         0.91239E-10         0.00000E+00
    0.17256E-07         0.96661E-10         0.00000E+00
    0.17256E-07         0.10156E-09         0.00000E+00
    0.17257E-07         0.10596E-09         0.00000E+00
    0.17258E-07         0.10986E-09         0.00000E+00
    0.17259E-07         0.11328E-09         0.00000E+00
    0.17259E-07         0.11622E-09         0.00000E+00
    0.17260E-07         0.11870E-09         0.00000E+00
    0.17261E-07         0.12072E-09         0.00000E+00
    0.17262E-07         0.12230E-09         0.00000E+00
    0.17263E-07         0.12344E-09         0.00000E+00
    0.17264E-07         0.12417E-09         0.00000E+00
    0.17265E-07         0.12447E-09         0.00000E+00
    0.17267E-07         0.12437E-09         0.00000E+00
    0.17268E-07         0.12388E-09         0.00000E+00
    0.17269E-07         0.12299E-09         0.00000E+00
    0.17270E-07         0.12173E-09         0.00000E+00
    0.17271E-07         0.12009E-09         0.00000E+00
    0.17272E-07         0.11809E-09         0.00000E+00
    0.17273E-07         0.11574E-09         0.00000E+00
    0.17275E-07         0.11303E-09         0.00000E+00
    0.17276E-07         0.10999E-09         0.00000E+00
    0.17277E-07         0.10661E-09         0.00000E+00
    0.17278E-07         0.10291E-09         0.00000E+00
    0.17279E-07         0.98886E-10         0.00000E+00
    0.17280E-07         0.94550E-10         0.00000E+00
    0.17281E-07         0.89907E-10         0.00000E+00
    0.17282E-07         0.84963E-10         0.00000E+00
    0.17283E-07         0.79725E-10         0.00000E+00
    0.17284E-07         0.74198E-10         0.00000E+00
    0.17285E-07         0.68387E-10         0.00000E+00
    0.17285E-07         0.62299E-10         0.00000E+00
    0.17286E-07         0.55938E-10         0.00000E+00
    0.17287E-07         0.49309E-10         0.00000E+00
    0.17287E-07         0.42418E-10         0.00000E+00
    0.17288E-07         0.35268E-10         0.00000E+00
    0.17288E-07         0.27864E-10         0.00000E+00
    0.17288E-07         0.20210E-10         0.00000E+00
    0.17289E-07         0.12311E-10         0.00000E+00
    0.17289E-07         0.41698E-11         0.00000E+00
    0.18188E-07         0.56820E-11         0.00000E+00
    0.18188E-07         0.16608E-10         0.00000E+00
    0.18188E-07         0.26890E-10         0.00000E+00
    0.18188E-07         0.36542E-10         0.00000E+00
    0.18189E-07         0.45578E-10         0.00000E+00
    0.18189E-07         0.54014E-10         0.00000E+00
    0.18189E-07         0.61863E-10         0.00000E+00
    0.18190E-07         0.69140E-10         0.00000E+00
    0.18191E-07         0.75857E-10         0.00000E+00
    0.18191E-07         0.82029E-10         0.00000E+00
    0.18192E-07         0.87669E-10         0.00000E+00
    0.18193E-07         0.92790E-10         0.00000E+00
    0.18194E-07         0.97403E-10         0.00000E+00
    0.18195E-07         0.10152E-09         0.00000E+00
    0.18196E-07         0.10516E-09         0.00000E+00
    0.18197E-07         0.10833E-09         0.00000E+00
    0.18198E-07         0.11103E-09         0.00000E+00
    0.18199E-07         0.11329E-09         0.00000E+00
    0.18201E-07         0.11512E-09         0.00000E+00
    0.18202E-07         0.11651E-09         0.00000E+00
    0.18203E-07         0.11750E-09         0.00000E+00
    0.18205E-07         0.11807E-09         0.00000E+00
    0.18206E-07         0.11826E-09         0.00000E+00
    0.18207E-07         0.11805E-09         0.00000E+00
    0.18209E-07         0.11747E-09         0.00000E+00
    0.18210E-07         0.11653E-09         0.00000E+00
    0.18212E-07         0.11523E-09         0.00000E+00
    0.18213E-07         0.11358E-09         0.00000E+00
    0.18215E-07         0.11159E-09         0.00000E+00
    0.18216E-07         0.10927E-09         0.00000E+00
    0.18218E-07         0.10662E-09         0.00000E+00
    0.18219E-07         0.10366E-09         0.00000E+00
    0.18220E-07         0.10039E-09         0.00000E+00
    0.18222E-07         0.96819E-10         0.00000E+00
    0.18223E-07         0.92955E-10         0.00000E+00
    0.18224E-07         0.88804E-10         0.00000E+00
    0.18226E-07         0.84372E-10         0.00000E+00
    0.18227E-07         0.79667E-10         0.00000E+00
    0.18228E-07         0.74694E-10         0.00000E+00
    0.18229E-07         0.69459E-10         0.00000E+00
    0.18230E-07         0.63968E-10         0.00000E+00
    0.18231E-07         0.58227E-10         0.00000E+00
    0.18232E-07         0.52240E-10         0.00000E+00
    0.18233E-07         0.46014E-10         0.00000E+00
    0.18233E-07         0.39552E-10         0.00000E+00
    0.18234E-07         0.32860E-10         0.00000E+00
    0.18234E-07         0.25942E-10         0.00000E+00
    0.18235E-07         0.18802E-10         0.00000E+00
    0.18235E-07         0.11445E-10         0.00000E+00
    0.18235E-07         0.38733E-11         0.00000E+00
    0.19175E-07         0.54411E-11         0.00000E+00
    0.19175E-07         0.15888E-10         0.00000E+00
    0.19175E-07         0.25693E-10         0.00000E+00
    0.19176E-07         0.34875E-10         0.00000E+00
    0.19176E-07         0.43448E-10         0.00000E+00
    0.19177E-07         0.51429E-10         0.00000E+00
    0.19177E-07         0.58834E-10         0.00000E+00
    0.19178E-07         0.65677E-10         0.00000E+00
    0.19179E-07         0.71973E-10         0.00000E+00
    0.19180E-07         0.77738E-10         0.00000E+00
    0.19181E-07         0.82986E-10         0.00000E+00
    0.19182E-07         0.87730E-10         0.00000E+00
    0.19183E-07         0.91985E-10         0.00000E+00
    0.19184E-07         0.95763E-10         0.00000E+00
    0.19186E-07         0.99079E-10         0.00000E+00
    0.19187E-07         0.10194E-09         0.00000E+00
    0.19188E-07         0.10437E-09         0.00000E+00
    0.19190E-07         0.10637E-09         0.00000E+00
    0.19191E-07         0.10796E-09         0.00000E+00
    0.19193E-07         0.10915E-09         0.00000E+00
    0.19195E-07         0.10994E-09         0.00000E+00
    0.19196E-07         0.11035E-09         0.00000E+00
    0.19198E-07         0.11040E-09         0.00000E+00
    0.19200E-07         0.11009E-09         0.00000E+00
    0.19202E-07         0.10942E-09         0.00000E+00
    0.19203E-07         0.10842E-09         0.00000E+00
    0.19205E-07         0.10709E-09         0.00000E+00
    0.19207E-07         0.10544E-09         0.00000E+00
    0.19209E-07         0.10348E-09         0.00000E+00
    0.19211E-07         0.10121E-09         0.00000E+00
    0.19212E-07         0.98656E-10         0.00000E+00
    0.19214E-07         0.95812E-10         0.00000E+00
    0.19216E-07         0.92690E-10         0.00000E+00
    0.19218E-07         0.89298E-10         0.00000E+00
    0.19219E-07         0.85642E-10         0.00000E+00
    0.19221E-07         0.81731E-10         0.00000E+00
    0.19222E-07         0.77571E-10         0.00000E+00
    0.19224E-07         0.73168E-10         0.00000E+00
    0.19225E-07         0.68530E-10         0.00000E+00
    0.19226E-07         0.63662E-10         0.00000E+00
    0.19228E-07         0.58570E-10         0.00000E+00
    0.19229E-07         0.53259E-10         0.00000E+00
    0.19230E-07         0.47736E-10         0.00000E+00
    0.19231E-07         0.42004E-10         0.00000E+00
    0.19232E-07         0.36070E-10         0.00000E+00
    0.19232E-07         0.29938E-10         0.00000E+00
    0.19233E-07         0.23612E-10         0.00000E+00
    0.19233E-07         0.17097E-10         0.00000E+00
    0.19234E-07         0.10397E-10         0.00000E+00
    0.19234E-07         0.35152E-11         0.00000E+00
    0.20216E-07         0.51249E-11         0.00000E+00
    0.20216E-07         0.14945E-10         0.00000E+00
    0.20216E-07         0.24135E-10         0.00000E+00
    0.20217E-07         0.32712E-10         0.00000E+00
    0.20217E-07         0.40695E-10         0.00000E+00
    0.20218E-07         0.48100E-10         0.00000E+00
    0.20219E-07         0.54945E-10         0.00000E+00
    0.20219E-07         0.61247E-10         0.00000E+00
    0.20221E-07         0.67021E-10         0.00000E+00
    0.20222E-07         0.72283E-10         0.00000E+00
    0.20223E-07         0.77050E-10         0.00000E+00
    0.20224E-07         0.81336E-10         0.00000E+00
    0.20226E-07         0.85156E-10         0.00000E+00
    0.20227E-07         0.88524E-10         0.00000E+00
    0.20229E-07         0.91454E-10         0.00000E+00
    0.20231E-07         0.93961E-10         0.00000E+00
    0.20233E-07         0.96057E-10         0.00000E+00
    0.20234E-07         0.97756E-10         0.00000E+00
    0.20236E-07         0.99070E-10         0.00000E+00
    0.20238E-07         0.10001E-09         0.00000E+00
    0.20240E-07         0.10059E-09         0.00000E+00
    0.20242E-07         0.10083E-09         0.00000E+00
    0.20245E-07         0.10072E-09         0.00000E+00
    0.20247E-07         0.10029E-09         0.00000E+00
    0.20249E-07         0.99540E-10         0.00000E+00
    0.20251E-07         0.98487E-10         0.00000E+00
    0.20253E-07         0.97138E-10         0.00000E+00
    0.20255E-07         0.95503E-10         0.00000E+00
    0.20258E-07         0.93592E-10         0.00000E+00
    0.20260E-07         0.91413E-10         0.00000E+00
    0.20262E-07         0.88975E-10         0.00000E+00
    0.20264E-07         0.86287E-10         0.00000E+00
    0.20266E-07         0.83358E-10         0.00000E+00
    0.20268E-07         0.80194E-10         0.00000E+00
    0.20270E-07         0.76803E-10         0.00000E+00
    0.20272E-07         0.73193E-10         0.00000E+00
    0.20274E-07         0.69371E-10         0.00000E+00
    0.20275E-07         0.65344E-10         0.00000E+00
    0.20277E-07         0.61118E-10         0.00000E+00
    0.20279E-07         0.56698E-10         0.00000E+00
    0.20280E-07         0.52093E-10         0.00000E+00
    0.20281E-07         0.47306E-10         0.00000E+00
    0.20283E-07         0.42343E-10         0.00000E+00
    0.20284E-07         0.37210E-10         0.00000E+00
    0.20285E-07         0.31911E-10         0.00000E+00
    0.20286E-07         0.26451E-10         0.00000E+00
    0.20286E-07         0.20835E-10         0.00000E+00
    0.20287E-07         0.15067E-10         0.00000E+00
    0.20287E-07         0.91505E-11         0.00000E+00
    0.20287E-07         0.30894E-11         0.00000E+00
    0.21313E-07         0.47239E-11         0.00000E+00
    0.21313E-07         0.13753E-10         0.00000E+00
    0.21313E-07         0.22170E-10         0.00000E+00
    0.21314E-07         0.29993E-10         0.00000E+00
    0.21315E-07         0.37243E-10         0.00000E+00
    0.21315E-07         0.43937E-10         0.00000E+00
    0.21316E-07         0.50095E-10         0.00000E+00
    0.21318E-07         0.55735E-10         0.00000E+00
    0.21319E-07         0.60874E-10         0.00000E+00
    0.21320E-07         0.65528E-10         0.00000E+00
    0.21322E-07         0.69716E-10         0.00000E+00
    0.21323E-07         0.73452E-10         0.00000E+00
    0.21325E-07         0.76754E-10         0.00000E+00
    0.21327E-07         0.79636E-10         0.00000E+00
    0.21329E-07         0.82112E-10         0.00000E+00
    0.21331E-07         0.84199E-10         0.00000E+00
    0.21333E-07         0.85910E-10         0.00000E+00
    0.21336E-07         0.87259E-10         0.00000E+00
    0.21338E-07         0.88259E-10         0.00000E+00
    0.21340E-07         0.88923E-10         0.00000E+00
    0.21343E-07         0.89263E-10         0.00000E+00
    0.21345E-07         0.89293E-10         0.00000E+00
    0.21348E-07         0.89024E-10         0.00000E+00
    0.21350E-07         0.88467E-10         0.00000E+00
    0.21353E-07         0.87634E-10         0.00000E+00
    0.21356E-07         0.86535E-10         0.00000E+00
    0.21358E-07         0.85181E-10         0.00000E+00
    0.21361E-07         0.83581E-10         0.00000E+00
    0.21363E-07         0.81746E-10         0.00000E+00
    0.21366E-07         0.79684E-10         0.00000E+00
    0.21369E-07         0.77406E-10         0.00000E+00
    0.21371E-07         0.74919E-10         0.00000E+00
    0.21373E-07         0.72232E-10         0.00000E+00
    0.21376E-07         0.69353E-10         0.00000E+00
    0.21378E-07         0.66290E-10         0.00000E+00
    0.21380E-07         0.63050E-10         0.00000E+00
    0.21383E-07         0.59640E-10         0.00000E+00
    0.21385E-07         0.56067E-10         0.00000E+00
    0.21387E-07         0.52338E-10         0.00000E+00
    0.21388E-07         0.48459E-10         0.00000E+00
    0.21390E-07         0.44436E-10         0.00000E+00
    0.21392E-07         0.40275E-10         0.00000E+00
    0.21393E-07         0.35980E-10         0.00000E+00
    0.21394E-07         0.31558E-10         0.00000E+00
    0.21396E-07         0.27012E-10         0.00000E+00
    0.21397E-07         0.22348E-10         0.00000E+00
    0.21397E-07         0.17570E-10         0.00000E+00
    0.21398E-07         0.12682E-10         0.00000E+00
    0.21398E-07         0.76872E-11         0.00000E+00
    0.21399E-07         0.25901E-11         0.00000E+00
    0.22469E-07         0.42280E-11         0.00000E+00
    0.22469E-07         0.12282E-10         0.00000E+00
    0.22470E-07         0.19750E-10         0.00000E+00
    0.22470E-07         0.26653E-10         0.00000E+00
    0.22471E-07         0.33011E-10         0.00000E+00
    0.22472E-07         0.38846E-10         0.00000E+00
    0.22473E-07         0.44176E-10         0.00000E+00
    0.22475E-07         0.49021E-10         0.00000E+00
    0.22476E-07         0.53400E-10         0.00000E+00
    0.22478E-07         0.57332E-10         0.00000E+00
    0.22480E-07         0.60833E-10         0.00000E+00
    0.22482E-07         0.63921E-10         0.00000E+00
    0.22484E-07         0.66613E-10         0.00000E+00
    0.22486E-07         0.68926E-10         0.00000E+00
    0.22489E-07         0.70874E-10         0.00000E+00
    0.22491E-07         0.72474E-10         0.00000E+00
    0.22494E-07         0.73741E-10         0.00000E+00
    0.22497E-07         0.74688E-10         0.00000E+00
    0.22499E-07         0.75331E-10         0.00000E+00
    0.22502E-07         0.75681E-10         0.00000E+00
    0.22505E-07         0.75754E-10         0.00000E+00
    0.22508E-07         0.75561E-10         0.00000E+00
    0.22511E-07         0.75115E-10         0.00000E+00
    0.22514E-07         0.74427E-10         0.00000E+00
    0.22517E-07         0.73510E-10         0.00000E+00
    0.22520E-07         0.72374E-10         0.00000E+00
    0.22523E-07         0.71030E-10         0.00000E+00
    0.22526E-07         0.69489E-10         0.00000E+00
    0.22529E-07         0.67759E-10         0.00000E+00
    0.22532E-07         0.65852E-10         0.00000E+00
    0.22535E-07         0.63776E-10         0.00000E+00
    0.22538E-07         0.61539E-10         0.00000E+00
    0.22541E-07         0.59151E-10         0.00000E+00
    0.22544E-07         0.56620E-10         0.00000E+00
    0.22547E-07         0.53953E-10         0.00000E+00
    0.22549E-07         0.51158E-10         0.00000E+00
    0.22552E-07         0.48242E-10         0.00000E+00
    0.22554E-07         0.45212E-10         0.00000E+00
    0.22556E-07         0.42074E-10         0.00000E+00
    0.22558E-07         0.38835E-10         0.00000E+00
    0.22560E-07         0.35500E-10         0.00000E+00
    0.22562E-07         0.32075E-10         0.00000E+00
    0.22564E-07         0.28566E-10         0.00000E+00
    0.22565E-07         0.24976E-10         0.00000E+00
    0.22567E-07         0.21312E-10         0.00000E+00
    0.22568E-07         0.17577E-10         0.00000E+00
    0.22569E-07         0.13776E-10         0.00000E+00
    0.22570E-07         0.99123E-11         0.00000E+00
    0.22570E-07         0.59895E-11         0.00000E+00
    0.22570E-07         0.20112E-11         0.00000E+00
    0.23687E-07         0.36267E-11         0.00000E+00
    0.23688E-07         0.10502E-10         0.00000E+00
    0.23688E-07         0.16827E-10         0.00000E+00
    0.23689E-07         0.22625E-10         0.00000E+00
    0.23690E-07         0.27918E-10         0.00000E+00
    0.23691E-07         0.32728E-10         0.00000E+00
    0.23693E-07         0.37076E-10         0.00000E+00
    0.23694E-07         0.40982E-10         0.00000E+00
    0.23696E-07         0.44467E-10         0.00000E+00
    0.23698E-07         0.47549E-10         0.00000E+00
    0.23700E-07         0.50247E-10         0.00000E+00
    0.23703E-07         0.52579E-10         0.00000E+00
    0.23705E-07         0.54564E-10         0.00000E+00
    0.23708E-07         0.56218E-10         0.00000E+00
    0.23711E-07         0.57558E-10         0.00000E+00
    0.23714E-07         0.58600E-10         0.00000E+00
    0.23717E-07         0.59360E-10         0.00000E+00
    0.23720E-07         0.59852E-10         0.00000E+00
    0.23723E-07         0.60091E-10         0.00000E+00
    0.23726E-07         0.60092E-10         0.00000E+00
    0.23730E-07         0.59868E-10         0.00000E+00
    0.23733E-07         0.59431E-10         0.00000E+00
    0.23737E-07         0.58796E-10         0.00000E+00
    0.23740E-07         0.57973E-10         0.00000E+00
    0.23744E-07         0.56975E-10         0.00000E+00
    0.23747E-07         0.55813E-10         0.00000E+00
    0.23751E-07         0.54498E-10         0.00000E+00
    0.23754E-07         0.53041E-10         0.00000E+00
    0.23758E-07         0.51451E-10         0.00000E+00
    0.23761E-07         0.49738E-10         0.00000E+00
    0.23765E-07         0.47912E-10         0.00000E+00
    0.23768E-07         0.45982E-10         0.00000E+00
    0.23772E-07         0.43955E-10         0.00000E+00
    0.23775E-07         0.41840E-10         0.00000E+00
    0.23778E-07         0.39645E-10         0.00000E+00
    0.23781E-07         0.37378E-10         0.00000E+00
    0.23784E-07         0.35045E-10         0.00000E+00
    0.23787E-07         0.32653E-10         0.00000E+00
    0.23789E-07         0.30208E-10         0.00000E+00
    0.23792E-07         0.27716E-10         0.00000E+00
    0.23794E-07         0.25184E-10         0.00000E+00
    0.23796E-07         0.22617E-10         0.00000E+00
    0.23798E-07         0.20019E-10         0.00000E+00
    0.23800E-07         0.17395E-10         0.00000E+00
    0.23801E-07         0.14751E-10         0.00000E+00
    0.23802E-07         0.12089E-10         0.00000E+00
    0.23804E-07         0.94143E-11         0.00000E+00
    0.23804E-07         0.67303E-11         0.00000E+00
    0.23805E-07         0.40401E-11         0.00000E+00
    0.23805E-07         0.13469E-11         0.00000E+00
    0.24970E-07         0.29096E-11         0.00000E+00
    0.24971E-07         0.83818E-11         0.00000E+00
    0.24971E-07         0.13352E-10         0.00000E+00
    0.24972E-07         0.17844E-10         0.00000E+00
    0.24973E-07         0.21882E-10         0.00000E+00
    0.24975E-07         0.25488E-10         0.00000E+00
    0.24976E-07         0.28686E-10         0.00000E+00
    0.24978E-07         0.31495E-10         0.00000E+00
    0.24980E-07         0.33938E-10         0.00000E+00
    0.24983E-07         0.36034E-10         0.00000E+00
    0.24985E-07         0.37804E-10         0.00000E+00
    0.24988E-07         0.39265E-10         0.00000E+00
    0.24991E-07         0.40438E-10         0.00000E+00
    0.24994E-07         0.41338E-10         0.00000E+00
    0.24998E-07         0.41984E-10         0.00000E+00
    0.25001E-07         0.42392E-10         0.00000E+00
    0.25005E-07         0.42579E-10         0.00000E+00
    0.25008E-07         0.42559E-10         0.00000E+00
    0.25012E-07         0.42348E-10         0.00000E+00
    0.25016E-07         0.41961E-10         0.00000E+00
    0.25020E-07         0.41410E-10         0.00000E+00
    0.25024E-07         0.40710E-10         0.00000E+00
    0.25028E-07         0.39873E-10         0.00000E+00
    0.25032E-07         0.38912E-10         0.00000E+00
    0.25036E-07         0.37839E-10         0.00000E+00
    0.25040E-07         0.36665E-10         0.00000E+00
    0.25044E-07         0.35401E-10         0.00000E+00
    0.25048E-07         0.34057E-10         0.00000E+00
    0.25052E-07         0.32645E-10         0.00000E+00
    0.25056E-07         0.31172E-10         0.00000E+00
    0.25060E-07         0.29650E-10         0.00000E+00
    0.25064E-07         0.28085E-10         0.00000E+00
    0.25068E-07         0.26488E-10         0.00000E+00
    0.25071E-07         0.24865E-10         0.00000E+00
    0.25075E-07         0.23225E-10         0.00000E+00
    0.25078E-07         0.21575E-10         0.00000E+00
    0.25082E-07         0.19921E-10         0.00000E+00
    0.25085E-07         0.18270E-10         0.00000E+00
    0.25088E-07         0.16628E-10         0.00000E+00
    0.25091E-07         0.15001E-10         0.00000E+00
    0.25093E-07         0.13395E-10         0.00000E+00
    0.25096E-07         0.11814E-10         0.00000E+00
    0.25098E-07         0.10263E-10         0.00000E+00
    0.25100E-07         0.87469E-11         0.00000E+00
    0.25102E-07         0.72698E-11         0.00000E+00
    0.25103E-07         0.58355E-11         0.00000E+00
    0.25104E-07         0.44474E-11         0.00000E+00
    0.25105E-07         0.31088E-11         0.00000E+00
    0.25106E-07         0.18226E-11         0.00000E+00
    0.25106E-07         0.59163E-12         0.00000E+00
    0.26321E-07         0.20662E-11         0.00000E+00
    0.26321E-07         0.58913E-11         0.00000E+00
    0.26322E-07         0.92750E-11         0.00000E+00
    0.26323E-07         0.12243E-10         0.00000E+00
    0.26324E-07         0.14819E-10         0.00000E+00
    0.26326E-07         0.17029E-10         0.00000E+00
    0.26328E-07         0.18894E-10         0.00000E+00
    0.26330E-07         0.20438E-10         0.00000E+00
    0.26333E-07         0.21682E-10         0.00000E+00
    0.26335E-07         0.22647E-10         0.00000E+00
    0.26338E-07         0.23354E-10         0.00000E+00
    0.26342E-07         0.23822E-10         0.00000E+00
    0.26345E-07         0.24069E-10         0.00000E+00
    0.26349E-07         0.24116E-10         0.00000E+00
    0.26352E-07         0.23978E-10         0.00000E+00
    0.26356E-07         0.23673E-10         0.00000E+00
    0.26360E-07         0.23217E-10         0.00000E+00
    0.26365E-07         0.22627E-10         0.00000E+00
    0.26369E-07         0.21917E-10         0.00000E+00
    0.26373E-07         0.21102E-10         0.00000E+00
    0.26378E-07         0.20195E-10         0.00000E+00
    0.26382E-07         0.19212E-10         0.00000E+00
    0.26387E-07         0.18163E-10         0.00000E+00
    0.26392E-07         0.17063E-10         0.00000E+00
    0.26396E-07         0.15922E-10         0.00000E+00
    0.26401E-07         0.14752E-10         0.00000E+00
    0.26406E-07         0.13564E-10         0.00000E+00
    0.26410E-07         0.12368E-10         0.00000E+00
    0.26415E-07         0.11175E-10         0.00000E+00
    0.26419E-07         0.99930E-11         0.00000E+00
    0.26424E-07         0.88320E-11         0.00000E+00
    0.26428E-07         0.77003E-11         0.00000E+00
    0.26432E-07         0.66061E-11         0.00000E+00
    0.26437E-07         0.55570E-11         0.00000E+00
    0.26441E-07         0.45605E-11         0.00000E+00
    0.26444E-07         0.36233E-11         0.00000E+00
    0.26448E-07         0.27521E-11         0.00000E+00
    0.26452E-07         0.19529E-11         0.00000E+00
    0.26455E-07         0.12316E-11         0.00000E+00
    0.26458E-07         0.59358E-12         0.00000E+00
    0.26461E-07         0.43875E-13         0.00000E+00
    0.26464E-07        -0.41279E-12         0.00000E+00
    0.26466E-07        -0.77204E-12         0.00000E+00
    0.26469E-07        -0.10298E-11         0.00000E+00
    0.26471E-07        -0.11825E-11         0.00000E+00
    0.26472E-07        -0.12265E-11         0.00000E+00
    0.26474E-07        -0.11589E-11         0.00000E+00
    0.26475E-07        -0.97679E-12         0.00000E+00
    0.26475E-07        -0.67773E-12         0.00000E+00
    0.26476E-07        -0.25950E-12         0.00000E+00
    0.27741E-07         0.10861E-11         0.00000E+00
    0.27742E-07         0.30006E-11         0.00000E+00
    0.27743E-07         0.45489E-11         0.00000E+00
    0.27744E-07         0.57575E-11         0.00000E+00
    0.27745E-07         0.66521E-11         0.00000E+00
    0.27747E-07         0.72574E-11         0.00000E+00
    0.27750E-07         0.75973E-11         0.00000E+00
    0.27752E-07         0.76951E-11         0.00000E+00
    0.27755E-07         0.75730E-11         0.00000E+00
    0.27758E-07         0.72525E-11         0.00000E+00
    0.27762E-07         0.67544E-11         0.00000E+00
    0.27765E-07         0.60987E-11         0.00000E+00
    0.27769E-07         0.53046E-11         0.00000E+00
    0.27773E-07         0.43907E-11         0.00000E+00
    0.27778E-07         0.33749E-11         0.00000E+00
    0.27782E-07         0.22742E-11         0.00000E+00
    0.27787E-07         0.11052E-11         0.00000E+00
    0.27791E-07        -0.11639E-12         0.00000E+00
    0.27796E-07        -0.13753E-11         0.00000E+00
    0.27801E-07        -0.26571E-11         0.00000E+00
    0.27806E-07        -0.39477E-11         0.00000E+00
    0.27812E-07        -0.52338E-11         0.00000E+00
    0.27817E-07        -0.65026E-11         0.00000E+00
    0.27822E-07        -0.77420E-11         0.00000E+00
    0.27827E-07        -0.89403E-11         0.00000E+00
    0.27833E-07        -0.10086E-10         0.00000E+00
    0.27838E-07        -0.11170E-10         0.00000E+00
    0.27843E-07        -0.12180E-10         0.00000E+00
    0.27848E-07        -0.13108E-10         0.00000E+00
    0.27853E-07        -0.13944E-10         0.00000E+00
    0.27858E-07        -0.14680E-10         0.00000E+00
    0.27863E-07        -0.15308E-10         0.00000E+00
    0.27868E-07        -0.15820E-10         0.00000E+00
    0.27873E-07        -0.16208E-10         0.00000E+00
    0.27877E-07        -0.16466E-10         0.00000E+00
    0.27882E-07        -0.16587E-10         0.00000E+00
    0.27886E-07        -0.16565E-10         0.00000E+00
    0.27890E-07        -0.16395E-10         0.00000E+00
    0.27894E-07        -0.16072E-10         0.00000E+00
    0.27897E-07        -0.15589E-10         0.00000E+00
    0.27900E-07        -0.14944E-10         0.00000E+00
    0.27903E-07        -0.14131E-10         0.00000E+00
    0.27906E-07        -0.13147E-10         0.00000E+00
    0.27909E-07        -0.11988E-10         0.00000E+00
    0.27911E-07        -0.10652E-10         0.00000E+00
    0.27913E-07        -0.91343E-11         0.00000E+00
    0.27914E-07        -0.74336E-11         0.00000E+00
    0.27915E-07        -0.55474E-11         0.00000E+00
    0.27916E-07        -0.34737E-11         0.00000E+00
    0.27916E-07        -0.12108E-11         0.00000E+00
    0.29235E-07        -0.40296E-13         0.00000E+00
    0.29235E-07        -0.31809E-12         0.00000E+00
    0.29236E-07        -0.87087E-12         0.00000E+00
    0.29238E-07        -0.16714E-11         0.00000E+00
    0.29239E-07        -0.26935E-11         0.00000E+00
    0.29242E-07        -0.39118E-11         0.00000E+00
    0.29244E-07        -0.53019E-11         0.00000E+00
    0.29247E-07        -0.68404E-11         0.00000E+00
    0.29250E-07        -0.85046E-11         0.00000E+00
    0.29254E-07        -0.10273E-10         0.00000E+00
    0.29258E-07        -0.12124E-10         0.00000E+00
    0.29262E-07        -0.14038E-10         0.00000E+00
    0.29266E-07        -0.15996E-10         0.00000E+00
    0.29271E-07        -0.17980E-10         0.00000E+00
    0.29276E-07        -0.19971E-10         0.00000E+00
    0.29281E-07        -0.21952E-10         0.00000E+00
    0.29286E-07        -0.23907E-10         0.00000E+00
    0.29291E-07        -0.25821E-10         0.00000E+00
    0.29297E-07        -0.27679E-10         0.00000E+00
    0.29303E-07        -0.29466E-10         0.00000E+00
    0.29308E-07        -0.31169E-10         0.00000E+00
    0.29314E-07        -0.32774E-10         0.00000E+00
    0.29320E-07        -0.34270E-10         0.00000E+00
    0.29326E-07        -0.35645E-10         0.00000E+00
    0.29332E-07        -0.36888E-10         0.00000E+00
    0.29338E-07        -0.37987E-10         0.00000E+00
    0.29343E-07        -0.38934E-10         0.00000E+00
    0.29349E-07        -0.39717E-10         0.00000E+00
    0.29355E-07        -0.40329E-10         0.00000E+00
    0.29361E-07        -0.40761E-10         0.00000E+00
    0.29366E-07        -0.41004E-10         0.00000E+00
    0.29372E-07        -0.41051E-10         0.00000E+00
    0.29377E-07        -0.40896E-10         0.00000E+00
    0.29382E-07        -0.40530E-10         0.00000E+00
    0.29388E-07        -0.39949E-10         0.00000E+00
    0.29392E-07        -0.39146E-10         0.00000E+00
    0.29397E-07        -0.38116E-10         0.00000E+00
    0.29401E-07        -0.36853E-10         0.00000E+00
    0.29406E-07        -0.35354E-10         0.00000E+00
    0.29410E-07        -0.33614E-10         0.00000E+00
    0.29413E-07        -0.31629E-10         0.00000E+00
    0.29417E-07        -0.29395E-10         0.00000E+00
    0.29420E-07        -0.26910E-10         0.00000E+00
    0.29422E-07        -0.24170E-10         0.00000E+00
    0.29425E-07        -0.21173E-10         0.00000E+00
    0.29427E-07        -0.17917E-10         0.00000E+00
    0.29428E-07        -0.14400E-10         0.00000E+00
    0.29430E-07        -0.10619E-10         0.00000E+00
    0.29431E-07        -0.65750E-11         0.00000E+00
    0.29431E-07        -0.22655E-11         0.00000E+00
    0.30804E-07        -0.13216E-11         0.00000E+00
    0.30804E-07        -0.40897E-11         0.00000E+00
    0.30805E-07        -0.70239E-11         0.00000E+00
    0.30807E-07        -0.10097E-10         0.00000E+00
    0.30809E-07        -0.13282E-10         0.00000E+00
    0.30811E-07        -0.16554E-10         0.00000E+00
    0.30814E-07        -0.19888E-10         0.00000E+00
    0.30817E-07        -0.23261E-10         0.00000E+00
    0.30821E-07        -0.26650E-10         0.00000E+00
    0.30825E-07        -0.30034E-10         0.00000E+00
    0.30829E-07        -0.33392E-10         0.00000E+00
    0.30834E-07        -0.36704E-10         0.00000E+00
    0.30839E-07        -0.39952E-10         0.00000E+00
    0.30844E-07        -0.43116E-10         0.00000E+00
    0.30850E-07        -0.46181E-10         0.00000E+00
    0.30855E-07        -0.49128E-10         0.00000E+00
    0.30861E-07        -0.51943E-10         0.00000E+00
    0.30867E-07        -0.54610E-10         0.00000E+00
    0.30873E-07        -0.57116E-10         0.00000E+00
    0.30879E-07        -0.59446E-10         0.00000E+00
    0.30886E-07        -0.61587E-10         0.00000E+00
    0.30892E-07        -0.63527E-10         0.00000E+00
    0.30899E-07        -0.65255E-10         0.00000E+00
    0.30905E-07        -0.66760E-10         0.00000E+00
    0.30912E-07        -0.68030E-10         0.00000E+00
    0.30918E-07        -0.69057E-10         0.00000E+00
    0.30925E-07        -0.69831E-10         0.00000E+00
    0.30931E-07        -0.70342E-10         0.00000E+00
    0.30938E-07        -0.70583E-10         0.00000E+00
    0.30944E-07        -0.70547E-10         0.00000E+00
    0.30950E-07        -0.70225E-10         0.00000E+00
    0.30956E-07        -0.69611E-10         0.00000E+00
    0.30962E-07        -0.68700E-10         0.00000E+00
    0.30968E-07        -0.67484E-10         0.00000E+00
    0.30974E-07        -0.65958E-10         0.00000E+00
    0.30979E-07        -0.64118E-10         0.00000E+00
    0.30984E-07        -0.61959E-10         0.00000E+00
    0.30989E-07        -0.59476E-10         0.00000E+00
    0.30993E-07        -0.56667E-10         0.00000E+00
    0.30998E-07        -0.53526E-10         0.00000E+00
    0.31002E-07        -0.50053E-10         0.00000E+00
    0.31006E-07        -0.46242E-10         0.00000E+00
    0.31009E-07        -0.42093E-10         0.00000E+00
    0.31012E-07        -0.37603E-10         0.00000E+00
    0.31014E-07        -0.32770E-10         0.00000E+00
    0.31017E-07        -0.27594E-10         0.00000E+00
    0.31019E-07        -0.22071E-10         0.00000E+00
    0.31020E-07        -0.16203E-10         0.00000E+00
    0.31021E-07        -0.99879E-11         0.00000E+00
    0.31021E-07        -0.34257E-11         0.00000E+00
    0.32450E-07        -0.27651E-11         0.00000E+00
    0.32450E-07        -0.83349E-11         0.00000E+00
    0.32452E-07        -0.13943E-10         0.00000E+00
    0.32453E-07        -0.19562E-10         0.00000E+00
    0.32456E-07        -0.25166E-10         0.00000E+00
    0.32458E-07        -0.30729E-10         0.00000E+00
    0.32461E-07        -0.36228E-10         0.00000E+00
    0.32465E-07        -0.41640E-10         0.00000E+00
    0.32469E-07        -0.46942E-10         0.00000E+00
    0.32474E-07        -0.52114E-10         0.00000E+00
    0.32478E-07        -0.57135E-10         0.00000E+00
    0.32484E-07        -0.61986E-10         0.00000E+00
    0.32489E-07        -0.66650E-10         0.00000E+00
    0.32495E-07        -0.71108E-10         0.00000E+00
    0.32501E-07        -0.75345E-10         0.00000E+00
    0.32507E-07        -0.79344E-10         0.00000E+00
    0.32514E-07        -0.83091E-10         0.00000E+00
    0.32520E-07        -0.86571E-10         0.00000E+00
    0.32527E-07        -0.89772E-10         0.00000E+00
    0.32534E-07        -0.92680E-10         0.00000E+00
    0.32541E-07        -0.95283E-10         0.00000E+00
    0.32548E-07        -0.97571E-10         0.00000E+00
    0.32555E-07        -0.99532E-10         0.00000E+00
    0.32562E-07        -0.10116E-09         0.00000E+00
    0.32570E-07        -0.10244E-09         0.00000E+00
    0.32577E-07        -0.10336E-09         0.00000E+00
    0.32584E-07        -0.10392E-09         0.00000E+00
    0.32591E-07        -0.10411E-09         0.00000E+00
    0.32598E-07        -0.10393E-09         0.00000E+00
    0.32605E-07        -0.10335E-09         0.00000E+00
    0.32612E-07        -0.10239E-09         0.00000E+00
    0.32618E-07        -0.10103E-09         0.00000E+00
    0.32625E-07        -0.99271E-10         0.00000E+00
    0.32631E-07        -0.97104E-10         0.00000E+00
    0.32637E-07        -0.94526E-10         0.00000E+00
    0.32643E-07        -0.91533E-10         0.00000E+00
    0.32649E-07        -0.88121E-10         0.00000E+00
    0.32654E-07        -0.84288E-10         0.00000E+00
    0.32659E-07        -0.80030E-10         0.00000E+00
    0.32664E-07        -0.75345E-10         0.00000E+00
    0.32668E-07        -0.70230E-10         0.00000E+00
    0.32672E-07        -0.64685E-10         0.00000E+00
    0.32676E-07        -0.58708E-10         0.00000E+00
    0.32679E-07        -0.52296E-10         0.00000E+00
    0.32682E-07        -0.45450E-10         0.00000E+00
    0.32684E-07        -0.38169E-10         0.00000E+00
    0.32686E-07        -0.30453E-10         0.00000E+00
    0.32688E-07        -0.22301E-10         0.00000E+00
    0.32689E-07        -0.13714E-10         0.00000E+00
    0.32689E-07        -0.46919E-11         0.00000E+00
    0.34175E-07        -0.43762E-11         0.00000E+00
    0.34176E-07        -0.13069E-10         0.00000E+00
    0.34177E-07        -0.21652E-10         0.00000E+00
    0.34179E-07        -0.30098E-10         0.00000E+00
    0.34182E-07        -0.38382E-10         0.00000E+00
    0.34185E-07        -0.46480E-10         0.00000E+00
    0.34188E-07        -0.54368E-10         0.00000E+00
    0.34192E-07        -0.62025E-10         0.00000E+00
    0.34197E-07        -0.69430E-10         0.00000E+00
    0.34202E-07        -0.76562E-10         0.00000E+00
    0.34207E-07        -0.83403E-10         0.00000E+00
    0.34213E-07        -0.89935E-10         0.00000E+00
    0.34219E-07        -0.96141E-10         0.00000E+00
    0.34225E-07        -0.10200E-09         0.00000E+00
    0.34232E-07        -0.10751E-09         0.00000E+00
    0.34238E-07        -0.11264E-09         0.00000E+00
    0.34246E-07        -0.11739E-09         0.00000E+00
    0.34253E-07        -0.12174E-09         0.00000E+00
    0.34260E-07        -0.12568E-09         0.00000E+00
    0.34268E-07        -0.12920E-09         0.00000E+00
    0.34276E-07        -0.13229E-09         0.00000E+00
    0.34283E-07        -0.13493E-09         0.00000E+00
    0.34291E-07        -0.13713E-09         0.00000E+00
    0.34299E-07        -0.13886E-09         0.00000E+00
    0.34307E-07        -0.14012E-09         0.00000E+00
    0.34315E-07        -0.14091E-09         0.00000E+00
    0.34322E-07        -0.14122E-09         0.00000E+00
    0.34330E-07        -0.14104E-09         0.00000E+00
    0.34338E-07        -0.14036E-09         0.00000E+00
    0.34345E-07        -0.13918E-09         0.00000E+00
    0.34353E-07        -0.13750E-09         0.00000E+00
    0.34360E-07        -0.13531E-09         0.00000E+00
    0.34367E-07        -0.13260E-09         0.00000E+00
    0.34374E-07        -0.12938E-09         0.00000E+00
    0.34380E-07        -0.12564E-09         0.00000E+00
    0.34387E-07        -0.12138E-09         0.00000E+00
    0.34393E-07        -0.11659E-09         0.00000E+00
    0.34399E-07        -0.11127E-09         0.00000E+00
    0.34404E-07        -0.10543E-09         0.00000E+00
    0.34409E-07        -0.99054E-10         0.00000E+00
    0.34414E-07        -0.92148E-10         0.00000E+00
    0.34418E-07        -0.84710E-10         0.00000E+00
    0.34422E-07        -0.76739E-10         0.00000E+00
    0.34426E-07        -0.68236E-10         0.00000E+00
    0.34429E-07        -0.59201E-10         0.00000E+00
    0.34432E-07        -0.49634E-10         0.00000E+00
    0.34434E-07        -0.39536E-10         0.00000E+00
    0.34435E-07        -0.28907E-10         0.00000E+00
    0.34436E-07        -0.17749E-10         0.00000E+00
    0.34437E-07        -0.60624E-11         0.00000E+00
    0.35982E-07        -0.61579E-11         0.00000E+00
    0.35982E-07        -0.18300E-10         0.00000E+00
    0.35984E-07        -0.30162E-10         0.00000E+00
    0.35986E-07        -0.41719E-10         0.00000E+00
    0.35989E-07        -0.52947E-10         0.00000E+00
    0.35992E-07        -0.63822E-10         0.00000E+00
    0.35996E-07        -0.74325E-10         0.00000E+00
    0.36000E-07        -0.84433E-10         0.00000E+00
    0.36005E-07        -0.94128E-10         0.00000E+00
    0.36011E-07        -0.10339E-09         0.00000E+00
    0.36016E-07        -0.11221E-09         0.00000E+00
    0.36023E-07        -0.12056E-09         0.00000E+00
    0.36029E-07        -0.12843E-09         0.00000E+00
    0.36036E-07        -0.13581E-09         0.00000E+00
    0.36043E-07        -0.14267E-09         0.00000E+00
    0.36051E-07        -0.14902E-09         0.00000E+00
    0.36058E-07        -0.15484E-09         0.00000E+00
    0.36066E-07        -0.16011E-09         0.00000E+00
    0.36074E-07        -0.16483E-09         0.00000E+00
    0.36083E-07        -0.16899E-09         0.00000E+00
    0.36091E-07        -0.17257E-09         0.00000E+00
    0.36099E-07        -0.17558E-09         0.00000E+00
    0.36108E-07        -0.17800E-09         0.00000E+00
    0.36116E-07        -0.17982E-09         0.00000E+00
    0.36125E-07        -0.18104E-09         0.00000E+00
    0.36133E-07        -0.18166E-09         0.00000E+00
    0.36142E-07        -0.18167E-09         0.00000E+00
    0.36150E-07        -0.18106E-09         0.00000E+00
    0.36158E-07        -0.17983E-09         0.00000E+00
    0.36166E-07        -0.17797E-09         0.00000E+00
    0.36174E-07        -0.17549E-09         0.00000E+00
    0.36182E-07        -0.17238E-09         0.00000E+00
    0.36190E-07        -0.16864E-09         0.00000E+00
    0.36197E-07        -0.16426E-09         0.00000E+00
    0.36204E-07        -0.15925E-09         0.00000E+00
    0.36211E-07        -0.15360E-09         0.00000E+00
    0.36218E-07        -0.14731E-09         0.00000E+00
    0.36224E-07        -0.14038E-09         0.00000E+00
    0.36230E-07        -0.13281E-09         0.00000E+00
    0.36235E-07        -0.12460E-09         0.00000E+00
    0.36240E-07        -0.11575E-09         0.00000E+00
    0.36245E-07        -0.10627E-09         0.00000E+00
    0.36249E-07        -0.96144E-10         0.00000E+00
    0.36253E-07        -0.85384E-10         0.00000E+00
    0.36256E-07        -0.73988E-10         0.00000E+00
    0.36259E-07        -0.61958E-10         0.00000E+00
    0.36261E-07        -0.49296E-10         0.00000E+00
    0.36263E-07        -0.36003E-10         0.00000E+00
    0.36264E-07        -0.22081E-10         0.00000E+00
    0.36265E-07        -0.75338E-11         0.00000E+00
    0.37870E-07        -0.81100E-11         0.00000E+00
    0.37871E-07        -0.24027E-10         0.00000E+00
    0.37872E-07        -0.39471E-10         0.00000E+00
    0.37875E-07        -0.54419E-10         0.00000E+00
    0.37878E-07        -0.68850E-10         0.00000E+00
    0.37881E-07        -0.82743E-10         0.00000E+00
    0.37885E-07        -0.96079E-10         0.00000E+00
    0.37890E-07        -0.10884E-09         0.00000E+00
    0.37896E-07        -0.12101E-09         0.00000E+00
    0.37901E-07        -0.13257E-09         0.00000E+00
    0.37908E-07        -0.14351E-09         0.00000E+00
    0.37914E-07        -0.15381E-09         0.00000E+00
    0.37921E-07        -0.16346E-09         0.00000E+00
    0.37929E-07        -0.17245E-09         0.00000E+00
    0.37937E-07        -0.18077E-09         0.00000E+00
    0.37945E-07        -0.18840E-09         0.00000E+00
    0.37953E-07        -0.19534E-09         0.00000E+00
    0.37961E-07        -0.20159E-09         0.00000E+00
    0.37970E-07        -0.20712E-09         0.00000E+00
    0.37979E-07        -0.21194E-09         0.00000E+00
    0.37988E-07        -0.21603E-09         0.00000E+00
    0.37997E-07        -0.21940E-09         0.00000E+00
    0.38006E-07        -0.22203E-09         0.00000E+00
    0.38015E-07        -0.22393E-09         0.00000E+00
    0.38024E-07        -0.22508E-09         0.00000E+00
    0.38033E-07        -0.22549E-09         0.00000E+00
    0.38042E-07        -0.22515E-09         0.00000E+00
    0.38051E-07        -0.22405E-09         0.00000E+00
    0.38060E-07        -0.22220E-09         0.00000E+00
    0.38069E-07        -0.21960E-09         0.00000E+00
    0.38077E-07        -0.21624E-09         0.00000E+00
    0.38086E-07        -0.21212E-09         0.00000E+00
    0.38094E-07        -0.20724E-09         0.00000E+00
    0.38102E-07        -0.20161E-09         0.00000E+00
    0.38109E-07        -0.19521E-09         0.00000E+00
    0.38116E-07        -0.18806E-09         0.00000E+00
    0.38123E-07        -0.18015E-09         0.00000E+00
    0.38130E-07        -0.17148E-09         0.00000E+00
    0.38136E-07        -0.16206E-09         0.00000E+00
    0.38142E-07        -0.15188E-09         0.00000E+00
    0.38147E-07        -0.14095E-09         0.00000E+00
    0.38152E-07        -0.12927E-09         0.00000E+00
    0.38157E-07        -0.11684E-09         0.00000E+00
    0.38161E-07        -0.10367E-09         0.00000E+00
    0.38164E-07        -0.89750E-10         0.00000E+00
    0.38167E-07        -0.75090E-10         0.00000E+00
    0.38170E-07        -0.59692E-10         0.00000E+00
    0.38172E-07        -0.43559E-10         0.00000E+00
    0.38173E-07        -0.26694E-10         0.00000E+00
    0.38174E-07        -0.90995E-11         0.00000E+00
    0.39841E-07        -0.10229E-10         0.00000E+00
    0.39841E-07        -0.30238E-10         0.00000E+00
    0.39843E-07        -0.49558E-10         0.00000E+00
    0.39846E-07        -0.68170E-10         0.00000E+00
    0.39849E-07        -0.86054E-10         0.00000E+00
    0.39853E-07        -0.10319E-09         0.00000E+00
    0.39857E-07        -0.11957E-09         0.00000E+00
    0.39862E-07        -0.13518E-09         0.00000E+00
    0.39868E-07        -0.14999E-09         0.00000E+00
    0.39874E-07        -0.16400E-09         0.00000E+00
    0.39881E-07        -0.17720E-09         0.00000E+00
    0.39888E-07        -0.18957E-09         0.00000E+00
    0.39896E-07        -0.20111E-09         0.00000E+00
    0.39904E-07        -0.21181E-09         0.00000E+00
    0.39912E-07        -0.22165E-09         0.00000E+00
    0.39921E-07        -0.23063E-09         0.00000E+00
    0.39930E-07        -0.23876E-09         0.00000E+00
    0.39939E-07        -0.24600E-09         0.00000E+00
    0.39948E-07        -0.25238E-09         0.00000E+00
    0.39957E-07        -0.25787E-09         0.00000E+00
    0.39967E-07        -0.26248E-09         0.00000E+00
    0.39976E-07        -0.26621E-09         0.00000E+00
    0.39986E-07        -0.26904E-09         0.00000E+00
    0.39996E-07        -0.27098E-09         0.00000E+00
    0.40006E-07        -0.27203E-09         0.00000E+00
    0.40015E-07        -0.27218E-09         0.00000E+00
    0.40025E-07        -0.27144E-09         0.00000E+00
    0.40034E-07        -0.26981E-09         0.00000E+00
    0.40044E-07        -0.26728E-09         0.00000E+00
    0.40053E-07        -0.26385E-09         0.00000E+00
    0.40062E-07        -0.25953E-09         0.00000E+00
    0.40071E-07        -0.25432E-09         0.00000E+00
    0.40079E-07        -0.24822E-09         0.00000E+00
    0.40087E-07        -0.24123E-09         0.00000E+00
    0.40095E-07        -0.23335E-09         0.00000E+00
    0.40103E-07        -0.22459E-09         0.00000E+00
    0.40110E-07        -0.21494E-09         0.00000E+00
    0.40117E-07        -0.20442E-09         0.00000E+00
    0.40124E-07        -0.19302E-09         0.00000E+00
    0.40130E-07        -0.18075E-09         0.00000E+00
    0.40136E-07        -0.16760E-09         0.00000E+00
    0.40141E-07        -0.15359E-09         0.00000E+00
    0.40146E-07        -0.13872E-09         0.00000E+00
    0.40150E-07        -0.12298E-09         0.00000E+00
    0.40154E-07        -0.10639E-09         0.00000E+00
    0.40157E-07        -0.88952E-10         0.00000E+00
    0.40159E-07        -0.70663E-10         0.00000E+00
    0.40161E-07        -0.51530E-10         0.00000E+00
    0.40162E-07        -0.31558E-10         0.00000E+00
    0.40163E-07        -0.10750E-10         0.00000E+00
    0.41894E-07        -0.12506E-10         0.00000E+00
    0.41895E-07        -0.36909E-10         0.00000E+00
    0.41896E-07        -0.60383E-10         0.00000E+00
    0.41899E-07        -0.82912E-10         0.00000E+00
    0.41902E-07        -0.10448E-09         0.00000E+00
    0.41907E-07        -0.12508E-09         0.00000E+00
    0.41911E-07        -0.14470E-09         0.00000E+00
    0.41917E-07        -0.16332E-09         0.00000E+00
    0.41923E-07        -0.18093E-09         0.00000E+00
    0.41930E-07        -0.19753E-09         0.00000E+00
    0.41937E-07        -0.21311E-09         0.00000E+00
    0.41944E-07        -0.22766E-09         0.00000E+00
    0.41952E-07        -0.24118E-09         0.00000E+00
    0.41961E-07        -0.25366E-09         0.00000E+00
    0.41970E-07        -0.26509E-09         0.00000E+00
    0.41979E-07        -0.27548E-09         0.00000E+00
    0.41988E-07        -0.28482E-09         0.00000E+00
    0.41998E-07        -0.29310E-09         0.00000E+00
    0.42007E-07        -0.30033E-09         0.00000E+00
    0.42017E-07        -0.30651E-09         0.00000E+00
    0.42027E-07        -0.31163E-09         0.00000E+00
    0.42037E-07        -0.31570E-09         0.00000E+00
    0.42048E-07        -0.31871E-09         0.00000E+00
    0.42058E-07        -0.32067E-09         0.00000E+00
    0.42068E-07        -0.32158E-09         0.00000E+00
    0.42078E-07        -0.32144E-09         0.00000E+00
    0.42088E-07        -0.32025E-09         0.00000E+00
    0.42098E-07        -0.31801E-09         0.00000E+00
    0.42108E-07        -0.31474E-09         0.00000E+00
    0.42117E-07        -0.31042E-09         0.00000E+00
    0.42127E-07        -0.30507E-09         0.00000E+00
    0.42136E-07        -0.29868E-09         0.00000E+00
    0.42145E-07        -0.29127E-09         0.00000E+00
    0.42154E-07        -0.28284E-09         0.00000E+00
    0.42162E-07        -0.27338E-09         0.00000E+00
    0.42170E-07        -0.26291E-09         0.00000E+00
    0.42178E-07        -0.25143E-09         0.00000E+00
    0.42185E-07        -0.23895E-09         0.00000E+00
    0.42192E-07        -0.22546E-09         0.00000E+00
    0.42198E-07        -0.21098E-09         0.00000E+00
    0.42204E-07        -0.19550E-09         0.00000E+00
    0.42210E-07        -0.17904E-09         0.00000E+00
    0.42214E-07        -0.16160E-09         0.00000E+00
    0.42219E-07        -0.14318E-09         0.00000E+00
    0.42223E-07        -0.12379E-09         0.00000E+00
    0.42226E-07        -0.10344E-09         0.00000E+00
    0.42229E-07        -0.82123E-10         0.00000E+00
    0.42231E-07        -0.59854E-10         0.00000E+00
    0.42232E-07        -0.36636E-10         0.00000E+00
    0.42233E-07        -0.12473E-10         0.00000E+00
    0.44028E-07        -0.14930E-10         0.00000E+00
    0.44029E-07        -0.44000E-10         0.00000E+00
    0.44031E-07        -0.71879E-10         0.00000E+00
    0.44034E-07        -0.98556E-10         0.00000E+00
    0.44037E-07        -0.12402E-09         0.00000E+00
    0.44042E-07        -0.14827E-09         0.00000E+00
    0.44047E-07        -0.17129E-09         0.00000E+00
    0.44052E-07        -0.19307E-09         0.00000E+00
    0.44059E-07        -0.21362E-09         0.00000E+00
    0.44066E-07        -0.23293E-09         0.00000E+00
    0.44073E-07        -0.25099E-09         0.00000E+00
    0.44081E-07        -0.26781E-09         0.00000E+00
    0.44090E-07        -0.28338E-09         0.00000E+00
    0.44099E-07        -0.29770E-09         0.00000E+00
    0.44108E-07        -0.31077E-09         0.00000E+00
    0.44117E-07        -0.32260E-09         0.00000E+00
    0.44127E-07        -0.33318E-09         0.00000E+00
    0.44137E-07        -0.34251E-09         0.00000E+00
    0.44147E-07        -0.35061E-09         0.00000E+00
    0.44158E-07        -0.35746E-09         0.00000E+00
    0.44168E-07        -0.36309E-09         0.00000E+00
    0.44179E-07        -0.36748E-09         0.00000E+00
    0.44189E-07        -0.37064E-09         0.00000E+00
    0.44200E-07        -0.37259E-09         0.00000E+00
    0.44210E-07        -0.37331E-09         0.00000E+00
    0.44221E-07        -0.37283E-09         0.00000E+00
    0.44231E-07        -0.37114E-09         0.00000E+00
    0.44241E-07        -0.36825E-09         0.00000E+00
    0.44252E-07        -0.36417E-09         0.00000E+00
    0.44262E-07        -0.35889E-09         0.00000E+00
    0.44271E-07        -0.35244E-09         0.00000E+00
    0.44281E-07        -0.34481E-09         0.00000E+00
    0.44290E-07        -0.33602E-09         0.00000E+00
    0.44299E-07        -0.32606E-09         0.00000E+00
    0.44308E-07        -0.31494E-09         0.00000E+00
    0.44316E-07        -0.30268E-09         0.00000E+00
    0.44324E-07        -0.28928E-09         0.00000E+00
    0.44331E-07        -0.27474E-09         0.00000E+00
    0.44338E-07        -0.25908E-09         0.00000E+00
    0.44345E-07        -0.24229E-09         0.00000E+00
    0.44351E-07        -0.22439E-09         0.00000E+00
    0.44357E-07        -0.20538E-09         0.00000E+00
    0.44362E-07        -0.18527E-09         0.00000E+00
    0.44366E-07        -0.16407E-09         0.00000E+00
    0.44370E-07        -0.14178E-09         0.00000E+00
    0.44373E-07        -0.11841E-09         0.00000E+00
    0.44376E-07        -0.93964E-10         0.00000E+00
    0.44378E-07        -0.68452E-10         0.00000E+00
    0.44380E-07        -0.41879E-10         0.00000E+00
    0.44380E-07        -0.14251E-10         0.00000E+00
    0.46242E-07        -0.17479E-10         0.00000E+00
    0.46243E-07        -0.51455E-10         0.00000E+00
    0.46245E-07        -0.83954E-10         0.00000E+00
    0.46248E-07        -0.11497E-09         0.00000E+00
    0.46251E-07        -0.14450E-09         0.00000E+00
    0.46256E-07        -0.17255E-09         0.00000E+00
    0.46261E-07        -0.19911E-09         0.00000E+00
    0.46267E-07        -0.22418E-09         0.00000E+00
    0.46274E-07        -0.24777E-09         0.00000E+00
    0.46281E-07        -0.26987E-09         0.00000E+00
    0.46289E-07        -0.29049E-09         0.00000E+00
    0.46297E-07        -0.30964E-09         0.00000E+00
    0.46306E-07        -0.32731E-09         0.00000E+00
    0.46315E-07        -0.34351E-09         0.00000E+00
    0.46325E-07        -0.35825E-09         0.00000E+00
    0.46334E-07        -0.37153E-09         0.00000E+00
    0.46345E-07        -0.38336E-09         0.00000E+00
    0.46355E-07        -0.39374E-09         0.00000E+00
    0.46365E-07        -0.40270E-09         0.00000E+00
    0.46376E-07        -0.41022E-09         0.00000E+00
    0.46387E-07        -0.41632E-09         0.00000E+00
    0.46398E-07        -0.42101E-09         0.00000E+00
    0.46408E-07        -0.42429E-09         0.00000E+00
    0.46419E-07        -0.42618E-09         0.00000E+00
    0.46430E-07        -0.42669E-09         0.00000E+00
    0.46441E-07        -0.42582E-09         0.00000E+00
    0.46452E-07        -0.42358E-09         0.00000E+00
    0.46462E-07        -0.41998E-09         0.00000E+00
    0.46472E-07        -0.41503E-09         0.00000E+00
    0.46483E-07        -0.40875E-09         0.00000E+00
    0.46493E-07        -0.40113E-09         0.00000E+00
    0.46502E-07        -0.39220E-09         0.00000E+00
    0.46512E-07        -0.38195E-09         0.00000E+00
    0.46521E-07        -0.37041E-09         0.00000E+00
    0.46530E-07        -0.35757E-09         0.00000E+00
    0.46538E-07        -0.34345E-09         0.00000E+00
    0.46546E-07        -0.32805E-09         0.00000E+00
    0.46554E-07        -0.31140E-09         0.00000E+00
    0.46561E-07        -0.29348E-09         0.00000E+00
    0.46568E-07        -0.27433E-09         0.00000E+00
    0.46574E-07        -0.25393E-09         0.00000E+00
    0.46579E-07        -0.23231E-09         0.00000E+00
    0.46585E-07        -0.20946E-09         0.00000E+00
    0.46589E-07        -0.18541E-09         0.00000E+00
    0.46593E-07        -0.16015E-09         0.00000E+00
    0.46597E-07        -0.13369E-09         0.00000E+00
    0.46599E-07        -0.10605E-09         0.00000E+00
    0.46601E-07        -0.77223E-10         0.00000E+00
    0.46603E-07        -0.47227E-10         0.00000E+00
    0.46604E-07        -0.16064E-10         0.00000E+00
    0.48532E-07        -0.20130E-10         0.00000E+00
    0.48533E-07        -0.59199E-10         0.00000E+00
    0.48535E-07        -0.96485E-10         0.00000E+00
    0.48538E-07        -0.13199E-09         0.00000E+00
    0.48542E-07        -0.16572E-09         0.00000E+00
    0.48547E-07        -0.19768E-09         0.00000E+00
    0.48552E-07        -0.22787E-09         0.00000E+00
    0.48559E-07        -0.25631E-09         0.00000E+00
    0.48565E-07        -0.28300E-09         0.00000E+00
    0.48573E-07        -0.30795E-09         0.00000E+00
    0.48581E-07        -0.33117E-09         0.00000E+00
    0.48589E-07        -0.35267E-09         0.00000E+00
    0.48598E-07        -0.37246E-09         0.00000E+00
    0.48608E-07        -0.39055E-09         0.00000E+00
    0.48617E-07        -0.40696E-09         0.00000E+00
    0.48627E-07        -0.42169E-09         0.00000E+00
    0.48637E-07        -0.43476E-09         0.00000E+00
    0.48648E-07        -0.44618E-09         0.00000E+00
    0.48659E-07        -0.45596E-09         0.00000E+00
    0.48669E-07        -0.46412E-09         0.00000E+00
    0.48680E-07        -0.47067E-09         0.00000E+00
    0.48691E-07        -0.47562E-09         0.00000E+00
    0.48702E-07        -0.47899E-09         0.00000E+00
    0.48713E-07        -0.48078E-09         0.00000E+00
    0.48724E-07        -0.48102E-09         0.00000E+00
    0.48735E-07        -0.47971E-09         0.00000E+00
    0.48746E-07        -0.47688E-09         0.00000E+00
    0.48756E-07        -0.47253E-09         0.00000E+00
    0.48767E-07        -0.46667E-09         0.00000E+00
    0.48777E-07        -0.45932E-09         0.00000E+00
    0.48787E-07        -0.45050E-09         0.00000E+00
    0.48797E-07        -0.44021E-09         0.00000E+00
    0.48806E-07        -0.42847E-09         0.00000E+00
    0.48816E-07        -0.41529E-09         0.00000E+00
    0.48824E-07        -0.40068E-09         0.00000E+00
    0.48833E-07        -0.38466E-09         0.00000E+00
    0.48841E-07        -0.36723E-09         0.00000E+00
    0.48849E-07        -0.34842E-09         0.00000E+00
    0.48856E-07        -0.32822E-09         0.00000E+00
    0.48862E-07        -0.30665E-09         0.00000E+00
    0.48869E-07        -0.28372E-09         0.00000E+00
    0.48874E-07        -0.25945E-09         0.00000E+00
    0.48879E-07        -0.23384E-09         0.00000E+00
    0.48884E-07        -0.20690E-09         0.00000E+00
    0.48888E-07        -0.17864E-09         0.00000E+00
    0.48891E-07        -0.14907E-09         0.00000E+00
    0.48894E-07        -0.11820E-09         0.00000E+00
    0.48896E-07        -0.86045E-10         0.00000E+00
    0.48898E-07        -0.52603E-10         0.00000E+00
    0.48898E-07        -0.17887E-10         0.00000E+00
    0.50895E-07        -0.22850E-10         0.00000E+00
    0.50897E-07        -0.67136E-10         0.00000E+00
    0.50899E-07        -0.10931E-09         0.00000E+00
    0.50902E-07        -0.14939E-09         0.00000E+00
    0.50906E-07        -0.18739E-09         0.00000E+00
    0.50910E-07        -0.22332E-09         0.00000E+00
    0.50916E-07        -0.25719E-09         0.00000E+00
    0.50922E-07        -0.28902E-09         0.00000E+00
    0.50929E-07        -0.31884E-09         0.00000E+00
    0.50937E-07        -0.34664E-09         0.00000E+00
    0.50945E-07        -0.37246E-09         0.00000E+00
    0.50953E-07        -0.39631E-09         0.00000E+00
    0.50962E-07        -0.41821E-09         0.00000E+00
    0.50971E-07        -0.43817E-09         0.00000E+00
    0.50981E-07        -0.45622E-09         0.00000E+00
    0.50991E-07        -0.47237E-09         0.00000E+00
    0.51001E-07        -0.48664E-09         0.00000E+00
    0.51012E-07        -0.49905E-09         0.00000E+00
    0.51023E-07        -0.50963E-09         0.00000E+00
    0.51033E-07        -0.51838E-09         0.00000E+00
    0.51044E-07        -0.52533E-09         0.00000E+00
    0.51055E-07        -0.53049E-09         0.00000E+00
    0.51066E-07        -0.53390E-09         0.00000E+00
    0.51077E-07        -0.53555E-09         0.00000E+00
    0.51088E-07        -0.53548E-09         0.00000E+00
    0.51099E-07        -0.53370E-09         0.00000E+00
    0.51109E-07        -0.53023E-09         0.00000E+00
    0.51120E-07        -0.52508E-09         0.00000E+00
    0.51130E-07        -0.51827E-09         0.00000E+00
    0.51140E-07        -0.50983E-09         0.00000E+00
    0.51150E-07        -0.49976E-09         0.00000E+00
    0.51160E-07        -0.48809E-09         0.00000E+00
    0.51169E-07        -0.47483E-09         0.00000E+00
    0.51178E-07        -0.45999E-09         0.00000E+00
    0.51187E-07        -0.44360E-09         0.00000E+00
    0.51196E-07        -0.42566E-09         0.00000E+00
    0.51203E-07        -0.40619E-09         0.00000E+00
    0.51211E-07        -0.38520E-09         0.00000E+00
    0.51218E-07        -0.36271E-09         0.00000E+00
    0.51225E-07        -0.33874E-09         0.00000E+00
    0.51231E-07        -0.31328E-09         0.00000E+00
    0.51236E-07        -0.28637E-09         0.00000E+00
    0.51241E-07        -0.25800E-09         0.00000E+00
    0.51246E-07        -0.22819E-09         0.00000E+00
    0.51250E-07        -0.19696E-09         0.00000E+00
    0.51253E-07        -0.16430E-09         0.00000E+00
    0.51256E-07        -0.13024E-09         0.00000E+00
    0.51258E-07        -0.94774E-10         0.00000E+00
    0.51259E-07        -0.57922E-10         0.00000E+00
    0.51260E-07        -0.19689E-10         0.00000E+00
    0.53326E-07        -0.25597E-10         0.00000E+00
    0.53327E-07        -0.75146E-10         0.00000E+00
    0.53329E-07        -0.12224E-09         0.00000E+00
    0.53332E-07        -0.16691E-09         0.00000E+00
    0.53336E-07        -0.20918E-09         0.00000E+00
    0.53341E-07        -0.24907E-09         0.00000E+00
    0.53346E-07        -0.28660E-09         0.00000E+00
    0.53353E-07        -0.32180E-09         0.00000E+00
    0.53360E-07        -0.35470E-09         0.00000E+00
    0.53367E-07        -0.38532E-09         0.00000E+00
    0.53375E-07        -0.41369E-09         0.00000E+00
    0.53383E-07        -0.43984E-09         0.00000E+00
    0.53392E-07        -0.46378E-09         0.00000E+00
    0.53401E-07        -0.48556E-09         0.00000E+00
    0.53411E-07        -0.50518E-09         0.00000E+00
    0.53421E-07        -0.52269E-09         0.00000E+00
    0.53431E-07        -0.53810E-09         0.00000E+00
    0.53441E-07        -0.55145E-09         0.00000E+00
    0.53452E-07        -0.56275E-09         0.00000E+00
    0.53462E-07        -0.57204E-09         0.00000E+00
    0.53473E-07        -0.57933E-09         0.00000E+00
    0.53484E-07        -0.58466E-09         0.00000E+00
    0.53494E-07        -0.58804E-09         0.00000E+00
    0.53505E-07        -0.58951E-09         0.00000E+00
    0.53516E-07        -0.58908E-09         0.00000E+00
    0.53526E-07        -0.58679E-09         0.00000E+00
    0.53536E-07        -0.58264E-09         0.00000E+00
    0.53547E-07        -0.57667E-09         0.00000E+00
    0.53557E-07        -0.56889E-09         0.00000E+00
    0.53567E-07        -0.55933E-09         0.00000E+00
    0.53576E-07        -0.54801E-09         0.00000E+00
    0.53586E-07        -0.53495E-09         0.00000E+00
    0.53595E-07        -0.52016E-09         0.00000E+00
    0.53603E-07        -0.50367E-09         0.00000E+00
    0.53612E-07        -0.48550E-09         0.00000E+00
    0.53620E-07        -0.46566E-09         0.00000E+00
    0.53628E-07        -0.44417E-09         0.00000E+00
    0.53635E-07        -0.42105E-09         0.00000E+00
    0.53642E-07        -0.39631E-09         0.00000E+00
    0.53648E-07        -0.36997E-09         0.00000E+00
    0.53654E-07        -0.34204E-09         0.00000E+00
    0.53659E-07        -0.31254E-09         0.00000E+00
    0.53664E-07        -0.28149E-09         0.00000E+00
    0.53669E-07        -0.24888E-09         0.00000E+00
    0.53672E-07        -0.21474E-09         0.00000E+00
    0.53675E-07        -0.17908E-09         0.00000E+00
    0.53678E-07        -0.14191E-09         0.00000E+00
    0.53680E-07        -0.10324E-09         0.00000E+00
    0.53681E-07        -0.63078E-10         0.00000E+00
    0.53682E-07        -0.21435E-10         0.00000E+00
    0.55818E-07        -0.28324E-10         0.00000E+00
    0.55819E-07        -0.83085E-10         0.00000E+00
    0.55821E-07        -0.13504E-09         0.00000E+00
    0.55824E-07        -0.18423E-09         0.00000E+00
    0.55827E-07        -0.23069E-09         0.00000E+00
    0.55832E-07        -0.27445E-09         0.00000E+00
    0.55837E-07        -0.31555E-09         0.00000E+00
    0.55843E-07        -0.35402E-09         0.00000E+00
    0.55850E-07        -0.38991E-09         0.00000E+00
    0.55857E-07        -0.42324E-09         0.00000E+00
    0.55865E-07        -0.45406E-09         0.00000E+00
    0.55873E-07        -0.48240E-09         0.00000E+00
    0.55882E-07        -0.50829E-09         0.00000E+00
    0.55891E-07        -0.53177E-09         0.00000E+00
    0.55900E-07        -0.55288E-09         0.00000E+00
    0.55909E-07        -0.57164E-09         0.00000E+00
    0.55919E-07        -0.58810E-09         0.00000E+00
    0.55929E-07        -0.60229E-09         0.00000E+00
    0.55939E-07        -0.61424E-09         0.00000E+00
    0.55949E-07        -0.62398E-09         0.00000E+00
    0.55959E-07        -0.63154E-09         0.00000E+00
    0.55969E-07        -0.63697E-09         0.00000E+00
    0.55980E-07        -0.64028E-09         0.00000E+00
    0.55990E-07        -0.64151E-09         0.00000E+00
    0.56000E-07        -0.64068E-09         0.00000E+00
    0.56010E-07        -0.63783E-09         0.00000E+00
    0.56020E-07        -0.63299E-09         0.00000E+00
    0.56029E-07        -0.62617E-09         0.00000E+00
    0.56039E-07        -0.61742E-09         0.00000E+00
    0.56048E-07        -0.60674E-09         0.00000E+00
    0.56057E-07        -0.59418E-09         0.00000E+00
    0.56066E-07        -0.57974E-09         0.00000E+00
    0.56075E-07        -0.56347E-09         0.00000E+00
    0.56083E-07        -0.54537E-09         0.00000E+00
    0.56091E-07        -0.52546E-09         0.00000E+00
    0.56099E-07        -0.50378E-09         0.00000E+00
    0.56106E-07        -0.48034E-09         0.00000E+00
    0.56113E-07        -0.45516E-09         0.00000E+00
    0.56119E-07        -0.42826E-09         0.00000E+00
    0.56125E-07        -0.39965E-09         0.00000E+00
    0.56130E-07        -0.36936E-09         0.00000E+00
    0.56135E-07        -0.33739E-09         0.00000E+00
    0.56140E-07        -0.30376E-09         0.00000E+00
    0.56144E-07        -0.26849E-09         0.00000E+00
    0.56148E-07        -0.23160E-09         0.00000E+00
    0.56151E-07        -0.19308E-09         0.00000E+00
    0.56153E-07        -0.15296E-09         0.00000E+00
    0.56155E-07        -0.11125E-09         0.00000E+00
    0.56156E-07        -0.67956E-10         0.00000E+00
    0.56157E-07        -0.23087E-10         0.00000E+00
    0.58362E-07        -0.30973E-10         0.00000E+00
    0.58363E-07        -0.90786E-10         0.00000E+00
    0.58365E-07        -0.14744E-09         0.00000E+00
    0.58367E-07        -0.20097E-09         0.00000E+00
    0.58371E-07        -0.25145E-09         0.00000E+00
    0.58376E-07        -0.29890E-09         0.00000E+00
    0.58381E-07        -0.34339E-09         0.00000E+00
    0.58386E-07        -0.38496E-09         0.00000E+00
    0.58393E-07        -0.42366E-09         0.00000E+00
    0.58399E-07        -0.45953E-09         0.00000E+00
    0.58407E-07        -0.49263E-09         0.00000E+00
    0.58414E-07        -0.52299E-09         0.00000E+00
    0.58422E-07        -0.55067E-09         0.00000E+00
    0.58431E-07        -0.57571E-09         0.00000E+00
    0.58439E-07        -0.59815E-09         0.00000E+00
    0.58448E-07        -0.61804E-09         0.00000E+00
    0.58457E-07        -0.63542E-09         0.00000E+00
    0.58467E-07        -0.65033E-09         0.00000E+00
    0.58476E-07        -0.66282E-09         0.00000E+00
    0.58485E-07        -0.67292E-09         0.00000E+00
    0.58495E-07        -0.68067E-09         0.00000E+00
    0.58504E-07        -0.68612E-09         0.00000E+00
    0.58514E-07        -0.68929E-09         0.00000E+00
    0.58523E-07        -0.69023E-09         0.00000E+00
    0.58532E-07        -0.68896E-09         0.00000E+00
    0.58541E-07        -0.68554E-09         0.00000E+00
    0.58550E-07        -0.67998E-09         0.00000E+00
    0.58559E-07        -0.67232E-09         0.00000E+00
    0.58568E-07        -0.66260E-09         0.00000E+00
    0.58577E-07        -0.65083E-09         0.00000E+00
    0.58585E-07        -0.63706E-09         0.00000E+00
    0.58593E-07        -0.62131E-09         0.00000E+00
    0.58601E-07        -0.60360E-09         0.00000E+00
    0.58608E-07        -0.58397E-09         0.00000E+00
    0.58615E-07        -0.56243E-09         0.00000E+00
    0.58622E-07        -0.53901E-09         0.00000E+00
    0.58629E-07        -0.51374E-09         0.00000E+00
    0.58635E-07        -0.48663E-09         0.00000E+00
    0.58641E-07        -0.45770E-09         0.00000E+00
    0.58646E-07        -0.42698E-09         0.00000E+00
    0.58651E-07        -0.39449E-09         0.00000E+00
    0.58656E-07        -0.36023E-09         0.00000E+00
    0.58660E-07        -0.32423E-09         0.00000E+00
    0.58664E-07        -0.28650E-09         0.00000E+00
    0.58667E-07        -0.24706E-09         0.00000E+00
    0.58669E-07        -0.20592E-09         0.00000E+00
    0.58672E-07        -0.16310E-09         0.00000E+00
    0.58673E-07        -0.11859E-09         0.00000E+00
    0.58674E-07        -0.72424E-10         0.00000E+00
    0.58675E-07        -0.24599E-10         0.00000E+00
    0.60949E-07        -0.33477E-10         0.00000E+00
    0.60950E-07        -0.98051E-10         0.00000E+00
    0.60952E-07        -0.15910E-09         0.00000E+00
    0.60954E-07        -0.21670E-09         0.00000E+00
    0.60958E-07        -0.27091E-09         0.00000E+00
    0.60962E-07        -0.32178E-09         0.00000E+00
    0.60966E-07        -0.36938E-09         0.00000E+00
    0.60972E-07        -0.41378E-09         0.00000E+00
    0.60977E-07        -0.45503E-09         0.00000E+00
    0.60984E-07        -0.49319E-09         0.00000E+00
    0.60990E-07        -0.52833E-09         0.00000E+00
    0.60997E-07        -0.56049E-09         0.00000E+00
    0.61004E-07        -0.58974E-09         0.00000E+00
    0.61012E-07        -0.61613E-09         0.00000E+00
    0.61020E-07        -0.63972E-09         0.00000E+00
    0.61028E-07        -0.66056E-09         0.00000E+00
    0.61036E-07        -0.67869E-09         0.00000E+00
    0.61044E-07        -0.69418E-09         0.00000E+00
    0.61052E-07        -0.70707E-09         0.00000E+00
    0.61061E-07        -0.71741E-09         0.00000E+00
    0.61069E-07        -0.72525E-09         0.00000E+00
    0.61077E-07        -0.73063E-09         0.00000E+00
    0.61086E-07        -0.73360E-09         0.00000E+00
    0.61094E-07        -0.73419E-09         0.00000E+00
    0.61102E-07        -0.73246E-09         0.00000E+00
    0.61110E-07        -0.72844E-09         0.00000E+00
    0.61118E-07        -0.72217E-09         0.00000E+00
    0.61126E-07        -0.71368E-09         0.00000E+00
    0.61134E-07        -0.70303E-09         0.00000E+00
    0.61141E-07        -0.69022E-09         0.00000E+00
    0.61148E-07        -0.67532E-09         0.00000E+00
    0.61155E-07        -0.65833E-09         0.00000E+00
    0.61162E-07        -0.63930E-09         0.00000E+00
    0.61169E-07        -0.61825E-09         0.00000E+00
    0.61175E-07        -0.59522E-09         0.00000E+00
    0.61181E-07        -0.57022E-09         0.00000E+00
    0.61186E-07        -0.54328E-09         0.00000E+00
    0.61192E-07        -0.51444E-09         0.00000E+00
    0.61197E-07        -0.48370E-09         0.00000E+00
    0.61201E-07        -0.45109E-09         0.00000E+00
    0.61206E-07        -0.41663E-09         0.00000E+00
    0.61209E-07        -0.38034E-09         0.00000E+00
    0.61213E-07        -0.34223E-09         0.00000E+00
    0.61216E-07        -0.30233E-09         0.00000E+00
    0.61219E-07        -0.26064E-09         0.00000E+00
    0.61221E-07        -0.21719E-09         0.00000E+00
    0.61223E-07        -0.17198E-09         0.00000E+00
    0.61224E-07        -0.12503E-09         0.00000E+00
    0.61225E-07        -0.76336E-10         0.00000E+00
    0.61226E-07        -0.25923E-10         0.00000E+00
    0.63568E-07        -0.35760E-10         0.00000E+00
    0.63568E-07        -0.10466E-09         0.00000E+00
    0.63570E-07        -0.16969E-09         0.00000E+00
    0.63572E-07        -0.23093E-09         0.00000E+00
    0.63575E-07        -0.28845E-09         0.00000E+00
    0.63579E-07        -0.34235E-09         0.00000E+00
    0.63583E-07        -0.39269E-09         0.00000E+00
    0.63588E-07        -0.43955E-09         0.00000E+00
    0.63593E-07        -0.48300E-09         0.00000E+00
    0.63598E-07        -0.52311E-09         0.00000E+00
    0.63604E-07        -0.55997E-09         0.00000E+00
    0.63610E-07        -0.59363E-09         0.00000E+00
    0.63616E-07        -0.62417E-09         0.00000E+00
    0.63622E-07        -0.65165E-09         0.00000E+00
    0.63629E-07        -0.67614E-09         0.00000E+00
    0.63636E-07        -0.69770E-09         0.00000E+00
    0.63643E-07        -0.71639E-09         0.00000E+00
    0.63650E-07        -0.73227E-09         0.00000E+00
    0.63656E-07        -0.74541E-09         0.00000E+00
    0.63663E-07        -0.75585E-09         0.00000E+00
    0.63670E-07        -0.76366E-09         0.00000E+00
    0.63677E-07        -0.76888E-09         0.00000E+00
    0.63684E-07        -0.77157E-09         0.00000E+00
    0.63691E-07        -0.77177E-09         0.00000E+00
    0.63698E-07        -0.76954E-09         0.00000E+00
    0.63705E-07        -0.76492E-09         0.00000E+00
    0.63711E-07        -0.75796E-09         0.00000E+00
    0.63717E-07        -0.74869E-09         0.00000E+00
    0.63724E-07        -0.73716E-09         0.00000E+00
    0.63730E-07        -0.72341E-09         0.00000E+00
    0.63735E-07        -0.70747E-09         0.00000E+00
    0.63741E-07        -0.68938E-09         0.00000E+00
    0.63747E-07        -0.66918E-09         0.00000E+00
    0.63752E-07        -0.64689E-09         0.00000E+00
    0.63757E-07        -0.62255E-09         0.00000E+00
    0.63761E-07        -0.59618E-09         0.00000E+00
    0.63766E-07        -0.56782E-09         0.00000E+00
    0.63770E-07        -0.53749E-09         0.00000E+00
    0.63774E-07        -0.50521E-09         0.00000E+00
    0.63778E-07        -0.47100E-09         0.00000E+00
    0.63781E-07        -0.43489E-09         0.00000E+00
    0.63784E-07        -0.39690E-09         0.00000E+00
    0.63787E-07        -0.35704E-09         0.00000E+00
    0.63789E-07        -0.31533E-09         0.00000E+00
    0.63791E-07        -0.27179E-09         0.00000E+00
    0.63793E-07        -0.22643E-09         0.00000E+00
    0.63795E-07        -0.17926E-09         0.00000E+00
    0.63796E-07        -0.13029E-09         0.00000E+00
    0.63797E-07        -0.79537E-10         0.00000E+00
    0.63797E-07        -0.27004E-10         0.00000E+00
    0.66205E-07        -0.37738E-10         0.00000E+00
    0.66206E-07        -0.11036E-09         0.00000E+00
    0.66207E-07        -0.17879E-09         0.00000E+00
    0.66209E-07        -0.24310E-09         0.00000E+00
    0.66211E-07        -0.30341E-09         0.00000E+00
    0.66214E-07        -0.35980E-09         0.00000E+00
    0.66218E-07        -0.41238E-09         0.00000E+00
    0.66221E-07        -0.46122E-09         0.00000E+00
    0.66225E-07        -0.50642E-09         0.00000E+00
    0.66230E-07        -0.54806E-09         0.00000E+00
    0.66234E-07        -0.58623E-09         0.00000E+00
    0.66239E-07        -0.62101E-09         0.00000E+00
    0.66244E-07        -0.65249E-09         0.00000E+00
    0.66249E-07        -0.68073E-09         0.00000E+00
    0.66254E-07        -0.70582E-09         0.00000E+00
    0.66259E-07        -0.72783E-09         0.00000E+00
    0.66264E-07        -0.74684E-09         0.00000E+00
    0.66270E-07        -0.76290E-09         0.00000E+00
    0.66275E-07        -0.77610E-09         0.00000E+00
    0.66280E-07        -0.78648E-09         0.00000E+00
    0.66286E-07        -0.79413E-09         0.00000E+00
    0.66291E-07        -0.79909E-09         0.00000E+00
    0.66296E-07        -0.80142E-09         0.00000E+00
    0.66301E-07        -0.80119E-09         0.00000E+00
    0.66306E-07        -0.79845E-09         0.00000E+00
    0.66311E-07        -0.79324E-09         0.00000E+00
    0.66315E-07        -0.78562E-09         0.00000E+00
    0.66320E-07        -0.77563E-09         0.00000E+00
    0.66324E-07        -0.76333E-09         0.00000E+00
    0.66329E-07        -0.74874E-09         0.00000E+00
    0.66333E-07        -0.73193E-09         0.00000E+00
    0.66337E-07        -0.71291E-09         0.00000E+00
    0.66340E-07        -0.69173E-09         0.00000E+00
    0.66344E-07        -0.66843E-09         0.00000E+00
    0.66347E-07        -0.64304E-09         0.00000E+00
    0.66351E-07        -0.61559E-09         0.00000E+00
    0.66354E-07        -0.58610E-09         0.00000E+00
    0.66357E-07        -0.55461E-09         0.00000E+00
    0.66359E-07        -0.52114E-09         0.00000E+00
    0.66362E-07        -0.48571E-09         0.00000E+00
    0.66364E-07        -0.44835E-09         0.00000E+00
    0.66366E-07        -0.40907E-09         0.00000E+00
    0.66368E-07        -0.36790E-09         0.00000E+00
    0.66370E-07        -0.32485E-09         0.00000E+00
    0.66371E-07        -0.27993E-09         0.00000E+00
    0.66372E-07        -0.23316E-09         0.00000E+00
    0.66373E-07        -0.18455E-09         0.00000E+00
    0.66374E-07        -0.13412E-09         0.00000E+00
    0.66374E-07        -0.81860E-10         0.00000E+00
    0.66375E-07        -0.27789E-10         0.00000E+00
    0.68846E-07        -0.39318E-10         0.00000E+00
    0.68846E-07        -0.11489E-09         0.00000E+00
    0.68847E-07        -0.18596E-09         0.00000E+00
    0.68849E-07        -0.25263E-09         0.00000E+00
    0.68851E-07        -0.31503E-09         0.00000E+00
    0.68853E-07        -0.37326E-09         0.00000E+00
    0.68855E-07        -0.42744E-09         0.00000E+00
    0.68858E-07        -0.47767E-09         0.00000E+00
    0.68861E-07        -0.52405E-09         0.00000E+00
    0.68863E-07        -0.56669E-09         0.00000E+00
    0.68867E-07        -0.60568E-09         0.00000E+00
    0.68870E-07        -0.64112E-09         0.00000E+00
    0.68873E-07        -0.67311E-09         0.00000E+00
    0.68876E-07        -0.70173E-09         0.00000E+00
    0.68880E-07        -0.72707E-09         0.00000E+00
    0.68883E-07        -0.74921E-09         0.00000E+00
    0.68886E-07        -0.76824E-09         0.00000E+00
    0.68889E-07        -0.78424E-09         0.00000E+00
    0.68893E-07        -0.79728E-09         0.00000E+00
    0.68896E-07        -0.80743E-09         0.00000E+00
    0.68899E-07        -0.81477E-09         0.00000E+00
    0.68902E-07        -0.81937E-09         0.00000E+00
    0.68905E-07        -0.82128E-09         0.00000E+00
    0.68908E-07        -0.82057E-09         0.00000E+00
    0.68910E-07        -0.81731E-09         0.00000E+00
    0.68913E-07        -0.81154E-09         0.00000E+00
    0.68916E-07        -0.80333E-09         0.00000E+00
    0.68918E-07        -0.79273E-09         0.00000E+00
    0.68920E-07        -0.77977E-09         0.00000E+00
    0.68922E-07        -0.76452E-09         0.00000E+00
    0.68924E-07        -0.74701E-09         0.00000E+00
    0.68926E-07        -0.72729E-09         0.00000E+00
    0.68928E-07        -0.70540E-09         0.00000E+00
    0.68930E-07        -0.68137E-09         0.00000E+00
    0.68931E-07        -0.65524E-09         0.00000E+00
    0.68933E-07        -0.62705E-09         0.00000E+00
    0.68934E-07        -0.59681E-09         0.00000E+00
    0.68936E-07        -0.56456E-09         0.00000E+00
    0.68937E-07        -0.53033E-09         0.00000E+00
    0.68938E-07        -0.49414E-09         0.00000E+00
    0.68939E-07        -0.45600E-09         0.00000E+00
    0.68940E-07        -0.41595E-09         0.00000E+00
    0.68940E-07        -0.37400E-09         0.00000E+00
    0.68941E-07        -0.33016E-09         0.00000E+00
    0.68942E-07        -0.28446E-09         0.00000E+00
    0.68942E-07        -0.23689E-09         0.00000E+00
    0.68942E-07        -0.18747E-09         0.00000E+00
    0.68943E-07        -0.13622E-09         0.00000E+00
    0.68943E-07        -0.83131E-10         0.00000E+00
    0.68943E-07        -0.28217E-10         0.00000E+00
    0.71474E-07        -0.40400E-10         0.00000E+00
    0.71474E-07        -0.11795E-09         0.00000E+00
    0.71475E-07        -0.19073E-09         0.00000E+00
    0.71476E-07        -0.25887E-09         0.00000E+00
    0.71477E-07        -0.32251E-09         0.00000E+00
    0.71478E-07        -0.38178E-09         0.00000E+00
    0.71479E-07        -0.43679E-09         0.00000E+00
    0.71480E-07        -0.48769E-09         0.00000E+00
    0.71481E-07        -0.53458E-09         0.00000E+00
    0.71483E-07        -0.57758E-09         0.00000E+00
    0.71484E-07        -0.61681E-09         0.00000E+00
    0.71485E-07        -0.65237E-09         0.00000E+00
    0.71487E-07        -0.68436E-09         0.00000E+00
    0.71488E-07        -0.71290E-09         0.00000E+00
    0.71489E-07        -0.73807E-09         0.00000E+00
    0.71490E-07        -0.75998E-09         0.00000E+00
    0.71491E-07        -0.77872E-09         0.00000E+00
    0.71492E-07        -0.79436E-09         0.00000E+00
    0.71493E-07        -0.80701E-09         0.00000E+00
    0.71493E-07        -0.81674E-09         0.00000E+00
    0.71494E-07        -0.82362E-09         0.00000E+00
    0.71494E-07        -0.82774E-09         0.00000E+00
    0.71495E-07        -0.82916E-09         0.00000E+00
    0.71495E-07        -0.82795E-09         0.00000E+00
    0.71495E-07        -0.82418E-09         0.00000E+00
    0.71495E-07        -0.81791E-09         0.00000E+00
    0.71495E-07        -0.80920E-09         0.00000E+00
    0.71495E-07        -0.79810E-09         0.00000E+00
    0.71494E-07        -0.78467E-09         0.00000E+00
    0.71494E-07        -0.76895E-09         0.00000E+00
    0.71494E-07        -0.75100E-09         0.00000E+00
    0.71493E-07        -0.73086E-09         0.00000E+00
    0.71493E-07        -0.70856E-09         0.00000E+00
    0.71492E-07        -0.68416E-09         0.00000E+00
    0.71492E-07        -0.65767E-09         0.00000E+00
    0.71491E-07        -0.62915E-09         0.00000E+00
    0.71491E-07        -0.59861E-09         0.00000E+00
    0.71490E-07        -0.56609E-09         0.00000E+00
    0.71489E-07        -0.53161E-09         0.00000E+00
    0.71489E-07        -0.49519E-09         0.00000E+00
    0.71488E-07        -0.45686E-09         0.00000E+00
    0.71488E-07        -0.41664E-09         0.00000E+00
    0.71487E-07        -0.37454E-09         0.00000E+00
    0.71487E-07        -0.33057E-09         0.00000E+00
    0.71486E-07        -0.28476E-09         0.00000E+00
    0.71486E-07        -0.23710E-09         0.00000E+00
    0.71486E-07        -0.18762E-09         0.00000E+00
    0.71485E-07        -0.13631E-09         0.00000E+00
    0.71485E-07        -0.83176E-10         0.00000E+00
    0.71485E-07        -0.28229E-10         0.00000E+00
    0.74071E-07        -0.40877E-10         0.00000E+00
    0.74071E-07        -0.11923E-09         0.00000E+00
    0.74071E-07        -0.19260E-09         0.00000E+00
    0.74071E-07        -0.26114E-09         0.00000E+00
    0.74071E-07        -0.32501E-09         0.00000E+00
    0.74071E-07        -0.38435E-09         0.00000E+00
    0.74070E-07        -0.43931E-09         0.00000E+00
    0.74070E-07        -0.49002E-09         0.00000E+00
    0.74070E-07        -0.53663E-09         0.00000E+00
    0.74069E-07        -0.57926E-09         0.00000E+00
    0.74068E-07        -0.61803E-09         0.00000E+00
    0.74067E-07        -0.65308E-09         0.00000E+00
    0.74066E-07        -0.68451E-09         0.00000E+00
    0.74065E-07        -0.71244E-09         0.00000E+00
    0.74064E-07        -0.73699E-09         0.00000E+00
    0.74062E-07        -0.75824E-09         0.00000E+00
    0.74060E-07        -0.77632E-09         0.00000E+00
    0.74058E-07        -0.79131E-09         0.00000E+00
    0.74056E-07        -0.80330E-09         0.00000E+00
    0.74054E-07        -0.81239E-09         0.00000E+00
    0.74052E-07        -0.81866E-09         0.00000E+00
    0.74049E-07        -0.82219E-09         0.00000E+00
    0.74046E-07        -0.82306E-09         0.00000E+00
    0.74044E-07        -0.82133E-09         0.00000E+00
    0.74041E-07        -0.81709E-09         0.00000E+00
    0.74038E-07        -0.81039E-09         0.00000E+00
    0.74035E-07        -0.80130E-09         0.00000E+00
    0.74032E-07        -0.78988E-09         0.00000E+00
    0.74029E-07        -0.77618E-09         0.00000E+00
    0.74025E-07        -0.76026E-09         0.00000E+00
    0.74022E-07        -0.74216E-09         0.00000E+00
    0.74019E-07        -0.72193E-09         0.00000E+00
    0.74016E-07        -0.69961E-09         0.00000E+00
    0.74013E-07        -0.67523E-09         0.00000E+00
    0.74010E-07        -0.64885E-09         0.00000E+00
    0.74007E-07        -0.62049E-09         0.00000E+00
    0.74004E-07        -0.59017E-09         0.00000E+00
    0.74002E-07        -0.55793E-09         0.00000E+00
    0.73999E-07        -0.52380E-09         0.00000E+00
    0.73996E-07        -0.48779E-09         0.00000E+00
    0.73994E-07        -0.44993E-09         0.00000E+00
    0.73992E-07        -0.41022E-09         0.00000E+00
    0.73990E-07        -0.36870E-09         0.00000E+00
    0.73988E-07        -0.32537E-09         0.00000E+00
    0.73987E-07        -0.28023E-09         0.00000E+00
    0.73986E-07        -0.23330E-09         0.00000E+00
    0.73984E-07        -0.18459E-09         0.00000E+00
    0.73984E-07        -0.13410E-09         0.00000E+00
    0.73983E-07        -0.81823E-10         0.00000E+00
    0.73983E-07        -0.27769E-10         0.00000E+00
    0.76616E-07        -0.40639E-10         0.00000E+00
    0.76615E-07        -0.11841E-09         0.00000E+00
    0.76615E-07        -0.19106E-09         0.00000E+00
    0.76614E-07        -0.25875E-09         0.00000E+00
    0.76613E-07        -0.32167E-09         0.00000E+00
    0.76611E-07        -0.37998E-09         0.00000E+00
    0.76610E-07        -0.43383E-09         0.00000E+00
    0.76607E-07        -0.48339E-09         0.00000E+00
    0.76605E-07        -0.52880E-09         0.00000E+00
    0.76602E-07        -0.57021E-09         0.00000E+00
    0.76599E-07        -0.60776E-09         0.00000E+00
    0.76596E-07        -0.64158E-09         0.00000E+00
    0.76592E-07        -0.67180E-09         0.00000E+00
    0.76588E-07        -0.69855E-09         0.00000E+00
    0.76583E-07        -0.72195E-09         0.00000E+00
    0.76579E-07        -0.74210E-09         0.00000E+00
    0.76574E-07        -0.75912E-09         0.00000E+00
    0.76569E-07        -0.77312E-09         0.00000E+00
    0.76563E-07        -0.78419E-09         0.00000E+00
    0.76558E-07        -0.79242E-09         0.00000E+00
    0.76552E-07        -0.79791E-09         0.00000E+00
    0.76546E-07        -0.80075E-09         0.00000E+00
    0.76540E-07        -0.80101E-09         0.00000E+00
    0.76534E-07        -0.79878E-09         0.00000E+00
    0.76528E-07        -0.79412E-09         0.00000E+00
    0.76522E-07        -0.78710E-09         0.00000E+00
    0.76515E-07        -0.77780E-09         0.00000E+00
    0.76509E-07        -0.76626E-09         0.00000E+00
    0.76502E-07        -0.75255E-09         0.00000E+00
    0.76496E-07        -0.73672E-09         0.00000E+00
    0.76490E-07        -0.71882E-09         0.00000E+00
    0.76484E-07        -0.69889E-09         0.00000E+00
    0.76478E-07        -0.67698E-09         0.00000E+00
    0.76472E-07        -0.65312E-09         0.00000E+00
    0.76466E-07        -0.62736E-09         0.00000E+00
    0.76461E-07        -0.59971E-09         0.00000E+00
    0.76455E-07        -0.57022E-09         0.00000E+00
    0.76450E-07        -0.53891E-09         0.00000E+00
    0.76445E-07        -0.50580E-09         0.00000E+00
    0.76441E-07        -0.47091E-09         0.00000E+00
    0.76437E-07        -0.43426E-09         0.00000E+00
    0.76433E-07        -0.39587E-09         0.00000E+00
    0.76429E-07        -0.35574E-09         0.00000E+00
    0.76426E-07        -0.31388E-09         0.00000E+00
    0.76423E-07        -0.27031E-09         0.00000E+00
    0.76421E-07        -0.22502E-09         0.00000E+00
    0.76419E-07        -0.17803E-09         0.00000E+00
    0.76418E-07        -0.12933E-09         0.00000E+00
    0.76417E-07        -0.78911E-10         0.00000E+00
    0.76416E-07        -0.26781E-10         0.00000E+00
    0.79087E-07        -0.39575E-10         0.00000E+00
    0.79087E-07        -0.11517E-09         0.00000E+00
    0.79086E-07        -0.18558E-09         0.00000E+00
    0.79084E-07        -0.25100E-09         0.00000E+00
    0.79081E-07        -0.31163E-09         0.00000E+00
    0.79078E-07        -0.36764E-09         0.00000E+00
    0.79075E-07        -0.41921E-09         0.00000E+00
    0.79071E-07        -0.46652E-09         0.00000E+00
    0.79066E-07        -0.50972E-09         0.00000E+00
    0.79061E-07        -0.54897E-09         0.00000E+00
    0.79055E-07        -0.58444E-09         0.00000E+00
    0.79048E-07        -0.61625E-09         0.00000E+00
    0.79042E-07        -0.64456E-09         0.00000E+00
    0.79035E-07        -0.66949E-09         0.00000E+00
    0.79027E-07        -0.69118E-09         0.00000E+00
    0.79019E-07        -0.70974E-09         0.00000E+00
    0.79011E-07        -0.72529E-09         0.00000E+00
    0.79002E-07        -0.73794E-09         0.00000E+00
    0.78993E-07        -0.74779E-09         0.00000E+00
    0.78984E-07        -0.75495E-09         0.00000E+00
    0.78974E-07        -0.75952E-09         0.00000E+00
    0.78965E-07        -0.76157E-09         0.00000E+00
    0.78955E-07        -0.76120E-09         0.00000E+00
    0.78945E-07        -0.75848E-09         0.00000E+00
    0.78935E-07        -0.75349E-09         0.00000E+00
    0.78925E-07        -0.74629E-09         0.00000E+00
    0.78915E-07        -0.73697E-09         0.00000E+00
    0.78905E-07        -0.72556E-09         0.00000E+00
    0.78895E-07        -0.71214E-09         0.00000E+00
    0.78885E-07        -0.69676E-09         0.00000E+00
    0.78876E-07        -0.67945E-09         0.00000E+00
    0.78866E-07        -0.66028E-09         0.00000E+00
    0.78857E-07        -0.63928E-09         0.00000E+00
    0.78848E-07        -0.61648E-09         0.00000E+00
    0.78840E-07        -0.59192E-09         0.00000E+00
    0.78831E-07        -0.56563E-09         0.00000E+00
    0.78823E-07        -0.53763E-09         0.00000E+00
    0.78815E-07        -0.50796E-09         0.00000E+00
    0.78808E-07        -0.47662E-09         0.00000E+00
    0.78802E-07        -0.44364E-09         0.00000E+00
    0.78795E-07        -0.40904E-09         0.00000E+00
    0.78789E-07        -0.37281E-09         0.00000E+00
    0.78784E-07        -0.33497E-09         0.00000E+00
    0.78780E-07        -0.29553E-09         0.00000E+00
    0.78775E-07        -0.25449E-09         0.00000E+00
    0.78772E-07        -0.21185E-09         0.00000E+00
    0.78769E-07        -0.16761E-09         0.00000E+00
    0.78767E-07        -0.12176E-09         0.00000E+00
    0.78766E-07        -0.74298E-10         0.00000E+00
    0.78765E-07        -0.25218E-10         0.00000E+00
    0.81463E-07        -0.37577E-10         0.00000E+00
    0.81462E-07        -0.10920E-09         0.00000E+00
    0.81460E-07        -0.17567E-09         0.00000E+00
    0.81457E-07        -0.23723E-09         0.00000E+00
    0.81453E-07        -0.29406E-09         0.00000E+00
    0.81448E-07        -0.34638E-09         0.00000E+00
    0.81443E-07        -0.39437E-09         0.00000E+00
    0.81436E-07        -0.43822E-09         0.00000E+00
    0.81429E-07        -0.47810E-09         0.00000E+00
    0.81421E-07        -0.51418E-09         0.00000E+00
    0.81412E-07        -0.54663E-09         0.00000E+00
    0.81403E-07        -0.57560E-09         0.00000E+00
    0.81393E-07        -0.60123E-09         0.00000E+00
    0.81382E-07        -0.62368E-09         0.00000E+00
    0.81371E-07        -0.64306E-09         0.00000E+00
    0.81359E-07        -0.65952E-09         0.00000E+00
    0.81347E-07        -0.67316E-09         0.00000E+00
    0.81335E-07        -0.68411E-09         0.00000E+00
    0.81322E-07        -0.69247E-09         0.00000E+00
    0.81309E-07        -0.69835E-09         0.00000E+00
    0.81295E-07        -0.70184E-09         0.00000E+00
    0.81282E-07        -0.70304E-09         0.00000E+00
    0.81268E-07        -0.70202E-09         0.00000E+00
    0.81254E-07        -0.69888E-09         0.00000E+00
    0.81240E-07        -0.69367E-09         0.00000E+00
    0.81226E-07        -0.68648E-09         0.00000E+00
    0.81212E-07        -0.67737E-09         0.00000E+00
    0.81198E-07        -0.66639E-09         0.00000E+00
    0.81185E-07        -0.65361E-09         0.00000E+00
    0.81171E-07        -0.63907E-09         0.00000E+00
    0.81158E-07        -0.62282E-09         0.00000E+00
    0.81145E-07        -0.60491E-09         0.00000E+00
    0.81133E-07        -0.58536E-09         0.00000E+00
    0.81120E-07        -0.56421E-09         0.00000E+00
    0.81108E-07        -0.54150E-09         0.00000E+00
    0.81097E-07        -0.51725E-09         0.00000E+00
    0.81086E-07        -0.49148E-09         0.00000E+00
    0.81076E-07        -0.46422E-09         0.00000E+00
    0.81066E-07        -0.43547E-09         0.00000E+00
    0.81057E-07        -0.40526E-09         0.00000E+00
    0.81048E-07        -0.37358E-09         0.00000E+00
    0.81041E-07        -0.34046E-09         0.00000E+00
    0.81034E-07        -0.30588E-09         0.00000E+00
    0.81027E-07        -0.26986E-09         0.00000E+00
    0.81022E-07        -0.23238E-09         0.00000E+00
    0.81017E-07        -0.19345E-09         0.00000E+00
    0.81013E-07        -0.15307E-09         0.00000E+00
    0.81011E-07        -0.11121E-09         0.00000E+00
    0.81009E-07        -0.67874E-10         0.00000E+00
    0.81008E-07        -0.23043E-10         0.00000E+00
    0.83718E-07        -0.34544E-10         0.00000E+00
    0.83716E-07        -0.10020E-09         0.00000E+00
    0.83713E-07        -0.16088E-09         0.00000E+00
    0.83709E-07        -0.21682E-09         0.00000E+00
    0.83704E-07        -0.26823E-09         0.00000E+00
    0.83697E-07        -0.31534E-09         0.00000E+00
    0.83689E-07        -0.35835E-09         0.00000E+00
    0.83681E-07        -0.39745E-09         0.00000E+00
    0.83671E-07        -0.43282E-09         0.00000E+00
    0.83660E-07        -0.46465E-09         0.00000E+00
    0.83648E-07        -0.49311E-09         0.00000E+00
    0.83635E-07        -0.51835E-09         0.00000E+00
    0.83621E-07        -0.54053E-09         0.00000E+00
    0.83607E-07        -0.55980E-09         0.00000E+00
    0.83592E-07        -0.57629E-09         0.00000E+00
    0.83577E-07        -0.59013E-09         0.00000E+00
    0.83561E-07        -0.60144E-09         0.00000E+00
    0.83544E-07        -0.61035E-09         0.00000E+00
    0.83527E-07        -0.61695E-09         0.00000E+00
    0.83510E-07        -0.62136E-09         0.00000E+00
    0.83492E-07        -0.62367E-09         0.00000E+00
    0.83474E-07        -0.62396E-09         0.00000E+00
    0.83456E-07        -0.62233E-09         0.00000E+00
    0.83438E-07        -0.61885E-09         0.00000E+00
    0.83420E-07        -0.61359E-09         0.00000E+00
    0.83402E-07        -0.60662E-09         0.00000E+00
    0.83384E-07        -0.59800E-09         0.00000E+00
    0.83366E-07        -0.58778E-09         0.00000E+00
    0.83349E-07        -0.57603E-09         0.00000E+00
    0.83331E-07        -0.56278E-09         0.00000E+00
    0.83314E-07        -0.54808E-09         0.00000E+00
    0.83298E-07        -0.53197E-09         0.00000E+00
    0.83282E-07        -0.51447E-09         0.00000E+00
    0.83266E-07        -0.49562E-09         0.00000E+00
    0.83251E-07        -0.47545E-09         0.00000E+00
    0.83237E-07        -0.45397E-09         0.00000E+00
    0.83223E-07        -0.43120E-09         0.00000E+00
    0.83210E-07        -0.40716E-09         0.00000E+00
    0.83197E-07        -0.38186E-09         0.00000E+00
    0.83186E-07        -0.35531E-09         0.00000E+00
    0.83175E-07        -0.32750E-09         0.00000E+00
    0.83165E-07        -0.29844E-09         0.00000E+00
    0.83156E-07        -0.26813E-09         0.00000E+00
    0.83148E-07        -0.23657E-09         0.00000E+00
    0.83141E-07        -0.20374E-09         0.00000E+00
    0.83135E-07        -0.16965E-09         0.00000E+00
    0.83131E-07        -0.13426E-09         0.00000E+00
    0.83127E-07        -0.97575E-10         0.00000E+00
    0.83125E-07        -0.59573E-10         0.00000E+00
    0.83123E-07        -0.20234E-10         0.00000E+00
    0.85826E-07        -0.30392E-10         0.00000E+00
    0.85824E-07        -0.87939E-10         0.00000E+00
    0.85821E-07        -0.14082E-09         0.00000E+00
    0.85815E-07        -0.18928E-09         0.00000E+00
    0.85808E-07        -0.23355E-09         0.00000E+00
    0.85800E-07        -0.27386E-09         0.00000E+00
    0.85789E-07        -0.31041E-09         0.00000E+00
    0.85778E-07        -0.34342E-09         0.00000E+00
    0.85765E-07        -0.37307E-09         0.00000E+00
    0.85751E-07        -0.39954E-09         0.00000E+00
    0.85736E-07        -0.42301E-09         0.00000E+00
    0.85720E-07        -0.44365E-09         0.00000E+00
    0.85703E-07        -0.46160E-09         0.00000E+00
    0.85685E-07        -0.47701E-09         0.00000E+00
    0.85666E-07        -0.49002E-09         0.00000E+00
    0.85646E-07        -0.50076E-09         0.00000E+00
    0.85626E-07        -0.50935E-09         0.00000E+00
    0.85605E-07        -0.51590E-09         0.00000E+00
    0.85584E-07        -0.52052E-09         0.00000E+00
    0.85562E-07        -0.52331E-09         0.00000E+00
    0.85541E-07        -0.52436E-09         0.00000E+00
    0.85518E-07        -0.52375E-09         0.00000E+00
    0.85496E-07        -0.52157E-09         0.00000E+00
    0.85474E-07        -0.51789E-09         0.00000E+00
    0.85452E-07        -0.51277E-09         0.00000E+00
    0.85430E-07        -0.50628E-09         0.00000E+00
    0.85408E-07        -0.49847E-09         0.00000E+00
    0.85386E-07        -0.48939E-09         0.00000E+00
    0.85364E-07        -0.47910E-09         0.00000E+00
    0.85343E-07        -0.46762E-09         0.00000E+00
    0.85322E-07        -0.45499E-09         0.00000E+00
    0.85302E-07        -0.44126E-09         0.00000E+00
    0.85283E-07        -0.42644E-09         0.00000E+00
    0.85264E-07        -0.41055E-09         0.00000E+00
    0.85245E-07        -0.39362E-09         0.00000E+00
    0.85228E-07        -0.37567E-09         0.00000E+00
    0.85211E-07        -0.35669E-09         0.00000E+00
    0.85195E-07        -0.33671E-09         0.00000E+00
    0.85180E-07        -0.31572E-09         0.00000E+00
    0.85166E-07        -0.29373E-09         0.00000E+00
    0.85153E-07        -0.27074E-09         0.00000E+00
    0.85142E-07        -0.24673E-09         0.00000E+00
    0.85131E-07        -0.22171E-09         0.00000E+00
    0.85121E-07        -0.19566E-09         0.00000E+00
    0.85113E-07        -0.16856E-09         0.00000E+00
    0.85106E-07        -0.14041E-09         0.00000E+00
    0.85100E-07        -0.11117E-09         0.00000E+00
    0.85096E-07        -0.80843E-10         0.00000E+00
    0.85093E-07        -0.49390E-10         0.00000E+00
    0.85091E-07        -0.16789E-10         0.00000E+00
    0.87762E-07        -0.25058E-10         0.00000E+00
    0.87760E-07        -0.72247E-10         0.00000E+00
    0.87755E-07        -0.11524E-09         0.00000E+00
    0.87749E-07        -0.15429E-09         0.00000E+00
    0.87740E-07        -0.18965E-09         0.00000E+00
    0.87729E-07        -0.22153E-09         0.00000E+00
    0.87717E-07        -0.25015E-09         0.00000E+00
    0.87703E-07        -0.27572E-09         0.00000E+00
    0.87687E-07        -0.29843E-09         0.00000E+00
    0.87670E-07        -0.31847E-09         0.00000E+00
    0.87651E-07        -0.33600E-09         0.00000E+00
    0.87632E-07        -0.35118E-09         0.00000E+00
    0.87611E-07        -0.36417E-09         0.00000E+00
    0.87589E-07        -0.37510E-09         0.00000E+00
    0.87566E-07        -0.38411E-09         0.00000E+00
    0.87543E-07        -0.39133E-09         0.00000E+00
    0.87519E-07        -0.39686E-09         0.00000E+00
    0.87494E-07        -0.40081E-09         0.00000E+00
    0.87469E-07        -0.40328E-09         0.00000E+00
    0.87443E-07        -0.40437E-09         0.00000E+00
    0.87417E-07        -0.40415E-09         0.00000E+00
    0.87391E-07        -0.40270E-09         0.00000E+00
    0.87365E-07        -0.40010E-09         0.00000E+00
    0.87338E-07        -0.39641E-09         0.00000E+00
    0.87312E-07        -0.39168E-09         0.00000E+00
    0.87286E-07        -0.38597E-09         0.00000E+00
    0.87260E-07        -0.37932E-09         0.00000E+00
    0.87234E-07        -0.37179E-09         0.00000E+00
    0.87209E-07        -0.36340E-09         0.00000E+00
    0.87185E-07        -0.35419E-09         0.00000E+00
    0.87160E-07        -0.34418E-09         0.00000E+00
    0.87137E-07        -0.33341E-09         0.00000E+00
    0.87114E-07        -0.32188E-09         0.00000E+00
    0.87092E-07        -0.30962E-09         0.00000E+00
    0.87071E-07        -0.29664E-09         0.00000E+00
    0.87050E-07        -0.28294E-09         0.00000E+00
    0.87031E-07        -0.26853E-09         0.00000E+00
    0.87012E-07        -0.25341E-09         0.00000E+00
    0.86995E-07        -0.23758E-09         0.00000E+00
    0.86979E-07        -0.22103E-09         0.00000E+00
    0.86964E-07        -0.20376E-09         0.00000E+00
    0.86950E-07        -0.18574E-09         0.00000E+00
    0.86938E-07        -0.16697E-09         0.00000E+00
    0.86927E-07        -0.14744E-09         0.00000E+00
    0.86917E-07        -0.12711E-09         0.00000E+00
    0.86909E-07        -0.10597E-09         0.00000E+00
    0.86902E-07        -0.83989E-10         0.00000E+00
    0.86897E-07        -0.61144E-10         0.00000E+00
    0.86894E-07        -0.37403E-10         0.00000E+00
    0.86892E-07        -0.12734E-10         0.00000E+00
    0.89499E-07        -0.18517E-10         0.00000E+00
    0.89496E-07        -0.53060E-10         0.00000E+00
    0.89491E-07        -0.84068E-10         0.00000E+00
    0.89483E-07        -0.11179E-09         0.00000E+00
    0.89472E-07        -0.13648E-09         0.00000E+00
    0.89460E-07        -0.15835E-09         0.00000E+00
    0.89445E-07        -0.17762E-09         0.00000E+00
    0.89428E-07        -0.19449E-09         0.00000E+00
    0.89410E-07        -0.20914E-09         0.00000E+00
    0.89390E-07        -0.22175E-09         0.00000E+00
    0.89368E-07        -0.23247E-09         0.00000E+00
    0.89345E-07        -0.24147E-09         0.00000E+00
    0.89321E-07        -0.24888E-09         0.00000E+00
    0.89296E-07        -0.25483E-09         0.00000E+00
    0.89269E-07        -0.25944E-09         0.00000E+00
    0.89242E-07        -0.26281E-09         0.00000E+00
    0.89214E-07        -0.26506E-09         0.00000E+00
    0.89186E-07        -0.26627E-09         0.00000E+00
    0.89157E-07        -0.26654E-09         0.00000E+00
    0.89128E-07        -0.26593E-09         0.00000E+00
    0.89098E-07        -0.26451E-09         0.00000E+00
    0.89068E-07        -0.26236E-09         0.00000E+00
    0.89038E-07        -0.25953E-09         0.00000E+00
    0.89008E-07        -0.25607E-09         0.00000E+00
    0.88979E-07        -0.25202E-09         0.00000E+00
    0.88949E-07        -0.24743E-09         0.00000E+00
    0.88920E-07        -0.24234E-09         0.00000E+00
    0.88891E-07        -0.23677E-09         0.00000E+00
    0.88863E-07        -0.23074E-09         0.00000E+00
    0.88835E-07        -0.22429E-09         0.00000E+00
    0.88808E-07        -0.21743E-09         0.00000E+00
    0.88781E-07        -0.21017E-09         0.00000E+00
    0.88756E-07        -0.20253E-09         0.00000E+00
    0.88731E-07        -0.19451E-09         0.00000E+00
    0.88707E-07        -0.18612E-09         0.00000E+00
    0.88684E-07        -0.17735E-09         0.00000E+00
    0.88662E-07        -0.16820E-09         0.00000E+00
    0.88642E-07        -0.15867E-09         0.00000E+00
    0.88622E-07        -0.14874E-09         0.00000E+00
    0.88604E-07        -0.13841E-09         0.00000E+00
    0.88588E-07        -0.12766E-09         0.00000E+00
    0.88572E-07        -0.11647E-09         0.00000E+00
    0.88558E-07        -0.10482E-09         0.00000E+00
    0.88546E-07        -0.92693E-10         0.00000E+00
    0.88535E-07        -0.80053E-10         0.00000E+00
    0.88526E-07        -0.66876E-10         0.00000E+00
    0.88519E-07        -0.53130E-10         0.00000E+00
    0.88513E-07        -0.38781E-10         0.00000E+00
    0.88509E-07        -0.23794E-10         0.00000E+00
    0.88508E-07        -0.81294E-11         0.00000E+00
    0.91009E-07        -0.10793E-10         0.00000E+00
    0.91006E-07        -0.30473E-10         0.00000E+00
    0.91000E-07        -0.47485E-10         0.00000E+00
    0.90990E-07        -0.62078E-10         0.00000E+00
    0.90979E-07        -0.74483E-10         0.00000E+00
    0.90964E-07        -0.84915E-10         0.00000E+00
    0.90947E-07        -0.93572E-10         0.00000E+00
    0.90928E-07        -0.10064E-09         0.00000E+00
    0.90907E-07        -0.10629E-09         0.00000E+00
    0.90885E-07        -0.11067E-09         0.00000E+00
    0.90860E-07        -0.11393E-09         0.00000E+00
    0.90835E-07        -0.11621E-09         0.00000E+00
    0.90808E-07        -0.11761E-09         0.00000E+00
    0.90779E-07        -0.11825E-09         0.00000E+00
    0.90750E-07        -0.11823E-09         0.00000E+00
    0.90720E-07        -0.11764E-09         0.00000E+00
    0.90689E-07        -0.11655E-09         0.00000E+00
    0.90658E-07        -0.11505E-09         0.00000E+00
    0.90626E-07        -0.11318E-09         0.00000E+00
    0.90593E-07        -0.11102E-09         0.00000E+00
    0.90561E-07        -0.10860E-09         0.00000E+00
    0.90528E-07        -0.10598E-09         0.00000E+00
    0.90496E-07        -0.10320E-09         0.00000E+00
    0.90463E-07        -0.10028E-09         0.00000E+00
    0.90431E-07        -0.97265E-10         0.00000E+00
    0.90399E-07        -0.94168E-10         0.00000E+00
    0.90367E-07        -0.91014E-10         0.00000E+00
    0.90336E-07        -0.87818E-10         0.00000E+00
    0.90305E-07        -0.84594E-10         0.00000E+00
    0.90275E-07        -0.81353E-10         0.00000E+00
    0.90246E-07        -0.78100E-10         0.00000E+00
    0.90217E-07        -0.74840E-10         0.00000E+00
    0.90190E-07        -0.71573E-10         0.00000E+00
    0.90163E-07        -0.68298E-10         0.00000E+00
    0.90137E-07        -0.65010E-10         0.00000E+00
    0.90113E-07        -0.61702E-10         0.00000E+00
    0.90089E-07        -0.58363E-10         0.00000E+00
    0.90067E-07        -0.54983E-10         0.00000E+00
    0.90046E-07        -0.51545E-10         0.00000E+00
    0.90027E-07        -0.48033E-10         0.00000E+00
    0.90009E-07        -0.44426E-10         0.00000E+00
    0.89993E-07        -0.40701E-10         0.00000E+00
    0.89978E-07        -0.36834E-10         0.00000E+00
    0.89964E-07        -0.32796E-10         0.00000E+00
    0.89953E-07        -0.28557E-10         0.00000E+00
    0.89943E-07        -0.24083E-10         0.00000E+00
    0.89935E-07        -0.19338E-10         0.00000E+00
    0.89929E-07        -0.14284E-10         0.00000E+00
    0.89925E-07        -0.88799E-11         0.00000E+00
    0.89923E-07        -0.30810E-11         0.00000E+00
    0.92266E-07        -0.19835E-11         0.00000E+00
    0.92262E-07        -0.47903E-11         0.00000E+00
    0.92255E-07        -0.60362E-11         0.00000E+00
    0.92245E-07        -0.59494E-11         0.00000E+00
    0.92232E-07        -0.47388E-11         0.00000E+00
    0.92216E-07        -0.25945E-11         0.00000E+00
    0.92197E-07         0.31085E-12         0.00000E+00
    0.92177E-07         0.38214E-11         0.00000E+00
    0.92154E-07         0.77970E-11         0.00000E+00
    0.92129E-07         0.12112E-10         0.00000E+00
    0.92103E-07         0.16656E-10         0.00000E+00
    0.92075E-07         0.21330E-10         0.00000E+00
    0.92046E-07         0.26047E-10         0.00000E+00
    0.92016E-07         0.30731E-10         0.00000E+00
    0.91984E-07         0.35318E-10         0.00000E+00
    0.91952E-07         0.39749E-10         0.00000E+00
    0.91920E-07         0.43977E-10         0.00000E+00
    0.91886E-07         0.47962E-10         0.00000E+00
    0.91853E-07         0.51668E-10         0.00000E+00
    0.91819E-07         0.55068E-10         0.00000E+00
    0.91785E-07         0.58138E-10         0.00000E+00
    0.91751E-07         0.60861E-10         0.00000E+00
    0.91717E-07         0.63222E-10         0.00000E+00
    0.91683E-07         0.65210E-10         0.00000E+00
    0.91649E-07         0.66819E-10         0.00000E+00
    0.91616E-07         0.68042E-10         0.00000E+00
    0.91583E-07         0.68879E-10         0.00000E+00
    0.91551E-07         0.69328E-10         0.00000E+00
    0.91520E-07         0.69392E-10         0.00000E+00
    0.91489E-07         0.69074E-10         0.00000E+00
    0.91459E-07         0.68379E-10         0.00000E+00
    0.91429E-07         0.67313E-10         0.00000E+00
    0.91401E-07         0.65885E-10         0.00000E+00
    0.91374E-07         0.64104E-10         0.00000E+00
    0.91348E-07         0.61981E-10         0.00000E+00
    0.91322E-07         0.59528E-10         0.00000E+00
    0.91298E-07         0.56760E-10         0.00000E+00
    0.91276E-07         0.53693E-10         0.00000E+00
    0.91255E-07         0.50344E-10         0.00000E+00
    0.91235E-07         0.46732E-10         0.00000E+00
    0.91216E-07         0.42880E-10         0.00000E+00
    0.91199E-07         0.38812E-10         0.00000E+00
    0.91184E-07         0.34554E-10         0.00000E+00
    0.91170E-07         0.30136E-10         0.00000E+00
    0.91158E-07         0.25589E-10         0.00000E+00
    0.91148E-07         0.20948E-10         0.00000E+00
    0.91140E-07         0.16252E-10         0.00000E+00
    0.91134E-07         0.11540E-10         0.00000E+00
    0.91130E-07         0.68579E-11         0.00000E+00
    0.91128E-07         0.22522E-11         0.00000E+00
    0.93242E-07         0.77179E-11         0.00000E+00
    0.93238E-07         0.23383E-10         0.00000E+00
    0.93230E-07         0.39235E-10         0.00000E+00
    0.93219E-07         0.55084E-10         0.00000E+00
    0.93205E-07         0.70761E-10         0.00000E+00
    0.93188E-07         0.86118E-10         0.00000E+00
    0.93169E-07         0.10103E-09         0.00000E+00
    0.93147E-07         0.11538E-09         0.00000E+00
    0.93123E-07         0.12908E-09         0.00000E+00
    0.93098E-07         0.14207E-09         0.00000E+00
    0.93070E-07         0.15426E-09         0.00000E+00
    0.93042E-07         0.16562E-09         0.00000E+00
    0.93012E-07         0.17612E-09         0.00000E+00
    0.92981E-07         0.18571E-09         0.00000E+00
    0.92950E-07         0.19440E-09         0.00000E+00
    0.92918E-07         0.20216E-09         0.00000E+00
    0.92885E-07         0.20899E-09         0.00000E+00
    0.92852E-07         0.21490E-09         0.00000E+00
    0.92818E-07         0.21989E-09         0.00000E+00
    0.92785E-07         0.22398E-09         0.00000E+00
    0.92751E-07         0.22718E-09         0.00000E+00
    0.92718E-07         0.22950E-09         0.00000E+00
    0.92685E-07         0.23096E-09         0.00000E+00
    0.92652E-07         0.23158E-09         0.00000E+00
    0.92619E-07         0.23138E-09         0.00000E+00
    0.92587E-07         0.23037E-09         0.00000E+00
    0.92555E-07         0.22858E-09         0.00000E+00
    0.92524E-07         0.22602E-09         0.00000E+00
    0.92493E-07         0.22271E-09         0.00000E+00
    0.92464E-07         0.21866E-09         0.00000E+00
    0.92435E-07         0.21390E-09         0.00000E+00
    0.92407E-07         0.20843E-09         0.00000E+00
    0.92380E-07         0.20227E-09         0.00000E+00
    0.92353E-07         0.19543E-09         0.00000E+00
    0.92328E-07         0.18793E-09         0.00000E+00
    0.92304E-07         0.17978E-09         0.00000E+00
    0.92281E-07         0.17100E-09         0.00000E+00
    0.92259E-07         0.16160E-09         0.00000E+00
    0.92239E-07         0.15159E-09         0.00000E+00
    0.92220E-07         0.14098E-09         0.00000E+00
    0.92202E-07         0.12981E-09         0.00000E+00
    0.92185E-07         0.11808E-09         0.00000E+00
    0.92171E-07         0.10583E-09         0.00000E+00
    0.92157E-07         0.93064E-10         0.00000E+00
    0.92146E-07         0.79821E-10         0.00000E+00
    0.92136E-07         0.66131E-10         0.00000E+00
    0.92128E-07         0.52028E-10         0.00000E+00
    0.92122E-07         0.37550E-10         0.00000E+00
    0.92118E-07         0.22740E-10         0.00000E+00
    0.92116E-07         0.76459E-11         0.00000E+00
    0.93909E-07         0.17982E-10         0.00000E+00
    0.93905E-07         0.53025E-10         0.00000E+00
    0.93897E-07         0.86580E-10         0.00000E+00
    0.93886E-07         0.11852E-09         0.00000E+00
    0.93872E-07         0.14873E-09         0.00000E+00
    0.93855E-07         0.17715E-09         0.00000E+00
    0.93835E-07         0.20371E-09         0.00000E+00
    0.93814E-07         0.22837E-09         0.00000E+00
    0.93791E-07         0.25113E-09         0.00000E+00
    0.93766E-07         0.27199E-09         0.00000E+00
    0.93740E-07         0.29095E-09         0.00000E+00
    0.93712E-07         0.30804E-09         0.00000E+00
    0.93684E-07         0.32330E-09         0.00000E+00
    0.93655E-07         0.33679E-09         0.00000E+00
    0.93626E-07         0.34853E-09         0.00000E+00
    0.93596E-07         0.35861E-09         0.00000E+00
    0.93566E-07         0.36706E-09         0.00000E+00
    0.93536E-07         0.37396E-09         0.00000E+00
    0.93505E-07         0.37936E-09         0.00000E+00
    0.93475E-07         0.38333E-09         0.00000E+00
    0.93445E-07         0.38592E-09         0.00000E+00
    0.93415E-07         0.38719E-09         0.00000E+00
    0.93386E-07         0.38720E-09         0.00000E+00
    0.93356E-07         0.38599E-09         0.00000E+00
    0.93328E-07         0.38362E-09         0.00000E+00
    0.93300E-07         0.38012E-09         0.00000E+00
    0.93272E-07         0.37553E-09         0.00000E+00
    0.93245E-07         0.36990E-09         0.00000E+00
    0.93218E-07         0.36325E-09         0.00000E+00
    0.93193E-07         0.35560E-09         0.00000E+00
    0.93168E-07         0.34699E-09         0.00000E+00
    0.93143E-07         0.33742E-09         0.00000E+00
    0.93120E-07         0.32692E-09         0.00000E+00
    0.93097E-07         0.31549E-09         0.00000E+00
    0.93075E-07         0.30315E-09         0.00000E+00
    0.93054E-07         0.28991E-09         0.00000E+00
    0.93034E-07         0.27576E-09         0.00000E+00
    0.93015E-07         0.26071E-09         0.00000E+00
    0.92997E-07         0.24477E-09         0.00000E+00
    0.92980E-07         0.22794E-09         0.00000E+00
    0.92965E-07         0.21023E-09         0.00000E+00
    0.92950E-07         0.19163E-09         0.00000E+00
    0.92937E-07         0.17216E-09         0.00000E+00
    0.92925E-07         0.15182E-09         0.00000E+00
    0.92915E-07         0.13064E-09         0.00000E+00
    0.92906E-07         0.10862E-09         0.00000E+00
    0.92899E-07         0.85802E-10         0.00000E+00
    0.92893E-07         0.62199E-10         0.00000E+00
    0.92889E-07         0.37853E-10         0.00000E+00
    0.92888E-07         0.12802E-10         0.00000E+00
    0.94239E-07         0.28264E-10         0.00000E+00
    0.94235E-07         0.82490E-10         0.00000E+00
    0.94228E-07         0.13320E-09         0.00000E+00
    0.94217E-07         0.18036E-09         0.00000E+00
    0.94204E-07         0.22396E-09         0.00000E+00
    0.94189E-07         0.26405E-09         0.00000E+00
    0.94171E-07         0.30068E-09         0.00000E+00
    0.94152E-07         0.33394E-09         0.00000E+00
    0.94132E-07         0.36391E-09         0.00000E+00
    0.94110E-07         0.39073E-09         0.00000E+00
    0.94088E-07         0.41452E-09         0.00000E+00
    0.94065E-07         0.43541E-09         0.00000E+00
    0.94042E-07         0.45355E-09         0.00000E+00
    0.94018E-07         0.46908E-09         0.00000E+00
    0.93994E-07         0.48215E-09         0.00000E+00
    0.93971E-07         0.49291E-09         0.00000E+00
    0.93947E-07         0.50148E-09         0.00000E+00
    0.93923E-07         0.50800E-09         0.00000E+00
    0.93900E-07         0.51260E-09         0.00000E+00
    0.93878E-07         0.51540E-09         0.00000E+00
    0.93855E-07         0.51650E-09         0.00000E+00
    0.93833E-07         0.51601E-09         0.00000E+00
    0.93811E-07         0.51401E-09         0.00000E+00
    0.93790E-07         0.51060E-09         0.00000E+00
    0.93770E-07         0.50585E-09         0.00000E+00
    0.93749E-07         0.49982E-09         0.00000E+00
    0.93730E-07         0.49256E-09         0.00000E+00
    0.93711E-07         0.48414E-09         0.00000E+00
    0.93692E-07         0.47458E-09         0.00000E+00
    0.93674E-07         0.46391E-09         0.00000E+00
    0.93656E-07         0.45217E-09         0.00000E+00
    0.93639E-07         0.43936E-09         0.00000E+00
    0.93622E-07         0.42550E-09         0.00000E+00
    0.93606E-07         0.41059E-09         0.00000E+00
    0.93591E-07         0.39463E-09         0.00000E+00
    0.93576E-07         0.37760E-09         0.00000E+00
    0.93562E-07         0.35950E-09         0.00000E+00
    0.93548E-07         0.34030E-09         0.00000E+00
    0.93535E-07         0.31998E-09         0.00000E+00
    0.93523E-07         0.29853E-09         0.00000E+00
    0.93511E-07         0.27591E-09         0.00000E+00
    0.93500E-07         0.25211E-09         0.00000E+00
    0.93490E-07         0.22710E-09         0.00000E+00
    0.93481E-07         0.20087E-09         0.00000E+00
    0.93473E-07         0.17340E-09         0.00000E+00
    0.93467E-07         0.14467E-09         0.00000E+00
    0.93461E-07         0.11469E-09         0.00000E+00
    0.93456E-07         0.83464E-10         0.00000E+00
    0.93453E-07         0.50998E-10         0.00000E+00
    0.93452E-07         0.17322E-10         0.00000E+00
    0.94203E-07         0.37760E-10         0.00000E+00
    0.94200E-07         0.10916E-09         0.00000E+00
    0.94193E-07         0.17456E-09         0.00000E+00
    0.94185E-07         0.23411E-09         0.00000E+00
    0.94175E-07         0.28801E-09         0.00000E+00
    0.94163E-07         0.33646E-09         0.00000E+00
    0.94150E-07         0.37970E-09         0.00000E+00
    0.94136E-07         0.41799E-09         0.00000E+00
    0.94122E-07         0.45164E-09         0.00000E+00
    0.94108E-07         0.48093E-09         0.00000E+00
    0.94094E-07         0.50616E-09         0.00000E+00
    0.94080E-07         0.52765E-09         0.00000E+00
    0.94067E-07         0.54567E-09         0.00000E+00
    0.94054E-07         0.56050E-09         0.00000E+00
    0.94041E-07         0.57241E-09         0.00000E+00
    0.94029E-07         0.58162E-09         0.00000E+00
    0.94018E-07         0.58838E-09         0.00000E+00
    0.94007E-07         0.59288E-09         0.00000E+00
    0.93996E-07         0.59531E-09         0.00000E+00
    0.93987E-07         0.59585E-09         0.00000E+00
    0.93977E-07         0.59464E-09         0.00000E+00
    0.93969E-07         0.59182E-09         0.00000E+00
    0.93960E-07         0.58753E-09         0.00000E+00
    0.93952E-07         0.58185E-09         0.00000E+00
    0.93945E-07         0.57488E-09         0.00000E+00
    0.93938E-07         0.56671E-09         0.00000E+00
    0.93931E-07         0.55739E-09         0.00000E+00
    0.93925E-07         0.54698E-09         0.00000E+00
    0.93919E-07         0.53552E-09         0.00000E+00
    0.93913E-07         0.52304E-09         0.00000E+00
    0.93907E-07         0.50955E-09         0.00000E+00
    0.93902E-07         0.49506E-09         0.00000E+00
    0.93896E-07         0.47957E-09         0.00000E+00
    0.93891E-07         0.46306E-09         0.00000E+00
    0.93886E-07         0.44552E-09         0.00000E+00
    0.93881E-07         0.42691E-09         0.00000E+00
    0.93876E-07         0.40718E-09         0.00000E+00
    0.93871E-07         0.38628E-09         0.00000E+00
    0.93866E-07         0.36417E-09         0.00000E+00
    0.93861E-07         0.34077E-09         0.00000E+00
    0.93856E-07         0.31601E-09         0.00000E+00
    0.93851E-07         0.28982E-09         0.00000E+00
    0.93846E-07         0.26213E-09         0.00000E+00
    0.93842E-07         0.23285E-09         0.00000E+00
    0.93838E-07         0.20192E-09         0.00000E+00
    0.93834E-07         0.16928E-09         0.00000E+00
    0.93831E-07         0.13488E-09         0.00000E+00
    0.93828E-07         0.98675E-10         0.00000E+00
    0.93826E-07         0.60640E-10         0.00000E+00
    0.93825E-07         0.20744E-10         0.00000E+00
    0.93765E-07         0.44663E-10         0.00000E+00
    0.93763E-07         0.12810E-09         0.00000E+00
    0.93760E-07         0.20265E-09         0.00000E+00
    0.93756E-07         0.26856E-09         0.00000E+00
    0.93751E-07         0.32630E-09         0.00000E+00
    0.93748E-07         0.37647E-09         0.00000E+00
    0.93744E-07         0.41971E-09         0.00000E+00
    0.93742E-07         0.45666E-09         0.00000E+00
    0.93741E-07         0.48795E-09         0.00000E+00
    0.93741E-07         0.51416E-09         0.00000E+00
    0.93743E-07         0.53583E-09         0.00000E+00
    0.93746E-07         0.55345E-09         0.00000E+00
    0.93750E-07         0.56746E-09         0.00000E+00
    0.93755E-07         0.57827E-09         0.00000E+00
    0.93761E-07         0.58621E-09         0.00000E+00
    0.93768E-07         0.59161E-09         0.00000E+00
    0.93777E-07         0.59475E-09         0.00000E+00
    0.93786E-07         0.59587E-09         0.00000E+00
    0.93795E-07         0.59520E-09         0.00000E+00
    0.93806E-07         0.59291E-09         0.00000E+00
    0.93817E-07         0.58917E-09         0.00000E+00
    0.93828E-07         0.58413E-09         0.00000E+00
    0.93840E-07         0.57792E-09         0.00000E+00
    0.93852E-07         0.57063E-09         0.00000E+00
    0.93864E-07         0.56236E-09         0.00000E+00
    0.93876E-07         0.55317E-09         0.00000E+00
    0.93888E-07         0.54313E-09         0.00000E+00
    0.93901E-07         0.53229E-09         0.00000E+00
    0.93913E-07         0.52067E-09         0.00000E+00
    0.93924E-07         0.50829E-09         0.00000E+00
    0.93936E-07         0.49517E-09         0.00000E+00
    0.93947E-07         0.48130E-09         0.00000E+00
    0.93958E-07         0.46666E-09         0.00000E+00
    0.93968E-07         0.45122E-09         0.00000E+00
    0.93978E-07         0.43495E-09         0.00000E+00
    0.93987E-07         0.41778E-09         0.00000E+00
    0.93995E-07         0.39967E-09         0.00000E+00
    0.94003E-07         0.38052E-09         0.00000E+00
    0.94010E-07         0.36024E-09         0.00000E+00
    0.94016E-07         0.33872E-09         0.00000E+00
    0.94021E-07         0.31584E-09         0.00000E+00
    0.94026E-07         0.29145E-09         0.00000E+00
    0.94030E-07         0.26540E-09         0.00000E+00
    0.94032E-07         0.23753E-09         0.00000E+00
    0.94034E-07         0.20764E-09         0.00000E+00
    0.94036E-07         0.17556E-09         0.00000E+00
    0.94036E-07         0.14110E-09         0.00000E+00
    0.94037E-07         0.10411E-09         0.00000E+00
    0.94037E-07         0.64478E-10         0.00000E+00
    0.94037E-07         0.22198E-10         0.00000E+00
    0.92876E-07         0.47457E-10         0.00000E+00
    0.92877E-07         0.13151E-09         0.00000E+00
    0.92880E-07         0.20131E-09         0.00000E+00
    0.92886E-07         0.25911E-09         0.00000E+00
    0.92896E-07         0.30682E-09         0.00000E+00
    0.92910E-07         0.34606E-09         0.00000E+00
    0.92927E-07         0.37813E-09         0.00000E+00
    0.92948E-07         0.40416E-09         0.00000E+00
    0.92973E-07         0.42505E-09         0.00000E+00
    0.92999E-07         0.44157E-09         0.00000E+00
    0.93029E-07         0.45437E-09         0.00000E+00
    0.93060E-07         0.46399E-09         0.00000E+00
    0.93093E-07         0.47088E-09         0.00000E+00
    0.93128E-07         0.47543E-09         0.00000E+00
    0.93164E-07         0.47796E-09         0.00000E+00
    0.93201E-07         0.47875E-09         0.00000E+00
    0.93239E-07         0.47805E-09         0.00000E+00
    0.93277E-07         0.47604E-09         0.00000E+00
    0.93315E-07         0.47290E-09         0.00000E+00
    0.93354E-07         0.46879E-09         0.00000E+00
    0.93393E-07         0.46381E-09         0.00000E+00
    0.93432E-07         0.45809E-09         0.00000E+00
    0.93471E-07         0.45170E-09         0.00000E+00
    0.93509E-07         0.44471E-09         0.00000E+00
    0.93547E-07         0.43721E-09         0.00000E+00
    0.93585E-07         0.42922E-09         0.00000E+00
    0.93622E-07         0.42078E-09         0.00000E+00
    0.93659E-07         0.41194E-09         0.00000E+00
    0.93694E-07         0.40269E-09         0.00000E+00
    0.93729E-07         0.39306E-09         0.00000E+00
    0.93763E-07         0.38305E-09         0.00000E+00
    0.93796E-07         0.37263E-09         0.00000E+00
    0.93828E-07         0.36180E-09         0.00000E+00
    0.93859E-07         0.35053E-09         0.00000E+00
    0.93889E-07         0.33878E-09         0.00000E+00
    0.93917E-07         0.32649E-09         0.00000E+00
    0.93944E-07         0.31362E-09         0.00000E+00
    0.93970E-07         0.30007E-09         0.00000E+00
    0.93994E-07         0.28575E-09         0.00000E+00
    0.94016E-07         0.27056E-09         0.00000E+00
    0.94037E-07         0.25436E-09         0.00000E+00
    0.94055E-07         0.23697E-09         0.00000E+00
    0.94072E-07         0.21822E-09         0.00000E+00
    0.94087E-07         0.19787E-09         0.00000E+00
    0.94099E-07         0.17562E-09         0.00000E+00
    0.94109E-07         0.15114E-09         0.00000E+00
    0.94116E-07         0.12402E-09         0.00000E+00
    0.94122E-07         0.93769E-10         0.00000E+00
    0.94125E-07         0.59781E-10         0.00000E+00
    0.94126E-07         0.21359E-10         0.00000E+00
    0.91431E-07         0.23892E-10         0.00000E+00
    0.91448E-07         0.64118E-10         0.00000E+00
    0.91480E-07         0.95261E-10         0.00000E+00
    0.91523E-07         0.11952E-09         0.00000E+00
    0.91575E-07         0.13849E-09         0.00000E+00
    0.91633E-07         0.15330E-09         0.00000E+00
    0.91697E-07         0.16484E-09         0.00000E+00
    0.91764E-07         0.17373E-09         0.00000E+00
    0.91835E-07         0.18050E-09         0.00000E+00
    0.91908E-07         0.18552E-09         0.00000E+00
    0.91983E-07         0.18911E-09         0.00000E+00
    0.92059E-07         0.19151E-09         0.00000E+00
    0.92136E-07         0.19292E-09         0.00000E+00
    0.92214E-07         0.19351E-09         0.00000E+00
    0.92291E-07         0.19340E-09         0.00000E+00
    0.92368E-07         0.19271E-09         0.00000E+00
    0.92445E-07         0.19152E-09         0.00000E+00
    0.92521E-07         0.18992E-09         0.00000E+00
    0.92597E-07         0.18797E-09         0.00000E+00
    0.92672E-07         0.18571E-09         0.00000E+00
    0.92745E-07         0.18321E-09         0.00000E+00
    0.92818E-07         0.18048E-09         0.00000E+00
    0.92890E-07         0.17757E-09         0.00000E+00
    0.92960E-07         0.17449E-09         0.00000E+00
    0.93029E-07         0.17127E-09         0.00000E+00
    0.93097E-07         0.16793E-09         0.00000E+00
    0.93164E-07         0.16447E-09         0.00000E+00
    0.93229E-07         0.16091E-09         0.00000E+00
    0.93292E-07         0.15725E-09         0.00000E+00
    0.93355E-07         0.15349E-09         0.00000E+00
    0.93415E-07         0.14963E-09         0.00000E+00
    0.93474E-07         0.14567E-09         0.00000E+00
    0.93532E-07         0.14160E-09         0.00000E+00
    0.93587E-07         0.13740E-09         0.00000E+00
    0.93642E-07         0.13307E-09         0.00000E+00
    0.93694E-07         0.12857E-09         0.00000E+00
    0.93744E-07         0.12389E-09         0.00000E+00
    0.93793E-07         0.11900E-09         0.00000E+00
    0.93840E-07         0.11385E-09         0.00000E+00
    0.93884E-07         0.10840E-09         0.00000E+00
    0.93926E-07         0.10258E-09         0.00000E+00
    0.93966E-07         0.96325E-10         0.00000E+00
    0.94003E-07         0.89538E-10         0.00000E+00
    0.94037E-07         0.82098E-10         0.00000E+00
    0.94069E-07         0.73851E-10         0.00000E+00
    0.94096E-07         0.64592E-10         0.00000E+00
    0.94120E-07         0.54050E-10         0.00000E+00
    0.94139E-07         0.41853E-10         0.00000E+00
    0.94153E-07         0.27487E-10         0.00000E+00
    0.94161E-07         0.10222E-10         0.00000E+00
POINT_DATA       5151
VECTORS vDarcyNodal double 
    0.26187E-08         0.00000E+00         0.00000E+00
    0.26181E-08         0.00000E+00         0.00000E+00
    0.26166E-08         0.00000E+00         0.00000E+00
    0.26143E-08         0.00000E+00         0.00000E+00
    0.26114E-08         0.00000E+00         0.00000E+00
    0.26079E-08         0.00000E+00         0.00000E+00
    0.26040E-08         0.00000E+00         0.00000E+00
    0.25997E-08         0.00000E+00         0.00000E+00
    0.25951E-08         0.00000E+00         0.00000E+00
    0.25903E-08         0.00000E+00         0.00000E+00
    0.25852E-08         0.00000E+00         0.00000E+00
    0.25799E-08         0.00000E+00         0.00000E+00
    0.25745E-08         0.00000E+00         0.00000E+00
    0.25689E-08        -0.18626E-20         0.00000E+00
    0.25632E-08         0.00000E+00         0.00000E+00
    0.25575E-08         0.18626E-20         0.00000E+00
    0.25516E-08         0.00000E+00         0.00000E+00
    0.25457E-08         0.00000E+00         0.00000E+00
    0.25397E-08         0.00000E+00         0.00000E+00
    0.25338E-08         0.00000E+00         0.00000E+00
    0.25277E-08         0.00000E+00         0.00000E+00
    0.25217E-08         0.00000E+00         0.00000E+00
    0.25157E-08         0.00000E+00         0.00000E+00
    0.25097E-08         0.00000E+00         0.00000E+00
    0.25037E-08         0.00000E+00         0.00000E+00
    0.24978E-08         0.00000E+00         0.00000E+00
    0.24919E-08         0.00000E+00         0.00000E+00
    0.24861E-08         0.00000E+00         0.00000E+00
    0.24803E-08         0.00000E+00         0.00000E+00
    0.24746E-08         0.00000E+00         0.00000E+00
    0.24689E-08         0.00000E+00         0.00000E+00
    0.24634E-08         0.00000E+00         0.00000E+00
    0.24580E-08         0.00000E+00         0.00000E+00
    0.24527E-08         0.00000E+00         0.00000E+00
    0.24475E-08         0.00000E+00         0.00000E+00
    0.24424E-08         0.00000E+00         0.00000E+00
    0.24375E-08         0.00000E+00         0.00000E+00
    0.24328E-08         0.00000E+00         0.00000E+00
    0.24282E-08         0.00000E+00         0.00000E+00
    0.24239E-08         0.00000E+00         0.00000E+00
    0.24197E-08         0.00000E+00         0.00000E+00
    0.24158E-08         0.00000E+00         0.00000E+00
    0.24121E-08         0.00000E+00         0.00000E+00
    0.24087E-08         0.00000E+00         0.00000E+00
    0.24056E-08         0.00000E+00         0.00000E+00
    0.24028E-08         0.00000E+00         0.00000E+00
    0.24004E-08         0.00000E+00         0.00000E+00
    0.23984E-08         0.00000E+00         0.00000E+00
    0.23968E-08         0.00000E+00         0.00000E+00
    0.23959E-08         0.18626E-20         0.00000E+00
    0.23955E-08         0.37253E-20         0.00000E+00
    0.25557E-08         0.28008E-11         0.00000E+00
    0.25554E-08         0.52143E-11         0.00000E+00
    0.25545E-08         0.95752E-11         0.00000E+00
    0.25531E-08         0.13115E-10         0.00000E+00
    0.25512E-08         0.16024E-10         0.00000E+00
    0.25489E-08         0.18440E-10         0.00000E+00
    0.25462E-08         0.20462E-10         0.00000E+00
    0.25431E-08         0.22165E-10         0.00000E+00
    0.25398E-08         0.23607E-10         0.00000E+00
    0.25362E-08         0.24830E-10         0.00000E+00
    0.25324E-08         0.25869E-10         0.00000E+00
    0.25284E-08         0.26750E-10         0.00000E+00
    0.25242E-08         0.27494E-10         0.00000E+00
    0.25199E-08         0.28120E-10         0.00000E+00
    0.25154E-08         0.28640E-10         0.00000E+00
    0.25108E-08         0.29067E-10         0.00000E+00
    0.25061E-08         0.29409E-10         0.00000E+00
    0.25014E-08         0.29675E-10         0.00000E+00
    0.24965E-08         0.29869E-10         0.00000E+00
    0.24916E-08         0.29999E-10         0.00000E+00
    0.24867E-08         0.30068E-10         0.00000E+00
    0.24818E-08         0.30079E-10         0.00000E+00
    0.24768E-08         0.30036E-10         0.00000E+00
    0.24718E-08         0.29940E-10         0.00000E+00
    0.24669E-08         0.29793E-10         0.00000E+00
    0.24619E-08         0.29597E-10         0.00000E+00
    0.24570E-08         0.29352E-10         0.00000E+00
    0.24521E-08         0.29059E-10         0.00000E+00
    0.24473E-08         0.28717E-10         0.00000E+00
    0.24426E-08         0.28327E-10         0.00000E+00
    0.24379E-08         0.27886E-10         0.00000E+00
    0.24333E-08         0.27395E-10         0.00000E+00
    0.24287E-08         0.26852E-10         0.00000E+00
    0.24243E-08         0.26254E-10         0.00000E+00
    0.24200E-08         0.25599E-10         0.00000E+00
    0.24158E-08         0.24883E-10         0.00000E+00
    0.24118E-08         0.24104E-10         0.00000E+00
    0.24079E-08         0.23256E-10         0.00000E+00
    0.24042E-08         0.22333E-10         0.00000E+00
    0.24006E-08         0.21329E-10         0.00000E+00
    0.23973E-08         0.20236E-10         0.00000E+00
    0.23941E-08         0.19043E-10         0.00000E+00
    0.23912E-08         0.17738E-10         0.00000E+00
    0.23885E-08         0.16306E-10         0.00000E+00
    0.23861E-08         0.14726E-10         0.00000E+00
    0.23840E-08         0.12973E-10         0.00000E+00
    0.23822E-08         0.11015E-10         0.00000E+00
    0.23808E-08         0.88059E-11         0.00000E+00
    0.23797E-08         0.62863E-11         0.00000E+00
    0.23791E-08         0.33720E-11         0.00000E+00
    0.23788E-08         0.18038E-11         0.00000E+00
    0.24451E-08         0.30750E-11         0.00000E+00
    0.24450E-08         0.59830E-11         0.00000E+00
    0.24449E-08         0.11532E-10         0.00000E+00
    0.24446E-08         0.16546E-10         0.00000E+00
    0.24440E-08         0.21038E-10         0.00000E+00
    0.24433E-08         0.25039E-10         0.00000E+00
    0.24423E-08         0.28591E-10         0.00000E+00
    0.24412E-08         0.31737E-10         0.00000E+00
    0.24398E-08         0.34517E-10         0.00000E+00
    0.24382E-08         0.36968E-10         0.00000E+00
    0.24364E-08         0.39125E-10         0.00000E+00
    0.24344E-08         0.41015E-10         0.00000E+00
    0.24322E-08         0.42666E-10         0.00000E+00
    0.24299E-08         0.44100E-10         0.00000E+00
    0.24275E-08         0.45335E-10         0.00000E+00
    0.24249E-08         0.46389E-10         0.00000E+00
    0.24222E-08         0.47276E-10         0.00000E+00
    0.24195E-08         0.48008E-10         0.00000E+00
    0.24166E-08         0.48596E-10         0.00000E+00
    0.24137E-08         0.49049E-10         0.00000E+00
    0.24107E-08         0.49374E-10         0.00000E+00
    0.24076E-08         0.49577E-10         0.00000E+00
    0.24045E-08         0.49665E-10         0.00000E+00
    0.24014E-08         0.49641E-10         0.00000E+00
    0.23983E-08         0.49509E-10         0.00000E+00
    0.23951E-08         0.49270E-10         0.00000E+00
    0.23920E-08         0.48928E-10         0.00000E+00
    0.23889E-08         0.48483E-10         0.00000E+00
    0.23858E-08         0.47935E-10         0.00000E+00
    0.23827E-08         0.47284E-10         0.00000E+00
    0.23797E-08         0.46530E-10         0.00000E+00
    0.23767E-08         0.45670E-10         0.00000E+00
    0.23738E-08         0.44702E-10         0.00000E+00
    0.23710E-08         0.43622E-10         0.00000E+00
    0.23682E-08         0.42428E-10         0.00000E+00
    0.23656E-08         0.41114E-10         0.00000E+00
    0.23631E-08         0.39674E-10         0.00000E+00
    0.23606E-08         0.38102E-10         0.00000E+00
    0.23584E-08         0.36389E-10         0.00000E+00
    0.23562E-08         0.34527E-10         0.00000E+00
    0.23542E-08         0.32504E-10         0.00000E+00
    0.23524E-08         0.30308E-10         0.00000E+00
    0.23507E-08         0.27925E-10         0.00000E+00
    0.23492E-08         0.25340E-10         0.00000E+00
    0.23479E-08         0.22533E-10         0.00000E+00
    0.23468E-08         0.19485E-10         0.00000E+00
    0.23459E-08         0.16175E-10         0.00000E+00
    0.23453E-08         0.12582E-10         0.00000E+00
    0.23448E-08         0.86877E-11         0.00000E+00
    0.23445E-08         0.44835E-11         0.00000E+00
    0.23444E-08         0.23034E-11         0.00000E+00
    0.23616E-08         0.31433E-11         0.00000E+00
    0.23616E-08         0.61452E-11         0.00000E+00
    0.23616E-08         0.11945E-10         0.00000E+00
    0.23616E-08         0.17341E-10         0.00000E+00
    0.23615E-08         0.22343E-10         0.00000E+00
    0.23614E-08         0.26961E-10         0.00000E+00
    0.23612E-08         0.31206E-10         0.00000E+00
    0.23608E-08         0.35093E-10         0.00000E+00
    0.23604E-08         0.38637E-10         0.00000E+00
    0.23599E-08         0.41856E-10         0.00000E+00
    0.23592E-08         0.44767E-10         0.00000E+00
    0.23585E-08         0.47387E-10         0.00000E+00
    0.23576E-08         0.49734E-10         0.00000E+00
    0.23566E-08         0.51824E-10         0.00000E+00
    0.23555E-08         0.53670E-10         0.00000E+00
    0.23543E-08         0.55288E-10         0.00000E+00
    0.23531E-08         0.56688E-10         0.00000E+00
    0.23517E-08         0.57883E-10         0.00000E+00
    0.23503E-08         0.58882E-10         0.00000E+00
    0.23488E-08         0.59694E-10         0.00000E+00
    0.23472E-08         0.60326E-10         0.00000E+00
    0.23456E-08         0.60787E-10         0.00000E+00
    0.23439E-08         0.61080E-10         0.00000E+00
    0.23422E-08         0.61211E-10         0.00000E+00
    0.23404E-08         0.61184E-10         0.00000E+00
    0.23387E-08         0.61002E-10         0.00000E+00
    0.23369E-08         0.60667E-10         0.00000E+00
    0.23351E-08         0.60180E-10         0.00000E+00
    0.23334E-08         0.59543E-10         0.00000E+00
    0.23316E-08         0.58755E-10         0.00000E+00
    0.23299E-08         0.57817E-10         0.00000E+00
    0.23282E-08         0.56725E-10         0.00000E+00
    0.23265E-08         0.55478E-10         0.00000E+00
    0.23249E-08         0.54074E-10         0.00000E+00
    0.23234E-08         0.52508E-10         0.00000E+00
    0.23219E-08         0.50777E-10         0.00000E+00
    0.23204E-08         0.48874E-10         0.00000E+00
    0.23191E-08         0.46796E-10         0.00000E+00
    0.23178E-08         0.44533E-10         0.00000E+00
    0.23166E-08         0.42081E-10         0.00000E+00
    0.23155E-08         0.39429E-10         0.00000E+00
    0.23145E-08         0.36570E-10         0.00000E+00
    0.23137E-08         0.33495E-10         0.00000E+00
    0.23129E-08         0.30194E-10         0.00000E+00
    0.23122E-08         0.26656E-10         0.00000E+00
    0.23117E-08         0.22873E-10         0.00000E+00
    0.23112E-08         0.18836E-10         0.00000E+00
    0.23109E-08         0.14536E-10         0.00000E+00
    0.23106E-08         0.99652E-11         0.00000E+00
    0.23105E-08         0.51156E-11         0.00000E+00
    0.23105E-08         0.26198E-11         0.00000E+00
    0.22998E-08         0.30132E-11         0.00000E+00
    0.22998E-08         0.59280E-11         0.00000E+00
    0.22999E-08         0.11607E-10         0.00000E+00
    0.23000E-08         0.16982E-10         0.00000E+00
    0.23001E-08         0.22052E-10         0.00000E+00
    0.23003E-08         0.26816E-10         0.00000E+00
    0.23004E-08         0.31277E-10         0.00000E+00
    0.23005E-08         0.35439E-10         0.00000E+00
    0.23005E-08         0.39306E-10         0.00000E+00
    0.23006E-08         0.42885E-10         0.00000E+00
    0.23005E-08         0.46182E-10         0.00000E+00
    0.23005E-08         0.49205E-10         0.00000E+00
    0.23003E-08         0.51962E-10         0.00000E+00
    0.23001E-08         0.54460E-10         0.00000E+00
    0.22999E-08         0.56708E-10         0.00000E+00
    0.22995E-08         0.58714E-10         0.00000E+00
    0.22991E-08         0.60485E-10         0.00000E+00
    0.22987E-08         0.62029E-10         0.00000E+00
    0.22982E-08         0.63352E-10         0.00000E+00
    0.22977E-08         0.64460E-10         0.00000E+00
    0.22971E-08         0.65360E-10         0.00000E+00
    0.22964E-08         0.66056E-10         0.00000E+00
    0.22957E-08         0.66552E-10         0.00000E+00
    0.22950E-08         0.66852E-10         0.00000E+00
    0.22943E-08         0.66960E-10         0.00000E+00
    0.22935E-08         0.66879E-10         0.00000E+00
    0.22927E-08         0.66609E-10         0.00000E+00
    0.22919E-08         0.66153E-10         0.00000E+00
    0.22911E-08         0.65512E-10         0.00000E+00
    0.22903E-08         0.64685E-10         0.00000E+00
    0.22895E-08         0.63672E-10         0.00000E+00
    0.22887E-08         0.62473E-10         0.00000E+00
    0.22879E-08         0.61086E-10         0.00000E+00
    0.22872E-08         0.59509E-10         0.00000E+00
    0.22865E-08         0.57740E-10         0.00000E+00
    0.22857E-08         0.55775E-10         0.00000E+00
    0.22851E-08         0.53612E-10         0.00000E+00
    0.22844E-08         0.51247E-10         0.00000E+00
    0.22839E-08         0.48675E-10         0.00000E+00
    0.22833E-08         0.45892E-10         0.00000E+00
    0.22828E-08         0.42893E-10         0.00000E+00
    0.22824E-08         0.39674E-10         0.00000E+00
    0.22820E-08         0.36229E-10         0.00000E+00
    0.22816E-08         0.32553E-10         0.00000E+00
    0.22814E-08         0.28641E-10         0.00000E+00
    0.22811E-08         0.24489E-10         0.00000E+00
    0.22809E-08         0.20092E-10         0.00000E+00
    0.22808E-08         0.15445E-10         0.00000E+00
    0.22807E-08         0.10546E-10         0.00000E+00
    0.22806E-08         0.53908E-11         0.00000E+00
    0.22806E-08         0.27488E-11         0.00000E+00
    0.22566E-08         0.28190E-11         0.00000E+00
    0.22566E-08         0.55645E-11         0.00000E+00
    0.22567E-08         0.10942E-10         0.00000E+00
    0.22569E-08         0.16090E-10         0.00000E+00
    0.22571E-08         0.21002E-10         0.00000E+00
    0.22574E-08         0.25672E-10         0.00000E+00
    0.22577E-08         0.30097E-10         0.00000E+00
    0.22580E-08         0.34275E-10         0.00000E+00
    0.22583E-08         0.38205E-10         0.00000E+00
    0.22586E-08         0.41885E-10         0.00000E+00
    0.22589E-08         0.45318E-10         0.00000E+00
    0.22592E-08         0.48504E-10         0.00000E+00
    0.22594E-08         0.51446E-10         0.00000E+00
    0.22597E-08         0.54145E-10         0.00000E+00
    0.22599E-08         0.56605E-10         0.00000E+00
    0.22600E-08         0.58829E-10         0.00000E+00
    0.22602E-08         0.60821E-10         0.00000E+00
    0.22603E-08         0.62582E-10         0.00000E+00
    0.22604E-08         0.64118E-10         0.00000E+00
    0.22604E-08         0.65430E-10         0.00000E+00
    0.22604E-08         0.66522E-10         0.00000E+00
    0.22604E-08         0.67396E-10         0.00000E+00
    0.22604E-08         0.68055E-10         0.00000E+00
    0.22603E-08         0.68502E-10         0.00000E+00
    0.22602E-08         0.68738E-10         0.00000E+00
    0.22601E-08         0.68765E-10         0.00000E+00
    0.22600E-08         0.68583E-10         0.00000E+00
    0.22598E-08         0.68195E-10         0.00000E+00
    0.22596E-08         0.67600E-10         0.00000E+00
    0.22595E-08         0.66800E-10         0.00000E+00
    0.22593E-08         0.65792E-10         0.00000E+00
    0.22591E-08         0.64578E-10         0.00000E+00
    0.22589E-08         0.63157E-10         0.00000E+00
    0.22587E-08         0.61527E-10         0.00000E+00
    0.22585E-08         0.59686E-10         0.00000E+00
    0.22584E-08         0.57634E-10         0.00000E+00
    0.22582E-08         0.55369E-10         0.00000E+00
    0.22580E-08         0.52888E-10         0.00000E+00
    0.22579E-08         0.50189E-10         0.00000E+00
    0.22578E-08         0.47270E-10         0.00000E+00
    0.22576E-08         0.44129E-10         0.00000E+00
    0.22575E-08         0.40762E-10         0.00000E+00
    0.22575E-08         0.37168E-10         0.00000E+00
    0.22574E-08         0.33344E-10         0.00000E+00
    0.22573E-08         0.29288E-10         0.00000E+00
    0.22573E-08         0.24998E-10         0.00000E+00
    0.22573E-08         0.20471E-10         0.00000E+00
    0.22572E-08         0.15707E-10         0.00000E+00
    0.22572E-08         0.10705E-10         0.00000E+00
    0.22572E-08         0.54625E-11         0.00000E+00
    0.22572E-08         0.27814E-11         0.00000E+00
    0.22299E-08         0.26020E-11         0.00000E+00
    0.22300E-08         0.51497E-11         0.00000E+00
    0.22301E-08         0.10159E-10         0.00000E+00
    0.22303E-08         0.14994E-10         0.00000E+00
    0.22305E-08         0.19643E-10         0.00000E+00
    0.22308E-08         0.24101E-10         0.00000E+00
    0.22312E-08         0.28359E-10         0.00000E+00
    0.22316E-08         0.32413E-10         0.00000E+00
    0.22320E-08         0.36259E-10         0.00000E+00
    0.22324E-08         0.39891E-10         0.00000E+00
    0.22329E-08         0.43308E-10         0.00000E+00
    0.22333E-08         0.46507E-10         0.00000E+00
    0.22338E-08         0.49486E-10         0.00000E+00
    0.22342E-08         0.52245E-10         0.00000E+00
    0.22347E-08         0.54782E-10         0.00000E+00
    0.22351E-08         0.57097E-10         0.00000E+00
    0.22355E-08         0.59191E-10         0.00000E+00
    0.22360E-08         0.61064E-10         0.00000E+00
    0.22364E-08         0.62715E-10         0.00000E+00
    0.22367E-08         0.64147E-10         0.00000E+00
    0.22371E-08         0.65358E-10         0.00000E+00
    0.22374E-08         0.66351E-10         0.00000E+00
    0.22378E-08         0.67126E-10         0.00000E+00
    0.22381E-08         0.67683E-10         0.00000E+00
    0.22384E-08         0.68024E-10         0.00000E+00
    0.22386E-08         0.68148E-10         0.00000E+00
    0.22389E-08         0.68056E-10         0.00000E+00
    0.22391E-08         0.67748E-10         0.00000E+00
    0.22394E-08         0.67225E-10         0.00000E+00
    0.22396E-08         0.66486E-10         0.00000E+00
    0.22398E-08         0.65531E-10         0.00000E+00
    0.22399E-08         0.64359E-10         0.00000E+00
    0.22401E-08         0.62972E-10         0.00000E+00
    0.22403E-08         0.61366E-10         0.00000E+00
    0.22404E-08         0.59543E-10         0.00000E+00
    0.22406E-08         0.57501E-10         0.00000E+00
    0.22407E-08         0.55240E-10         0.00000E+00
    0.22409E-08         0.52757E-10         0.00000E+00
    0.22410E-08         0.50053E-10         0.00000E+00
    0.22411E-08         0.47126E-10         0.00000E+00
    0.22412E-08         0.43975E-10         0.00000E+00
    0.22413E-08         0.40599E-10         0.00000E+00
    0.22414E-08         0.36997E-10         0.00000E+00
    0.22415E-08         0.33168E-10         0.00000E+00
    0.22416E-08         0.29112E-10         0.00000E+00
    0.22417E-08         0.24828E-10         0.00000E+00
    0.22417E-08         0.20316E-10         0.00000E+00
    0.22418E-08         0.15574E-10         0.00000E+00
    0.22418E-08         0.10605E-10         0.00000E+00
    0.22419E-08         0.54067E-11         0.00000E+00
    0.22419E-08         0.27507E-11         0.00000E+00
    0.22183E-08         0.23915E-11         0.00000E+00
    0.22183E-08         0.47421E-11         0.00000E+00
    0.22184E-08         0.93778E-11         0.00000E+00
    0.22186E-08         0.13877E-10         0.00000E+00
    0.22189E-08         0.18231E-10         0.00000E+00
    0.22192E-08         0.22429E-10         0.00000E+00
    0.22195E-08         0.26465E-10         0.00000E+00
    0.22199E-08         0.30330E-10         0.00000E+00
    0.22203E-08         0.34018E-10         0.00000E+00
    0.22208E-08         0.37524E-10         0.00000E+00
    0.22213E-08         0.40842E-10         0.00000E+00
    0.22218E-08         0.43968E-10         0.00000E+00
    0.22223E-08         0.46898E-10         0.00000E+00
    0.22228E-08         0.49628E-10         0.00000E+00
    0.22234E-08         0.52156E-10         0.00000E+00
    0.22239E-08         0.54480E-10         0.00000E+00
    0.22245E-08         0.56597E-10         0.00000E+00
    0.22250E-08         0.58505E-10         0.00000E+00
    0.22256E-08         0.60203E-10         0.00000E+00
    0.22261E-08         0.61691E-10         0.00000E+00
    0.22267E-08         0.62965E-10         0.00000E+00
    0.22272E-08         0.64027E-10         0.00000E+00
    0.22277E-08         0.64875E-10         0.00000E+00
    0.22282E-08         0.65509E-10         0.00000E+00
    0.22287E-08         0.65927E-10         0.00000E+00
    0.22291E-08         0.66130E-10         0.00000E+00
    0.22296E-08         0.66117E-10         0.00000E+00
    0.22301E-08         0.65888E-10         0.00000E+00
    0.22305E-08         0.65442E-10         0.00000E+00
    0.22309E-08         0.64779E-10         0.00000E+00
    0.22313E-08         0.63898E-10         0.00000E+00
    0.22317E-08         0.62799E-10         0.00000E+00
    0.22320E-08         0.61481E-10         0.00000E+00
    0.22324E-08         0.59945E-10         0.00000E+00
    0.22327E-08         0.58189E-10         0.00000E+00
    0.22331E-08         0.56213E-10         0.00000E+00
    0.22334E-08         0.54016E-10         0.00000E+00
    0.22337E-08         0.51599E-10         0.00000E+00
    0.22339E-08         0.48961E-10         0.00000E+00
    0.22342E-08         0.46100E-10         0.00000E+00
    0.22344E-08         0.43018E-10         0.00000E+00
    0.22346E-08         0.39714E-10         0.00000E+00
    0.22349E-08         0.36187E-10         0.00000E+00
    0.22350E-08         0.32437E-10         0.00000E+00
    0.22352E-08         0.28465E-10         0.00000E+00
    0.22353E-08         0.24271E-10         0.00000E+00
    0.22355E-08         0.19855E-10         0.00000E+00
    0.22356E-08         0.15217E-10         0.00000E+00
    0.22356E-08         0.10358E-10         0.00000E+00
    0.22357E-08         0.52797E-11         0.00000E+00
    0.22357E-08         0.26854E-11         0.00000E+00
    0.22204E-08         0.22029E-11         0.00000E+00
    0.22204E-08         0.43742E-11         0.00000E+00
    0.22205E-08         0.86655E-11         0.00000E+00
    0.22207E-08         0.12849E-10         0.00000E+00
    0.22209E-08         0.16913E-10         0.00000E+00
    0.22211E-08         0.20851E-10         0.00000E+00
    0.22215E-08         0.24652E-10         0.00000E+00
    0.22218E-08         0.28308E-10         0.00000E+00
    0.22222E-08         0.31813E-10         0.00000E+00
    0.22227E-08         0.35159E-10         0.00000E+00
    0.22231E-08         0.38341E-10         0.00000E+00
    0.22236E-08         0.41352E-10         0.00000E+00
    0.22241E-08         0.44188E-10         0.00000E+00
    0.22247E-08         0.46843E-10         0.00000E+00
    0.22252E-08         0.49314E-10         0.00000E+00
    0.22258E-08         0.51598E-10         0.00000E+00
    0.22263E-08         0.53689E-10         0.00000E+00
    0.22269E-08         0.55586E-10         0.00000E+00
    0.22275E-08         0.57286E-10         0.00000E+00
    0.22281E-08         0.58786E-10         0.00000E+00
    0.22287E-08         0.60084E-10         0.00000E+00
    0.22292E-08         0.61179E-10         0.00000E+00
    0.22298E-08         0.62067E-10         0.00000E+00
    0.22304E-08         0.62748E-10         0.00000E+00
    0.22309E-08         0.63221E-10         0.00000E+00
    0.22315E-08         0.63483E-10         0.00000E+00
    0.22320E-08         0.63535E-10         0.00000E+00
    0.22325E-08         0.63374E-10         0.00000E+00
    0.22330E-08         0.63001E-10         0.00000E+00
    0.22335E-08         0.62413E-10         0.00000E+00
    0.22340E-08         0.61611E-10         0.00000E+00
    0.22345E-08         0.60594E-10         0.00000E+00
    0.22349E-08         0.59360E-10         0.00000E+00
    0.22354E-08         0.57911E-10         0.00000E+00
    0.22358E-08         0.56244E-10         0.00000E+00
    0.22362E-08         0.54360E-10         0.00000E+00
    0.22366E-08         0.52258E-10         0.00000E+00
    0.22369E-08         0.49939E-10         0.00000E+00
    0.22372E-08         0.47401E-10         0.00000E+00
    0.22376E-08         0.44645E-10         0.00000E+00
    0.22379E-08         0.41670E-10         0.00000E+00
    0.22381E-08         0.38478E-10         0.00000E+00
    0.22384E-08         0.35067E-10         0.00000E+00
    0.22386E-08         0.31438E-10         0.00000E+00
    0.22388E-08         0.27592E-10         0.00000E+00
    0.22390E-08         0.23529E-10         0.00000E+00
    0.22391E-08         0.19250E-10         0.00000E+00
    0.22392E-08         0.14754E-10         0.00000E+00
    0.22393E-08         0.10044E-10         0.00000E+00
    0.22393E-08         0.51196E-11         0.00000E+00
    0.22393E-08         0.26041E-11         0.00000E+00
    0.22352E-08         0.20445E-11         0.00000E+00
    0.22353E-08         0.40635E-11         0.00000E+00
    0.22354E-08         0.80595E-11         0.00000E+00
    0.22355E-08         0.11966E-10         0.00000E+00
    0.22357E-08         0.15774E-10         0.00000E+00
    0.22359E-08         0.19473E-10         0.00000E+00
    0.22362E-08         0.23055E-10         0.00000E+00
    0.22365E-08         0.26512E-10         0.00000E+00
    0.22368E-08         0.29836E-10         0.00000E+00
    0.22372E-08         0.33019E-10         0.00000E+00
    0.22376E-08         0.36056E-10         0.00000E+00
    0.22381E-08         0.38940E-10         0.00000E+00
    0.22385E-08         0.41665E-10         0.00000E+00
    0.22390E-08         0.44226E-10         0.00000E+00
    0.22395E-08         0.46618E-10         0.00000E+00
    0.22400E-08         0.48837E-10         0.00000E+00
    0.22405E-08         0.50878E-10         0.00000E+00
    0.22411E-08         0.52738E-10         0.00000E+00
    0.22416E-08         0.54413E-10         0.00000E+00
    0.22421E-08         0.55900E-10         0.00000E+00
    0.22427E-08         0.57196E-10         0.00000E+00
    0.22432E-08         0.58298E-10         0.00000E+00
    0.22438E-08         0.59203E-10         0.00000E+00
    0.22443E-08         0.59911E-10         0.00000E+00
    0.22449E-08         0.60418E-10         0.00000E+00
    0.22454E-08         0.60722E-10         0.00000E+00
    0.22459E-08         0.60823E-10         0.00000E+00
    0.22465E-08         0.60718E-10         0.00000E+00
    0.22470E-08         0.60406E-10         0.00000E+00
    0.22475E-08         0.59886E-10         0.00000E+00
    0.22479E-08         0.59157E-10         0.00000E+00
    0.22484E-08         0.58218E-10         0.00000E+00
    0.22489E-08         0.57068E-10         0.00000E+00
    0.22493E-08         0.55707E-10         0.00000E+00
    0.22497E-08         0.54133E-10         0.00000E+00
    0.22501E-08         0.52347E-10         0.00000E+00
    0.22505E-08         0.50347E-10         0.00000E+00
    0.22509E-08         0.48134E-10         0.00000E+00
    0.22512E-08         0.45707E-10         0.00000E+00
    0.22515E-08         0.43067E-10         0.00000E+00
    0.22518E-08         0.40212E-10         0.00000E+00
    0.22521E-08         0.37144E-10         0.00000E+00
    0.22523E-08         0.33863E-10         0.00000E+00
    0.22526E-08         0.30368E-10         0.00000E+00
    0.22528E-08         0.26661E-10         0.00000E+00
    0.22529E-08         0.22741E-10         0.00000E+00
    0.22531E-08         0.18610E-10         0.00000E+00
    0.22532E-08         0.14267E-10         0.00000E+00
    0.22533E-08         0.97149E-11         0.00000E+00
    0.22533E-08         0.49530E-11         0.00000E+00
    0.22533E-08         0.25198E-11         0.00000E+00
    0.22622E-08         0.19197E-11         0.00000E+00
    0.22622E-08         0.38175E-11         0.00000E+00
    0.22623E-08         0.75767E-11         0.00000E+00
    0.22624E-08         0.11258E-10         0.00000E+00
    0.22625E-08         0.14853E-10         0.00000E+00
    0.22627E-08         0.18351E-10         0.00000E+00
    0.22629E-08         0.21746E-10         0.00000E+00
    0.22631E-08         0.25028E-10         0.00000E+00
    0.22634E-08         0.28190E-10         0.00000E+00
    0.22637E-08         0.31226E-10         0.00000E+00
    0.22641E-08         0.34128E-10         0.00000E+00
    0.22644E-08         0.36890E-10         0.00000E+00
    0.22648E-08         0.39506E-10         0.00000E+00
    0.22652E-08         0.41971E-10         0.00000E+00
    0.22656E-08         0.44280E-10         0.00000E+00
    0.22660E-08         0.46427E-10         0.00000E+00
    0.22665E-08         0.48408E-10         0.00000E+00
    0.22669E-08         0.50219E-10         0.00000E+00
    0.22674E-08         0.51856E-10         0.00000E+00
    0.22679E-08         0.53316E-10         0.00000E+00
    0.22683E-08         0.54595E-10         0.00000E+00
    0.22688E-08         0.55689E-10         0.00000E+00
    0.22693E-08         0.56597E-10         0.00000E+00
    0.22698E-08         0.57315E-10         0.00000E+00
    0.22702E-08         0.57840E-10         0.00000E+00
    0.22707E-08         0.58172E-10         0.00000E+00
    0.22712E-08         0.58307E-10         0.00000E+00
    0.22716E-08         0.58244E-10         0.00000E+00
    0.22721E-08         0.57981E-10         0.00000E+00
    0.22725E-08         0.57517E-10         0.00000E+00
    0.22730E-08         0.56850E-10         0.00000E+00
    0.22734E-08         0.55979E-10         0.00000E+00
    0.22738E-08         0.54903E-10         0.00000E+00
    0.22742E-08         0.53621E-10         0.00000E+00
    0.22746E-08         0.52132E-10         0.00000E+00
    0.22749E-08         0.50436E-10         0.00000E+00
    0.22753E-08         0.48532E-10         0.00000E+00
    0.22756E-08         0.46419E-10         0.00000E+00
    0.22759E-08         0.44098E-10         0.00000E+00
    0.22762E-08         0.41568E-10         0.00000E+00
    0.22765E-08         0.38828E-10         0.00000E+00
    0.22767E-08         0.35880E-10         0.00000E+00
    0.22770E-08         0.32722E-10         0.00000E+00
    0.22772E-08         0.29356E-10         0.00000E+00
    0.22773E-08         0.25782E-10         0.00000E+00
    0.22775E-08         0.21999E-10         0.00000E+00
    0.22776E-08         0.18008E-10         0.00000E+00
    0.22777E-08         0.13811E-10         0.00000E+00
    0.22778E-08         0.94071E-11         0.00000E+00
    0.22778E-08         0.47975E-11         0.00000E+00
    0.22778E-08         0.24414E-11         0.00000E+00
    0.23005E-08         0.18288E-11         0.00000E+00
    0.23006E-08         0.36374E-11         0.00000E+00
    0.23006E-08         0.72208E-11         0.00000E+00
    0.23007E-08         0.10732E-10         0.00000E+00
    0.23008E-08         0.14163E-10         0.00000E+00
    0.23009E-08         0.17505E-10         0.00000E+00
    0.23011E-08         0.20751E-10         0.00000E+00
    0.23012E-08         0.23892E-10         0.00000E+00
    0.23014E-08         0.26922E-10         0.00000E+00
    0.23017E-08         0.29834E-10         0.00000E+00
    0.23019E-08         0.32622E-10         0.00000E+00
    0.23022E-08         0.35279E-10         0.00000E+00
    0.23025E-08         0.37799E-10         0.00000E+00
    0.23028E-08         0.40177E-10         0.00000E+00
    0.23031E-08         0.42408E-10         0.00000E+00
    0.23034E-08         0.44487E-10         0.00000E+00
    0.23038E-08         0.46409E-10         0.00000E+00
    0.23041E-08         0.48170E-10         0.00000E+00
    0.23045E-08         0.49766E-10         0.00000E+00
    0.23048E-08         0.51193E-10         0.00000E+00
    0.23052E-08         0.52448E-10         0.00000E+00
    0.23056E-08         0.53526E-10         0.00000E+00
    0.23060E-08         0.54426E-10         0.00000E+00
    0.23064E-08         0.55144E-10         0.00000E+00
    0.23067E-08         0.55677E-10         0.00000E+00
    0.23071E-08         0.56023E-10         0.00000E+00
    0.23075E-08         0.56180E-10         0.00000E+00
    0.23079E-08         0.56146E-10         0.00000E+00
    0.23082E-08         0.55919E-10         0.00000E+00
    0.23086E-08         0.55496E-10         0.00000E+00
    0.23090E-08         0.54877E-10         0.00000E+00
    0.23093E-08         0.54060E-10         0.00000E+00
    0.23096E-08         0.53044E-10         0.00000E+00
    0.23100E-08         0.51828E-10         0.00000E+00
    0.23103E-08         0.50410E-10         0.00000E+00
    0.23106E-08         0.48789E-10         0.00000E+00
    0.23109E-08         0.46966E-10         0.00000E+00
    0.23111E-08         0.44939E-10         0.00000E+00
    0.23114E-08         0.42708E-10         0.00000E+00
    0.23116E-08         0.40273E-10         0.00000E+00
    0.23119E-08         0.37633E-10         0.00000E+00
    0.23121E-08         0.34788E-10         0.00000E+00
    0.23123E-08         0.31738E-10         0.00000E+00
    0.23124E-08         0.28483E-10         0.00000E+00
    0.23126E-08         0.25024E-10         0.00000E+00
    0.23127E-08         0.21360E-10         0.00000E+00
    0.23128E-08         0.17491E-10         0.00000E+00
    0.23129E-08         0.13419E-10         0.00000E+00
    0.23129E-08         0.91430E-11         0.00000E+00
    0.23130E-08         0.46643E-11         0.00000E+00
    0.23130E-08         0.23742E-11         0.00000E+00
    0.23499E-08         0.17703E-11         0.00000E+00
    0.23499E-08         0.35204E-11         0.00000E+00
    0.23499E-08         0.69872E-11         0.00000E+00
    0.23500E-08         0.10383E-10         0.00000E+00
    0.23500E-08         0.13701E-10         0.00000E+00
    0.23501E-08         0.16932E-10         0.00000E+00
    0.23502E-08         0.20070E-10         0.00000E+00
    0.23503E-08         0.23109E-10         0.00000E+00
    0.23505E-08         0.26040E-10         0.00000E+00
    0.23506E-08         0.28858E-10         0.00000E+00
    0.23508E-08         0.31557E-10         0.00000E+00
    0.23509E-08         0.34131E-10         0.00000E+00
    0.23511E-08         0.36574E-10         0.00000E+00
    0.23513E-08         0.38881E-10         0.00000E+00
    0.23516E-08         0.41047E-10         0.00000E+00
    0.23518E-08         0.43068E-10         0.00000E+00
    0.23520E-08         0.44938E-10         0.00000E+00
    0.23523E-08         0.46653E-10         0.00000E+00
    0.23525E-08         0.48210E-10         0.00000E+00
    0.23528E-08         0.49605E-10         0.00000E+00
    0.23530E-08         0.50834E-10         0.00000E+00
    0.23533E-08         0.51893E-10         0.00000E+00
    0.23536E-08         0.52780E-10         0.00000E+00
    0.23539E-08         0.53491E-10         0.00000E+00
    0.23541E-08         0.54023E-10         0.00000E+00
    0.23544E-08         0.54375E-10         0.00000E+00
    0.23547E-08         0.54544E-10         0.00000E+00
    0.23550E-08         0.54527E-10         0.00000E+00
    0.23552E-08         0.54322E-10         0.00000E+00
    0.23555E-08         0.53928E-10         0.00000E+00
    0.23558E-08         0.53342E-10         0.00000E+00
    0.23560E-08         0.52564E-10         0.00000E+00
    0.23563E-08         0.51591E-10         0.00000E+00
    0.23565E-08         0.50423E-10         0.00000E+00
    0.23567E-08         0.49059E-10         0.00000E+00
    0.23570E-08         0.47496E-10         0.00000E+00
    0.23572E-08         0.45735E-10         0.00000E+00
    0.23574E-08         0.43775E-10         0.00000E+00
    0.23576E-08         0.41614E-10         0.00000E+00
    0.23578E-08         0.39253E-10         0.00000E+00
    0.23579E-08         0.36691E-10         0.00000E+00
    0.23581E-08         0.33927E-10         0.00000E+00
    0.23582E-08         0.30962E-10         0.00000E+00
    0.23583E-08         0.27795E-10         0.00000E+00
    0.23584E-08         0.24427E-10         0.00000E+00
    0.23585E-08         0.20856E-10         0.00000E+00
    0.23586E-08         0.17084E-10         0.00000E+00
    0.23587E-08         0.13110E-10         0.00000E+00
    0.23587E-08         0.89355E-11         0.00000E+00
    0.23587E-08         0.45597E-11         0.00000E+00
    0.23588E-08         0.23216E-11         0.00000E+00
    0.24099E-08         0.17415E-11         0.00000E+00
    0.24099E-08         0.34615E-11         0.00000E+00
    0.24099E-08         0.68669E-11         0.00000E+00
    0.24099E-08         0.10199E-10         0.00000E+00
    0.24099E-08         0.13451E-10         0.00000E+00
    0.24099E-08         0.16617E-10         0.00000E+00
    0.24100E-08         0.19689E-10         0.00000E+00
    0.24100E-08         0.22661E-10         0.00000E+00
    0.24101E-08         0.25528E-10         0.00000E+00
    0.24102E-08         0.28283E-10         0.00000E+00
    0.24103E-08         0.30921E-10         0.00000E+00
    0.24104E-08         0.33437E-10         0.00000E+00
    0.24105E-08         0.35824E-10         0.00000E+00
    0.24106E-08         0.38079E-10         0.00000E+00
    0.24107E-08         0.40197E-10         0.00000E+00
    0.24108E-08         0.42172E-10         0.00000E+00
    0.24109E-08         0.44002E-10         0.00000E+00
    0.24111E-08         0.45680E-10         0.00000E+00
    0.24112E-08         0.47205E-10         0.00000E+00
    0.24114E-08         0.48571E-10         0.00000E+00
    0.24115E-08         0.49775E-10         0.00000E+00
    0.24117E-08         0.50815E-10         0.00000E+00
    0.24119E-08         0.51686E-10         0.00000E+00
    0.24120E-08         0.52387E-10         0.00000E+00
    0.24122E-08         0.52914E-10         0.00000E+00
    0.24124E-08         0.53264E-10         0.00000E+00
    0.24125E-08         0.53435E-10         0.00000E+00
    0.24127E-08         0.53425E-10         0.00000E+00
    0.24129E-08         0.53232E-10         0.00000E+00
    0.24130E-08         0.52853E-10         0.00000E+00
    0.24132E-08         0.52287E-10         0.00000E+00
    0.24134E-08         0.51533E-10         0.00000E+00
    0.24135E-08         0.50588E-10         0.00000E+00
    0.24137E-08         0.49451E-10         0.00000E+00
    0.24138E-08         0.48121E-10         0.00000E+00
    0.24140E-08         0.46597E-10         0.00000E+00
    0.24141E-08         0.44878E-10         0.00000E+00
    0.24142E-08         0.42963E-10         0.00000E+00
    0.24143E-08         0.40851E-10         0.00000E+00
    0.24145E-08         0.38541E-10         0.00000E+00
    0.24146E-08         0.36032E-10         0.00000E+00
    0.24147E-08         0.33326E-10         0.00000E+00
    0.24148E-08         0.30420E-10         0.00000E+00
    0.24148E-08         0.27314E-10         0.00000E+00
    0.24149E-08         0.24009E-10         0.00000E+00
    0.24150E-08         0.20504E-10         0.00000E+00
    0.24150E-08         0.16800E-10         0.00000E+00
    0.24151E-08         0.12895E-10         0.00000E+00
    0.24151E-08         0.87908E-11         0.00000E+00
    0.24151E-08         0.44868E-11         0.00000E+00
    0.24151E-08         0.22850E-11         0.00000E+00
    0.24802E-08         0.17390E-11         0.00000E+00
    0.24802E-08         0.34546E-11         0.00000E+00
    0.24802E-08         0.68482E-11         0.00000E+00
    0.24802E-08         0.10164E-10         0.00000E+00
    0.24802E-08         0.13395E-10         0.00000E+00
    0.24802E-08         0.16535E-10         0.00000E+00
    0.24802E-08         0.19580E-10         0.00000E+00
    0.24802E-08         0.22523E-10         0.00000E+00
    0.24802E-08         0.25358E-10         0.00000E+00
    0.24802E-08         0.28081E-10         0.00000E+00
    0.24802E-08         0.30686E-10         0.00000E+00
    0.24802E-08         0.33168E-10         0.00000E+00
    0.24802E-08         0.35523E-10         0.00000E+00
    0.24802E-08         0.37746E-10         0.00000E+00
    0.24802E-08         0.39832E-10         0.00000E+00
    0.24803E-08         0.41778E-10         0.00000E+00
    0.24803E-08         0.43579E-10         0.00000E+00
    0.24804E-08         0.45231E-10         0.00000E+00
    0.24804E-08         0.46730E-10         0.00000E+00
    0.24804E-08         0.48074E-10         0.00000E+00
    0.24805E-08         0.49259E-10         0.00000E+00
    0.24805E-08         0.50281E-10         0.00000E+00
    0.24806E-08         0.51138E-10         0.00000E+00
    0.24807E-08         0.51826E-10         0.00000E+00
    0.24807E-08         0.52343E-10         0.00000E+00
    0.24808E-08         0.52686E-10         0.00000E+00
    0.24809E-08         0.52853E-10         0.00000E+00
    0.24809E-08         0.52842E-10         0.00000E+00
    0.24810E-08         0.52650E-10         0.00000E+00
    0.24811E-08         0.52276E-10         0.00000E+00
    0.24811E-08         0.51717E-10         0.00000E+00
    0.24812E-08         0.50972E-10         0.00000E+00
    0.24813E-08         0.50039E-10         0.00000E+00
    0.24813E-08         0.48917E-10         0.00000E+00
    0.24814E-08         0.47605E-10         0.00000E+00
    0.24814E-08         0.46100E-10         0.00000E+00
    0.24815E-08         0.44403E-10         0.00000E+00
    0.24816E-08         0.42511E-10         0.00000E+00
    0.24816E-08         0.40425E-10         0.00000E+00
    0.24817E-08         0.38143E-10         0.00000E+00
    0.24817E-08         0.35665E-10         0.00000E+00
    0.24818E-08         0.32989E-10         0.00000E+00
    0.24818E-08         0.30116E-10         0.00000E+00
    0.24818E-08         0.27046E-10         0.00000E+00
    0.24819E-08         0.23776E-10         0.00000E+00
    0.24819E-08         0.20308E-10         0.00000E+00
    0.24819E-08         0.16641E-10         0.00000E+00
    0.24819E-08         0.12776E-10         0.00000E+00
    0.24819E-08         0.87106E-11         0.00000E+00
    0.24819E-08         0.44465E-11         0.00000E+00
    0.24820E-08         0.22647E-11         0.00000E+00
    0.25607E-08         0.17597E-11         0.00000E+00
    0.25607E-08         0.34932E-11         0.00000E+00
    0.25607E-08         0.69190E-11         0.00000E+00
    0.25606E-08         0.10259E-10         0.00000E+00
    0.25606E-08         0.13509E-10         0.00000E+00
    0.25606E-08         0.16663E-10         0.00000E+00
    0.25605E-08         0.19715E-10         0.00000E+00
    0.25605E-08         0.22661E-10         0.00000E+00
    0.25604E-08         0.25496E-10         0.00000E+00
    0.25603E-08         0.28215E-10         0.00000E+00
    0.25603E-08         0.30813E-10         0.00000E+00
    0.25602E-08         0.33286E-10         0.00000E+00
    0.25602E-08         0.35630E-10         0.00000E+00
    0.25601E-08         0.37841E-10         0.00000E+00
    0.25601E-08         0.39913E-10         0.00000E+00
    0.25600E-08         0.41844E-10         0.00000E+00
    0.25600E-08         0.43630E-10         0.00000E+00
    0.25599E-08         0.45267E-10         0.00000E+00
    0.25598E-08         0.46751E-10         0.00000E+00
    0.25598E-08         0.48080E-10         0.00000E+00
    0.25598E-08         0.49250E-10         0.00000E+00
    0.25597E-08         0.50258E-10         0.00000E+00
    0.25597E-08         0.51102E-10         0.00000E+00
    0.25596E-08         0.51777E-10         0.00000E+00
    0.25596E-08         0.52283E-10         0.00000E+00
    0.25596E-08         0.52616E-10         0.00000E+00
    0.25595E-08         0.52774E-10         0.00000E+00
    0.25595E-08         0.52754E-10         0.00000E+00
    0.25595E-08         0.52556E-10         0.00000E+00
    0.25594E-08         0.52176E-10         0.00000E+00
    0.25594E-08         0.51612E-10         0.00000E+00
    0.25594E-08         0.50864E-10         0.00000E+00
    0.25594E-08         0.49930E-10         0.00000E+00
    0.25594E-08         0.48807E-10         0.00000E+00
    0.25593E-08         0.47495E-10         0.00000E+00
    0.25593E-08         0.45992E-10         0.00000E+00
    0.25593E-08         0.44298E-10         0.00000E+00
    0.25593E-08         0.42410E-10         0.00000E+00
    0.25593E-08         0.40329E-10         0.00000E+00
    0.25593E-08         0.38052E-10         0.00000E+00
    0.25593E-08         0.35580E-10         0.00000E+00
    0.25593E-08         0.32912E-10         0.00000E+00
    0.25593E-08         0.30047E-10         0.00000E+00
    0.25592E-08         0.26984E-10         0.00000E+00
    0.25592E-08         0.23723E-10         0.00000E+00
    0.25592E-08         0.20264E-10         0.00000E+00
    0.25592E-08         0.16606E-10         0.00000E+00
    0.25592E-08         0.12749E-10         0.00000E+00
    0.25592E-08         0.86933E-11         0.00000E+00
    0.25592E-08         0.44380E-11         0.00000E+00
    0.25592E-08         0.22606E-11         0.00000E+00
    0.26512E-08         0.18002E-11         0.00000E+00
    0.26512E-08         0.35711E-11         0.00000E+00
    0.26512E-08         0.70671E-11         0.00000E+00
    0.26512E-08         0.10469E-10         0.00000E+00
    0.26511E-08         0.13772E-10         0.00000E+00
    0.26510E-08         0.16972E-10         0.00000E+00
    0.26509E-08         0.20063E-10         0.00000E+00
    0.26509E-08         0.23042E-10         0.00000E+00
    0.26508E-08         0.25905E-10         0.00000E+00
    0.26506E-08         0.28646E-10         0.00000E+00
    0.26505E-08         0.31262E-10         0.00000E+00
    0.26504E-08         0.33748E-10         0.00000E+00
    0.26503E-08         0.36102E-10         0.00000E+00
    0.26502E-08         0.38318E-10         0.00000E+00
    0.26500E-08         0.40394E-10         0.00000E+00
    0.26499E-08         0.42326E-10         0.00000E+00
    0.26498E-08         0.44110E-10         0.00000E+00
    0.26496E-08         0.45743E-10         0.00000E+00
    0.26495E-08         0.47221E-10         0.00000E+00
    0.26494E-08         0.48543E-10         0.00000E+00
    0.26492E-08         0.49704E-10         0.00000E+00
    0.26491E-08         0.50703E-10         0.00000E+00
    0.26490E-08         0.51535E-10         0.00000E+00
    0.26488E-08         0.52199E-10         0.00000E+00
    0.26487E-08         0.52693E-10         0.00000E+00
    0.26486E-08         0.53013E-10         0.00000E+00
    0.26485E-08         0.53158E-10         0.00000E+00
    0.26483E-08         0.53125E-10         0.00000E+00
    0.26482E-08         0.52913E-10         0.00000E+00
    0.26481E-08         0.52519E-10         0.00000E+00
    0.26480E-08         0.51941E-10         0.00000E+00
    0.26479E-08         0.51179E-10         0.00000E+00
    0.26478E-08         0.50230E-10         0.00000E+00
    0.26477E-08         0.49093E-10         0.00000E+00
    0.26476E-08         0.47767E-10         0.00000E+00
    0.26475E-08         0.46250E-10         0.00000E+00
    0.26475E-08         0.44541E-10         0.00000E+00
    0.26474E-08         0.42638E-10         0.00000E+00
    0.26473E-08         0.40542E-10         0.00000E+00
    0.26472E-08         0.38251E-10         0.00000E+00
    0.26472E-08         0.35763E-10         0.00000E+00
    0.26471E-08         0.33079E-10         0.00000E+00
    0.26471E-08         0.30198E-10         0.00000E+00
    0.26470E-08         0.27118E-10         0.00000E+00
    0.26470E-08         0.23841E-10         0.00000E+00
    0.26469E-08         0.20364E-10         0.00000E+00
    0.26469E-08         0.16688E-10         0.00000E+00
    0.26469E-08         0.12812E-10         0.00000E+00
    0.26469E-08         0.87358E-11         0.00000E+00
    0.26469E-08         0.44597E-11         0.00000E+00
    0.26468E-08         0.22716E-11         0.00000E+00
    0.27518E-08         0.18577E-11         0.00000E+00
    0.27518E-08         0.36825E-11         0.00000E+00
    0.27518E-08         0.72813E-11         0.00000E+00
    0.27517E-08         0.10776E-10         0.00000E+00
    0.27516E-08         0.14163E-10         0.00000E+00
    0.27515E-08         0.17438E-10         0.00000E+00
    0.27514E-08         0.20596E-10         0.00000E+00
    0.27513E-08         0.23635E-10         0.00000E+00
    0.27511E-08         0.26549E-10         0.00000E+00
    0.27510E-08         0.29336E-10         0.00000E+00
    0.27508E-08         0.31991E-10         0.00000E+00
    0.27507E-08         0.34512E-10         0.00000E+00
    0.27505E-08         0.36893E-10         0.00000E+00
    0.27503E-08         0.39133E-10         0.00000E+00
    0.27501E-08         0.41228E-10         0.00000E+00
    0.27499E-08         0.43174E-10         0.00000E+00
    0.27497E-08         0.44969E-10         0.00000E+00
    0.27495E-08         0.46609E-10         0.00000E+00
    0.27493E-08         0.48091E-10         0.00000E+00
    0.27491E-08         0.49413E-10         0.00000E+00
    0.27488E-08         0.50572E-10         0.00000E+00
    0.27486E-08         0.51565E-10         0.00000E+00
    0.27484E-08         0.52390E-10         0.00000E+00
    0.27482E-08         0.53045E-10         0.00000E+00
    0.27480E-08         0.53526E-10         0.00000E+00
    0.27478E-08         0.53832E-10         0.00000E+00
    0.27476E-08         0.53961E-10         0.00000E+00
    0.27474E-08         0.53911E-10         0.00000E+00
    0.27472E-08         0.53679E-10         0.00000E+00
    0.27470E-08         0.53264E-10         0.00000E+00
    0.27469E-08         0.52665E-10         0.00000E+00
    0.27467E-08         0.51879E-10         0.00000E+00
    0.27465E-08         0.50905E-10         0.00000E+00
    0.27463E-08         0.49742E-10         0.00000E+00
    0.27462E-08         0.48388E-10         0.00000E+00
    0.27460E-08         0.46842E-10         0.00000E+00
    0.27459E-08         0.45103E-10         0.00000E+00
    0.27457E-08         0.43169E-10         0.00000E+00
    0.27456E-08         0.41040E-10         0.00000E+00
    0.27455E-08         0.38715E-10         0.00000E+00
    0.27454E-08         0.36192E-10         0.00000E+00
    0.27453E-08         0.33472E-10         0.00000E+00
    0.27452E-08         0.30553E-10         0.00000E+00
    0.27451E-08         0.27434E-10         0.00000E+00
    0.27450E-08         0.24116E-10         0.00000E+00
    0.27450E-08         0.20597E-10         0.00000E+00
    0.27449E-08         0.16877E-10         0.00000E+00
    0.27449E-08         0.12956E-10         0.00000E+00
    0.27448E-08         0.88338E-11         0.00000E+00
    0.27448E-08         0.45095E-11         0.00000E+00
    0.27448E-08         0.22969E-11         0.00000E+00
    0.28624E-08         0.19295E-11         0.00000E+00
    0.28624E-08         0.38223E-11         0.00000E+00
    0.28624E-08         0.75516E-11         0.00000E+00
    0.28623E-08         0.11166E-10         0.00000E+00
    0.28622E-08         0.14663E-10         0.00000E+00
    0.28621E-08         0.18038E-10         0.00000E+00
    0.28619E-08         0.21287E-10         0.00000E+00
    0.28618E-08         0.24408E-10         0.00000E+00
    0.28616E-08         0.27396E-10         0.00000E+00
    0.28614E-08         0.30249E-10         0.00000E+00
    0.28612E-08         0.32964E-10         0.00000E+00
    0.28610E-08         0.35536E-10         0.00000E+00
    0.28607E-08         0.37963E-10         0.00000E+00
    0.28605E-08         0.40242E-10         0.00000E+00
    0.28603E-08         0.42370E-10         0.00000E+00
    0.28600E-08         0.44343E-10         0.00000E+00
    0.28597E-08         0.46160E-10         0.00000E+00
    0.28595E-08         0.47817E-10         0.00000E+00
    0.28592E-08         0.49312E-10         0.00000E+00
    0.28589E-08         0.50642E-10         0.00000E+00
    0.28586E-08         0.51805E-10         0.00000E+00
    0.28584E-08         0.52798E-10         0.00000E+00
    0.28581E-08         0.53618E-10         0.00000E+00
    0.28578E-08         0.54265E-10         0.00000E+00
    0.28575E-08         0.54735E-10         0.00000E+00
    0.28572E-08         0.55027E-10         0.00000E+00
    0.28570E-08         0.55138E-10         0.00000E+00
    0.28567E-08         0.55067E-10         0.00000E+00
    0.28564E-08         0.54812E-10         0.00000E+00
    0.28562E-08         0.54371E-10         0.00000E+00
    0.28559E-08         0.53742E-10         0.00000E+00
    0.28557E-08         0.52925E-10         0.00000E+00
    0.28555E-08         0.51917E-10         0.00000E+00
    0.28552E-08         0.50717E-10         0.00000E+00
    0.28550E-08         0.49324E-10         0.00000E+00
    0.28548E-08         0.47736E-10         0.00000E+00
    0.28546E-08         0.45953E-10         0.00000E+00
    0.28544E-08         0.43973E-10         0.00000E+00
    0.28542E-08         0.41796E-10         0.00000E+00
    0.28541E-08         0.39420E-10         0.00000E+00
    0.28539E-08         0.36845E-10         0.00000E+00
    0.28538E-08         0.34069E-10         0.00000E+00
    0.28536E-08         0.31093E-10         0.00000E+00
    0.28535E-08         0.27915E-10         0.00000E+00
    0.28534E-08         0.24535E-10         0.00000E+00
    0.28533E-08         0.20952E-10         0.00000E+00
    0.28532E-08         0.17166E-10         0.00000E+00
    0.28532E-08         0.13176E-10         0.00000E+00
    0.28531E-08         0.89826E-11         0.00000E+00
    0.28531E-08         0.45850E-11         0.00000E+00
    0.28531E-08         0.23351E-11         0.00000E+00
    0.29832E-08         0.20134E-11         0.00000E+00
    0.29831E-08         0.39861E-11         0.00000E+00
    0.29831E-08         0.78695E-11         0.00000E+00
    0.29830E-08         0.11627E-10         0.00000E+00
    0.29829E-08         0.15256E-10         0.00000E+00
    0.29828E-08         0.18752E-10         0.00000E+00
    0.29826E-08         0.22113E-10         0.00000E+00
    0.29824E-08         0.25336E-10         0.00000E+00
    0.29822E-08         0.28417E-10         0.00000E+00
    0.29820E-08         0.31355E-10         0.00000E+00
    0.29817E-08         0.34145E-10         0.00000E+00
    0.29815E-08         0.36785E-10         0.00000E+00
    0.29812E-08         0.39272E-10         0.00000E+00
    0.29809E-08         0.41604E-10         0.00000E+00
    0.29806E-08         0.43778E-10         0.00000E+00
    0.29803E-08         0.45790E-10         0.00000E+00
    0.29800E-08         0.47640E-10         0.00000E+00
    0.29796E-08         0.49324E-10         0.00000E+00
    0.29793E-08         0.50839E-10         0.00000E+00
    0.29790E-08         0.52184E-10         0.00000E+00
    0.29786E-08         0.53356E-10         0.00000E+00
    0.29783E-08         0.54354E-10         0.00000E+00
    0.29780E-08         0.55174E-10         0.00000E+00
    0.29776E-08         0.55815E-10         0.00000E+00
    0.29773E-08         0.56275E-10         0.00000E+00
    0.29769E-08         0.56552E-10         0.00000E+00
    0.29766E-08         0.56645E-10         0.00000E+00
    0.29763E-08         0.56551E-10         0.00000E+00
    0.29760E-08         0.56269E-10         0.00000E+00
    0.29756E-08         0.55797E-10         0.00000E+00
    0.29753E-08         0.55133E-10         0.00000E+00
    0.29750E-08         0.54277E-10         0.00000E+00
    0.29747E-08         0.53227E-10         0.00000E+00
    0.29745E-08         0.51982E-10         0.00000E+00
    0.29742E-08         0.50540E-10         0.00000E+00
    0.29739E-08         0.48900E-10         0.00000E+00
    0.29737E-08         0.47061E-10         0.00000E+00
    0.29734E-08         0.45022E-10         0.00000E+00
    0.29732E-08         0.42783E-10         0.00000E+00
    0.29730E-08         0.40342E-10         0.00000E+00
    0.29728E-08         0.37698E-10         0.00000E+00
    0.29726E-08         0.34851E-10         0.00000E+00
    0.29725E-08         0.31800E-10         0.00000E+00
    0.29723E-08         0.28544E-10         0.00000E+00
    0.29722E-08         0.25083E-10         0.00000E+00
    0.29721E-08         0.21416E-10         0.00000E+00
    0.29720E-08         0.17543E-10         0.00000E+00
    0.29719E-08         0.13464E-10         0.00000E+00
    0.29718E-08         0.91774E-11         0.00000E+00
    0.29718E-08         0.46838E-11         0.00000E+00
    0.29718E-08         0.23851E-11         0.00000E+00
    0.31141E-08         0.21074E-11         0.00000E+00
    0.31141E-08         0.41701E-11         0.00000E+00
    0.31140E-08         0.82274E-11         0.00000E+00
    0.31139E-08         0.12147E-10         0.00000E+00
    0.31138E-08         0.15927E-10         0.00000E+00
    0.31137E-08         0.19563E-10         0.00000E+00
    0.31135E-08         0.23053E-10         0.00000E+00
    0.31133E-08         0.26396E-10         0.00000E+00
    0.31130E-08         0.29587E-10         0.00000E+00
    0.31128E-08         0.32624E-10         0.00000E+00
    0.31125E-08         0.35505E-10         0.00000E+00
    0.31122E-08         0.38227E-10         0.00000E+00
    0.31119E-08         0.40787E-10         0.00000E+00
    0.31115E-08         0.43184E-10         0.00000E+00
    0.31112E-08         0.45415E-10         0.00000E+00
    0.31109E-08         0.47478E-10         0.00000E+00
    0.31105E-08         0.49369E-10         0.00000E+00
    0.31101E-08         0.51088E-10         0.00000E+00
    0.31097E-08         0.52632E-10         0.00000E+00
    0.31094E-08         0.53999E-10         0.00000E+00
    0.31090E-08         0.55186E-10         0.00000E+00
    0.31086E-08         0.56192E-10         0.00000E+00
    0.31082E-08         0.57015E-10         0.00000E+00
    0.31078E-08         0.57653E-10         0.00000E+00
    0.31074E-08         0.58105E-10         0.00000E+00
    0.31070E-08         0.58368E-10         0.00000E+00
    0.31066E-08         0.58441E-10         0.00000E+00
    0.31062E-08         0.58322E-10         0.00000E+00
    0.31059E-08         0.58010E-10         0.00000E+00
    0.31055E-08         0.57503E-10         0.00000E+00
    0.31051E-08         0.56801E-10         0.00000E+00
    0.31048E-08         0.55901E-10         0.00000E+00
    0.31044E-08         0.54802E-10         0.00000E+00
    0.31041E-08         0.53503E-10         0.00000E+00
    0.31038E-08         0.52004E-10         0.00000E+00
    0.31035E-08         0.50302E-10         0.00000E+00
    0.31032E-08         0.48397E-10         0.00000E+00
    0.31029E-08         0.46289E-10         0.00000E+00
    0.31026E-08         0.43975E-10         0.00000E+00
    0.31024E-08         0.41456E-10         0.00000E+00
    0.31022E-08         0.38730E-10         0.00000E+00
    0.31019E-08         0.35796E-10         0.00000E+00
    0.31017E-08         0.32655E-10         0.00000E+00
    0.31016E-08         0.29306E-10         0.00000E+00
    0.31014E-08         0.25747E-10         0.00000E+00
    0.31013E-08         0.21979E-10         0.00000E+00
    0.31012E-08         0.18001E-10         0.00000E+00
    0.31011E-08         0.13812E-10         0.00000E+00
    0.31010E-08         0.94134E-11         0.00000E+00
    0.31010E-08         0.48034E-11         0.00000E+00
    0.31010E-08         0.24457E-11         0.00000E+00
    0.32555E-08         0.22100E-11         0.00000E+00
    0.32554E-08         0.43711E-11         0.00000E+00
    0.32554E-08         0.86192E-11         0.00000E+00
    0.32553E-08         0.12718E-10         0.00000E+00
    0.32551E-08         0.16664E-10         0.00000E+00
    0.32550E-08         0.20456E-10         0.00000E+00
    0.32548E-08         0.24092E-10         0.00000E+00
    0.32545E-08         0.27568E-10         0.00000E+00
    0.32543E-08         0.30882E-10         0.00000E+00
    0.32540E-08         0.34033E-10         0.00000E+00
    0.32537E-08         0.37018E-10         0.00000E+00
    0.32534E-08         0.39834E-10         0.00000E+00
    0.32530E-08         0.42480E-10         0.00000E+00
    0.32526E-08         0.44953E-10         0.00000E+00
    0.32523E-08         0.47251E-10         0.00000E+00
    0.32519E-08         0.49372E-10         0.00000E+00
    0.32515E-08         0.51314E-10         0.00000E+00
    0.32511E-08         0.53076E-10         0.00000E+00
    0.32506E-08         0.54655E-10         0.00000E+00
    0.32502E-08         0.56049E-10         0.00000E+00
    0.32498E-08         0.57256E-10         0.00000E+00
    0.32493E-08         0.58275E-10         0.00000E+00
    0.32489E-08         0.59105E-10         0.00000E+00
    0.32485E-08         0.59742E-10         0.00000E+00
    0.32480E-08         0.60187E-10         0.00000E+00
    0.32476E-08         0.60436E-10         0.00000E+00
    0.32472E-08         0.60489E-10         0.00000E+00
    0.32467E-08         0.60345E-10         0.00000E+00
    0.32463E-08         0.60001E-10         0.00000E+00
    0.32459E-08         0.59457E-10         0.00000E+00
    0.32455E-08         0.58711E-10         0.00000E+00
    0.32451E-08         0.57762E-10         0.00000E+00
    0.32447E-08         0.56609E-10         0.00000E+00
    0.32443E-08         0.55251E-10         0.00000E+00
    0.32440E-08         0.53687E-10         0.00000E+00
    0.32436E-08         0.51915E-10         0.00000E+00
    0.32433E-08         0.49936E-10         0.00000E+00
    0.32430E-08         0.47747E-10         0.00000E+00
    0.32427E-08         0.45349E-10         0.00000E+00
    0.32424E-08         0.42740E-10         0.00000E+00
    0.32421E-08         0.39920E-10         0.00000E+00
    0.32419E-08         0.36888E-10         0.00000E+00
    0.32416E-08         0.33643E-10         0.00000E+00
    0.32415E-08         0.30185E-10         0.00000E+00
    0.32413E-08         0.26514E-10         0.00000E+00
    0.32411E-08         0.22629E-10         0.00000E+00
    0.32410E-08         0.18530E-10         0.00000E+00
    0.32409E-08         0.14215E-10         0.00000E+00
    0.32408E-08         0.96862E-11         0.00000E+00
    0.32408E-08         0.49418E-11         0.00000E+00
    0.32408E-08         0.25158E-11         0.00000E+00
    0.34074E-08         0.23199E-11         0.00000E+00
    0.34074E-08         0.45867E-11         0.00000E+00
    0.34073E-08         0.90401E-11         0.00000E+00
    0.34072E-08         0.13332E-10         0.00000E+00
    0.34071E-08         0.17459E-10         0.00000E+00
    0.34069E-08         0.21420E-10         0.00000E+00
    0.34067E-08         0.25214E-10         0.00000E+00
    0.34064E-08         0.28836E-10         0.00000E+00
    0.34062E-08         0.32287E-10         0.00000E+00
    0.34058E-08         0.35563E-10         0.00000E+00
    0.34055E-08         0.38662E-10         0.00000E+00
    0.34052E-08         0.41583E-10         0.00000E+00
    0.34048E-08         0.44324E-10         0.00000E+00
    0.34044E-08         0.46883E-10         0.00000E+00
    0.34040E-08         0.49257E-10         0.00000E+00
    0.34036E-08         0.51445E-10         0.00000E+00
    0.34031E-08         0.53446E-10         0.00000E+00
    0.34027E-08         0.55257E-10         0.00000E+00
    0.34022E-08         0.56876E-10         0.00000E+00
    0.34018E-08         0.58303E-10         0.00000E+00
    0.34013E-08         0.59535E-10         0.00000E+00
    0.34008E-08         0.60572E-10         0.00000E+00
    0.34003E-08         0.61410E-10         0.00000E+00
    0.33999E-08         0.62049E-10         0.00000E+00
    0.33994E-08         0.62488E-10         0.00000E+00
    0.33989E-08         0.62725E-10         0.00000E+00
    0.33984E-08         0.62758E-10         0.00000E+00
    0.33980E-08         0.62587E-10         0.00000E+00
    0.33975E-08         0.62210E-10         0.00000E+00
    0.33970E-08         0.61626E-10         0.00000E+00
    0.33966E-08         0.60833E-10         0.00000E+00
    0.33961E-08         0.59832E-10         0.00000E+00
    0.33957E-08         0.58620E-10         0.00000E+00
    0.33953E-08         0.57197E-10         0.00000E+00
    0.33949E-08         0.55562E-10         0.00000E+00
    0.33945E-08         0.53714E-10         0.00000E+00
    0.33942E-08         0.51652E-10         0.00000E+00
    0.33938E-08         0.49375E-10         0.00000E+00
    0.33935E-08         0.46883E-10         0.00000E+00
    0.33932E-08         0.44175E-10         0.00000E+00
    0.33929E-08         0.41250E-10         0.00000E+00
    0.33926E-08         0.38108E-10         0.00000E+00
    0.33924E-08         0.34748E-10         0.00000E+00
    0.33921E-08         0.31170E-10         0.00000E+00
    0.33919E-08         0.27373E-10         0.00000E+00
    0.33918E-08         0.23357E-10         0.00000E+00
    0.33916E-08         0.19122E-10         0.00000E+00
    0.33915E-08         0.14667E-10         0.00000E+00
    0.33915E-08         0.99917E-11         0.00000E+00
    0.33914E-08         0.50968E-11         0.00000E+00
    0.33914E-08         0.25943E-11         0.00000E+00
    0.35703E-08         0.24361E-11         0.00000E+00
    0.35702E-08         0.48149E-11         0.00000E+00
    0.35702E-08         0.94858E-11         0.00000E+00
    0.35701E-08         0.13982E-10         0.00000E+00
    0.35699E-08         0.18303E-10         0.00000E+00
    0.35697E-08         0.22445E-10         0.00000E+00
    0.35695E-08         0.26407E-10         0.00000E+00
    0.35692E-08         0.30188E-10         0.00000E+00
    0.35689E-08         0.33785E-10         0.00000E+00
    0.35686E-08         0.37196E-10         0.00000E+00
    0.35683E-08         0.40421E-10         0.00000E+00
    0.35679E-08         0.43456E-10         0.00000E+00
    0.35675E-08         0.46301E-10         0.00000E+00
    0.35671E-08         0.48953E-10         0.00000E+00
    0.35666E-08         0.51411E-10         0.00000E+00
    0.35662E-08         0.53673E-10         0.00000E+00
    0.35657E-08         0.55739E-10         0.00000E+00
    0.35652E-08         0.57605E-10         0.00000E+00
    0.35648E-08         0.59271E-10         0.00000E+00
    0.35643E-08         0.60735E-10         0.00000E+00
    0.35637E-08         0.61997E-10         0.00000E+00
    0.35632E-08         0.63053E-10         0.00000E+00
    0.35627E-08         0.63903E-10         0.00000E+00
    0.35622E-08         0.64546E-10         0.00000E+00
    0.35617E-08         0.64981E-10         0.00000E+00
    0.35612E-08         0.65206E-10         0.00000E+00
    0.35607E-08         0.65219E-10         0.00000E+00
    0.35602E-08         0.65021E-10         0.00000E+00
    0.35597E-08         0.64609E-10         0.00000E+00
    0.35592E-08         0.63983E-10         0.00000E+00
    0.35587E-08         0.63142E-10         0.00000E+00
    0.35582E-08         0.62085E-10         0.00000E+00
    0.35578E-08         0.60810E-10         0.00000E+00
    0.35573E-08         0.59318E-10         0.00000E+00
    0.35569E-08         0.57606E-10         0.00000E+00
    0.35565E-08         0.55675E-10         0.00000E+00
    0.35561E-08         0.53524E-10         0.00000E+00
    0.35557E-08         0.51152E-10         0.00000E+00
    0.35553E-08         0.48558E-10         0.00000E+00
    0.35550E-08         0.45742E-10         0.00000E+00
    0.35547E-08         0.42703E-10         0.00000E+00
    0.35544E-08         0.39441E-10         0.00000E+00
    0.35541E-08         0.35956E-10         0.00000E+00
    0.35539E-08         0.32246E-10         0.00000E+00
    0.35537E-08         0.28312E-10         0.00000E+00
    0.35535E-08         0.24153E-10         0.00000E+00
    0.35533E-08         0.19769E-10         0.00000E+00
    0.35532E-08         0.15161E-10         0.00000E+00
    0.35531E-08         0.10326E-10         0.00000E+00
    0.35531E-08         0.52665E-11         0.00000E+00
    0.35531E-08         0.26803E-11         0.00000E+00
    0.37443E-08         0.25578E-11         0.00000E+00
    0.37443E-08         0.50539E-11         0.00000E+00
    0.37442E-08         0.99532E-11         0.00000E+00
    0.37441E-08         0.14666E-10         0.00000E+00
    0.37439E-08         0.19189E-10         0.00000E+00
    0.37437E-08         0.23523E-10         0.00000E+00
    0.37435E-08         0.27664E-10         0.00000E+00
    0.37432E-08         0.31612E-10         0.00000E+00
    0.37429E-08         0.35365E-10         0.00000E+00
    0.37426E-08         0.38921E-10         0.00000E+00
    0.37422E-08         0.42278E-10         0.00000E+00
    0.37418E-08         0.45436E-10         0.00000E+00
    0.37414E-08         0.48392E-10         0.00000E+00
    0.37410E-08         0.51145E-10         0.00000E+00
    0.37405E-08         0.53694E-10         0.00000E+00
    0.37400E-08         0.56037E-10         0.00000E+00
    0.37395E-08         0.58172E-10         0.00000E+00
    0.37390E-08         0.60099E-10         0.00000E+00
    0.37385E-08         0.61817E-10         0.00000E+00
    0.37380E-08         0.63323E-10         0.00000E+00
    0.37375E-08         0.64616E-10         0.00000E+00
    0.37369E-08         0.65696E-10         0.00000E+00
    0.37364E-08         0.66561E-10         0.00000E+00
    0.37358E-08         0.67210E-10         0.00000E+00
    0.37353E-08         0.67641E-10         0.00000E+00
    0.37347E-08         0.67855E-10         0.00000E+00
    0.37342E-08         0.67849E-10         0.00000E+00
    0.37336E-08         0.67623E-10         0.00000E+00
    0.37331E-08         0.67175E-10         0.00000E+00
    0.37326E-08         0.66506E-10         0.00000E+00
    0.37321E-08         0.65614E-10         0.00000E+00
    0.37316E-08         0.64497E-10         0.00000E+00
    0.37311E-08         0.63157E-10         0.00000E+00
    0.37306E-08         0.61590E-10         0.00000E+00
    0.37301E-08         0.59798E-10         0.00000E+00
    0.37297E-08         0.57779E-10         0.00000E+00
    0.37293E-08         0.55533E-10         0.00000E+00
    0.37289E-08         0.53059E-10         0.00000E+00
    0.37285E-08         0.50357E-10         0.00000E+00
    0.37281E-08         0.47426E-10         0.00000E+00
    0.37278E-08         0.44265E-10         0.00000E+00
    0.37275E-08         0.40875E-10         0.00000E+00
    0.37272E-08         0.37254E-10         0.00000E+00
    0.37270E-08         0.33404E-10         0.00000E+00
    0.37267E-08         0.29322E-10         0.00000E+00
    0.37265E-08         0.25010E-10         0.00000E+00
    0.37264E-08         0.20467E-10         0.00000E+00
    0.37263E-08         0.15692E-10         0.00000E+00
    0.37262E-08         0.10686E-10         0.00000E+00
    0.37261E-08         0.54493E-11         0.00000E+00
    0.37261E-08         0.27729E-11         0.00000E+00
    0.39299E-08         0.26843E-11         0.00000E+00
    0.39299E-08         0.53026E-11         0.00000E+00
    0.39298E-08         0.10440E-10         0.00000E+00
    0.39297E-08         0.15377E-10         0.00000E+00
    0.39295E-08         0.20113E-10         0.00000E+00
    0.39293E-08         0.24647E-10         0.00000E+00
    0.39291E-08         0.28976E-10         0.00000E+00
    0.39288E-08         0.33100E-10         0.00000E+00
    0.39285E-08         0.37016E-10         0.00000E+00
    0.39281E-08         0.40724E-10         0.00000E+00
    0.39277E-08         0.44222E-10         0.00000E+00
    0.39273E-08         0.47509E-10         0.00000E+00
    0.39269E-08         0.50584E-10         0.00000E+00
    0.39264E-08         0.53444E-10         0.00000E+00
    0.39259E-08         0.56089E-10         0.00000E+00
    0.39255E-08         0.58518E-10         0.00000E+00
    0.39249E-08         0.60730E-10         0.00000E+00
    0.39244E-08         0.62722E-10         0.00000E+00
    0.39239E-08         0.64495E-10         0.00000E+00
    0.39233E-08         0.66046E-10         0.00000E+00
    0.39228E-08         0.67375E-10         0.00000E+00
    0.39222E-08         0.68481E-10         0.00000E+00
    0.39216E-08         0.69362E-10         0.00000E+00
    0.39210E-08         0.70019E-10         0.00000E+00
    0.39205E-08         0.70449E-10         0.00000E+00
    0.39199E-08         0.70651E-10         0.00000E+00
    0.39193E-08         0.70626E-10         0.00000E+00
    0.39188E-08         0.70372E-10         0.00000E+00
    0.39182E-08         0.69888E-10         0.00000E+00
    0.39176E-08         0.69174E-10         0.00000E+00
    0.39171E-08         0.68228E-10         0.00000E+00
    0.39166E-08         0.67051E-10         0.00000E+00
    0.39161E-08         0.65641E-10         0.00000E+00
    0.39156E-08         0.63997E-10         0.00000E+00
    0.39151E-08         0.62120E-10         0.00000E+00
    0.39146E-08         0.60009E-10         0.00000E+00
    0.39142E-08         0.57663E-10         0.00000E+00
    0.39137E-08         0.55082E-10         0.00000E+00
    0.39133E-08         0.52265E-10         0.00000E+00
    0.39129E-08         0.49212E-10         0.00000E+00
    0.39126E-08         0.45922E-10         0.00000E+00
    0.39123E-08         0.42396E-10         0.00000E+00
    0.39120E-08         0.38633E-10         0.00000E+00
    0.39117E-08         0.34633E-10         0.00000E+00
    0.39115E-08         0.30395E-10         0.00000E+00
    0.39113E-08         0.25920E-10         0.00000E+00
    0.39111E-08         0.21208E-10         0.00000E+00
    0.39110E-08         0.16257E-10         0.00000E+00
    0.39109E-08         0.11069E-10         0.00000E+00
    0.39108E-08         0.56436E-11         0.00000E+00
    0.39108E-08         0.28713E-11         0.00000E+00
    0.41275E-08         0.28152E-11         0.00000E+00
    0.41275E-08         0.55600E-11         0.00000E+00
    0.41274E-08         0.10944E-10         0.00000E+00
    0.41273E-08         0.16114E-10         0.00000E+00
    0.41271E-08         0.21071E-10         0.00000E+00
    0.41269E-08         0.25813E-10         0.00000E+00
    0.41266E-08         0.30337E-10         0.00000E+00
    0.41263E-08         0.34644E-10         0.00000E+00
    0.41260E-08         0.38732E-10         0.00000E+00
    0.41256E-08         0.42599E-10         0.00000E+00
    0.41252E-08         0.46244E-10         0.00000E+00
    0.41248E-08         0.49666E-10         0.00000E+00
    0.41243E-08         0.52865E-10         0.00000E+00
    0.41239E-08         0.55838E-10         0.00000E+00
    0.41234E-08         0.58585E-10         0.00000E+00
    0.41228E-08         0.61105E-10         0.00000E+00
    0.41223E-08         0.63396E-10         0.00000E+00
    0.41218E-08         0.65458E-10         0.00000E+00
    0.41212E-08         0.67289E-10         0.00000E+00
    0.41206E-08         0.68889E-10         0.00000E+00
    0.41200E-08         0.70256E-10         0.00000E+00
    0.41194E-08         0.71390E-10         0.00000E+00
    0.41188E-08         0.72291E-10         0.00000E+00
    0.41183E-08         0.72956E-10         0.00000E+00
    0.41177E-08         0.73385E-10         0.00000E+00
    0.41171E-08         0.73578E-10         0.00000E+00
    0.41165E-08         0.73533E-10         0.00000E+00
    0.41159E-08         0.73250E-10         0.00000E+00
    0.41153E-08         0.72729E-10         0.00000E+00
    0.41147E-08         0.71969E-10         0.00000E+00
    0.41141E-08         0.70968E-10         0.00000E+00
    0.41136E-08         0.69727E-10         0.00000E+00
    0.41131E-08         0.68245E-10         0.00000E+00
    0.41125E-08         0.66522E-10         0.00000E+00
    0.41120E-08         0.64557E-10         0.00000E+00
    0.41115E-08         0.62349E-10         0.00000E+00
    0.41111E-08         0.59898E-10         0.00000E+00
    0.41106E-08         0.57205E-10         0.00000E+00
    0.41102E-08         0.54268E-10         0.00000E+00
    0.41098E-08         0.51088E-10         0.00000E+00
    0.41094E-08         0.47663E-10         0.00000E+00
    0.41091E-08         0.43995E-10         0.00000E+00
    0.41088E-08         0.40082E-10         0.00000E+00
    0.41085E-08         0.35925E-10         0.00000E+00
    0.41083E-08         0.31523E-10         0.00000E+00
    0.41080E-08         0.26877E-10         0.00000E+00
    0.41079E-08         0.21987E-10         0.00000E+00
    0.41077E-08         0.16851E-10         0.00000E+00
    0.41076E-08         0.11472E-10         0.00000E+00
    0.41076E-08         0.58479E-11         0.00000E+00
    0.41075E-08         0.29748E-11         0.00000E+00
    0.43374E-08         0.29500E-11         0.00000E+00
    0.43374E-08         0.58252E-11         0.00000E+00
    0.43373E-08         0.11463E-10         0.00000E+00
    0.43372E-08         0.16875E-10         0.00000E+00
    0.43370E-08         0.22059E-10         0.00000E+00
    0.43368E-08         0.27016E-10         0.00000E+00
    0.43365E-08         0.31743E-10         0.00000E+00
    0.43362E-08         0.36239E-10         0.00000E+00
    0.43359E-08         0.40504E-10         0.00000E+00
    0.43355E-08         0.44536E-10         0.00000E+00
    0.43351E-08         0.48335E-10         0.00000E+00
    0.43347E-08         0.51898E-10         0.00000E+00
    0.43342E-08         0.55226E-10         0.00000E+00
    0.43337E-08         0.58317E-10         0.00000E+00
    0.43332E-08         0.61170E-10         0.00000E+00
    0.43326E-08         0.63784E-10         0.00000E+00
    0.43321E-08         0.66159E-10         0.00000E+00
    0.43315E-08         0.68294E-10         0.00000E+00
    0.43309E-08         0.70187E-10         0.00000E+00
    0.43303E-08         0.71838E-10         0.00000E+00
    0.43297E-08         0.73246E-10         0.00000E+00
    0.43291E-08         0.74410E-10         0.00000E+00
    0.43285E-08         0.75331E-10         0.00000E+00
    0.43279E-08         0.76006E-10         0.00000E+00
    0.43273E-08         0.76435E-10         0.00000E+00
    0.43267E-08         0.76618E-10         0.00000E+00
    0.43260E-08         0.76554E-10         0.00000E+00
    0.43254E-08         0.76243E-10         0.00000E+00
    0.43248E-08         0.75683E-10         0.00000E+00
    0.43242E-08         0.74875E-10         0.00000E+00
    0.43236E-08         0.73818E-10         0.00000E+00
    0.43231E-08         0.72512E-10         0.00000E+00
    0.43225E-08         0.70956E-10         0.00000E+00
    0.43220E-08         0.69149E-10         0.00000E+00
    0.43214E-08         0.67093E-10         0.00000E+00
    0.43209E-08         0.64785E-10         0.00000E+00
    0.43204E-08         0.62226E-10         0.00000E+00
    0.43200E-08         0.59416E-10         0.00000E+00
    0.43195E-08         0.56355E-10         0.00000E+00
    0.43191E-08         0.53042E-10         0.00000E+00
    0.43188E-08         0.49477E-10         0.00000E+00
    0.43184E-08         0.45660E-10         0.00000E+00
    0.43181E-08         0.41592E-10         0.00000E+00
    0.43178E-08         0.37271E-10         0.00000E+00
    0.43175E-08         0.32699E-10         0.00000E+00
    0.43173E-08         0.27875E-10         0.00000E+00
    0.43171E-08         0.22799E-10         0.00000E+00
    0.43170E-08         0.17471E-10         0.00000E+00
    0.43169E-08         0.11892E-10         0.00000E+00
    0.43168E-08         0.60609E-11         0.00000E+00
    0.43168E-08         0.30828E-11         0.00000E+00
    0.45603E-08         0.30885E-11         0.00000E+00
    0.45602E-08         0.60977E-11         0.00000E+00
    0.45602E-08         0.11997E-10         0.00000E+00
    0.45600E-08         0.17656E-10         0.00000E+00
    0.45598E-08         0.23076E-10         0.00000E+00
    0.45596E-08         0.28253E-10         0.00000E+00
    0.45593E-08         0.33189E-10         0.00000E+00
    0.45590E-08         0.37881E-10         0.00000E+00
    0.45587E-08         0.42329E-10         0.00000E+00
    0.45583E-08         0.46531E-10         0.00000E+00
    0.45579E-08         0.50488E-10         0.00000E+00
    0.45574E-08         0.54197E-10         0.00000E+00
    0.45569E-08         0.57659E-10         0.00000E+00
    0.45564E-08         0.60871E-10         0.00000E+00
    0.45559E-08         0.63834E-10         0.00000E+00
    0.45553E-08         0.66547E-10         0.00000E+00
    0.45548E-08         0.69009E-10         0.00000E+00
    0.45542E-08         0.71219E-10         0.00000E+00
    0.45536E-08         0.73177E-10         0.00000E+00
    0.45530E-08         0.74881E-10         0.00000E+00
    0.45524E-08         0.76332E-10         0.00000E+00
    0.45517E-08         0.77528E-10         0.00000E+00
    0.45511E-08         0.78469E-10         0.00000E+00
    0.45505E-08         0.79155E-10         0.00000E+00
    0.45498E-08         0.79585E-10         0.00000E+00
    0.45492E-08         0.79759E-10         0.00000E+00
    0.45485E-08         0.79675E-10         0.00000E+00
    0.45479E-08         0.79335E-10         0.00000E+00
    0.45473E-08         0.78736E-10         0.00000E+00
    0.45467E-08         0.77880E-10         0.00000E+00
    0.45461E-08         0.76765E-10         0.00000E+00
    0.45455E-08         0.75391E-10         0.00000E+00
    0.45449E-08         0.73758E-10         0.00000E+00
    0.45443E-08         0.71866E-10         0.00000E+00
    0.45438E-08         0.69715E-10         0.00000E+00
    0.45433E-08         0.67305E-10         0.00000E+00
    0.45428E-08         0.64634E-10         0.00000E+00
    0.45423E-08         0.61704E-10         0.00000E+00
    0.45418E-08         0.58514E-10         0.00000E+00
    0.45414E-08         0.55064E-10         0.00000E+00
    0.45410E-08         0.51354E-10         0.00000E+00
    0.45407E-08         0.47384E-10         0.00000E+00
    0.45403E-08         0.43154E-10         0.00000E+00
    0.45400E-08         0.38665E-10         0.00000E+00
    0.45398E-08         0.33916E-10         0.00000E+00
    0.45395E-08         0.28907E-10         0.00000E+00
    0.45393E-08         0.23639E-10         0.00000E+00
    0.45392E-08         0.18112E-10         0.00000E+00
    0.45391E-08         0.12326E-10         0.00000E+00
    0.45390E-08         0.62814E-11         0.00000E+00
    0.45390E-08         0.31945E-11         0.00000E+00
    0.47965E-08         0.32304E-11         0.00000E+00
    0.47965E-08         0.63770E-11         0.00000E+00
    0.47964E-08         0.12544E-10         0.00000E+00
    0.47963E-08         0.18458E-10         0.00000E+00
    0.47961E-08         0.24117E-10         0.00000E+00
    0.47958E-08         0.29523E-10         0.00000E+00
    0.47956E-08         0.34672E-10         0.00000E+00
    0.47952E-08         0.39565E-10         0.00000E+00
    0.47949E-08         0.44201E-10         0.00000E+00
    0.47945E-08         0.48579E-10         0.00000E+00
    0.47940E-08         0.52698E-10         0.00000E+00
    0.47936E-08         0.56557E-10         0.00000E+00
    0.47931E-08         0.60156E-10         0.00000E+00
    0.47926E-08         0.63494E-10         0.00000E+00
    0.47920E-08         0.66570E-10         0.00000E+00
    0.47915E-08         0.69385E-10         0.00000E+00
    0.47909E-08         0.71936E-10         0.00000E+00
    0.47903E-08         0.74224E-10         0.00000E+00
    0.47897E-08         0.76248E-10         0.00000E+00
    0.47890E-08         0.78008E-10         0.00000E+00
    0.47884E-08         0.79502E-10         0.00000E+00
    0.47878E-08         0.80732E-10         0.00000E+00
    0.47871E-08         0.81695E-10         0.00000E+00
    0.47865E-08         0.82393E-10         0.00000E+00
    0.47858E-08         0.82824E-10         0.00000E+00
    0.47851E-08         0.82987E-10         0.00000E+00
    0.47845E-08         0.82884E-10         0.00000E+00
    0.47838E-08         0.82514E-10         0.00000E+00
    0.47832E-08         0.81875E-10         0.00000E+00
    0.47826E-08         0.80969E-10         0.00000E+00
    0.47820E-08         0.79794E-10         0.00000E+00
    0.47813E-08         0.78352E-10         0.00000E+00
    0.47808E-08         0.76641E-10         0.00000E+00
    0.47802E-08         0.74661E-10         0.00000E+00
    0.47796E-08         0.72413E-10         0.00000E+00
    0.47791E-08         0.69896E-10         0.00000E+00
    0.47786E-08         0.67111E-10         0.00000E+00
    0.47781E-08         0.64057E-10         0.00000E+00
    0.47776E-08         0.60734E-10         0.00000E+00
    0.47772E-08         0.57144E-10         0.00000E+00
    0.47768E-08         0.53284E-10         0.00000E+00
    0.47764E-08         0.49157E-10         0.00000E+00
    0.47761E-08         0.44762E-10         0.00000E+00
    0.47758E-08         0.40098E-10         0.00000E+00
    0.47755E-08         0.35167E-10         0.00000E+00
    0.47752E-08         0.29969E-10         0.00000E+00
    0.47751E-08         0.24504E-10         0.00000E+00
    0.47749E-08         0.18772E-10         0.00000E+00
    0.47748E-08         0.12773E-10         0.00000E+00
    0.47747E-08         0.65083E-11         0.00000E+00
    0.47747E-08         0.33095E-11         0.00000E+00
    0.50467E-08         0.33756E-11         0.00000E+00
    0.50467E-08         0.66626E-11         0.00000E+00
    0.50466E-08         0.13103E-10         0.00000E+00
    0.50465E-08         0.19277E-10         0.00000E+00
    0.50463E-08         0.25183E-10         0.00000E+00
    0.50461E-08         0.30821E-10         0.00000E+00
    0.50458E-08         0.36190E-10         0.00000E+00
    0.50454E-08         0.41288E-10         0.00000E+00
    0.50451E-08         0.46116E-10         0.00000E+00
    0.50447E-08         0.50673E-10         0.00000E+00
    0.50442E-08         0.54959E-10         0.00000E+00
    0.50438E-08         0.58971E-10         0.00000E+00
    0.50433E-08         0.62711E-10         0.00000E+00
    0.50427E-08         0.66178E-10         0.00000E+00
    0.50422E-08         0.69370E-10         0.00000E+00
    0.50416E-08         0.72288E-10         0.00000E+00
    0.50410E-08         0.74932E-10         0.00000E+00
    0.50404E-08         0.77300E-10         0.00000E+00
    0.50397E-08         0.79392E-10         0.00000E+00
    0.50391E-08         0.81208E-10         0.00000E+00
    0.50385E-08         0.82748E-10         0.00000E+00
    0.50378E-08         0.84011E-10         0.00000E+00
    0.50371E-08         0.84997E-10         0.00000E+00
    0.50365E-08         0.85706E-10         0.00000E+00
    0.50358E-08         0.86138E-10         0.00000E+00
    0.50351E-08         0.86292E-10         0.00000E+00
    0.50345E-08         0.86169E-10         0.00000E+00
    0.50338E-08         0.85767E-10         0.00000E+00
    0.50331E-08         0.85088E-10         0.00000E+00
    0.50325E-08         0.84131E-10         0.00000E+00
    0.50319E-08         0.82895E-10         0.00000E+00
    0.50312E-08         0.81382E-10         0.00000E+00
    0.50306E-08         0.79591E-10         0.00000E+00
    0.50301E-08         0.77521E-10         0.00000E+00
    0.50295E-08         0.75174E-10         0.00000E+00
    0.50289E-08         0.72548E-10         0.00000E+00
    0.50284E-08         0.69645E-10         0.00000E+00
    0.50279E-08         0.66465E-10         0.00000E+00
    0.50274E-08         0.63007E-10         0.00000E+00
    0.50270E-08         0.59272E-10         0.00000E+00
    0.50266E-08         0.55260E-10         0.00000E+00
    0.50262E-08         0.50971E-10         0.00000E+00
    0.50259E-08         0.46406E-10         0.00000E+00
    0.50255E-08         0.41565E-10         0.00000E+00
    0.50253E-08         0.36448E-10         0.00000E+00
    0.50250E-08         0.31055E-10         0.00000E+00
    0.50248E-08         0.25388E-10         0.00000E+00
    0.50247E-08         0.19446E-10         0.00000E+00
    0.50246E-08         0.13230E-10         0.00000E+00
    0.50245E-08         0.67403E-11         0.00000E+00
    0.50245E-08         0.34270E-11         0.00000E+00
    0.53116E-08         0.35238E-11         0.00000E+00
    0.53115E-08         0.69541E-11         0.00000E+00
    0.53115E-08         0.13674E-10         0.00000E+00
    0.53113E-08         0.20114E-10         0.00000E+00
    0.53111E-08         0.26271E-10         0.00000E+00
    0.53109E-08         0.32146E-10         0.00000E+00
    0.53106E-08         0.37738E-10         0.00000E+00
    0.53103E-08         0.43047E-10         0.00000E+00
    0.53099E-08         0.48071E-10         0.00000E+00
    0.53095E-08         0.52811E-10         0.00000E+00
    0.53090E-08         0.57266E-10         0.00000E+00
    0.53085E-08         0.61435E-10         0.00000E+00
    0.53080E-08         0.65319E-10         0.00000E+00
    0.53075E-08         0.68916E-10         0.00000E+00
    0.53069E-08         0.72227E-10         0.00000E+00
    0.53063E-08         0.75251E-10         0.00000E+00
    0.53057E-08         0.77988E-10         0.00000E+00
    0.53051E-08         0.80437E-10         0.00000E+00
    0.53045E-08         0.82598E-10         0.00000E+00
    0.53038E-08         0.84472E-10         0.00000E+00
    0.53031E-08         0.86058E-10         0.00000E+00
    0.53025E-08         0.87355E-10         0.00000E+00
    0.53018E-08         0.88365E-10         0.00000E+00
    0.53011E-08         0.89085E-10         0.00000E+00
    0.53004E-08         0.89518E-10         0.00000E+00
    0.52997E-08         0.89662E-10         0.00000E+00
    0.52991E-08         0.89517E-10         0.00000E+00
    0.52984E-08         0.89084E-10         0.00000E+00
    0.52977E-08         0.88363E-10         0.00000E+00
    0.52971E-08         0.87354E-10         0.00000E+00
    0.52964E-08         0.86056E-10         0.00000E+00
    0.52958E-08         0.84470E-10         0.00000E+00
    0.52952E-08         0.82596E-10         0.00000E+00
    0.52946E-08         0.80435E-10         0.00000E+00
    0.52940E-08         0.77986E-10         0.00000E+00
    0.52935E-08         0.75250E-10         0.00000E+00
    0.52929E-08         0.72227E-10         0.00000E+00
    0.52924E-08         0.68917E-10         0.00000E+00
    0.52919E-08         0.65321E-10         0.00000E+00
    0.52915E-08         0.61439E-10         0.00000E+00
    0.52911E-08         0.57271E-10         0.00000E+00
    0.52907E-08         0.52818E-10         0.00000E+00
    0.52903E-08         0.48080E-10         0.00000E+00
    0.52900E-08         0.43057E-10         0.00000E+00
    0.52897E-08         0.37751E-10         0.00000E+00
    0.52895E-08         0.32161E-10         0.00000E+00
    0.52893E-08         0.26288E-10         0.00000E+00
    0.52891E-08         0.20132E-10         0.00000E+00
    0.52890E-08         0.13695E-10         0.00000E+00
    0.52889E-08         0.69762E-11         0.00000E+00
    0.52889E-08         0.35466E-11         0.00000E+00
    0.55917E-08         0.36748E-11         0.00000E+00
    0.55917E-08         0.72512E-11         0.00000E+00
    0.55916E-08         0.14256E-10         0.00000E+00
    0.55914E-08         0.20966E-10         0.00000E+00
    0.55912E-08         0.27379E-10         0.00000E+00
    0.55910E-08         0.33496E-10         0.00000E+00
    0.55907E-08         0.39315E-10         0.00000E+00
    0.55903E-08         0.44837E-10         0.00000E+00
    0.55900E-08         0.50061E-10         0.00000E+00
    0.55895E-08         0.54987E-10         0.00000E+00
    0.55891E-08         0.59615E-10         0.00000E+00
    0.55886E-08         0.63943E-10         0.00000E+00
    0.55881E-08         0.67972E-10         0.00000E+00
    0.55875E-08         0.71703E-10         0.00000E+00
    0.55870E-08         0.75133E-10         0.00000E+00
    0.55864E-08         0.78264E-10         0.00000E+00
    0.55857E-08         0.81096E-10         0.00000E+00
    0.55851E-08         0.83627E-10         0.00000E+00
    0.55845E-08         0.85859E-10         0.00000E+00
    0.55838E-08         0.87791E-10         0.00000E+00
    0.55831E-08         0.89422E-10         0.00000E+00
    0.55824E-08         0.90754E-10         0.00000E+00
    0.55817E-08         0.91786E-10         0.00000E+00
    0.55811E-08         0.92519E-10         0.00000E+00
    0.55804E-08         0.92951E-10         0.00000E+00
    0.55797E-08         0.93084E-10         0.00000E+00
    0.55790E-08         0.92918E-10         0.00000E+00
    0.55783E-08         0.92453E-10         0.00000E+00
    0.55776E-08         0.91688E-10         0.00000E+00
    0.55770E-08         0.90625E-10         0.00000E+00
    0.55763E-08         0.89263E-10         0.00000E+00
    0.55757E-08         0.87604E-10         0.00000E+00
    0.55751E-08         0.85646E-10         0.00000E+00
    0.55745E-08         0.83391E-10         0.00000E+00
    0.55739E-08         0.80839E-10         0.00000E+00
    0.55733E-08         0.77990E-10         0.00000E+00
    0.55728E-08         0.74845E-10         0.00000E+00
    0.55723E-08         0.71403E-10         0.00000E+00
    0.55718E-08         0.67667E-10         0.00000E+00
    0.55713E-08         0.63635E-10         0.00000E+00
    0.55709E-08         0.59309E-10         0.00000E+00
    0.55705E-08         0.54689E-10         0.00000E+00
    0.55701E-08         0.49775E-10         0.00000E+00
    0.55698E-08         0.44569E-10         0.00000E+00
    0.55695E-08         0.39070E-10         0.00000E+00
    0.55693E-08         0.33280E-10         0.00000E+00
    0.55691E-08         0.27199E-10         0.00000E+00
    0.55689E-08         0.20827E-10         0.00000E+00
    0.55688E-08         0.14166E-10         0.00000E+00
    0.55687E-08         0.72150E-11         0.00000E+00
    0.55687E-08         0.36675E-11         0.00000E+00
    0.58878E-08         0.38284E-11         0.00000E+00
    0.58878E-08         0.75534E-11         0.00000E+00
    0.58877E-08         0.14848E-10         0.00000E+00
    0.58875E-08         0.21832E-10         0.00000E+00
    0.58873E-08         0.28506E-10         0.00000E+00
    0.58871E-08         0.34867E-10         0.00000E+00
    0.58868E-08         0.40918E-10         0.00000E+00
    0.58864E-08         0.46656E-10         0.00000E+00
    0.58860E-08         0.52083E-10         0.00000E+00
    0.58856E-08         0.57197E-10         0.00000E+00
    0.58851E-08         0.61999E-10         0.00000E+00
    0.58847E-08         0.66488E-10         0.00000E+00
    0.58841E-08         0.70665E-10         0.00000E+00
    0.58836E-08         0.74529E-10         0.00000E+00
    0.58830E-08         0.78081E-10         0.00000E+00
    0.58824E-08         0.81320E-10         0.00000E+00
    0.58818E-08         0.84247E-10         0.00000E+00
    0.58811E-08         0.86861E-10         0.00000E+00
    0.58805E-08         0.89163E-10         0.00000E+00
    0.58798E-08         0.91153E-10         0.00000E+00
    0.58791E-08         0.92830E-10         0.00000E+00
    0.58784E-08         0.94196E-10         0.00000E+00
    0.58777E-08         0.95251E-10         0.00000E+00
    0.58770E-08         0.95994E-10         0.00000E+00
    0.58763E-08         0.96426E-10         0.00000E+00
    0.58756E-08         0.96547E-10         0.00000E+00
    0.58749E-08         0.96358E-10         0.00000E+00
    0.58743E-08         0.95859E-10         0.00000E+00
    0.58736E-08         0.95050E-10         0.00000E+00
    0.58729E-08         0.93932E-10         0.00000E+00
    0.58722E-08         0.92505E-10         0.00000E+00
    0.58716E-08         0.90770E-10         0.00000E+00
    0.58710E-08         0.88727E-10         0.00000E+00
    0.58704E-08         0.86377E-10         0.00000E+00
    0.58698E-08         0.83719E-10         0.00000E+00
    0.58692E-08         0.80756E-10         0.00000E+00
    0.58687E-08         0.77486E-10         0.00000E+00
    0.58682E-08         0.73912E-10         0.00000E+00
    0.58677E-08         0.70033E-10         0.00000E+00
    0.58672E-08         0.65850E-10         0.00000E+00
    0.58668E-08         0.61364E-10         0.00000E+00
    0.58664E-08         0.56575E-10         0.00000E+00
    0.58660E-08         0.51484E-10         0.00000E+00
    0.58657E-08         0.46092E-10         0.00000E+00
    0.58654E-08         0.40399E-10         0.00000E+00
    0.58652E-08         0.34407E-10         0.00000E+00
    0.58650E-08         0.28116E-10         0.00000E+00
    0.58648E-08         0.21526E-10         0.00000E+00
    0.58647E-08         0.14639E-10         0.00000E+00
    0.58646E-08         0.74551E-11         0.00000E+00
    0.58646E-08         0.37891E-11         0.00000E+00
    0.62007E-08         0.39843E-11         0.00000E+00
    0.62006E-08         0.78601E-11         0.00000E+00
    0.62005E-08         0.15449E-10         0.00000E+00
    0.62004E-08         0.22711E-10         0.00000E+00
    0.62002E-08         0.29648E-10         0.00000E+00
    0.61999E-08         0.36258E-10         0.00000E+00
    0.61996E-08         0.42542E-10         0.00000E+00
    0.61993E-08         0.48499E-10         0.00000E+00
    0.61989E-08         0.54130E-10         0.00000E+00
    0.61984E-08         0.59434E-10         0.00000E+00
    0.61980E-08         0.64412E-10         0.00000E+00
    0.61975E-08         0.69064E-10         0.00000E+00
    0.61969E-08         0.73389E-10         0.00000E+00
    0.61964E-08         0.77388E-10         0.00000E+00
    0.61958E-08         0.81061E-10         0.00000E+00
    0.61952E-08         0.84409E-10         0.00000E+00
    0.61946E-08         0.87431E-10         0.00000E+00
    0.61939E-08         0.90128E-10         0.00000E+00
    0.61932E-08         0.92500E-10         0.00000E+00
    0.61926E-08         0.94547E-10         0.00000E+00
    0.61919E-08         0.96270E-10         0.00000E+00
    0.61912E-08         0.97669E-10         0.00000E+00
    0.61905E-08         0.98745E-10         0.00000E+00
    0.61898E-08         0.99498E-10         0.00000E+00
    0.61891E-08         0.99928E-10         0.00000E+00
    0.61884E-08         0.10004E-09         0.00000E+00
    0.61877E-08         0.99823E-10         0.00000E+00
    0.61870E-08         0.99289E-10         0.00000E+00
    0.61863E-08         0.98435E-10         0.00000E+00
    0.61856E-08         0.97260E-10         0.00000E+00
    0.61850E-08         0.95767E-10         0.00000E+00
    0.61843E-08         0.93955E-10         0.00000E+00
    0.61837E-08         0.91825E-10         0.00000E+00
    0.61831E-08         0.89378E-10         0.00000E+00
    0.61825E-08         0.86614E-10         0.00000E+00
    0.61819E-08         0.83534E-10         0.00000E+00
    0.61814E-08         0.80139E-10         0.00000E+00
    0.61809E-08         0.76430E-10         0.00000E+00
    0.61804E-08         0.72408E-10         0.00000E+00
    0.61799E-08         0.68072E-10         0.00000E+00
    0.61795E-08         0.63425E-10         0.00000E+00
    0.61791E-08         0.58466E-10         0.00000E+00
    0.61787E-08         0.53197E-10         0.00000E+00
    0.61784E-08         0.47618E-10         0.00000E+00
    0.61781E-08         0.41731E-10         0.00000E+00
    0.61779E-08         0.35536E-10         0.00000E+00
    0.61777E-08         0.29034E-10         0.00000E+00
    0.61775E-08         0.22226E-10         0.00000E+00
    0.61774E-08         0.15113E-10         0.00000E+00
    0.61773E-08         0.76954E-11         0.00000E+00
    0.61773E-08         0.39108E-11         0.00000E+00
    0.65311E-08         0.41423E-11         0.00000E+00
    0.65311E-08         0.81707E-11         0.00000E+00
    0.65310E-08         0.16057E-10         0.00000E+00
    0.65308E-08         0.23601E-10         0.00000E+00
    0.65306E-08         0.30803E-10         0.00000E+00
    0.65304E-08         0.37664E-10         0.00000E+00
    0.65300E-08         0.44183E-10         0.00000E+00
    0.65297E-08         0.50361E-10         0.00000E+00
    0.65293E-08         0.56198E-10         0.00000E+00
    0.65289E-08         0.61693E-10         0.00000E+00
    0.65284E-08         0.66848E-10         0.00000E+00
    0.65279E-08         0.71662E-10         0.00000E+00
    0.65273E-08         0.76136E-10         0.00000E+00
    0.65268E-08         0.80270E-10         0.00000E+00
    0.65262E-08         0.84065E-10         0.00000E+00
    0.65256E-08         0.87520E-10         0.00000E+00
    0.65249E-08         0.90637E-10         0.00000E+00
    0.65243E-08         0.93415E-10         0.00000E+00
    0.65236E-08         0.95856E-10         0.00000E+00
    0.65230E-08         0.97960E-10         0.00000E+00
    0.65223E-08         0.99728E-10         0.00000E+00
    0.65216E-08         0.10116E-09         0.00000E+00
    0.65209E-08         0.10225E-09         0.00000E+00
    0.65202E-08         0.10302E-09         0.00000E+00
    0.65195E-08         0.10344E-09         0.00000E+00
    0.65188E-08         0.10354E-09         0.00000E+00
    0.65181E-08         0.10330E-09         0.00000E+00
    0.65174E-08         0.10273E-09         0.00000E+00
    0.65167E-08         0.10183E-09         0.00000E+00
    0.65160E-08         0.10059E-09         0.00000E+00
    0.65154E-08         0.99033E-10         0.00000E+00
    0.65147E-08         0.97143E-10         0.00000E+00
    0.65141E-08         0.94924E-10         0.00000E+00
    0.65135E-08         0.92379E-10         0.00000E+00
    0.65129E-08         0.89508E-10         0.00000E+00
    0.65123E-08         0.86311E-10         0.00000E+00
    0.65118E-08         0.82790E-10         0.00000E+00
    0.65113E-08         0.78945E-10         0.00000E+00
    0.65108E-08         0.74778E-10         0.00000E+00
    0.65103E-08         0.70290E-10         0.00000E+00
    0.65099E-08         0.65480E-10         0.00000E+00
    0.65095E-08         0.60352E-10         0.00000E+00
    0.65091E-08         0.54904E-10         0.00000E+00
    0.65088E-08         0.49139E-10         0.00000E+00
    0.65085E-08         0.43057E-10         0.00000E+00
    0.65083E-08         0.36660E-10         0.00000E+00
    0.65081E-08         0.29948E-10         0.00000E+00
    0.65079E-08         0.22922E-10         0.00000E+00
    0.65078E-08         0.15584E-10         0.00000E+00
    0.65077E-08         0.79342E-11         0.00000E+00
    0.65077E-08         0.40317E-11         0.00000E+00
    0.68800E-08         0.43018E-11         0.00000E+00
    0.68799E-08         0.84843E-11         0.00000E+00
    0.68798E-08         0.16670E-10         0.00000E+00
    0.68797E-08         0.24498E-10         0.00000E+00
    0.68795E-08         0.31969E-10         0.00000E+00
    0.68792E-08         0.39082E-10         0.00000E+00
    0.68789E-08         0.45837E-10         0.00000E+00
    0.68786E-08         0.52237E-10         0.00000E+00
    0.68782E-08         0.58279E-10         0.00000E+00
    0.68777E-08         0.63966E-10         0.00000E+00
    0.68773E-08         0.69297E-10         0.00000E+00
    0.68768E-08         0.74274E-10         0.00000E+00
    0.68762E-08         0.78896E-10         0.00000E+00
    0.68756E-08         0.83164E-10         0.00000E+00
    0.68751E-08         0.87079E-10         0.00000E+00
    0.68744E-08         0.90641E-10         0.00000E+00
    0.68738E-08         0.93851E-10         0.00000E+00
    0.68732E-08         0.96710E-10         0.00000E+00
    0.68725E-08         0.99219E-10         0.00000E+00
    0.68718E-08         0.10138E-09         0.00000E+00
    0.68711E-08         0.10319E-09         0.00000E+00
    0.68704E-08         0.10465E-09         0.00000E+00
    0.68697E-08         0.10576E-09         0.00000E+00
    0.68690E-08         0.10653E-09         0.00000E+00
    0.68683E-08         0.10695E-09         0.00000E+00
    0.68676E-08         0.10703E-09         0.00000E+00
    0.68669E-08         0.10677E-09         0.00000E+00
    0.68663E-08         0.10616E-09         0.00000E+00
    0.68656E-08         0.10521E-09         0.00000E+00
    0.68649E-08         0.10392E-09         0.00000E+00
    0.68643E-08         0.10229E-09         0.00000E+00
    0.68636E-08         0.10032E-09         0.00000E+00
    0.68630E-08         0.98008E-10         0.00000E+00
    0.68624E-08         0.95364E-10         0.00000E+00
    0.68618E-08         0.92384E-10         0.00000E+00
    0.68612E-08         0.89070E-10         0.00000E+00
    0.68607E-08         0.85422E-10         0.00000E+00
    0.68602E-08         0.81441E-10         0.00000E+00
    0.68597E-08         0.77130E-10         0.00000E+00
    0.68593E-08         0.72488E-10         0.00000E+00
    0.68588E-08         0.67518E-10         0.00000E+00
    0.68585E-08         0.62219E-10         0.00000E+00
    0.68581E-08         0.56594E-10         0.00000E+00
    0.68578E-08         0.50644E-10         0.00000E+00
    0.68575E-08         0.44369E-10         0.00000E+00
    0.68573E-08         0.37771E-10         0.00000E+00
    0.68571E-08         0.30851E-10         0.00000E+00
    0.68569E-08         0.23610E-10         0.00000E+00
    0.68568E-08         0.16049E-10         0.00000E+00
    0.68567E-08         0.81700E-11         0.00000E+00
    0.68567E-08         0.41510E-11         0.00000E+00
    0.72482E-08         0.44625E-11         0.00000E+00
    0.72482E-08         0.87999E-11         0.00000E+00
    0.72481E-08         0.17287E-10         0.00000E+00
    0.72480E-08         0.25401E-10         0.00000E+00
    0.72478E-08         0.33140E-10         0.00000E+00
    0.72475E-08         0.40505E-10         0.00000E+00
    0.72472E-08         0.47497E-10         0.00000E+00
    0.72468E-08         0.54118E-10         0.00000E+00
    0.72464E-08         0.60366E-10         0.00000E+00
    0.72460E-08         0.66243E-10         0.00000E+00
    0.72455E-08         0.71750E-10         0.00000E+00
    0.72450E-08         0.76887E-10         0.00000E+00
    0.72445E-08         0.81656E-10         0.00000E+00
    0.72439E-08         0.86056E-10         0.00000E+00
    0.72433E-08         0.90090E-10         0.00000E+00
    0.72427E-08         0.93757E-10         0.00000E+00
    0.72421E-08         0.97058E-10         0.00000E+00
    0.72414E-08         0.99996E-10         0.00000E+00
    0.72408E-08         0.10257E-09         0.00000E+00
    0.72401E-08         0.10478E-09         0.00000E+00
    0.72394E-08         0.10663E-09         0.00000E+00
    0.72387E-08         0.10812E-09         0.00000E+00
    0.72380E-08         0.10925E-09         0.00000E+00
    0.72373E-08         0.11003E-09         0.00000E+00
    0.72366E-08         0.11044E-09         0.00000E+00
    0.72360E-08         0.11050E-09         0.00000E+00
    0.72353E-08         0.11021E-09         0.00000E+00
    0.72346E-08         0.10956E-09         0.00000E+00
    0.72339E-08         0.10856E-09         0.00000E+00
    0.72333E-08         0.10721E-09         0.00000E+00
    0.72326E-08         0.10550E-09         0.00000E+00
    0.72320E-08         0.10345E-09         0.00000E+00
    0.72314E-08         0.10106E-09         0.00000E+00
    0.72308E-08         0.98312E-10         0.00000E+00
    0.72302E-08         0.95224E-10         0.00000E+00
    0.72297E-08         0.91791E-10         0.00000E+00
    0.72291E-08         0.88017E-10         0.00000E+00
    0.72286E-08         0.83902E-10         0.00000E+00
    0.72282E-08         0.79446E-10         0.00000E+00
    0.72277E-08         0.74653E-10         0.00000E+00
    0.72273E-08         0.69522E-10         0.00000E+00
    0.72269E-08         0.64056E-10         0.00000E+00
    0.72266E-08         0.58255E-10         0.00000E+00
    0.72263E-08         0.52122E-10         0.00000E+00
    0.72260E-08         0.45656E-10         0.00000E+00
    0.72258E-08         0.38861E-10         0.00000E+00
    0.72256E-08         0.31736E-10         0.00000E+00
    0.72254E-08         0.24283E-10         0.00000E+00
    0.72253E-08         0.16505E-10         0.00000E+00
    0.72252E-08         0.84007E-11         0.00000E+00
    0.72252E-08         0.42677E-11         0.00000E+00
    0.76369E-08         0.46236E-11         0.00000E+00
    0.76368E-08         0.91163E-11         0.00000E+00
    0.76367E-08         0.17906E-10         0.00000E+00
    0.76366E-08         0.26304E-10         0.00000E+00
    0.76364E-08         0.34311E-10         0.00000E+00
    0.76361E-08         0.41928E-10         0.00000E+00
    0.76358E-08         0.49156E-10         0.00000E+00
    0.76355E-08         0.55996E-10         0.00000E+00
    0.76351E-08         0.62448E-10         0.00000E+00
    0.76346E-08         0.68513E-10         0.00000E+00
    0.76342E-08         0.74194E-10         0.00000E+00
    0.76337E-08         0.79489E-10         0.00000E+00
    0.76331E-08         0.84402E-10         0.00000E+00
    0.76326E-08         0.88932E-10         0.00000E+00
    0.76320E-08         0.93081E-10         0.00000E+00
    0.76314E-08         0.96850E-10         0.00000E+00
    0.76308E-08         0.10024E-09         0.00000E+00
    0.76301E-08         0.10325E-09         0.00000E+00
    0.76295E-08         0.10589E-09         0.00000E+00
    0.76288E-08         0.10815E-09         0.00000E+00
    0.76281E-08         0.11004E-09         0.00000E+00
    0.76274E-08         0.11156E-09         0.00000E+00
    0.76268E-08         0.11270E-09         0.00000E+00
    0.76261E-08         0.11347E-09         0.00000E+00
    0.76254E-08         0.11388E-09         0.00000E+00
    0.76247E-08         0.11392E-09         0.00000E+00
    0.76240E-08         0.11359E-09         0.00000E+00
    0.76234E-08         0.11291E-09         0.00000E+00
    0.76227E-08         0.11185E-09         0.00000E+00
    0.76221E-08         0.11044E-09         0.00000E+00
    0.76214E-08         0.10867E-09         0.00000E+00
    0.76208E-08         0.10653E-09         0.00000E+00
    0.76202E-08         0.10405E-09         0.00000E+00
    0.76197E-08         0.10120E-09         0.00000E+00
    0.76191E-08         0.98005E-10         0.00000E+00
    0.76186E-08         0.94456E-10         0.00000E+00
    0.76180E-08         0.90555E-10         0.00000E+00
    0.76176E-08         0.86306E-10         0.00000E+00
    0.76171E-08         0.81709E-10         0.00000E+00
    0.76167E-08         0.76765E-10         0.00000E+00
    0.76163E-08         0.71477E-10         0.00000E+00
    0.76159E-08         0.65846E-10         0.00000E+00
    0.76156E-08         0.59873E-10         0.00000E+00
    0.76153E-08         0.53560E-10         0.00000E+00
    0.76150E-08         0.46909E-10         0.00000E+00
    0.76148E-08         0.39920E-10         0.00000E+00
    0.76146E-08         0.32596E-10         0.00000E+00
    0.76144E-08         0.24937E-10         0.00000E+00
    0.76143E-08         0.16946E-10         0.00000E+00
    0.76143E-08         0.86243E-11         0.00000E+00
    0.76142E-08         0.43807E-11         0.00000E+00
    0.80469E-08         0.47844E-11         0.00000E+00
    0.80469E-08         0.94319E-11         0.00000E+00
    0.80468E-08         0.18522E-10         0.00000E+00
    0.80466E-08         0.27204E-10         0.00000E+00
    0.80464E-08         0.35477E-10         0.00000E+00
    0.80462E-08         0.43343E-10         0.00000E+00
    0.80459E-08         0.50804E-10         0.00000E+00
    0.80455E-08         0.57860E-10         0.00000E+00
    0.80451E-08         0.64513E-10         0.00000E+00
    0.80447E-08         0.70764E-10         0.00000E+00
    0.80442E-08         0.76613E-10         0.00000E+00
    0.80437E-08         0.82064E-10         0.00000E+00
    0.80432E-08         0.87117E-10         0.00000E+00
    0.80427E-08         0.91773E-10         0.00000E+00
    0.80421E-08         0.96034E-10         0.00000E+00
    0.80415E-08         0.99901E-10         0.00000E+00
    0.80409E-08         0.10338E-09         0.00000E+00
    0.80403E-08         0.10646E-09         0.00000E+00
    0.80396E-08         0.10916E-09         0.00000E+00
    0.80390E-08         0.11146E-09         0.00000E+00
    0.80383E-08         0.11339E-09         0.00000E+00
    0.80376E-08         0.11492E-09         0.00000E+00
    0.80370E-08         0.11608E-09         0.00000E+00
    0.80363E-08         0.11685E-09         0.00000E+00
    0.80357E-08         0.11725E-09         0.00000E+00
    0.80350E-08         0.11726E-09         0.00000E+00
    0.80343E-08         0.11690E-09         0.00000E+00
    0.80337E-08         0.11617E-09         0.00000E+00
    0.80331E-08         0.11507E-09         0.00000E+00
    0.80324E-08         0.11359E-09         0.00000E+00
    0.80318E-08         0.11174E-09         0.00000E+00
    0.80312E-08         0.10953E-09         0.00000E+00
    0.80306E-08         0.10695E-09         0.00000E+00
    0.80301E-08         0.10401E-09         0.00000E+00
    0.80295E-08         0.10070E-09         0.00000E+00
    0.80290E-08         0.97038E-10         0.00000E+00
    0.80285E-08         0.93013E-10         0.00000E+00
    0.80281E-08         0.88632E-10         0.00000E+00
    0.80276E-08         0.83896E-10         0.00000E+00
    0.80272E-08         0.78806E-10         0.00000E+00
    0.80268E-08         0.73364E-10         0.00000E+00
    0.80265E-08         0.67572E-10         0.00000E+00
    0.80261E-08         0.61432E-10         0.00000E+00
    0.80259E-08         0.54945E-10         0.00000E+00
    0.80256E-08         0.48113E-10         0.00000E+00
    0.80254E-08         0.40938E-10         0.00000E+00
    0.80252E-08         0.33421E-10         0.00000E+00
    0.80251E-08         0.25565E-10         0.00000E+00
    0.80250E-08         0.17370E-10         0.00000E+00
    0.80249E-08         0.88385E-11         0.00000E+00
    0.80249E-08         0.44889E-11         0.00000E+00
    0.84795E-08         0.49439E-11         0.00000E+00
    0.84795E-08         0.97448E-11         0.00000E+00
    0.84794E-08         0.19133E-10         0.00000E+00
    0.84792E-08         0.28094E-10         0.00000E+00
    0.84790E-08         0.36630E-10         0.00000E+00
    0.84788E-08         0.44741E-10         0.00000E+00
    0.84785E-08         0.52430E-10         0.00000E+00
    0.84781E-08         0.59698E-10         0.00000E+00
    0.84777E-08         0.66547E-10         0.00000E+00
    0.84773E-08         0.72977E-10         0.00000E+00
    0.84769E-08         0.78992E-10         0.00000E+00
    0.84764E-08         0.84592E-10         0.00000E+00
    0.84759E-08         0.89780E-10         0.00000E+00
    0.84753E-08         0.94556E-10         0.00000E+00
    0.84748E-08         0.98924E-10         0.00000E+00
    0.84742E-08         0.10288E-09         0.00000E+00
    0.84736E-08         0.10644E-09         0.00000E+00
    0.84730E-08         0.10959E-09         0.00000E+00
    0.84724E-08         0.11234E-09         0.00000E+00
    0.84717E-08         0.11469E-09         0.00000E+00
    0.84711E-08         0.11664E-09         0.00000E+00
    0.84705E-08         0.11820E-09         0.00000E+00
    0.84698E-08         0.11936E-09         0.00000E+00
    0.84692E-08         0.12013E-09         0.00000E+00
    0.84685E-08         0.12051E-09         0.00000E+00
    0.84679E-08         0.12050E-09         0.00000E+00
    0.84673E-08         0.12010E-09         0.00000E+00
    0.84667E-08         0.11933E-09         0.00000E+00
    0.84660E-08         0.11817E-09         0.00000E+00
    0.84654E-08         0.11662E-09         0.00000E+00
    0.84649E-08         0.11471E-09         0.00000E+00
    0.84643E-08         0.11241E-09         0.00000E+00
    0.84637E-08         0.10974E-09         0.00000E+00
    0.84632E-08         0.10670E-09         0.00000E+00
    0.84627E-08         0.10329E-09         0.00000E+00
    0.84622E-08         0.99510E-10         0.00000E+00
    0.84617E-08         0.95364E-10         0.00000E+00
    0.84613E-08         0.90854E-10         0.00000E+00
    0.84609E-08         0.85983E-10         0.00000E+00
    0.84605E-08         0.80750E-10         0.00000E+00
    0.84601E-08         0.75160E-10         0.00000E+00
    0.84598E-08         0.69213E-10         0.00000E+00
    0.84595E-08         0.62912E-10         0.00000E+00
    0.84592E-08         0.56259E-10         0.00000E+00
    0.84590E-08         0.49254E-10         0.00000E+00
    0.84588E-08         0.41902E-10         0.00000E+00
    0.84586E-08         0.34202E-10         0.00000E+00
    0.84585E-08         0.26157E-10         0.00000E+00
    0.84584E-08         0.17769E-10         0.00000E+00
    0.84583E-08         0.90404E-11         0.00000E+00
    0.84583E-08         0.45908E-11         0.00000E+00
    0.89358E-08         0.51009E-11         0.00000E+00
    0.89358E-08         0.10053E-10         0.00000E+00
    0.89357E-08         0.19733E-10         0.00000E+00
    0.89356E-08         0.28969E-10         0.00000E+00
    0.89354E-08         0.37760E-10         0.00000E+00
    0.89351E-08         0.46111E-10         0.00000E+00
    0.89348E-08         0.54022E-10         0.00000E+00
    0.89345E-08         0.61495E-10         0.00000E+00
    0.89341E-08         0.68532E-10         0.00000E+00
    0.89337E-08         0.75136E-10         0.00000E+00
    0.89333E-08         0.81308E-10         0.00000E+00
    0.89328E-08         0.87051E-10         0.00000E+00
    0.89323E-08         0.92367E-10         0.00000E+00
    0.89318E-08         0.97257E-10         0.00000E+00
    0.89312E-08         0.10172E-09         0.00000E+00
    0.89307E-08         0.10577E-09         0.00000E+00
    0.89301E-08         0.10940E-09         0.00000E+00
    0.89295E-08         0.11261E-09         0.00000E+00
    0.89289E-08         0.11541E-09         0.00000E+00
    0.89283E-08         0.11780E-09         0.00000E+00
    0.89277E-08         0.11977E-09         0.00000E+00
    0.89271E-08         0.12134E-09         0.00000E+00
    0.89265E-08         0.12250E-09         0.00000E+00
    0.89259E-08         0.12327E-09         0.00000E+00
    0.89253E-08         0.12363E-09         0.00000E+00
    0.89247E-08         0.12359E-09         0.00000E+00
    0.89241E-08         0.12316E-09         0.00000E+00
    0.89235E-08         0.12233E-09         0.00000E+00
    0.89229E-08         0.12112E-09         0.00000E+00
    0.89223E-08         0.11951E-09         0.00000E+00
    0.89218E-08         0.11752E-09         0.00000E+00
    0.89213E-08         0.11514E-09         0.00000E+00
    0.89207E-08         0.11238E-09         0.00000E+00
    0.89202E-08         0.10925E-09         0.00000E+00
    0.89198E-08         0.10573E-09         0.00000E+00
    0.89193E-08         0.10184E-09         0.00000E+00
    0.89189E-08         0.97577E-10         0.00000E+00
    0.89185E-08         0.92944E-10         0.00000E+00
    0.89181E-08         0.87942E-10         0.00000E+00
    0.89177E-08         0.82574E-10         0.00000E+00
    0.89174E-08         0.76842E-10         0.00000E+00
    0.89171E-08         0.70748E-10         0.00000E+00
    0.89168E-08         0.64294E-10         0.00000E+00
    0.89165E-08         0.57484E-10         0.00000E+00
    0.89163E-08         0.50317E-10         0.00000E+00
    0.89161E-08         0.42798E-10         0.00000E+00
    0.89160E-08         0.34927E-10         0.00000E+00
    0.89158E-08         0.26707E-10         0.00000E+00
    0.89158E-08         0.18139E-10         0.00000E+00
    0.89157E-08         0.92271E-11         0.00000E+00
    0.89157E-08         0.46849E-11         0.00000E+00
    0.94171E-08         0.52542E-11         0.00000E+00
    0.94171E-08         0.10353E-10         0.00000E+00
    0.94170E-08         0.20318E-10         0.00000E+00
    0.94169E-08         0.29819E-10         0.00000E+00
    0.94167E-08         0.38858E-10         0.00000E+00
    0.94164E-08         0.47439E-10         0.00000E+00
    0.94162E-08         0.55562E-10         0.00000E+00
    0.94158E-08         0.63231E-10         0.00000E+00
    0.94155E-08         0.70449E-10         0.00000E+00
    0.94151E-08         0.77217E-10         0.00000E+00
    0.94147E-08         0.83538E-10         0.00000E+00
    0.94142E-08         0.89414E-10         0.00000E+00
    0.94138E-08         0.94849E-10         0.00000E+00
    0.94133E-08         0.99845E-10         0.00000E+00
    0.94127E-08         0.10440E-09         0.00000E+00
    0.94122E-08         0.10853E-09         0.00000E+00
    0.94117E-08         0.11222E-09         0.00000E+00
    0.94111E-08         0.11549E-09         0.00000E+00
    0.94106E-08         0.11833E-09         0.00000E+00
    0.94100E-08         0.12074E-09         0.00000E+00
    0.94094E-08         0.12274E-09         0.00000E+00
    0.94089E-08         0.12431E-09         0.00000E+00
    0.94083E-08         0.12548E-09         0.00000E+00
    0.94077E-08         0.12623E-09         0.00000E+00
    0.94071E-08         0.12656E-09         0.00000E+00
    0.94066E-08         0.12650E-09         0.00000E+00
    0.94060E-08         0.12602E-09         0.00000E+00
    0.94055E-08         0.12515E-09         0.00000E+00
    0.94049E-08         0.12387E-09         0.00000E+00
    0.94044E-08         0.12220E-09         0.00000E+00
    0.94039E-08         0.12014E-09         0.00000E+00
    0.94034E-08         0.11768E-09         0.00000E+00
    0.94029E-08         0.11484E-09         0.00000E+00
    0.94025E-08         0.11160E-09         0.00000E+00
    0.94021E-08         0.10799E-09         0.00000E+00
    0.94016E-08         0.10399E-09         0.00000E+00
    0.94012E-08         0.99617E-10         0.00000E+00
    0.94009E-08         0.94866E-10         0.00000E+00
    0.94005E-08         0.89741E-10         0.00000E+00
    0.94002E-08         0.84245E-10         0.00000E+00
    0.93999E-08         0.78381E-10         0.00000E+00
    0.93996E-08         0.72150E-10         0.00000E+00
    0.93993E-08         0.65555E-10         0.00000E+00
    0.93991E-08         0.58598E-10         0.00000E+00
    0.93989E-08         0.51282E-10         0.00000E+00
    0.93988E-08         0.43610E-10         0.00000E+00
    0.93986E-08         0.35583E-10         0.00000E+00
    0.93985E-08         0.27203E-10         0.00000E+00
    0.93984E-08         0.18473E-10         0.00000E+00
    0.93984E-08         0.93951E-11         0.00000E+00
    0.93984E-08         0.47694E-11         0.00000E+00
    0.99248E-08         0.54019E-11         0.00000E+00
    0.99247E-08         0.10642E-10         0.00000E+00
    0.99247E-08         0.20880E-10         0.00000E+00
    0.99245E-08         0.30635E-10         0.00000E+00
    0.99243E-08         0.39910E-10         0.00000E+00
    0.99241E-08         0.48709E-10         0.00000E+00
    0.99238E-08         0.57033E-10         0.00000E+00
    0.99235E-08         0.64887E-10         0.00000E+00
    0.99232E-08         0.72272E-10         0.00000E+00
    0.99228E-08         0.79193E-10         0.00000E+00
    0.99224E-08         0.85651E-10         0.00000E+00
    0.99220E-08         0.91650E-10         0.00000E+00
    0.99216E-08         0.97194E-10         0.00000E+00
    0.99211E-08         0.10228E-09         0.00000E+00
    0.99206E-08         0.10692E-09         0.00000E+00
    0.99202E-08         0.11112E-09         0.00000E+00
    0.99197E-08         0.11487E-09         0.00000E+00
    0.99191E-08         0.11818E-09         0.00000E+00
    0.99186E-08         0.12105E-09         0.00000E+00
    0.99181E-08         0.12349E-09         0.00000E+00
    0.99176E-08         0.12549E-09         0.00000E+00
    0.99171E-08         0.12707E-09         0.00000E+00
    0.99165E-08         0.12823E-09         0.00000E+00
    0.99160E-08         0.12896E-09         0.00000E+00
    0.99155E-08         0.12927E-09         0.00000E+00
    0.99150E-08         0.12917E-09         0.00000E+00
    0.99145E-08         0.12865E-09         0.00000E+00
    0.99140E-08         0.12773E-09         0.00000E+00
    0.99135E-08         0.12639E-09         0.00000E+00
    0.99130E-08         0.12466E-09         0.00000E+00
    0.99126E-08         0.12252E-09         0.00000E+00
    0.99121E-08         0.11998E-09         0.00000E+00
    0.99117E-08         0.11705E-09         0.00000E+00
    0.99113E-08         0.11373E-09         0.00000E+00
    0.99109E-08         0.11002E-09         0.00000E+00
    0.99106E-08         0.10593E-09         0.00000E+00
    0.99102E-08         0.10144E-09         0.00000E+00
    0.99099E-08         0.96584E-10         0.00000E+00
    0.99096E-08         0.91345E-10         0.00000E+00
    0.99093E-08         0.85731E-10         0.00000E+00
    0.99090E-08         0.79745E-10         0.00000E+00
    0.99088E-08         0.73389E-10         0.00000E+00
    0.99086E-08         0.66666E-10         0.00000E+00
    0.99084E-08         0.59579E-10         0.00000E+00
    0.99082E-08         0.52129E-10         0.00000E+00
    0.99081E-08         0.44321E-10         0.00000E+00
    0.99079E-08         0.36155E-10         0.00000E+00
    0.99079E-08         0.27635E-10         0.00000E+00
    0.99078E-08         0.18762E-10         0.00000E+00
    0.99077E-08         0.95405E-11         0.00000E+00
    0.99077E-08         0.48424E-11         0.00000E+00
    0.10460E-07         0.55421E-11         0.00000E+00
    0.10460E-07         0.10916E-10         0.00000E+00
    0.10460E-07         0.21411E-10         0.00000E+00
    0.10460E-07         0.31405E-10         0.00000E+00
    0.10460E-07         0.40901E-10         0.00000E+00
    0.10460E-07         0.49903E-10         0.00000E+00
    0.10459E-07         0.58413E-10         0.00000E+00
    0.10459E-07         0.66436E-10         0.00000E+00
    0.10459E-07         0.73975E-10         0.00000E+00
    0.10458E-07         0.81033E-10         0.00000E+00
    0.10458E-07         0.87614E-10         0.00000E+00
    0.10458E-07         0.93722E-10         0.00000E+00
    0.10457E-07         0.99360E-10         0.00000E+00
    0.10457E-07         0.10453E-09         0.00000E+00
    0.10456E-07         0.10924E-09         0.00000E+00
    0.10456E-07         0.11349E-09         0.00000E+00
    0.10455E-07         0.11729E-09         0.00000E+00
    0.10455E-07         0.12063E-09         0.00000E+00
    0.10455E-07         0.12353E-09         0.00000E+00
    0.10454E-07         0.12598E-09         0.00000E+00
    0.10454E-07         0.12799E-09         0.00000E+00
    0.10453E-07         0.12956E-09         0.00000E+00
    0.10453E-07         0.13070E-09         0.00000E+00
    0.10452E-07         0.13141E-09         0.00000E+00
    0.10452E-07         0.13169E-09         0.00000E+00
    0.10451E-07         0.13155E-09         0.00000E+00
    0.10451E-07         0.13099E-09         0.00000E+00
    0.10450E-07         0.13001E-09         0.00000E+00
    0.10450E-07         0.12862E-09         0.00000E+00
    0.10450E-07         0.12682E-09         0.00000E+00
    0.10449E-07         0.12461E-09         0.00000E+00
    0.10449E-07         0.12200E-09         0.00000E+00
    0.10449E-07         0.11899E-09         0.00000E+00
    0.10448E-07         0.11558E-09         0.00000E+00
    0.10448E-07         0.11178E-09         0.00000E+00
    0.10448E-07         0.10759E-09         0.00000E+00
    0.10447E-07         0.10301E-09         0.00000E+00
    0.10447E-07         0.98054E-10         0.00000E+00
    0.10447E-07         0.92712E-10         0.00000E+00
    0.10446E-07         0.86993E-10         0.00000E+00
    0.10446E-07         0.80899E-10         0.00000E+00
    0.10446E-07         0.74434E-10         0.00000E+00
    0.10446E-07         0.67599E-10         0.00000E+00
    0.10446E-07         0.60398E-10         0.00000E+00
    0.10446E-07         0.52834E-10         0.00000E+00
    0.10446E-07         0.44909E-10         0.00000E+00
    0.10445E-07         0.36627E-10         0.00000E+00
    0.10445E-07         0.27989E-10         0.00000E+00
    0.10445E-07         0.18999E-10         0.00000E+00
    0.10445E-07         0.96590E-11         0.00000E+00
    0.10445E-07         0.49017E-11         0.00000E+00
    0.11025E-07         0.56725E-11         0.00000E+00
    0.11025E-07         0.11170E-10         0.00000E+00
    0.11025E-07         0.21903E-10         0.00000E+00
    0.11025E-07         0.32117E-10         0.00000E+00
    0.11024E-07         0.41814E-10         0.00000E+00
    0.11024E-07         0.50999E-10         0.00000E+00
    0.11024E-07         0.59676E-10         0.00000E+00
    0.11024E-07         0.67849E-10         0.00000E+00
    0.11024E-07         0.75523E-10         0.00000E+00
    0.11023E-07         0.82701E-10         0.00000E+00
    0.11023E-07         0.89388E-10         0.00000E+00
    0.11023E-07         0.95588E-10         0.00000E+00
    0.11022E-07         0.10130E-09         0.00000E+00
    0.11022E-07         0.10654E-09         0.00000E+00
    0.11021E-07         0.11131E-09         0.00000E+00
    0.11021E-07         0.11560E-09         0.00000E+00
    0.11021E-07         0.11943E-09         0.00000E+00
    0.11020E-07         0.12279E-09         0.00000E+00
    0.11020E-07         0.12570E-09         0.00000E+00
    0.11019E-07         0.12815E-09         0.00000E+00
    0.11019E-07         0.13016E-09         0.00000E+00
    0.11019E-07         0.13172E-09         0.00000E+00
    0.11018E-07         0.13283E-09         0.00000E+00
    0.11018E-07         0.13351E-09         0.00000E+00
    0.11018E-07         0.13376E-09         0.00000E+00
    0.11017E-07         0.13357E-09         0.00000E+00
    0.11017E-07         0.13296E-09         0.00000E+00
    0.11016E-07         0.13193E-09         0.00000E+00
    0.11016E-07         0.13048E-09         0.00000E+00
    0.11016E-07         0.12862E-09         0.00000E+00
    0.11015E-07         0.12634E-09         0.00000E+00
    0.11015E-07         0.12366E-09         0.00000E+00
    0.11015E-07         0.12058E-09         0.00000E+00
    0.11015E-07         0.11709E-09         0.00000E+00
    0.11014E-07         0.11321E-09         0.00000E+00
    0.11014E-07         0.10894E-09         0.00000E+00
    0.11014E-07         0.10427E-09         0.00000E+00
    0.11014E-07         0.99226E-10         0.00000E+00
    0.11014E-07         0.93796E-10         0.00000E+00
    0.11013E-07         0.87987E-10         0.00000E+00
    0.11013E-07         0.81802E-10         0.00000E+00
    0.11013E-07         0.75245E-10         0.00000E+00
    0.11013E-07         0.68319E-10         0.00000E+00
    0.11013E-07         0.61026E-10         0.00000E+00
    0.11013E-07         0.53370E-10         0.00000E+00
    0.11013E-07         0.45354E-10         0.00000E+00
    0.11013E-07         0.36981E-10         0.00000E+00
    0.11013E-07         0.28253E-10         0.00000E+00
    0.11012E-07         0.19174E-10         0.00000E+00
    0.11012E-07         0.97456E-11         0.00000E+00
    0.11012E-07         0.49447E-11         0.00000E+00
    0.11620E-07         0.57903E-11         0.00000E+00
    0.11620E-07         0.11399E-10         0.00000E+00
    0.11620E-07         0.22346E-10         0.00000E+00
    0.11620E-07         0.32753E-10         0.00000E+00
    0.11620E-07         0.42627E-10         0.00000E+00
    0.11620E-07         0.51971E-10         0.00000E+00
    0.11620E-07         0.60791E-10         0.00000E+00
    0.11619E-07         0.69092E-10         0.00000E+00
    0.11619E-07         0.76878E-10         0.00000E+00
    0.11619E-07         0.84155E-10         0.00000E+00
    0.11619E-07         0.90926E-10         0.00000E+00
    0.11618E-07         0.97198E-10         0.00000E+00
    0.11618E-07         0.10297E-09         0.00000E+00
    0.11618E-07         0.10826E-09         0.00000E+00
    0.11617E-07         0.11306E-09         0.00000E+00
    0.11617E-07         0.11738E-09         0.00000E+00
    0.11617E-07         0.12123E-09         0.00000E+00
    0.11617E-07         0.12460E-09         0.00000E+00
    0.11616E-07         0.12750E-09         0.00000E+00
    0.11616E-07         0.12995E-09         0.00000E+00
    0.11616E-07         0.13194E-09         0.00000E+00
    0.11615E-07         0.13347E-09         0.00000E+00
    0.11615E-07         0.13456E-09         0.00000E+00
    0.11615E-07         0.13520E-09         0.00000E+00
    0.11614E-07         0.13541E-09         0.00000E+00
    0.11614E-07         0.13518E-09         0.00000E+00
    0.11614E-07         0.13451E-09         0.00000E+00
    0.11614E-07         0.13343E-09         0.00000E+00
    0.11613E-07         0.13192E-09         0.00000E+00
    0.11613E-07         0.12999E-09         0.00000E+00
    0.11613E-07         0.12765E-09         0.00000E+00
    0.11613E-07         0.12491E-09         0.00000E+00
    0.11613E-07         0.12175E-09         0.00000E+00
    0.11612E-07         0.11820E-09         0.00000E+00
    0.11612E-07         0.11425E-09         0.00000E+00
    0.11612E-07         0.10990E-09         0.00000E+00
    0.11612E-07         0.10517E-09         0.00000E+00
    0.11612E-07         0.10005E-09         0.00000E+00
    0.11612E-07         0.94545E-10         0.00000E+00
    0.11612E-07         0.88664E-10         0.00000E+00
    0.11611E-07         0.82409E-10         0.00000E+00
    0.11611E-07         0.75782E-10         0.00000E+00
    0.11611E-07         0.68787E-10         0.00000E+00
    0.11611E-07         0.61428E-10         0.00000E+00
    0.11611E-07         0.53707E-10         0.00000E+00
    0.11611E-07         0.45629E-10         0.00000E+00
    0.11611E-07         0.37195E-10         0.00000E+00
    0.11611E-07         0.28409E-10         0.00000E+00
    0.11611E-07         0.19275E-10         0.00000E+00
    0.11611E-07         0.97949E-11         0.00000E+00
    0.11611E-07         0.49687E-11         0.00000E+00
    0.12248E-07         0.58923E-11         0.00000E+00
    0.12248E-07         0.11597E-10         0.00000E+00
    0.12248E-07         0.22725E-10         0.00000E+00
    0.12248E-07         0.33297E-10         0.00000E+00
    0.12248E-07         0.43317E-10         0.00000E+00
    0.12248E-07         0.52791E-10         0.00000E+00
    0.12248E-07         0.61726E-10         0.00000E+00
    0.12248E-07         0.70126E-10         0.00000E+00
    0.12247E-07         0.77997E-10         0.00000E+00
    0.12247E-07         0.85346E-10         0.00000E+00
    0.12247E-07         0.92177E-10         0.00000E+00
    0.12247E-07         0.98496E-10         0.00000E+00
    0.12247E-07         0.10431E-09         0.00000E+00
    0.12246E-07         0.10962E-09         0.00000E+00
    0.12246E-07         0.11444E-09         0.00000E+00
    0.12246E-07         0.11877E-09         0.00000E+00
    0.12246E-07         0.12261E-09         0.00000E+00
    0.12245E-07         0.12597E-09         0.00000E+00
    0.12245E-07         0.12886E-09         0.00000E+00
    0.12245E-07         0.13128E-09         0.00000E+00
    0.12245E-07         0.13324E-09         0.00000E+00
    0.12245E-07         0.13474E-09         0.00000E+00
    0.12244E-07         0.13579E-09         0.00000E+00
    0.12244E-07         0.13639E-09         0.00000E+00
    0.12244E-07         0.13655E-09         0.00000E+00
    0.12244E-07         0.13627E-09         0.00000E+00
    0.12244E-07         0.13555E-09         0.00000E+00
    0.12244E-07         0.13441E-09         0.00000E+00
    0.12244E-07         0.13285E-09         0.00000E+00
    0.12243E-07         0.13086E-09         0.00000E+00
    0.12243E-07         0.12847E-09         0.00000E+00
    0.12243E-07         0.12566E-09         0.00000E+00
    0.12243E-07         0.12245E-09         0.00000E+00
    0.12243E-07         0.11883E-09         0.00000E+00
    0.12243E-07         0.11482E-09         0.00000E+00
    0.12243E-07         0.11042E-09         0.00000E+00
    0.12243E-07         0.10563E-09         0.00000E+00
    0.12243E-07         0.10045E-09         0.00000E+00
    0.12243E-07         0.94900E-10         0.00000E+00
    0.12243E-07         0.88970E-10         0.00000E+00
    0.12243E-07         0.82668E-10         0.00000E+00
    0.12243E-07         0.75998E-10         0.00000E+00
    0.12243E-07         0.68963E-10         0.00000E+00
    0.12243E-07         0.61566E-10         0.00000E+00
    0.12243E-07         0.53813E-10         0.00000E+00
    0.12243E-07         0.45705E-10         0.00000E+00
    0.12243E-07         0.37247E-10         0.00000E+00
    0.12243E-07         0.28441E-10         0.00000E+00
    0.12243E-07         0.19292E-10         0.00000E+00
    0.12243E-07         0.98008E-11         0.00000E+00
    0.12243E-07         0.49706E-11         0.00000E+00
    0.12911E-07         0.59749E-11         0.00000E+00
    0.12911E-07         0.11756E-10         0.00000E+00
    0.12911E-07         0.23028E-10         0.00000E+00
    0.12911E-07         0.33726E-10         0.00000E+00
    0.12911E-07         0.43856E-10         0.00000E+00
    0.12911E-07         0.53425E-10         0.00000E+00
    0.12910E-07         0.62439E-10         0.00000E+00
    0.12910E-07         0.70906E-10         0.00000E+00
    0.12910E-07         0.78830E-10         0.00000E+00
    0.12910E-07         0.86220E-10         0.00000E+00
    0.12910E-07         0.93080E-10         0.00000E+00
    0.12910E-07         0.99419E-10         0.00000E+00
    0.12910E-07         0.10524E-09         0.00000E+00
    0.12909E-07         0.11055E-09         0.00000E+00
    0.12909E-07         0.11536E-09         0.00000E+00
    0.12909E-07         0.11968E-09         0.00000E+00
    0.12909E-07         0.12350E-09         0.00000E+00
    0.12909E-07         0.12683E-09         0.00000E+00
    0.12909E-07         0.12969E-09         0.00000E+00
    0.12909E-07         0.13207E-09         0.00000E+00
    0.12909E-07         0.13399E-09         0.00000E+00
    0.12909E-07         0.13544E-09         0.00000E+00
    0.12909E-07         0.13644E-09         0.00000E+00
    0.12908E-07         0.13699E-09         0.00000E+00
    0.12908E-07         0.13710E-09         0.00000E+00
    0.12908E-07         0.13676E-09         0.00000E+00
    0.12908E-07         0.13599E-09         0.00000E+00
    0.12908E-07         0.13480E-09         0.00000E+00
    0.12908E-07         0.13318E-09         0.00000E+00
    0.12908E-07         0.13114E-09         0.00000E+00
    0.12908E-07         0.12869E-09         0.00000E+00
    0.12908E-07         0.12583E-09         0.00000E+00
    0.12908E-07         0.12257E-09         0.00000E+00
    0.12909E-07         0.11891E-09         0.00000E+00
    0.12909E-07         0.11486E-09         0.00000E+00
    0.12909E-07         0.11041E-09         0.00000E+00
    0.12909E-07         0.10559E-09         0.00000E+00
    0.12909E-07         0.10038E-09         0.00000E+00
    0.12909E-07         0.94798E-10         0.00000E+00
    0.12909E-07         0.88844E-10         0.00000E+00
    0.12909E-07         0.82523E-10         0.00000E+00
    0.12909E-07         0.75840E-10         0.00000E+00
    0.12909E-07         0.68797E-10         0.00000E+00
    0.12909E-07         0.61399E-10         0.00000E+00
    0.12909E-07         0.53650E-10         0.00000E+00
    0.12909E-07         0.45552E-10         0.00000E+00
    0.12909E-07         0.37111E-10         0.00000E+00
    0.12909E-07         0.28329E-10         0.00000E+00
    0.12909E-07         0.19210E-10         0.00000E+00
    0.12909E-07         0.97567E-11         0.00000E+00
    0.12909E-07         0.49470E-11         0.00000E+00
    0.13609E-07         0.60339E-11         0.00000E+00
    0.13609E-07         0.11868E-10         0.00000E+00
    0.13609E-07         0.23238E-10         0.00000E+00
    0.13609E-07         0.34017E-10         0.00000E+00
    0.13609E-07         0.44214E-10         0.00000E+00
    0.13609E-07         0.53835E-10         0.00000E+00
    0.13609E-07         0.62888E-10         0.00000E+00
    0.13609E-07         0.71380E-10         0.00000E+00
    0.13609E-07         0.79320E-10         0.00000E+00
    0.13609E-07         0.86713E-10         0.00000E+00
    0.13609E-07         0.93569E-10         0.00000E+00
    0.13609E-07         0.99893E-10         0.00000E+00
    0.13609E-07         0.10569E-09         0.00000E+00
    0.13609E-07         0.11098E-09         0.00000E+00
    0.13609E-07         0.11575E-09         0.00000E+00
    0.13609E-07         0.12002E-09         0.00000E+00
    0.13609E-07         0.12380E-09         0.00000E+00
    0.13609E-07         0.12709E-09         0.00000E+00
    0.13609E-07         0.12989E-09         0.00000E+00
    0.13609E-07         0.13222E-09         0.00000E+00
    0.13609E-07         0.13408E-09         0.00000E+00
    0.13609E-07         0.13547E-09         0.00000E+00
    0.13609E-07         0.13641E-09         0.00000E+00
    0.13609E-07         0.13690E-09         0.00000E+00
    0.13609E-07         0.13695E-09         0.00000E+00
    0.13609E-07         0.13656E-09         0.00000E+00
    0.13610E-07         0.13573E-09         0.00000E+00
    0.13610E-07         0.13448E-09         0.00000E+00
    0.13610E-07         0.13281E-09         0.00000E+00
    0.13610E-07         0.13072E-09         0.00000E+00
    0.13610E-07         0.12823E-09         0.00000E+00
    0.13610E-07         0.12533E-09         0.00000E+00
    0.13611E-07         0.12203E-09         0.00000E+00
    0.13611E-07         0.11834E-09         0.00000E+00
    0.13611E-07         0.11426E-09         0.00000E+00
    0.13611E-07         0.10980E-09         0.00000E+00
    0.13611E-07         0.10496E-09         0.00000E+00
    0.13612E-07         0.99747E-10         0.00000E+00
    0.13612E-07         0.94165E-10         0.00000E+00
    0.13612E-07         0.88218E-10         0.00000E+00
    0.13612E-07         0.81912E-10         0.00000E+00
    0.13612E-07         0.75251E-10         0.00000E+00
    0.13612E-07         0.68239E-10         0.00000E+00
    0.13613E-07         0.60879E-10         0.00000E+00
    0.13613E-07         0.53177E-10         0.00000E+00
    0.13613E-07         0.45136E-10         0.00000E+00
    0.13613E-07         0.36759E-10         0.00000E+00
    0.13613E-07         0.28051E-10         0.00000E+00
    0.13613E-07         0.19015E-10         0.00000E+00
    0.13613E-07         0.96550E-11         0.00000E+00
    0.13613E-07         0.48941E-11         0.00000E+00
    0.14346E-07         0.60644E-11         0.00000E+00
    0.14346E-07         0.11923E-10         0.00000E+00
    0.14346E-07         0.23336E-10         0.00000E+00
    0.14346E-07         0.34143E-10         0.00000E+00
    0.14346E-07         0.44354E-10         0.00000E+00
    0.14346E-07         0.53976E-10         0.00000E+00
    0.14346E-07         0.63020E-10         0.00000E+00
    0.14346E-07         0.71492E-10         0.00000E+00
    0.14346E-07         0.79401E-10         0.00000E+00
    0.14346E-07         0.86757E-10         0.00000E+00
    0.14346E-07         0.93566E-10         0.00000E+00
    0.14347E-07         0.99838E-10         0.00000E+00
    0.14347E-07         0.10558E-09         0.00000E+00
    0.14347E-07         0.11080E-09         0.00000E+00
    0.14347E-07         0.11551E-09         0.00000E+00
    0.14347E-07         0.11971E-09         0.00000E+00
    0.14347E-07         0.12341E-09         0.00000E+00
    0.14347E-07         0.12663E-09         0.00000E+00
    0.14347E-07         0.12935E-09         0.00000E+00
    0.14348E-07         0.13161E-09         0.00000E+00
    0.14348E-07         0.13339E-09         0.00000E+00
    0.14348E-07         0.13472E-09         0.00000E+00
    0.14348E-07         0.13558E-09         0.00000E+00
    0.14349E-07         0.13601E-09         0.00000E+00
    0.14349E-07         0.13599E-09         0.00000E+00
    0.14349E-07         0.13553E-09         0.00000E+00
    0.14350E-07         0.13465E-09         0.00000E+00
    0.14350E-07         0.13335E-09         0.00000E+00
    0.14350E-07         0.13163E-09         0.00000E+00
    0.14350E-07         0.12950E-09         0.00000E+00
    0.14351E-07         0.12698E-09         0.00000E+00
    0.14351E-07         0.12405E-09         0.00000E+00
    0.14352E-07         0.12073E-09         0.00000E+00
    0.14352E-07         0.11703E-09         0.00000E+00
    0.14352E-07         0.11295E-09         0.00000E+00
    0.14353E-07         0.10849E-09         0.00000E+00
    0.14353E-07         0.10366E-09         0.00000E+00
    0.14353E-07         0.98473E-10         0.00000E+00
    0.14354E-07         0.92923E-10         0.00000E+00
    0.14354E-07         0.87020E-10         0.00000E+00
    0.14354E-07         0.80767E-10         0.00000E+00
    0.14354E-07         0.74169E-10         0.00000E+00
    0.14355E-07         0.67230E-10         0.00000E+00
    0.14355E-07         0.59956E-10         0.00000E+00
    0.14355E-07         0.52351E-10         0.00000E+00
    0.14355E-07         0.44418E-10         0.00000E+00
    0.14356E-07         0.36161E-10         0.00000E+00
    0.14356E-07         0.27585E-10         0.00000E+00
    0.14356E-07         0.18692E-10         0.00000E+00
    0.14356E-07         0.94878E-11         0.00000E+00
    0.14356E-07         0.48079E-11         0.00000E+00
    0.15124E-07         0.60611E-11         0.00000E+00
    0.15124E-07         0.11912E-10         0.00000E+00
    0.15124E-07         0.23302E-10         0.00000E+00
    0.15124E-07         0.34074E-10         0.00000E+00
    0.15124E-07         0.44237E-10         0.00000E+00
    0.15124E-07         0.53802E-10         0.00000E+00
    0.15124E-07         0.62779E-10         0.00000E+00
    0.15124E-07         0.71176E-10         0.00000E+00
    0.15124E-07         0.79004E-10         0.00000E+00
    0.15124E-07         0.86271E-10         0.00000E+00
    0.15124E-07         0.92988E-10         0.00000E+00
    0.15125E-07         0.99163E-10         0.00000E+00
    0.15125E-07         0.10481E-09         0.00000E+00
    0.15125E-07         0.10992E-09         0.00000E+00
    0.15125E-07         0.11453E-09         0.00000E+00
    0.15126E-07         0.11863E-09         0.00000E+00
    0.15126E-07         0.12223E-09         0.00000E+00
    0.15126E-07         0.12534E-09         0.00000E+00
    0.15127E-07         0.12797E-09         0.00000E+00
    0.15127E-07         0.13012E-09         0.00000E+00
    0.15127E-07         0.13182E-09         0.00000E+00
    0.15128E-07         0.13305E-09         0.00000E+00
    0.15128E-07         0.13384E-09         0.00000E+00
    0.15129E-07         0.13418E-09         0.00000E+00
    0.15129E-07         0.13409E-09         0.00000E+00
    0.15130E-07         0.13357E-09         0.00000E+00
    0.15130E-07         0.13263E-09         0.00000E+00
    0.15131E-07         0.13128E-09         0.00000E+00
    0.15131E-07         0.12952E-09         0.00000E+00
    0.15132E-07         0.12736E-09         0.00000E+00
    0.15132E-07         0.12481E-09         0.00000E+00
    0.15133E-07         0.12188E-09         0.00000E+00
    0.15133E-07         0.11856E-09         0.00000E+00
    0.15134E-07         0.11486E-09         0.00000E+00
    0.15134E-07         0.11080E-09         0.00000E+00
    0.15135E-07         0.10638E-09         0.00000E+00
    0.15135E-07         0.10160E-09         0.00000E+00
    0.15136E-07         0.96466E-10         0.00000E+00
    0.15136E-07         0.90987E-10         0.00000E+00
    0.15137E-07         0.85167E-10         0.00000E+00
    0.15137E-07         0.79011E-10         0.00000E+00
    0.15138E-07         0.72524E-10         0.00000E+00
    0.15138E-07         0.65710E-10         0.00000E+00
    0.15138E-07         0.58575E-10         0.00000E+00
    0.15139E-07         0.51122E-10         0.00000E+00
    0.15139E-07         0.43357E-10         0.00000E+00
    0.15139E-07         0.35282E-10         0.00000E+00
    0.15139E-07         0.26903E-10         0.00000E+00
    0.15140E-07         0.18223E-10         0.00000E+00
    0.15140E-07         0.92463E-11         0.00000E+00
    0.15140E-07         0.46840E-11         0.00000E+00
    0.15943E-07         0.60180E-11         0.00000E+00
    0.15943E-07         0.11822E-10         0.00000E+00
    0.15943E-07         0.23112E-10         0.00000E+00
    0.15943E-07         0.33774E-10         0.00000E+00
    0.15944E-07         0.43819E-10         0.00000E+00
    0.15944E-07         0.53258E-10         0.00000E+00
    0.15944E-07         0.62102E-10         0.00000E+00
    0.15944E-07         0.70361E-10         0.00000E+00
    0.15944E-07         0.78047E-10         0.00000E+00
    0.15945E-07         0.85169E-10         0.00000E+00
    0.15945E-07         0.91739E-10         0.00000E+00
    0.15945E-07         0.97767E-10         0.00000E+00
    0.15946E-07         0.10326E-09         0.00000E+00
    0.15946E-07         0.10823E-09         0.00000E+00
    0.15946E-07         0.11269E-09         0.00000E+00
    0.15947E-07         0.11665E-09         0.00000E+00
    0.15947E-07         0.12011E-09         0.00000E+00
    0.15948E-07         0.12309E-09         0.00000E+00
    0.15949E-07         0.12560E-09         0.00000E+00
    0.15949E-07         0.12763E-09         0.00000E+00
    0.15950E-07         0.12921E-09         0.00000E+00
    0.15950E-07         0.13034E-09         0.00000E+00
    0.15951E-07         0.13103E-09         0.00000E+00
    0.15952E-07         0.13128E-09         0.00000E+00
    0.15953E-07         0.13111E-09         0.00000E+00
    0.15953E-07         0.13053E-09         0.00000E+00
    0.15954E-07         0.12953E-09         0.00000E+00
    0.15955E-07         0.12814E-09         0.00000E+00
    0.15955E-07         0.12635E-09         0.00000E+00
    0.15956E-07         0.12417E-09         0.00000E+00
    0.15957E-07         0.12161E-09         0.00000E+00
    0.15958E-07         0.11868E-09         0.00000E+00
    0.15959E-07         0.11539E-09         0.00000E+00
    0.15959E-07         0.11173E-09         0.00000E+00
    0.15960E-07         0.10772E-09         0.00000E+00
    0.15961E-07         0.10336E-09         0.00000E+00
    0.15961E-07         0.98662E-10         0.00000E+00
    0.15962E-07         0.93627E-10         0.00000E+00
    0.15963E-07         0.88262E-10         0.00000E+00
    0.15963E-07         0.82573E-10         0.00000E+00
    0.15964E-07         0.76564E-10         0.00000E+00
    0.15964E-07         0.70242E-10         0.00000E+00
    0.15965E-07         0.63610E-10         0.00000E+00
    0.15965E-07         0.56674E-10         0.00000E+00
    0.15966E-07         0.49439E-10         0.00000E+00
    0.15966E-07         0.41909E-10         0.00000E+00
    0.15967E-07         0.34088E-10         0.00000E+00
    0.15967E-07         0.25980E-10         0.00000E+00
    0.15967E-07         0.17590E-10         0.00000E+00
    0.15967E-07         0.89211E-11         0.00000E+00
    0.15967E-07         0.45175E-11         0.00000E+00
    0.16808E-07         0.59283E-11         0.00000E+00
    0.16808E-07         0.11639E-10         0.00000E+00
    0.16808E-07         0.22741E-10         0.00000E+00
    0.16808E-07         0.33207E-10         0.00000E+00
    0.16808E-07         0.43051E-10         0.00000E+00
    0.16808E-07         0.52284E-10         0.00000E+00
    0.16809E-07         0.60919E-10         0.00000E+00
    0.16809E-07         0.68968E-10         0.00000E+00
    0.16809E-07         0.76443E-10         0.00000E+00
    0.16810E-07         0.83355E-10         0.00000E+00
    0.16810E-07         0.89717E-10         0.00000E+00
    0.16811E-07         0.95539E-10         0.00000E+00
    0.16811E-07         0.10083E-09         0.00000E+00
    0.16812E-07         0.10561E-09         0.00000E+00
    0.16813E-07         0.10988E-09         0.00000E+00
    0.16813E-07         0.11365E-09         0.00000E+00
    0.16814E-07         0.11694E-09         0.00000E+00
    0.16815E-07         0.11975E-09         0.00000E+00
    0.16816E-07         0.12210E-09         0.00000E+00
    0.16817E-07         0.12399E-09         0.00000E+00
    0.16817E-07         0.12543E-09         0.00000E+00
    0.16818E-07         0.12643E-09         0.00000E+00
    0.16819E-07         0.12701E-09         0.00000E+00
    0.16820E-07         0.12717E-09         0.00000E+00
    0.16821E-07         0.12692E-09         0.00000E+00
    0.16822E-07         0.12626E-09         0.00000E+00
    0.16823E-07         0.12521E-09         0.00000E+00
    0.16824E-07         0.12378E-09         0.00000E+00
    0.16825E-07         0.12196E-09         0.00000E+00
    0.16826E-07         0.11978E-09         0.00000E+00
    0.16827E-07         0.11724E-09         0.00000E+00
    0.16828E-07         0.11434E-09         0.00000E+00
    0.16829E-07         0.11109E-09         0.00000E+00
    0.16830E-07         0.10750E-09         0.00000E+00
    0.16831E-07         0.10357E-09         0.00000E+00
    0.16832E-07         0.99316E-10         0.00000E+00
    0.16833E-07         0.94741E-10         0.00000E+00
    0.16834E-07         0.89850E-10         0.00000E+00
    0.16835E-07         0.84649E-10         0.00000E+00
    0.16836E-07         0.79144E-10         0.00000E+00
    0.16836E-07         0.73340E-10         0.00000E+00
    0.16837E-07         0.67243E-10         0.00000E+00
    0.16838E-07         0.60859E-10         0.00000E+00
    0.16838E-07         0.54191E-10         0.00000E+00
    0.16839E-07         0.47245E-10         0.00000E+00
    0.16839E-07         0.40026E-10         0.00000E+00
    0.16840E-07         0.32538E-10         0.00000E+00
    0.16840E-07         0.24785E-10         0.00000E+00
    0.16840E-07         0.16772E-10         0.00000E+00
    0.16840E-07         0.85021E-11         0.00000E+00
    0.16840E-07         0.43034E-11         0.00000E+00
    0.17720E-07         0.57847E-11         0.00000E+00
    0.17720E-07         0.11351E-10         0.00000E+00
    0.17720E-07         0.22160E-10         0.00000E+00
    0.17720E-07         0.32331E-10         0.00000E+00
    0.17720E-07         0.41878E-10         0.00000E+00
    0.17721E-07         0.50814E-10         0.00000E+00
    0.17721E-07         0.59154E-10         0.00000E+00
    0.17721E-07         0.66910E-10         0.00000E+00
    0.17722E-07         0.74096E-10         0.00000E+00
    0.17723E-07         0.80724E-10         0.00000E+00
    0.17723E-07         0.86808E-10         0.00000E+00
    0.17724E-07         0.92360E-10         0.00000E+00
    0.17725E-07         0.97392E-10         0.00000E+00
    0.17726E-07         0.10192E-09         0.00000E+00
    0.17726E-07         0.10594E-09         0.00000E+00
    0.17727E-07         0.10949E-09         0.00000E+00
    0.17728E-07         0.11256E-09         0.00000E+00
    0.17729E-07         0.11516E-09         0.00000E+00
    0.17730E-07         0.11732E-09         0.00000E+00
    0.17732E-07         0.11903E-09         0.00000E+00
    0.17733E-07         0.12031E-09         0.00000E+00
    0.17734E-07         0.12118E-09         0.00000E+00
    0.17735E-07         0.12163E-09         0.00000E+00
    0.17736E-07         0.12168E-09         0.00000E+00
    0.17738E-07         0.12133E-09         0.00000E+00
    0.17739E-07         0.12061E-09         0.00000E+00
    0.17740E-07         0.11951E-09         0.00000E+00
    0.17742E-07         0.11804E-09         0.00000E+00
    0.17743E-07         0.11622E-09         0.00000E+00
    0.17744E-07         0.11405E-09         0.00000E+00
    0.17745E-07         0.11154E-09         0.00000E+00
    0.17747E-07         0.10869E-09         0.00000E+00
    0.17748E-07         0.10552E-09         0.00000E+00
    0.17749E-07         0.10203E-09         0.00000E+00
    0.17750E-07         0.98226E-10         0.00000E+00
    0.17752E-07         0.94120E-10         0.00000E+00
    0.17753E-07         0.89716E-10         0.00000E+00
    0.17754E-07         0.85020E-10         0.00000E+00
    0.17755E-07         0.80039E-10         0.00000E+00
    0.17756E-07         0.74779E-10         0.00000E+00
    0.17757E-07         0.69245E-10         0.00000E+00
    0.17758E-07         0.63443E-10         0.00000E+00
    0.17759E-07         0.57378E-10         0.00000E+00
    0.17759E-07         0.51056E-10         0.00000E+00
    0.17760E-07         0.44481E-10         0.00000E+00
    0.17761E-07         0.37659E-10         0.00000E+00
    0.17761E-07         0.30593E-10         0.00000E+00
    0.17761E-07         0.23288E-10         0.00000E+00
    0.17762E-07         0.15749E-10         0.00000E+00
    0.17762E-07         0.79786E-11         0.00000E+00
    0.17762E-07         0.40363E-11         0.00000E+00
    0.18681E-07         0.55792E-11         0.00000E+00
    0.18681E-07         0.10940E-10         0.00000E+00
    0.18682E-07         0.21338E-10         0.00000E+00
    0.18682E-07         0.31101E-10         0.00000E+00
    0.18682E-07         0.40242E-10         0.00000E+00
    0.18682E-07         0.48778E-10         0.00000E+00
    0.18683E-07         0.56723E-10         0.00000E+00
    0.18684E-07         0.64093E-10         0.00000E+00
    0.18684E-07         0.70901E-10         0.00000E+00
    0.18685E-07         0.77163E-10         0.00000E+00
    0.18686E-07         0.82891E-10         0.00000E+00
    0.18687E-07         0.88099E-10         0.00000E+00
    0.18688E-07         0.92801E-10         0.00000E+00
    0.18689E-07         0.97010E-10         0.00000E+00
    0.18690E-07         0.10074E-09         0.00000E+00
    0.18691E-07         0.10400E-09         0.00000E+00
    0.18693E-07         0.10680E-09         0.00000E+00
    0.18694E-07         0.10916E-09         0.00000E+00
    0.18695E-07         0.11109E-09         0.00000E+00
    0.18697E-07         0.11260E-09         0.00000E+00
    0.18698E-07         0.11369E-09         0.00000E+00
    0.18700E-07         0.11439E-09         0.00000E+00
    0.18701E-07         0.11470E-09         0.00000E+00
    0.18703E-07         0.11463E-09         0.00000E+00
    0.18704E-07         0.11419E-09         0.00000E+00
    0.18706E-07         0.11340E-09         0.00000E+00
    0.18708E-07         0.11225E-09         0.00000E+00
    0.18709E-07         0.11076E-09         0.00000E+00
    0.18711E-07         0.10895E-09         0.00000E+00
    0.18713E-07         0.10681E-09         0.00000E+00
    0.18714E-07         0.10435E-09         0.00000E+00
    0.18716E-07         0.10159E-09         0.00000E+00
    0.18717E-07         0.98531E-10         0.00000E+00
    0.18719E-07         0.95182E-10         0.00000E+00
    0.18720E-07         0.91548E-10         0.00000E+00
    0.18722E-07         0.87639E-10         0.00000E+00
    0.18723E-07         0.83460E-10         0.00000E+00
    0.18725E-07         0.79019E-10         0.00000E+00
    0.18726E-07         0.74321E-10         0.00000E+00
    0.18727E-07         0.69374E-10         0.00000E+00
    0.18728E-07         0.64182E-10         0.00000E+00
    0.18729E-07         0.58752E-10         0.00000E+00
    0.18730E-07         0.53089E-10         0.00000E+00
    0.18731E-07         0.47198E-10         0.00000E+00
    0.18732E-07         0.41085E-10         0.00000E+00
    0.18733E-07         0.34753E-10         0.00000E+00
    0.18733E-07         0.28209E-10         0.00000E+00
    0.18734E-07         0.21456E-10         0.00000E+00
    0.18734E-07         0.14498E-10         0.00000E+00
    0.18734E-07         0.73393E-11         0.00000E+00
    0.18734E-07         0.37104E-11         0.00000E+00
    0.19695E-07         0.53030E-11         0.00000E+00
    0.19695E-07         0.10389E-10         0.00000E+00
    0.19695E-07         0.20243E-10         0.00000E+00
    0.19696E-07         0.29468E-10         0.00000E+00
    0.19696E-07         0.38081E-10         0.00000E+00
    0.19697E-07         0.46099E-10         0.00000E+00
    0.19697E-07         0.53539E-10         0.00000E+00
    0.19698E-07         0.60417E-10         0.00000E+00
    0.19699E-07         0.66749E-10         0.00000E+00
    0.19700E-07         0.72549E-10         0.00000E+00
    0.19701E-07         0.77834E-10         0.00000E+00
    0.19702E-07         0.82617E-10         0.00000E+00
    0.19704E-07         0.86914E-10         0.00000E+00
    0.19705E-07         0.90738E-10         0.00000E+00
    0.19706E-07         0.94104E-10         0.00000E+00
    0.19708E-07         0.97024E-10         0.00000E+00
    0.19710E-07         0.99512E-10         0.00000E+00
    0.19711E-07         0.10158E-09         0.00000E+00
    0.19713E-07         0.10324E-09         0.00000E+00
    0.19715E-07         0.10451E-09         0.00000E+00
    0.19717E-07         0.10539E-09         0.00000E+00
    0.19718E-07         0.10590E-09         0.00000E+00
    0.19720E-07         0.10605E-09         0.00000E+00
    0.19722E-07         0.10585E-09         0.00000E+00
    0.19724E-07         0.10532E-09         0.00000E+00
    0.19726E-07         0.10445E-09         0.00000E+00
    0.19728E-07         0.10326E-09         0.00000E+00
    0.19730E-07         0.10177E-09         0.00000E+00
    0.19732E-07         0.99974E-10         0.00000E+00
    0.19734E-07         0.97888E-10         0.00000E+00
    0.19736E-07         0.95520E-10         0.00000E+00
    0.19738E-07         0.92878E-10         0.00000E+00
    0.19740E-07         0.89971E-10         0.00000E+00
    0.19742E-07         0.86806E-10         0.00000E+00
    0.19744E-07         0.83391E-10         0.00000E+00
    0.19745E-07         0.79734E-10         0.00000E+00
    0.19747E-07         0.75842E-10         0.00000E+00
    0.19749E-07         0.71720E-10         0.00000E+00
    0.19750E-07         0.67377E-10         0.00000E+00
    0.19752E-07         0.62818E-10         0.00000E+00
    0.19753E-07         0.58049E-10         0.00000E+00
    0.19755E-07         0.53077E-10         0.00000E+00
    0.19756E-07         0.47906E-10         0.00000E+00
    0.19757E-07         0.42542E-10         0.00000E+00
    0.19758E-07         0.36990E-10         0.00000E+00
    0.19759E-07         0.31255E-10         0.00000E+00
    0.19759E-07         0.25342E-10         0.00000E+00
    0.19760E-07         0.19254E-10         0.00000E+00
    0.19760E-07         0.12996E-10         0.00000E+00
    0.19760E-07         0.65728E-11         0.00000E+00
    0.19761E-07         0.33199E-11         0.00000E+00
    0.20764E-07         0.49469E-11         0.00000E+00
    0.20764E-07         0.96810E-11         0.00000E+00
    0.20765E-07         0.18838E-10         0.00000E+00
    0.20765E-07         0.27380E-10         0.00000E+00
    0.20765E-07         0.35327E-10         0.00000E+00
    0.20766E-07         0.42696E-10         0.00000E+00
    0.20767E-07         0.49507E-10         0.00000E+00
    0.20768E-07         0.55775E-10         0.00000E+00
    0.20769E-07         0.61519E-10         0.00000E+00
    0.20770E-07         0.66755E-10         0.00000E+00
    0.20772E-07         0.71500E-10         0.00000E+00
    0.20773E-07         0.75769E-10         0.00000E+00
    0.20775E-07         0.79577E-10         0.00000E+00
    0.20776E-07         0.82941E-10         0.00000E+00
    0.20778E-07         0.85874E-10         0.00000E+00
    0.20780E-07         0.88391E-10         0.00000E+00
    0.20782E-07         0.90507E-10         0.00000E+00
    0.20784E-07         0.92234E-10         0.00000E+00
    0.20786E-07         0.93585E-10         0.00000E+00
    0.20788E-07         0.94575E-10         0.00000E+00
    0.20790E-07         0.95214E-10         0.00000E+00
    0.20793E-07         0.95517E-10         0.00000E+00
    0.20795E-07         0.95493E-10         0.00000E+00
    0.20797E-07         0.95154E-10         0.00000E+00
    0.20800E-07         0.94513E-10         0.00000E+00
    0.20802E-07         0.93578E-10         0.00000E+00
    0.20805E-07         0.92361E-10         0.00000E+00
    0.20807E-07         0.90873E-10         0.00000E+00
    0.20809E-07         0.89121E-10         0.00000E+00
    0.20812E-07         0.87117E-10         0.00000E+00
    0.20814E-07         0.84868E-10         0.00000E+00
    0.20816E-07         0.82385E-10         0.00000E+00
    0.20819E-07         0.79674E-10         0.00000E+00
    0.20821E-07         0.76745E-10         0.00000E+00
    0.20823E-07         0.73605E-10         0.00000E+00
    0.20825E-07         0.70262E-10         0.00000E+00
    0.20827E-07         0.66723E-10         0.00000E+00
    0.20829E-07         0.62995E-10         0.00000E+00
    0.20831E-07         0.59085E-10         0.00000E+00
    0.20833E-07         0.54998E-10         0.00000E+00
    0.20834E-07         0.50742E-10         0.00000E+00
    0.20836E-07         0.46321E-10         0.00000E+00
    0.20837E-07         0.41743E-10         0.00000E+00
    0.20839E-07         0.37011E-10         0.00000E+00
    0.20840E-07         0.32131E-10         0.00000E+00
    0.20841E-07         0.27107E-10         0.00000E+00
    0.20841E-07         0.21945E-10         0.00000E+00
    0.20842E-07         0.16648E-10         0.00000E+00
    0.20843E-07         0.11221E-10         0.00000E+00
    0.20843E-07         0.56671E-11         0.00000E+00
    0.20843E-07         0.28589E-11         0.00000E+00
    0.21891E-07         0.45009E-11         0.00000E+00
    0.21891E-07         0.87960E-11         0.00000E+00
    0.21891E-07         0.17085E-10         0.00000E+00
    0.21892E-07         0.24783E-10         0.00000E+00
    0.21892E-07         0.31909E-10         0.00000E+00
    0.21893E-07         0.38484E-10         0.00000E+00
    0.21894E-07         0.44526E-10         0.00000E+00
    0.21896E-07         0.50055E-10         0.00000E+00
    0.21897E-07         0.55090E-10         0.00000E+00
    0.21898E-07         0.59647E-10         0.00000E+00
    0.21900E-07         0.63745E-10         0.00000E+00
    0.21902E-07         0.67400E-10         0.00000E+00
    0.21904E-07         0.70629E-10         0.00000E+00
    0.21906E-07         0.73449E-10         0.00000E+00
    0.21908E-07         0.75874E-10         0.00000E+00
    0.21910E-07         0.77920E-10         0.00000E+00
    0.21912E-07         0.79603E-10         0.00000E+00
    0.21915E-07         0.80935E-10         0.00000E+00
    0.21917E-07         0.81932E-10         0.00000E+00
    0.21920E-07         0.82606E-10         0.00000E+00
    0.21923E-07         0.82971E-10         0.00000E+00
    0.21925E-07         0.83040E-10         0.00000E+00
    0.21928E-07         0.82825E-10         0.00000E+00
    0.21931E-07         0.82337E-10         0.00000E+00
    0.21934E-07         0.81589E-10         0.00000E+00
    0.21936E-07         0.80591E-10         0.00000E+00
    0.21939E-07         0.79354E-10         0.00000E+00
    0.21942E-07         0.77889E-10         0.00000E+00
    0.21945E-07         0.76206E-10         0.00000E+00
    0.21948E-07         0.74314E-10         0.00000E+00
    0.21951E-07         0.72222E-10         0.00000E+00
    0.21953E-07         0.69940E-10         0.00000E+00
    0.21956E-07         0.67477E-10         0.00000E+00
    0.21959E-07         0.64840E-10         0.00000E+00
    0.21961E-07         0.62037E-10         0.00000E+00
    0.21964E-07         0.59077E-10         0.00000E+00
    0.21966E-07         0.55967E-10         0.00000E+00
    0.21968E-07         0.52712E-10         0.00000E+00
    0.21970E-07         0.49321E-10         0.00000E+00
    0.21972E-07         0.45800E-10         0.00000E+00
    0.21974E-07         0.42154E-10         0.00000E+00
    0.21976E-07         0.38390E-10         0.00000E+00
    0.21978E-07         0.34512E-10         0.00000E+00
    0.21979E-07         0.30527E-10         0.00000E+00
    0.21981E-07         0.26439E-10         0.00000E+00
    0.21982E-07         0.22253E-10         0.00000E+00
    0.21983E-07         0.17973E-10         0.00000E+00
    0.21983E-07         0.13603E-10         0.00000E+00
    0.21984E-07         0.91479E-11         0.00000E+00
    0.21984E-07         0.46102E-11         0.00000E+00
    0.21984E-07         0.23213E-11         0.00000E+00
    0.23078E-07         0.39550E-11         0.00000E+00
    0.23078E-07         0.77141E-11         0.00000E+00
    0.23079E-07         0.14947E-10         0.00000E+00
    0.23079E-07         0.21620E-10         0.00000E+00
    0.23080E-07         0.27755E-10         0.00000E+00
    0.23081E-07         0.33373E-10         0.00000E+00
    0.23082E-07         0.38495E-10         0.00000E+00
    0.23084E-07         0.43142E-10         0.00000E+00
    0.23085E-07         0.47332E-10         0.00000E+00
    0.23087E-07         0.51085E-10         0.00000E+00
    0.23089E-07         0.54420E-10         0.00000E+00
    0.23091E-07         0.57354E-10         0.00000E+00
    0.23093E-07         0.59905E-10         0.00000E+00
    0.23096E-07         0.62090E-10         0.00000E+00
    0.23098E-07         0.63926E-10         0.00000E+00
    0.23101E-07         0.65428E-10         0.00000E+00
    0.23104E-07         0.66612E-10         0.00000E+00
    0.23107E-07         0.67494E-10         0.00000E+00
    0.23110E-07         0.68087E-10         0.00000E+00
    0.23113E-07         0.68406E-10         0.00000E+00
    0.23116E-07         0.68464E-10         0.00000E+00
    0.23119E-07         0.68275E-10         0.00000E+00
    0.23122E-07         0.67851E-10         0.00000E+00
    0.23125E-07         0.67205E-10         0.00000E+00
    0.23129E-07         0.66349E-10         0.00000E+00
    0.23132E-07         0.65293E-10         0.00000E+00
    0.23135E-07         0.64050E-10         0.00000E+00
    0.23139E-07         0.62630E-10         0.00000E+00
    0.23142E-07         0.61042E-10         0.00000E+00
    0.23145E-07         0.59298E-10         0.00000E+00
    0.23148E-07         0.57405E-10         0.00000E+00
    0.23152E-07         0.55374E-10         0.00000E+00
    0.23155E-07         0.53214E-10         0.00000E+00
    0.23158E-07         0.50931E-10         0.00000E+00
    0.23161E-07         0.48535E-10         0.00000E+00
    0.23164E-07         0.46034E-10         0.00000E+00
    0.23166E-07         0.43433E-10         0.00000E+00
    0.23169E-07         0.40742E-10         0.00000E+00
    0.23172E-07         0.37965E-10         0.00000E+00
    0.23174E-07         0.35109E-10         0.00000E+00
    0.23176E-07         0.32181E-10         0.00000E+00
    0.23178E-07         0.29185E-10         0.00000E+00
    0.23180E-07         0.26128E-10         0.00000E+00
    0.23182E-07         0.23015E-10         0.00000E+00
    0.23183E-07         0.19849E-10         0.00000E+00
    0.23185E-07         0.16636E-10         0.00000E+00
    0.23186E-07         0.13380E-10         0.00000E+00
    0.23187E-07         0.10085E-10         0.00000E+00
    0.23187E-07         0.67539E-11         0.00000E+00
    0.23188E-07         0.33905E-11         0.00000E+00
    0.23188E-07         0.17011E-11         0.00000E+00
    0.24329E-07         0.32985E-11         0.00000E+00
    0.24329E-07         0.64146E-11         0.00000E+00
    0.24329E-07         0.12382E-10         0.00000E+00
    0.24330E-07         0.17833E-10         0.00000E+00
    0.24331E-07         0.22789E-10         0.00000E+00
    0.24332E-07         0.27274E-10         0.00000E+00
    0.24334E-07         0.31309E-10         0.00000E+00
    0.24335E-07         0.34917E-10         0.00000E+00
    0.24337E-07         0.38117E-10         0.00000E+00
    0.24339E-07         0.40930E-10         0.00000E+00
    0.24342E-07         0.43375E-10         0.00000E+00
    0.24344E-07         0.45472E-10         0.00000E+00
    0.24347E-07         0.47238E-10         0.00000E+00
    0.24350E-07         0.48692E-10         0.00000E+00
    0.24353E-07         0.49850E-10         0.00000E+00
    0.24356E-07         0.50730E-10         0.00000E+00
    0.24359E-07         0.51348E-10         0.00000E+00
    0.24362E-07         0.51718E-10         0.00000E+00
    0.24366E-07         0.51856E-10         0.00000E+00
    0.24369E-07         0.51778E-10         0.00000E+00
    0.24373E-07         0.51496E-10         0.00000E+00
    0.24377E-07         0.51024E-10         0.00000E+00
    0.24380E-07         0.50376E-10         0.00000E+00
    0.24384E-07         0.49563E-10         0.00000E+00
    0.24388E-07         0.48599E-10         0.00000E+00
    0.24392E-07         0.47494E-10         0.00000E+00
    0.24396E-07         0.46261E-10         0.00000E+00
    0.24399E-07         0.44909E-10         0.00000E+00
    0.24403E-07         0.43449E-10         0.00000E+00
    0.24407E-07         0.41891E-10         0.00000E+00
    0.24411E-07         0.40245E-10         0.00000E+00
    0.24414E-07         0.38519E-10         0.00000E+00
    0.24418E-07         0.36723E-10         0.00000E+00
    0.24421E-07         0.34864E-10         0.00000E+00
    0.24425E-07         0.32950E-10         0.00000E+00
    0.24428E-07         0.30990E-10         0.00000E+00
    0.24431E-07         0.28989E-10         0.00000E+00
    0.24434E-07         0.26956E-10         0.00000E+00
    0.24437E-07         0.24896E-10         0.00000E+00
    0.24440E-07         0.22815E-10         0.00000E+00
    0.24442E-07         0.20720E-10         0.00000E+00
    0.24445E-07         0.18616E-10         0.00000E+00
    0.24447E-07         0.16507E-10         0.00000E+00
    0.24449E-07         0.14399E-10         0.00000E+00
    0.24451E-07         0.12296E-10         0.00000E+00
    0.24452E-07         0.10203E-10         0.00000E+00
    0.24453E-07         0.81229E-11         0.00000E+00
    0.24454E-07         0.60597E-11         0.00000E+00
    0.24455E-07         0.40165E-11         0.00000E+00
    0.24456E-07         0.19965E-11         0.00000E+00
    0.24456E-07         0.99263E-12         0.00000E+00
    0.25645E-07         0.25208E-11         0.00000E+00
    0.25646E-07         0.48769E-11         0.00000E+00
    0.25646E-07         0.93515E-11         0.00000E+00
    0.25647E-07         0.13363E-10         0.00000E+00
    0.25648E-07         0.16937E-10         0.00000E+00
    0.25649E-07         0.20096E-10         0.00000E+00
    0.25651E-07         0.22864E-10         0.00000E+00
    0.25653E-07         0.25264E-10         0.00000E+00
    0.25655E-07         0.27316E-10         0.00000E+00
    0.25658E-07         0.29042E-10         0.00000E+00
    0.25660E-07         0.30463E-10         0.00000E+00
    0.25663E-07         0.31597E-10         0.00000E+00
    0.25666E-07         0.32465E-10         0.00000E+00
    0.25670E-07         0.33084E-10         0.00000E+00
    0.25673E-07         0.33472E-10         0.00000E+00
    0.25677E-07         0.33646E-10         0.00000E+00
    0.25680E-07         0.33624E-10         0.00000E+00
    0.25684E-07         0.33420E-10         0.00000E+00
    0.25688E-07         0.33051E-10         0.00000E+00
    0.25692E-07         0.32531E-10         0.00000E+00
    0.25697E-07         0.31875E-10         0.00000E+00
    0.25701E-07         0.31096E-10         0.00000E+00
    0.25705E-07         0.30207E-10         0.00000E+00
    0.25709E-07         0.29222E-10         0.00000E+00
    0.25714E-07         0.28152E-10         0.00000E+00
    0.25718E-07         0.27009E-10         0.00000E+00
    0.25723E-07         0.25804E-10         0.00000E+00
    0.25727E-07         0.24549E-10         0.00000E+00
    0.25731E-07         0.23252E-10         0.00000E+00
    0.25736E-07         0.21925E-10         0.00000E+00
    0.25740E-07         0.20577E-10         0.00000E+00
    0.25744E-07         0.19216E-10         0.00000E+00
    0.25748E-07         0.17851E-10         0.00000E+00
    0.25752E-07         0.16490E-10         0.00000E+00
    0.25756E-07         0.15140E-10         0.00000E+00
    0.25760E-07         0.13810E-10         0.00000E+00
    0.25763E-07         0.12506E-10         0.00000E+00
    0.25767E-07         0.11235E-10         0.00000E+00
    0.25770E-07         0.10002E-10         0.00000E+00
    0.25773E-07         0.88139E-11         0.00000E+00
    0.25776E-07         0.76757E-11         0.00000E+00
    0.25779E-07         0.65927E-11         0.00000E+00
    0.25781E-07         0.55695E-11         0.00000E+00
    0.25783E-07         0.46107E-11         0.00000E+00
    0.25785E-07         0.37203E-11         0.00000E+00
    0.25787E-07         0.29022E-11         0.00000E+00
    0.25788E-07         0.21599E-11         0.00000E+00
    0.25789E-07         0.14965E-11         0.00000E+00
    0.25790E-07         0.91490E-12         0.00000E+00
    0.25791E-07         0.41777E-12         0.00000E+00
    0.25791E-07         0.19062E-12         0.00000E+00
    0.27031E-07         0.16115E-11         0.00000E+00
    0.27031E-07         0.30806E-11         0.00000E+00
    0.27032E-07         0.58148E-11         0.00000E+00
    0.27033E-07         0.81545E-11         0.00000E+00
    0.27034E-07         0.10125E-10         0.00000E+00
    0.27036E-07         0.11752E-10         0.00000E+00
    0.27038E-07         0.13059E-10         0.00000E+00
    0.27040E-07         0.14069E-10         0.00000E+00
    0.27042E-07         0.14804E-10         0.00000E+00
    0.27045E-07         0.15287E-10         0.00000E+00
    0.27048E-07         0.15538E-10         0.00000E+00
    0.27052E-07         0.15578E-10         0.00000E+00
    0.27055E-07         0.15426E-10         0.00000E+00
    0.27059E-07         0.15101E-10         0.00000E+00
    0.27063E-07         0.14621E-10         0.00000E+00
    0.27067E-07         0.14004E-10         0.00000E+00
    0.27071E-07         0.13266E-10         0.00000E+00
    0.27076E-07         0.12424E-10         0.00000E+00
    0.27080E-07         0.11492E-10         0.00000E+00
    0.27085E-07         0.10487E-10         0.00000E+00
    0.27090E-07         0.94218E-11         0.00000E+00
    0.27094E-07         0.83110E-11         0.00000E+00
    0.27099E-07         0.71675E-11         0.00000E+00
    0.27104E-07         0.60039E-11         0.00000E+00
    0.27109E-07         0.48324E-11         0.00000E+00
    0.27114E-07         0.36645E-11         0.00000E+00
    0.27119E-07         0.25113E-11         0.00000E+00
    0.27124E-07         0.13832E-11         0.00000E+00
    0.27129E-07         0.29039E-12         0.00000E+00
    0.27134E-07        -0.75763E-12         0.00000E+00
    0.27139E-07        -0.17517E-11         0.00000E+00
    0.27143E-07        -0.26833E-11         0.00000E+00
    0.27148E-07        -0.35441E-11         0.00000E+00
    0.27152E-07        -0.43264E-11         0.00000E+00
    0.27157E-07        -0.50229E-11         0.00000E+00
    0.27161E-07        -0.56265E-11         0.00000E+00
    0.27165E-07        -0.61309E-11         0.00000E+00
    0.27169E-07        -0.65298E-11         0.00000E+00
    0.27173E-07        -0.68175E-11         0.00000E+00
    0.27176E-07        -0.69887E-11         0.00000E+00
    0.27179E-07        -0.70383E-11         0.00000E+00
    0.27182E-07        -0.69616E-11         0.00000E+00
    0.27185E-07        -0.67543E-11         0.00000E+00
    0.27188E-07        -0.64126E-11         0.00000E+00
    0.27190E-07        -0.59326E-11         0.00000E+00
    0.27192E-07        -0.53112E-11         0.00000E+00
    0.27193E-07        -0.45453E-11         0.00000E+00
    0.27194E-07        -0.36321E-11         0.00000E+00
    0.27195E-07        -0.25694E-11         0.00000E+00
    0.27196E-07        -0.13550E-11         0.00000E+00
    0.27196E-07        -0.70962E-12         0.00000E+00
    0.28488E-07         0.56061E-12         0.00000E+00
    0.28488E-07         0.10061E-11         0.00000E+00
    0.28489E-07         0.17347E-11         0.00000E+00
    0.28490E-07         0.21519E-11         0.00000E+00
    0.28491E-07         0.22843E-11         0.00000E+00
    0.28493E-07         0.21575E-11         0.00000E+00
    0.28496E-07         0.17961E-11         0.00000E+00
    0.28498E-07         0.12239E-11         0.00000E+00
    0.28501E-07         0.46400E-12         0.00000E+00
    0.28504E-07        -0.46157E-12         0.00000E+00
    0.28508E-07        -0.15315E-11         0.00000E+00
    0.28512E-07        -0.27252E-11         0.00000E+00
    0.28516E-07        -0.40230E-11         0.00000E+00
    0.28520E-07        -0.54060E-11         0.00000E+00
    0.28524E-07        -0.68557E-11         0.00000E+00
    0.28529E-07        -0.83549E-11         0.00000E+00
    0.28534E-07        -0.98866E-11         0.00000E+00
    0.28539E-07        -0.11435E-10         0.00000E+00
    0.28544E-07        -0.12984E-10         0.00000E+00
    0.28549E-07        -0.14519E-10         0.00000E+00
    0.28555E-07        -0.16027E-10         0.00000E+00
    0.28560E-07        -0.17492E-10         0.00000E+00
    0.28566E-07        -0.18904E-10         0.00000E+00
    0.28571E-07        -0.20249E-10         0.00000E+00
    0.28577E-07        -0.21515E-10         0.00000E+00
    0.28582E-07        -0.22691E-10         0.00000E+00
    0.28588E-07        -0.23767E-10         0.00000E+00
    0.28593E-07        -0.24733E-10         0.00000E+00
    0.28599E-07        -0.25578E-10         0.00000E+00
    0.28604E-07        -0.26294E-10         0.00000E+00
    0.28610E-07        -0.26873E-10         0.00000E+00
    0.28615E-07        -0.27305E-10         0.00000E+00
    0.28620E-07        -0.27583E-10         0.00000E+00
    0.28625E-07        -0.27701E-10         0.00000E+00
    0.28630E-07        -0.27650E-10         0.00000E+00
    0.28635E-07        -0.27426E-10         0.00000E+00
    0.28639E-07        -0.27021E-10         0.00000E+00
    0.28644E-07        -0.26431E-10         0.00000E+00
    0.28648E-07        -0.25649E-10         0.00000E+00
    0.28652E-07        -0.24672E-10         0.00000E+00
    0.28655E-07        -0.23495E-10         0.00000E+00
    0.28658E-07        -0.22113E-10         0.00000E+00
    0.28662E-07        -0.20524E-10         0.00000E+00
    0.28664E-07        -0.18723E-10         0.00000E+00
    0.28667E-07        -0.16707E-10         0.00000E+00
    0.28669E-07        -0.14475E-10         0.00000E+00
    0.28671E-07        -0.12023E-10         0.00000E+00
    0.28672E-07        -0.93489E-11         0.00000E+00
    0.28673E-07        -0.64517E-11         0.00000E+00
    0.28674E-07        -0.33295E-11         0.00000E+00
    0.28674E-07        -0.17120E-11         0.00000E+00
    0.30019E-07        -0.64121E-12         0.00000E+00
    0.30019E-07        -0.13645E-11         0.00000E+00
    0.30020E-07        -0.29236E-11         0.00000E+00
    0.30021E-07        -0.46942E-11         0.00000E+00
    0.30023E-07        -0.66493E-11         0.00000E+00
    0.30025E-07        -0.87628E-11         0.00000E+00
    0.30028E-07        -0.11010E-10         0.00000E+00
    0.30031E-07        -0.13366E-10         0.00000E+00
    0.30034E-07        -0.15809E-10         0.00000E+00
    0.30038E-07        -0.18316E-10         0.00000E+00
    0.30041E-07        -0.20865E-10         0.00000E+00
    0.30046E-07        -0.23437E-10         0.00000E+00
    0.30050E-07        -0.26012E-10         0.00000E+00
    0.30055E-07        -0.28570E-10         0.00000E+00
    0.30060E-07        -0.31095E-10         0.00000E+00
    0.30065E-07        -0.33567E-10         0.00000E+00
    0.30071E-07        -0.35972E-10         0.00000E+00
    0.30076E-07        -0.38293E-10         0.00000E+00
    0.30082E-07        -0.40516E-10         0.00000E+00
    0.30088E-07        -0.42625E-10         0.00000E+00
    0.30094E-07        -0.44608E-10         0.00000E+00
    0.30100E-07        -0.46450E-10         0.00000E+00
    0.30106E-07        -0.48141E-10         0.00000E+00
    0.30112E-07        -0.49667E-10         0.00000E+00
    0.30119E-07        -0.51019E-10         0.00000E+00
    0.30125E-07        -0.52184E-10         0.00000E+00
    0.30131E-07        -0.53154E-10         0.00000E+00
    0.30137E-07        -0.53918E-10         0.00000E+00
    0.30143E-07        -0.54468E-10         0.00000E+00
    0.30149E-07        -0.54795E-10         0.00000E+00
    0.30155E-07        -0.54892E-10         0.00000E+00
    0.30161E-07        -0.54750E-10         0.00000E+00
    0.30167E-07        -0.54364E-10         0.00000E+00
    0.30173E-07        -0.53725E-10         0.00000E+00
    0.30178E-07        -0.52829E-10         0.00000E+00
    0.30183E-07        -0.51669E-10         0.00000E+00
    0.30188E-07        -0.50241E-10         0.00000E+00
    0.30193E-07        -0.48539E-10         0.00000E+00
    0.30197E-07        -0.46559E-10         0.00000E+00
    0.30202E-07        -0.44296E-10         0.00000E+00
    0.30206E-07        -0.41748E-10         0.00000E+00
    0.30209E-07        -0.38911E-10         0.00000E+00
    0.30213E-07        -0.35782E-10         0.00000E+00
    0.30216E-07        -0.32358E-10         0.00000E+00
    0.30218E-07        -0.28636E-10         0.00000E+00
    0.30221E-07        -0.24616E-10         0.00000E+00
    0.30223E-07        -0.20294E-10         0.00000E+00
    0.30224E-07        -0.15670E-10         0.00000E+00
    0.30225E-07        -0.10743E-10         0.00000E+00
    0.30226E-07        -0.55111E-11         0.00000E+00
    0.30226E-07        -0.28191E-11         0.00000E+00
    0.31627E-07        -0.20020E-11         0.00000E+00
    0.31627E-07        -0.40468E-11         0.00000E+00
    0.31628E-07        -0.81900E-11         0.00000E+00
    0.31629E-07        -0.12427E-10         0.00000E+00
    0.31631E-07        -0.16730E-10         0.00000E+00
    0.31633E-07        -0.21073E-10         0.00000E+00
    0.31636E-07        -0.25432E-10         0.00000E+00
    0.31639E-07        -0.29783E-10         0.00000E+00
    0.31643E-07        -0.34102E-10         0.00000E+00
    0.31647E-07        -0.38369E-10         0.00000E+00
    0.31652E-07        -0.42561E-10         0.00000E+00
    0.31656E-07        -0.46659E-10         0.00000E+00
    0.31661E-07        -0.50644E-10         0.00000E+00
    0.31667E-07        -0.54498E-10         0.00000E+00
    0.31672E-07        -0.58202E-10         0.00000E+00
    0.31678E-07        -0.61741E-10         0.00000E+00
    0.31684E-07        -0.65099E-10         0.00000E+00
    0.31690E-07        -0.68260E-10         0.00000E+00
    0.31697E-07        -0.71210E-10         0.00000E+00
    0.31703E-07        -0.73936E-10         0.00000E+00
    0.31710E-07        -0.76425E-10         0.00000E+00
    0.31717E-07        -0.78664E-10         0.00000E+00
    0.31724E-07        -0.80642E-10         0.00000E+00
    0.31730E-07        -0.82348E-10         0.00000E+00
    0.31737E-07        -0.83772E-10         0.00000E+00
    0.31744E-07        -0.84903E-10         0.00000E+00
    0.31751E-07        -0.85734E-10         0.00000E+00
    0.31758E-07        -0.86255E-10         0.00000E+00
    0.31765E-07        -0.86458E-10         0.00000E+00
    0.31771E-07        -0.86335E-10         0.00000E+00
    0.31778E-07        -0.85880E-10         0.00000E+00
    0.31784E-07        -0.85086E-10         0.00000E+00
    0.31791E-07        -0.83947E-10         0.00000E+00
    0.31797E-07        -0.82458E-10         0.00000E+00
    0.31803E-07        -0.80613E-10         0.00000E+00
    0.31808E-07        -0.78407E-10         0.00000E+00
    0.31814E-07        -0.75836E-10         0.00000E+00
    0.31819E-07        -0.72896E-10         0.00000E+00
    0.31824E-07        -0.69584E-10         0.00000E+00
    0.31829E-07        -0.65897E-10         0.00000E+00
    0.31833E-07        -0.61831E-10         0.00000E+00
    0.31837E-07        -0.57384E-10         0.00000E+00
    0.31841E-07        -0.52554E-10         0.00000E+00
    0.31844E-07        -0.47339E-10         0.00000E+00
    0.31847E-07        -0.41737E-10         0.00000E+00
    0.31850E-07        -0.35748E-10         0.00000E+00
    0.31852E-07        -0.29371E-10         0.00000E+00
    0.31853E-07        -0.22604E-10         0.00000E+00
    0.31855E-07        -0.15448E-10         0.00000E+00
    0.31855E-07        -0.79025E-11         0.00000E+00
    0.31856E-07        -0.40324E-11         0.00000E+00
    0.33312E-07        -0.35282E-11         0.00000E+00
    0.33313E-07        -0.70532E-11         0.00000E+00
    0.33314E-07        -0.14088E-10         0.00000E+00
    0.33315E-07        -0.21079E-10         0.00000E+00
    0.33317E-07        -0.27999E-10         0.00000E+00
    0.33320E-07        -0.34822E-10         0.00000E+00
    0.33323E-07        -0.41526E-10         0.00000E+00
    0.33327E-07        -0.48086E-10         0.00000E+00
    0.33331E-07        -0.54480E-10         0.00000E+00
    0.33335E-07        -0.60687E-10         0.00000E+00
    0.33340E-07        -0.66687E-10         0.00000E+00
    0.33345E-07        -0.72462E-10         0.00000E+00
    0.33351E-07        -0.77992E-10         0.00000E+00
    0.33357E-07        -0.83260E-10         0.00000E+00
    0.33363E-07        -0.88250E-10         0.00000E+00
    0.33369E-07        -0.92947E-10         0.00000E+00
    0.33376E-07        -0.97336E-10         0.00000E+00
    0.33383E-07        -0.10140E-09         0.00000E+00
    0.33390E-07        -0.10513E-09         0.00000E+00
    0.33397E-07        -0.10852E-09         0.00000E+00
    0.33405E-07        -0.11154E-09         0.00000E+00
    0.33412E-07        -0.11419E-09         0.00000E+00
    0.33419E-07        -0.11646E-09         0.00000E+00
    0.33427E-07        -0.11834E-09         0.00000E+00
    0.33434E-07        -0.11982E-09         0.00000E+00
    0.33442E-07        -0.12089E-09         0.00000E+00
    0.33450E-07        -0.12155E-09         0.00000E+00
    0.33457E-07        -0.12178E-09         0.00000E+00
    0.33464E-07        -0.12158E-09         0.00000E+00
    0.33472E-07        -0.12094E-09         0.00000E+00
    0.33479E-07        -0.11986E-09         0.00000E+00
    0.33486E-07        -0.11834E-09         0.00000E+00
    0.33493E-07        -0.11636E-09         0.00000E+00
    0.33499E-07        -0.11392E-09         0.00000E+00
    0.33506E-07        -0.11102E-09         0.00000E+00
    0.33512E-07        -0.10765E-09         0.00000E+00
    0.33518E-07        -0.10382E-09         0.00000E+00
    0.33524E-07        -0.99512E-10         0.00000E+00
    0.33529E-07        -0.94733E-10         0.00000E+00
    0.33534E-07        -0.89478E-10         0.00000E+00
    0.33539E-07        -0.83744E-10         0.00000E+00
    0.33543E-07        -0.77532E-10         0.00000E+00
    0.33547E-07        -0.70839E-10         0.00000E+00
    0.33551E-07        -0.63665E-10         0.00000E+00
    0.33554E-07        -0.56009E-10         0.00000E+00
    0.33557E-07        -0.47871E-10         0.00000E+00
    0.33559E-07        -0.39251E-10         0.00000E+00
    0.33561E-07        -0.30150E-10         0.00000E+00
    0.33562E-07        -0.20567E-10         0.00000E+00
    0.33563E-07        -0.10503E-10         0.00000E+00
    0.33563E-07        -0.53513E-11         0.00000E+00
    0.35078E-07        -0.52242E-11         0.00000E+00
    0.35079E-07        -0.10392E-10         0.00000E+00
    0.35080E-07        -0.20633E-10         0.00000E+00
    0.35081E-07        -0.30671E-10         0.00000E+00
    0.35084E-07        -0.40482E-10         0.00000E+00
    0.35087E-07        -0.50040E-10         0.00000E+00
    0.35090E-07        -0.59322E-10         0.00000E+00
    0.35094E-07        -0.68308E-10         0.00000E+00
    0.35099E-07        -0.76975E-10         0.00000E+00
    0.35103E-07        -0.85305E-10         0.00000E+00
    0.35109E-07        -0.93278E-10         0.00000E+00
    0.35115E-07        -0.10088E-09         0.00000E+00
    0.35121E-07        -0.10808E-09         0.00000E+00
    0.35127E-07        -0.11489E-09         0.00000E+00
    0.35134E-07        -0.12126E-09         0.00000E+00
    0.35141E-07        -0.12721E-09         0.00000E+00
    0.35148E-07        -0.13270E-09         0.00000E+00
    0.35156E-07        -0.13774E-09         0.00000E+00
    0.35163E-07        -0.14229E-09         0.00000E+00
    0.35171E-07        -0.14637E-09         0.00000E+00
    0.35179E-07        -0.14995E-09         0.00000E+00
    0.35187E-07        -0.15303E-09         0.00000E+00
    0.35195E-07        -0.15560E-09         0.00000E+00
    0.35204E-07        -0.15764E-09         0.00000E+00
    0.35212E-07        -0.15916E-09         0.00000E+00
    0.35220E-07        -0.16014E-09         0.00000E+00
    0.35228E-07        -0.16058E-09         0.00000E+00
    0.35236E-07        -0.16047E-09         0.00000E+00
    0.35244E-07        -0.15981E-09         0.00000E+00
    0.35252E-07        -0.15860E-09         0.00000E+00
    0.35260E-07        -0.15682E-09         0.00000E+00
    0.35267E-07        -0.15447E-09         0.00000E+00
    0.35275E-07        -0.15156E-09         0.00000E+00
    0.35282E-07        -0.14807E-09         0.00000E+00
    0.35289E-07        -0.14401E-09         0.00000E+00
    0.35296E-07        -0.13937E-09         0.00000E+00
    0.35302E-07        -0.13415E-09         0.00000E+00
    0.35308E-07        -0.12835E-09         0.00000E+00
    0.35314E-07        -0.12197E-09         0.00000E+00
    0.35320E-07        -0.11501E-09         0.00000E+00
    0.35325E-07        -0.10746E-09         0.00000E+00
    0.35329E-07        -0.99326E-10         0.00000E+00
    0.35334E-07        -0.90610E-10         0.00000E+00
    0.35338E-07        -0.81311E-10         0.00000E+00
    0.35341E-07        -0.71428E-10         0.00000E+00
    0.35344E-07        -0.60964E-10         0.00000E+00
    0.35346E-07        -0.49918E-10         0.00000E+00
    0.35348E-07        -0.38293E-10         0.00000E+00
    0.35350E-07        -0.26089E-10         0.00000E+00
    0.35351E-07        -0.13308E-10         0.00000E+00
    0.35351E-07        -0.67735E-11         0.00000E+00
    0.36926E-07        -0.70915E-11         0.00000E+00
    0.36926E-07        -0.14066E-10         0.00000E+00
    0.36927E-07        -0.27829E-10         0.00000E+00
    0.36929E-07        -0.41210E-10         0.00000E+00
    0.36931E-07        -0.54184E-10         0.00000E+00
    0.36935E-07        -0.66729E-10         0.00000E+00
    0.36938E-07        -0.78824E-10         0.00000E+00
    0.36943E-07        -0.90450E-10         0.00000E+00
    0.36948E-07        -0.10159E-09         0.00000E+00
    0.36953E-07        -0.11222E-09         0.00000E+00
    0.36959E-07        -0.12232E-09         0.00000E+00
    0.36965E-07        -0.13189E-09         0.00000E+00
    0.36972E-07        -0.14090E-09         0.00000E+00
    0.36979E-07        -0.14935E-09         0.00000E+00
    0.36986E-07        -0.15721E-09         0.00000E+00
    0.36994E-07        -0.16449E-09         0.00000E+00
    0.37002E-07        -0.17116E-09         0.00000E+00
    0.37010E-07        -0.17721E-09         0.00000E+00
    0.37018E-07        -0.18265E-09         0.00000E+00
    0.37026E-07        -0.18745E-09         0.00000E+00
    0.37035E-07        -0.19161E-09         0.00000E+00
    0.37044E-07        -0.19512E-09         0.00000E+00
    0.37053E-07        -0.19798E-09         0.00000E+00
    0.37061E-07        -0.20018E-09         0.00000E+00
    0.37070E-07        -0.20171E-09         0.00000E+00
    0.37079E-07        -0.20257E-09         0.00000E+00
    0.37088E-07        -0.20275E-09         0.00000E+00
    0.37096E-07        -0.20225E-09         0.00000E+00
    0.37105E-07        -0.20107E-09         0.00000E+00
    0.37113E-07        -0.19921E-09         0.00000E+00
    0.37122E-07        -0.19665E-09         0.00000E+00
    0.37130E-07        -0.19340E-09         0.00000E+00
    0.37138E-07        -0.18946E-09         0.00000E+00
    0.37146E-07        -0.18483E-09         0.00000E+00
    0.37153E-07        -0.17950E-09         0.00000E+00
    0.37160E-07        -0.17347E-09         0.00000E+00
    0.37167E-07        -0.16675E-09         0.00000E+00
    0.37174E-07        -0.15933E-09         0.00000E+00
    0.37180E-07        -0.15121E-09         0.00000E+00
    0.37186E-07        -0.14240E-09         0.00000E+00
    0.37191E-07        -0.13290E-09         0.00000E+00
    0.37196E-07        -0.12270E-09         0.00000E+00
    0.37201E-07        -0.11180E-09         0.00000E+00
    0.37205E-07        -0.10022E-09         0.00000E+00
    0.37209E-07        -0.87944E-10         0.00000E+00
    0.37212E-07        -0.74983E-10         0.00000E+00
    0.37215E-07        -0.61336E-10         0.00000E+00
    0.37217E-07        -0.47006E-10         0.00000E+00
    0.37218E-07        -0.31995E-10         0.00000E+00
    0.37219E-07        -0.16307E-10         0.00000E+00
    0.37219E-07        -0.82940E-11         0.00000E+00
    0.38855E-07        -0.91285E-11         0.00000E+00
    0.38855E-07        -0.18071E-10         0.00000E+00
    0.38857E-07        -0.35669E-10         0.00000E+00
    0.38859E-07        -0.52680E-10         0.00000E+00
    0.38861E-07        -0.69086E-10         0.00000E+00
    0.38865E-07        -0.84864E-10         0.00000E+00
    0.38869E-07        -0.99998E-10         0.00000E+00
    0.38874E-07        -0.11447E-09         0.00000E+00
    0.38879E-07        -0.12826E-09         0.00000E+00
    0.38885E-07        -0.14136E-09         0.00000E+00
    0.38891E-07        -0.15375E-09         0.00000E+00
    0.38898E-07        -0.16543E-09         0.00000E+00
    0.38905E-07        -0.17636E-09         0.00000E+00
    0.38912E-07        -0.18656E-09         0.00000E+00
    0.38920E-07        -0.19600E-09         0.00000E+00
    0.38929E-07        -0.20468E-09         0.00000E+00
    0.38937E-07        -0.21259E-09         0.00000E+00
    0.38946E-07        -0.21972E-09         0.00000E+00
    0.38955E-07        -0.22606E-09         0.00000E+00
    0.38964E-07        -0.23161E-09         0.00000E+00
    0.38973E-07        -0.23636E-09         0.00000E+00
    0.38982E-07        -0.24031E-09         0.00000E+00
    0.38991E-07        -0.24346E-09         0.00000E+00
    0.39001E-07        -0.24579E-09         0.00000E+00
    0.39010E-07        -0.24730E-09         0.00000E+00
    0.39020E-07        -0.24801E-09         0.00000E+00
    0.39029E-07        -0.24789E-09         0.00000E+00
    0.39038E-07        -0.24695E-09         0.00000E+00
    0.39047E-07        -0.24519E-09         0.00000E+00
    0.39056E-07        -0.24260E-09         0.00000E+00
    0.39065E-07        -0.23919E-09         0.00000E+00
    0.39074E-07        -0.23496E-09         0.00000E+00
    0.39082E-07        -0.22990E-09         0.00000E+00
    0.39091E-07        -0.22403E-09         0.00000E+00
    0.39098E-07        -0.21733E-09         0.00000E+00
    0.39106E-07        -0.20980E-09         0.00000E+00
    0.39113E-07        -0.20146E-09         0.00000E+00
    0.39120E-07        -0.19230E-09         0.00000E+00
    0.39127E-07        -0.18233E-09         0.00000E+00
    0.39133E-07        -0.17154E-09         0.00000E+00
    0.39139E-07        -0.15994E-09         0.00000E+00
    0.39144E-07        -0.14753E-09         0.00000E+00
    0.39149E-07        -0.13431E-09         0.00000E+00
    0.39153E-07        -0.12029E-09         0.00000E+00
    0.39157E-07        -0.10547E-09         0.00000E+00
    0.39161E-07        -0.89857E-10         0.00000E+00
    0.39163E-07        -0.73446E-10         0.00000E+00
    0.39166E-07        -0.56245E-10         0.00000E+00
    0.39167E-07        -0.38257E-10         0.00000E+00
    0.39168E-07        -0.19486E-10         0.00000E+00
    0.39169E-07        -0.99049E-11         0.00000E+00
    0.40867E-07        -0.11329E-10         0.00000E+00
    0.40867E-07        -0.22396E-10         0.00000E+00
    0.40869E-07        -0.44127E-10         0.00000E+00
    0.40871E-07        -0.65047E-10         0.00000E+00
    0.40874E-07        -0.85138E-10         0.00000E+00
    0.40877E-07        -0.10438E-09         0.00000E+00
    0.40882E-07        -0.12277E-09         0.00000E+00
    0.40887E-07        -0.14028E-09         0.00000E+00
    0.40892E-07        -0.15690E-09         0.00000E+00
    0.40899E-07        -0.17263E-09         0.00000E+00
    0.40905E-07        -0.18745E-09         0.00000E+00
    0.40913E-07        -0.20135E-09         0.00000E+00
    0.40920E-07        -0.21432E-09         0.00000E+00
    0.40928E-07        -0.22636E-09         0.00000E+00
    0.40937E-07        -0.23745E-09         0.00000E+00
    0.40945E-07        -0.24760E-09         0.00000E+00
    0.40954E-07        -0.25680E-09         0.00000E+00
    0.40963E-07        -0.26504E-09         0.00000E+00
    0.40973E-07        -0.27232E-09         0.00000E+00
    0.40982E-07        -0.27864E-09         0.00000E+00
    0.40992E-07        -0.28399E-09         0.00000E+00
    0.41002E-07        -0.28837E-09         0.00000E+00
    0.41012E-07        -0.29179E-09         0.00000E+00
    0.41022E-07        -0.29423E-09         0.00000E+00
    0.41032E-07        -0.29570E-09         0.00000E+00
    0.41042E-07        -0.29621E-09         0.00000E+00
    0.41052E-07        -0.29574E-09         0.00000E+00
    0.41061E-07        -0.29430E-09         0.00000E+00
    0.41071E-07        -0.29190E-09         0.00000E+00
    0.41080E-07        -0.28853E-09         0.00000E+00
    0.41090E-07        -0.28419E-09         0.00000E+00
    0.41099E-07        -0.27889E-09         0.00000E+00
    0.41108E-07        -0.27264E-09         0.00000E+00
    0.41116E-07        -0.26542E-09         0.00000E+00
    0.41125E-07        -0.25726E-09         0.00000E+00
    0.41133E-07        -0.24814E-09         0.00000E+00
    0.41140E-07        -0.23807E-09         0.00000E+00
    0.41148E-07        -0.22706E-09         0.00000E+00
    0.41155E-07        -0.21511E-09         0.00000E+00
    0.41161E-07        -0.20223E-09         0.00000E+00
    0.41167E-07        -0.18841E-09         0.00000E+00
    0.41173E-07        -0.17366E-09         0.00000E+00
    0.41178E-07        -0.15799E-09         0.00000E+00
    0.41182E-07        -0.14141E-09         0.00000E+00
    0.41186E-07        -0.12390E-09         0.00000E+00
    0.41190E-07        -0.10549E-09         0.00000E+00
    0.41193E-07        -0.86168E-10         0.00000E+00
    0.41195E-07        -0.65948E-10         0.00000E+00
    0.41197E-07        -0.44831E-10         0.00000E+00
    0.41198E-07        -0.22822E-10         0.00000E+00
    0.41198E-07        -0.11595E-10         0.00000E+00
    0.42961E-07        -0.13684E-10         0.00000E+00
    0.42961E-07        -0.27019E-10         0.00000E+00
    0.42962E-07        -0.53164E-10         0.00000E+00
    0.42965E-07        -0.78247E-10         0.00000E+00
    0.42968E-07        -0.10226E-09         0.00000E+00
    0.42972E-07        -0.12518E-09         0.00000E+00
    0.42976E-07        -0.14701E-09         0.00000E+00
    0.42982E-07        -0.16773E-09         0.00000E+00
    0.42988E-07        -0.18734E-09         0.00000E+00
    0.42994E-07        -0.20583E-09         0.00000E+00
    0.43001E-07        -0.22320E-09         0.00000E+00
    0.43009E-07        -0.23943E-09         0.00000E+00
    0.43017E-07        -0.25453E-09         0.00000E+00
    0.43025E-07        -0.26848E-09         0.00000E+00
    0.43034E-07        -0.28130E-09         0.00000E+00
    0.43043E-07        -0.29297E-09         0.00000E+00
    0.43053E-07        -0.30350E-09         0.00000E+00
    0.43062E-07        -0.31288E-09         0.00000E+00
    0.43072E-07        -0.32111E-09         0.00000E+00
    0.43082E-07        -0.32821E-09         0.00000E+00
    0.43093E-07        -0.33415E-09         0.00000E+00
    0.43103E-07        -0.33896E-09         0.00000E+00
    0.43113E-07        -0.34262E-09         0.00000E+00
    0.43124E-07        -0.34515E-09         0.00000E+00
    0.43134E-07        -0.34655E-09         0.00000E+00
    0.43144E-07        -0.34681E-09         0.00000E+00
    0.43155E-07        -0.34594E-09         0.00000E+00
    0.43165E-07        -0.34396E-09         0.00000E+00
    0.43175E-07        -0.34085E-09         0.00000E+00
    0.43185E-07        -0.33663E-09         0.00000E+00
    0.43194E-07        -0.33130E-09         0.00000E+00
    0.43204E-07        -0.32486E-09         0.00000E+00
    0.43213E-07        -0.31732E-09         0.00000E+00
    0.43222E-07        -0.30869E-09         0.00000E+00
    0.43231E-07        -0.29897E-09         0.00000E+00
    0.43239E-07        -0.28816E-09         0.00000E+00
    0.43247E-07        -0.27628E-09         0.00000E+00
    0.43254E-07        -0.26332E-09         0.00000E+00
    0.43262E-07        -0.24929E-09         0.00000E+00
    0.43268E-07        -0.23421E-09         0.00000E+00
    0.43275E-07        -0.21807E-09         0.00000E+00
    0.43280E-07        -0.20088E-09         0.00000E+00
    0.43286E-07        -0.18264E-09         0.00000E+00
    0.43290E-07        -0.16337E-09         0.00000E+00
    0.43295E-07        -0.14307E-09         0.00000E+00
    0.43298E-07        -0.12174E-09         0.00000E+00
    0.43301E-07        -0.99393E-10         0.00000E+00
    0.43304E-07        -0.76030E-10         0.00000E+00
    0.43305E-07        -0.51660E-10         0.00000E+00
    0.43306E-07        -0.26287E-10         0.00000E+00
    0.43307E-07        -0.13351E-10         0.00000E+00
    0.45135E-07        -0.16175E-10         0.00000E+00
    0.45135E-07        -0.31910E-10         0.00000E+00
    0.45137E-07        -0.62715E-10         0.00000E+00
    0.45139E-07        -0.92187E-10         0.00000E+00
    0.45142E-07        -0.12032E-09         0.00000E+00
    0.45146E-07        -0.14711E-09         0.00000E+00
    0.45151E-07        -0.17254E-09         0.00000E+00
    0.45157E-07        -0.19662E-09         0.00000E+00
    0.45163E-07        -0.21935E-09         0.00000E+00
    0.45170E-07        -0.24071E-09         0.00000E+00
    0.45177E-07        -0.26072E-09         0.00000E+00
    0.45185E-07        -0.27937E-09         0.00000E+00
    0.45194E-07        -0.29666E-09         0.00000E+00
    0.45202E-07        -0.31259E-09         0.00000E+00
    0.45211E-07        -0.32717E-09         0.00000E+00
    0.45221E-07        -0.34040E-09         0.00000E+00
    0.45231E-07        -0.35228E-09         0.00000E+00
    0.45241E-07        -0.36281E-09         0.00000E+00
    0.45251E-07        -0.37200E-09         0.00000E+00
    0.45261E-07        -0.37987E-09         0.00000E+00
    0.45272E-07        -0.38640E-09         0.00000E+00
    0.45283E-07        -0.39160E-09         0.00000E+00
    0.45293E-07        -0.39550E-09         0.00000E+00
    0.45304E-07        -0.39808E-09         0.00000E+00
    0.45315E-07        -0.39935E-09         0.00000E+00
    0.45325E-07        -0.39933E-09         0.00000E+00
    0.45336E-07        -0.39802E-09         0.00000E+00
    0.45347E-07        -0.39543E-09         0.00000E+00
    0.45357E-07        -0.39157E-09         0.00000E+00
    0.45367E-07        -0.38643E-09         0.00000E+00
    0.45377E-07        -0.38004E-09         0.00000E+00
    0.45387E-07        -0.37240E-09         0.00000E+00
    0.45396E-07        -0.36351E-09         0.00000E+00
    0.45405E-07        -0.35339E-09         0.00000E+00
    0.45414E-07        -0.34204E-09         0.00000E+00
    0.45423E-07        -0.32947E-09         0.00000E+00
    0.45431E-07        -0.31569E-09         0.00000E+00
    0.45439E-07        -0.30070E-09         0.00000E+00
    0.45446E-07        -0.28452E-09         0.00000E+00
    0.45453E-07        -0.26716E-09         0.00000E+00
    0.45459E-07        -0.24861E-09         0.00000E+00
    0.45465E-07        -0.22889E-09         0.00000E+00
    0.45471E-07        -0.20801E-09         0.00000E+00
    0.45476E-07        -0.18597E-09         0.00000E+00
    0.45480E-07        -0.16278E-09         0.00000E+00
    0.45483E-07        -0.13845E-09         0.00000E+00
    0.45487E-07        -0.11298E-09         0.00000E+00
    0.45489E-07        -0.86386E-10         0.00000E+00
    0.45491E-07        -0.58672E-10         0.00000E+00
    0.45492E-07        -0.29844E-10         0.00000E+00
    0.45492E-07        -0.15152E-10         0.00000E+00
    0.47387E-07        -0.18783E-10         0.00000E+00
    0.47387E-07        -0.37024E-10         0.00000E+00
    0.47389E-07        -0.72694E-10         0.00000E+00
    0.47391E-07        -0.10674E-09         0.00000E+00
    0.47395E-07        -0.13916E-09         0.00000E+00
    0.47399E-07        -0.16995E-09         0.00000E+00
    0.47404E-07        -0.19912E-09         0.00000E+00
    0.47410E-07        -0.22667E-09         0.00000E+00
    0.47416E-07        -0.25260E-09         0.00000E+00
    0.47423E-07        -0.27693E-09         0.00000E+00
    0.47431E-07        -0.29964E-09         0.00000E+00
    0.47439E-07        -0.32076E-09         0.00000E+00
    0.47448E-07        -0.34028E-09         0.00000E+00
    0.47457E-07        -0.35822E-09         0.00000E+00
    0.47466E-07        -0.37458E-09         0.00000E+00
    0.47476E-07        -0.38938E-09         0.00000E+00
    0.47486E-07        -0.40261E-09         0.00000E+00
    0.47496E-07        -0.41429E-09         0.00000E+00
    0.47507E-07        -0.42443E-09         0.00000E+00
    0.47517E-07        -0.43305E-09         0.00000E+00
    0.47528E-07        -0.44014E-09         0.00000E+00
    0.47539E-07        -0.44572E-09         0.00000E+00
    0.47550E-07        -0.44980E-09         0.00000E+00
    0.47561E-07        -0.45240E-09         0.00000E+00
    0.47572E-07        -0.45352E-09         0.00000E+00
    0.47583E-07        -0.45317E-09         0.00000E+00
    0.47593E-07        -0.45137E-09         0.00000E+00
    0.47604E-07        -0.44812E-09         0.00000E+00
    0.47614E-07        -0.44345E-09         0.00000E+00
    0.47625E-07        -0.43735E-09         0.00000E+00
    0.47635E-07        -0.42984E-09         0.00000E+00
    0.47645E-07        -0.42094E-09         0.00000E+00
    0.47654E-07        -0.41064E-09         0.00000E+00
    0.47664E-07        -0.39897E-09         0.00000E+00
    0.47673E-07        -0.38594E-09         0.00000E+00
    0.47681E-07        -0.37155E-09         0.00000E+00
    0.47690E-07        -0.35582E-09         0.00000E+00
    0.47697E-07        -0.33875E-09         0.00000E+00
    0.47705E-07        -0.32036E-09         0.00000E+00
    0.47712E-07        -0.30066E-09         0.00000E+00
    0.47718E-07        -0.27965E-09         0.00000E+00
    0.47724E-07        -0.25735E-09         0.00000E+00
    0.47730E-07        -0.23376E-09         0.00000E+00
    0.47734E-07        -0.20890E-09         0.00000E+00
    0.47739E-07        -0.18277E-09         0.00000E+00
    0.47742E-07        -0.15539E-09         0.00000E+00
    0.47746E-07        -0.12676E-09         0.00000E+00
    0.47748E-07        -0.96884E-10         0.00000E+00
    0.47750E-07        -0.65778E-10         0.00000E+00
    0.47751E-07        -0.33447E-10         0.00000E+00
    0.47751E-07        -0.16977E-10         0.00000E+00
    0.49714E-07        -0.21477E-10         0.00000E+00
    0.49714E-07        -0.42305E-10         0.00000E+00
    0.49716E-07        -0.82990E-10         0.00000E+00
    0.49718E-07        -0.12174E-09         0.00000E+00
    0.49722E-07        -0.15855E-09         0.00000E+00
    0.49726E-07        -0.19345E-09         0.00000E+00
    0.49731E-07        -0.22643E-09         0.00000E+00
    0.49737E-07        -0.25751E-09         0.00000E+00
    0.49744E-07        -0.28670E-09         0.00000E+00
    0.49751E-07        -0.31402E-09         0.00000E+00
    0.49759E-07        -0.33948E-09         0.00000E+00
    0.49767E-07        -0.36308E-09         0.00000E+00
    0.49776E-07        -0.38485E-09         0.00000E+00
    0.49785E-07        -0.40479E-09         0.00000E+00
    0.49794E-07        -0.42293E-09         0.00000E+00
    0.49804E-07        -0.43927E-09         0.00000E+00
    0.49814E-07        -0.45384E-09         0.00000E+00
    0.49825E-07        -0.46665E-09         0.00000E+00
    0.49835E-07        -0.47771E-09         0.00000E+00
    0.49846E-07        -0.48704E-09         0.00000E+00
    0.49857E-07        -0.49465E-09         0.00000E+00
    0.49868E-07        -0.50057E-09         0.00000E+00
    0.49879E-07        -0.50480E-09         0.00000E+00
    0.49890E-07        -0.50737E-09         0.00000E+00
    0.49901E-07        -0.50828E-09         0.00000E+00
    0.49911E-07        -0.50756E-09         0.00000E+00
    0.49922E-07        -0.50523E-09         0.00000E+00
    0.49933E-07        -0.50128E-09         0.00000E+00
    0.49943E-07        -0.49575E-09         0.00000E+00
    0.49954E-07        -0.48865E-09         0.00000E+00
    0.49964E-07        -0.47998E-09         0.00000E+00
    0.49974E-07        -0.46978E-09         0.00000E+00
    0.49983E-07        -0.45804E-09         0.00000E+00
    0.49993E-07        -0.44479E-09         0.00000E+00
    0.50002E-07        -0.43003E-09         0.00000E+00
    0.50010E-07        -0.41379E-09         0.00000E+00
    0.50018E-07        -0.39608E-09         0.00000E+00
    0.50026E-07        -0.37690E-09         0.00000E+00
    0.50033E-07        -0.35627E-09         0.00000E+00
    0.50040E-07        -0.33421E-09         0.00000E+00
    0.50047E-07        -0.31073E-09         0.00000E+00
    0.50053E-07        -0.28583E-09         0.00000E+00
    0.50058E-07        -0.25953E-09         0.00000E+00
    0.50063E-07        -0.23183E-09         0.00000E+00
    0.50067E-07        -0.20276E-09         0.00000E+00
    0.50071E-07        -0.17232E-09         0.00000E+00
    0.50074E-07        -0.14052E-09         0.00000E+00
    0.50076E-07        -0.10737E-09         0.00000E+00
    0.50078E-07        -0.72871E-10         0.00000E+00
    0.50079E-07        -0.37043E-10         0.00000E+00
    0.50079E-07        -0.18797E-10         0.00000E+00
    0.52110E-07        -0.24222E-10         0.00000E+00
    0.52111E-07        -0.47680E-10         0.00000E+00
    0.52113E-07        -0.93459E-10         0.00000E+00
    0.52115E-07        -0.13697E-09         0.00000E+00
    0.52119E-07        -0.17823E-09         0.00000E+00
    0.52123E-07        -0.21726E-09         0.00000E+00
    0.52128E-07        -0.25408E-09         0.00000E+00
    0.52134E-07        -0.28870E-09         0.00000E+00
    0.52141E-07        -0.32115E-09         0.00000E+00
    0.52148E-07        -0.35146E-09         0.00000E+00
    0.52156E-07        -0.37963E-09         0.00000E+00
    0.52164E-07        -0.40569E-09         0.00000E+00
    0.52173E-07        -0.42967E-09         0.00000E+00
    0.52182E-07        -0.45159E-09         0.00000E+00
    0.52191E-07        -0.47146E-09         0.00000E+00
    0.52201E-07        -0.48931E-09         0.00000E+00
    0.52211E-07        -0.50517E-09         0.00000E+00
    0.52221E-07        -0.51905E-09         0.00000E+00
    0.52232E-07        -0.53097E-09         0.00000E+00
    0.52242E-07        -0.54097E-09         0.00000E+00
    0.52253E-07        -0.54906E-09         0.00000E+00
    0.52264E-07        -0.55526E-09         0.00000E+00
    0.52275E-07        -0.55959E-09         0.00000E+00
    0.52286E-07        -0.56208E-09         0.00000E+00
    0.52296E-07        -0.56275E-09         0.00000E+00
    0.52307E-07        -0.56161E-09         0.00000E+00
    0.52318E-07        -0.55870E-09         0.00000E+00
    0.52328E-07        -0.55402E-09         0.00000E+00
    0.52339E-07        -0.54760E-09         0.00000E+00
    0.52349E-07        -0.53946E-09         0.00000E+00
    0.52359E-07        -0.52961E-09         0.00000E+00
    0.52368E-07        -0.51808E-09         0.00000E+00
    0.52378E-07        -0.50488E-09         0.00000E+00
    0.52387E-07        -0.49004E-09         0.00000E+00
    0.52395E-07        -0.47356E-09         0.00000E+00
    0.52404E-07        -0.45546E-09         0.00000E+00
    0.52412E-07        -0.43577E-09         0.00000E+00
    0.52419E-07        -0.41449E-09         0.00000E+00
    0.52427E-07        -0.39164E-09         0.00000E+00
    0.52433E-07        -0.36724E-09         0.00000E+00
    0.52439E-07        -0.34129E-09         0.00000E+00
    0.52445E-07        -0.31383E-09         0.00000E+00
    0.52450E-07        -0.28484E-09         0.00000E+00
    0.52455E-07        -0.25436E-09         0.00000E+00
    0.52459E-07        -0.22239E-09         0.00000E+00
    0.52463E-07        -0.18894E-09         0.00000E+00
    0.52466E-07        -0.15402E-09         0.00000E+00
    0.52468E-07        -0.11764E-09         0.00000E+00
    0.52470E-07        -0.79824E-10         0.00000E+00
    0.52471E-07        -0.40567E-10         0.00000E+00
    0.52471E-07        -0.20580E-10         0.00000E+00
    0.54572E-07        -0.26972E-10         0.00000E+00
    0.54572E-07        -0.53063E-10         0.00000E+00
    0.54574E-07        -0.10393E-09         0.00000E+00
    0.54576E-07        -0.15219E-09         0.00000E+00
    0.54580E-07        -0.19786E-09         0.00000E+00
    0.54584E-07        -0.24099E-09         0.00000E+00
    0.54589E-07        -0.28159E-09         0.00000E+00
    0.54595E-07        -0.31970E-09         0.00000E+00
    0.54601E-07        -0.35535E-09         0.00000E+00
    0.54608E-07        -0.38857E-09         0.00000E+00
    0.54616E-07        -0.41939E-09         0.00000E+00
    0.54624E-07        -0.44784E-09         0.00000E+00
    0.54633E-07        -0.47395E-09         0.00000E+00
    0.54641E-07        -0.49776E-09         0.00000E+00
    0.54651E-07        -0.51928E-09         0.00000E+00
    0.54660E-07        -0.53856E-09         0.00000E+00
    0.54670E-07        -0.55563E-09         0.00000E+00
    0.54680E-07        -0.57051E-09         0.00000E+00
    0.54690E-07        -0.58323E-09         0.00000E+00
    0.54700E-07        -0.59382E-09         0.00000E+00
    0.54711E-07        -0.60231E-09         0.00000E+00
    0.54721E-07        -0.60873E-09         0.00000E+00
    0.54732E-07        -0.61311E-09         0.00000E+00
    0.54742E-07        -0.61547E-09         0.00000E+00
    0.54753E-07        -0.61585E-09         0.00000E+00
    0.54763E-07        -0.61425E-09         0.00000E+00
    0.54773E-07        -0.61073E-09         0.00000E+00
    0.54783E-07        -0.60529E-09         0.00000E+00
    0.54793E-07        -0.59796E-09         0.00000E+00
    0.54803E-07        -0.58876E-09         0.00000E+00
    0.54812E-07        -0.57773E-09         0.00000E+00
    0.54821E-07        -0.56488E-09         0.00000E+00
    0.54830E-07        -0.55023E-09         0.00000E+00
    0.54839E-07        -0.53380E-09         0.00000E+00
    0.54847E-07        -0.51562E-09         0.00000E+00
    0.54855E-07        -0.49570E-09         0.00000E+00
    0.54863E-07        -0.47407E-09         0.00000E+00
    0.54870E-07        -0.45074E-09         0.00000E+00
    0.54877E-07        -0.42572E-09         0.00000E+00
    0.54884E-07        -0.39905E-09         0.00000E+00
    0.54889E-07        -0.37072E-09         0.00000E+00
    0.54895E-07        -0.34076E-09         0.00000E+00
    0.54900E-07        -0.30919E-09         0.00000E+00
    0.54904E-07        -0.27601E-09         0.00000E+00
    0.54908E-07        -0.24124E-09         0.00000E+00
    0.54912E-07        -0.20489E-09         0.00000E+00
    0.54914E-07        -0.16698E-09         0.00000E+00
    0.54917E-07        -0.12751E-09         0.00000E+00
    0.54918E-07        -0.86494E-10         0.00000E+00
    0.54919E-07        -0.43946E-10         0.00000E+00
    0.54920E-07        -0.22290E-10         0.00000E+00
    0.57089E-07        -0.29676E-10         0.00000E+00
    0.57090E-07        -0.58347E-10         0.00000E+00
    0.57091E-07        -0.11420E-09         0.00000E+00
    0.57094E-07        -0.16709E-09         0.00000E+00
    0.57097E-07        -0.21706E-09         0.00000E+00
    0.57101E-07        -0.26415E-09         0.00000E+00
    0.57106E-07        -0.30841E-09         0.00000E+00
    0.57112E-07        -0.34987E-09         0.00000E+00
    0.57118E-07        -0.38858E-09         0.00000E+00
    0.57125E-07        -0.42458E-09         0.00000E+00
    0.57132E-07        -0.45792E-09         0.00000E+00
    0.57140E-07        -0.48862E-09         0.00000E+00
    0.57148E-07        -0.51673E-09         0.00000E+00
    0.57156E-07        -0.54230E-09         0.00000E+00
    0.57165E-07        -0.56536E-09         0.00000E+00
    0.57174E-07        -0.58595E-09         0.00000E+00
    0.57183E-07        -0.60411E-09         0.00000E+00
    0.57193E-07        -0.61988E-09         0.00000E+00
    0.57203E-07        -0.63330E-09         0.00000E+00
    0.57212E-07        -0.64440E-09         0.00000E+00
    0.57222E-07        -0.65321E-09         0.00000E+00
    0.57232E-07        -0.65978E-09         0.00000E+00
    0.57242E-07        -0.66413E-09         0.00000E+00
    0.57251E-07        -0.66631E-09         0.00000E+00
    0.57261E-07        -0.66634E-09         0.00000E+00
    0.57271E-07        -0.66426E-09         0.00000E+00
    0.57280E-07        -0.66009E-09         0.00000E+00
    0.57290E-07        -0.65388E-09         0.00000E+00
    0.57299E-07        -0.64563E-09         0.00000E+00
    0.57308E-07        -0.63540E-09         0.00000E+00
    0.57317E-07        -0.62319E-09         0.00000E+00
    0.57325E-07        -0.60904E-09         0.00000E+00
    0.57334E-07        -0.59298E-09         0.00000E+00
    0.57342E-07        -0.57503E-09         0.00000E+00
    0.57350E-07        -0.55521E-09         0.00000E+00
    0.57357E-07        -0.53355E-09         0.00000E+00
    0.57364E-07        -0.51006E-09         0.00000E+00
    0.57371E-07        -0.48477E-09         0.00000E+00
    0.57377E-07        -0.45770E-09         0.00000E+00
    0.57383E-07        -0.42886E-09         0.00000E+00
    0.57388E-07        -0.39829E-09         0.00000E+00
    0.57393E-07        -0.36598E-09         0.00000E+00
    0.57398E-07        -0.33196E-09         0.00000E+00
    0.57402E-07        -0.29625E-09         0.00000E+00
    0.57406E-07        -0.25885E-09         0.00000E+00
    0.57409E-07        -0.21979E-09         0.00000E+00
    0.57411E-07        -0.17907E-09         0.00000E+00
    0.57413E-07        -0.13671E-09         0.00000E+00
    0.57415E-07        -0.92714E-10         0.00000E+00
    0.57416E-07        -0.47097E-10         0.00000E+00
    0.57416E-07        -0.23884E-10         0.00000E+00
    0.59655E-07        -0.32270E-10         0.00000E+00
    0.59655E-07        -0.63411E-10         0.00000E+00
    0.59657E-07        -0.12402E-09         0.00000E+00
    0.59659E-07        -0.18132E-09         0.00000E+00
    0.59662E-07        -0.23536E-09         0.00000E+00
    0.59666E-07        -0.28620E-09         0.00000E+00
    0.59671E-07        -0.33388E-09         0.00000E+00
    0.59676E-07        -0.37848E-09         0.00000E+00
    0.59682E-07        -0.42004E-09         0.00000E+00
    0.59688E-07        -0.45861E-09         0.00000E+00
    0.59695E-07        -0.49424E-09         0.00000E+00
    0.59702E-07        -0.52700E-09         0.00000E+00
    0.59709E-07        -0.55693E-09         0.00000E+00
    0.59717E-07        -0.58408E-09         0.00000E+00
    0.59725E-07        -0.60850E-09         0.00000E+00
    0.59734E-07        -0.63024E-09         0.00000E+00
    0.59742E-07        -0.64935E-09         0.00000E+00
    0.59751E-07        -0.66587E-09         0.00000E+00
    0.59760E-07        -0.67986E-09         0.00000E+00
    0.59768E-07        -0.69134E-09         0.00000E+00
    0.59777E-07        -0.70038E-09         0.00000E+00
    0.59786E-07        -0.70701E-09         0.00000E+00
    0.59795E-07        -0.71127E-09         0.00000E+00
    0.59804E-07        -0.71320E-09         0.00000E+00
    0.59813E-07        -0.71285E-09         0.00000E+00
    0.59822E-07        -0.71024E-09         0.00000E+00
    0.59830E-07        -0.70542E-09         0.00000E+00
    0.59839E-07        -0.69843E-09         0.00000E+00
    0.59847E-07        -0.68929E-09         0.00000E+00
    0.59855E-07        -0.67803E-09         0.00000E+00
    0.59863E-07        -0.66470E-09         0.00000E+00
    0.59870E-07        -0.64932E-09         0.00000E+00
    0.59878E-07        -0.63193E-09         0.00000E+00
    0.59885E-07        -0.61254E-09         0.00000E+00
    0.59892E-07        -0.59119E-09         0.00000E+00
    0.59898E-07        -0.56789E-09         0.00000E+00
    0.59905E-07        -0.54269E-09         0.00000E+00
    0.59911E-07        -0.51559E-09         0.00000E+00
    0.59916E-07        -0.48663E-09         0.00000E+00
    0.59921E-07        -0.45582E-09         0.00000E+00
    0.59926E-07        -0.42318E-09         0.00000E+00
    0.59931E-07        -0.38874E-09         0.00000E+00
    0.59935E-07        -0.35250E-09         0.00000E+00
    0.59938E-07        -0.31449E-09         0.00000E+00
    0.59941E-07        -0.27471E-09         0.00000E+00
    0.59944E-07        -0.23320E-09         0.00000E+00
    0.59946E-07        -0.18995E-09         0.00000E+00
    0.59948E-07        -0.14498E-09         0.00000E+00
    0.59949E-07        -0.98302E-10         0.00000E+00
    0.59950E-07        -0.49926E-10         0.00000E+00
    0.59950E-07        -0.25314E-10         0.00000E+00
    0.62258E-07        -0.34683E-10         0.00000E+00
    0.62258E-07        -0.68116E-10         0.00000E+00
    0.62260E-07        -0.13313E-09         0.00000E+00
    0.62262E-07        -0.19449E-09         0.00000E+00
    0.62265E-07        -0.25225E-09         0.00000E+00
    0.62268E-07        -0.30649E-09         0.00000E+00
    0.62272E-07        -0.35728E-09         0.00000E+00
    0.62277E-07        -0.40468E-09         0.00000E+00
    0.62282E-07        -0.44878E-09         0.00000E+00
    0.62288E-07        -0.48962E-09         0.00000E+00
    0.62294E-07        -0.52728E-09         0.00000E+00
    0.62300E-07        -0.56182E-09         0.00000E+00
    0.62307E-07        -0.59331E-09         0.00000E+00
    0.62314E-07        -0.62180E-09         0.00000E+00
    0.62321E-07        -0.64735E-09         0.00000E+00
    0.62328E-07        -0.67004E-09         0.00000E+00
    0.62335E-07        -0.68990E-09         0.00000E+00
    0.62343E-07        -0.70700E-09         0.00000E+00
    0.62351E-07        -0.72140E-09         0.00000E+00
    0.62358E-07        -0.73314E-09         0.00000E+00
    0.62366E-07        -0.74228E-09         0.00000E+00
    0.62374E-07        -0.74887E-09         0.00000E+00
    0.62381E-07        -0.75296E-09         0.00000E+00
    0.62389E-07        -0.75458E-09         0.00000E+00
    0.62396E-07        -0.75380E-09         0.00000E+00
    0.62404E-07        -0.75065E-09         0.00000E+00
    0.62411E-07        -0.74518E-09         0.00000E+00
    0.62418E-07        -0.73742E-09         0.00000E+00
    0.62425E-07        -0.72742E-09         0.00000E+00
    0.62432E-07        -0.71522E-09         0.00000E+00
    0.62439E-07        -0.70084E-09         0.00000E+00
    0.62445E-07        -0.68432E-09         0.00000E+00
    0.62451E-07        -0.66571E-09         0.00000E+00
    0.62457E-07        -0.64502E-09         0.00000E+00
    0.62463E-07        -0.62229E-09         0.00000E+00
    0.62468E-07        -0.59754E-09         0.00000E+00
    0.62474E-07        -0.57081E-09         0.00000E+00
    0.62479E-07        -0.54212E-09         0.00000E+00
    0.62483E-07        -0.51150E-09         0.00000E+00
    0.62487E-07        -0.47896E-09         0.00000E+00
    0.62491E-07        -0.44453E-09         0.00000E+00
    0.62495E-07        -0.40822E-09         0.00000E+00
    0.62498E-07        -0.37007E-09         0.00000E+00
    0.62501E-07        -0.33007E-09         0.00000E+00
    0.62504E-07        -0.28826E-09         0.00000E+00
    0.62506E-07        -0.24463E-09         0.00000E+00
    0.62508E-07        -0.19922E-09         0.00000E+00
    0.62510E-07        -0.15202E-09         0.00000E+00
    0.62511E-07        -0.10306E-09         0.00000E+00
    0.62511E-07        -0.52333E-10         0.00000E+00
    0.62511E-07        -0.26531E-10         0.00000E+00
    0.64886E-07        -0.36836E-10         0.00000E+00
    0.64886E-07        -0.72303E-10         0.00000E+00
    0.64888E-07        -0.14122E-09         0.00000E+00
    0.64889E-07        -0.20613E-09         0.00000E+00
    0.64892E-07        -0.26713E-09         0.00000E+00
    0.64895E-07        -0.32432E-09         0.00000E+00
    0.64898E-07        -0.37776E-09         0.00000E+00
    0.64902E-07        -0.42755E-09         0.00000E+00
    0.64907E-07        -0.47377E-09         0.00000E+00
    0.64911E-07        -0.51649E-09         0.00000E+00
    0.64916E-07        -0.55580E-09         0.00000E+00
    0.64922E-07        -0.59178E-09         0.00000E+00
    0.64927E-07        -0.62450E-09         0.00000E+00
    0.64933E-07        -0.65402E-09         0.00000E+00
    0.64939E-07        -0.68044E-09         0.00000E+00
    0.64944E-07        -0.70380E-09         0.00000E+00
    0.64950E-07        -0.72419E-09         0.00000E+00
    0.64957E-07        -0.74166E-09         0.00000E+00
    0.64963E-07        -0.75628E-09         0.00000E+00
    0.64969E-07        -0.76812E-09         0.00000E+00
    0.64975E-07        -0.77723E-09         0.00000E+00
    0.64981E-07        -0.78366E-09         0.00000E+00
    0.64987E-07        -0.78749E-09         0.00000E+00
    0.64993E-07        -0.78875E-09         0.00000E+00
    0.64999E-07        -0.78751E-09         0.00000E+00
    0.65005E-07        -0.78381E-09         0.00000E+00
    0.65010E-07        -0.77769E-09         0.00000E+00
    0.65016E-07        -0.76922E-09         0.00000E+00
    0.65021E-07        -0.75842E-09         0.00000E+00
    0.65027E-07        -0.74535E-09         0.00000E+00
    0.65032E-07        -0.73004E-09         0.00000E+00
    0.65036E-07        -0.71252E-09         0.00000E+00
    0.65041E-07        -0.69285E-09         0.00000E+00
    0.65046E-07        -0.67105E-09         0.00000E+00
    0.65050E-07        -0.64715E-09         0.00000E+00
    0.65054E-07        -0.62119E-09         0.00000E+00
    0.65058E-07        -0.59319E-09         0.00000E+00
    0.65062E-07        -0.56318E-09         0.00000E+00
    0.65065E-07        -0.53120E-09         0.00000E+00
    0.65068E-07        -0.49725E-09         0.00000E+00
    0.65071E-07        -0.46137E-09         0.00000E+00
    0.65074E-07        -0.42357E-09         0.00000E+00
    0.65076E-07        -0.38388E-09         0.00000E+00
    0.65079E-07        -0.34230E-09         0.00000E+00
    0.65080E-07        -0.29887E-09         0.00000E+00
    0.65082E-07        -0.25359E-09         0.00000E+00
    0.65083E-07        -0.20647E-09         0.00000E+00
    0.65084E-07        -0.15752E-09         0.00000E+00
    0.65085E-07        -0.10677E-09         0.00000E+00
    0.65086E-07        -0.54209E-10         0.00000E+00
    0.65086E-07        -0.27478E-10         0.00000E+00
    0.67525E-07        -0.38640E-10         0.00000E+00
    0.67526E-07        -0.75798E-10         0.00000E+00
    0.67527E-07        -0.14793E-09         0.00000E+00
    0.67528E-07        -0.21576E-09         0.00000E+00
    0.67530E-07        -0.27938E-09         0.00000E+00
    0.67532E-07        -0.33890E-09         0.00000E+00
    0.67535E-07        -0.39442E-09         0.00000E+00
    0.67538E-07        -0.44605E-09         0.00000E+00
    0.67541E-07        -0.49387E-09         0.00000E+00
    0.67545E-07        -0.53798E-09         0.00000E+00
    0.67548E-07        -0.57848E-09         0.00000E+00
    0.67552E-07        -0.61546E-09         0.00000E+00
    0.67556E-07        -0.64900E-09         0.00000E+00
    0.67560E-07        -0.67920E-09         0.00000E+00
    0.67565E-07        -0.70612E-09         0.00000E+00
    0.67569E-07        -0.72986E-09         0.00000E+00
    0.67573E-07        -0.75049E-09         0.00000E+00
    0.67577E-07        -0.76808E-09         0.00000E+00
    0.67582E-07        -0.78271E-09         0.00000E+00
    0.67586E-07        -0.79446E-09         0.00000E+00
    0.67590E-07        -0.80338E-09         0.00000E+00
    0.67594E-07        -0.80955E-09         0.00000E+00
    0.67598E-07        -0.81302E-09         0.00000E+00
    0.67602E-07        -0.81387E-09         0.00000E+00
    0.67606E-07        -0.81213E-09         0.00000E+00
    0.67610E-07        -0.80788E-09         0.00000E+00
    0.67614E-07        -0.80117E-09         0.00000E+00
    0.67617E-07        -0.79204E-09         0.00000E+00
    0.67621E-07        -0.78054E-09         0.00000E+00
    0.67624E-07        -0.76673E-09         0.00000E+00
    0.67627E-07        -0.75064E-09         0.00000E+00
    0.67630E-07        -0.73231E-09         0.00000E+00
    0.67633E-07        -0.71179E-09         0.00000E+00
    0.67636E-07        -0.68912E-09         0.00000E+00
    0.67638E-07        -0.66432E-09         0.00000E+00
    0.67641E-07        -0.63744E-09         0.00000E+00
    0.67643E-07        -0.60849E-09         0.00000E+00
    0.67645E-07        -0.57752E-09         0.00000E+00
    0.67647E-07        -0.54455E-09         0.00000E+00
    0.67649E-07        -0.50960E-09         0.00000E+00
    0.67651E-07        -0.47269E-09         0.00000E+00
    0.67652E-07        -0.43385E-09         0.00000E+00
    0.67654E-07        -0.39309E-09         0.00000E+00
    0.67655E-07        -0.35044E-09         0.00000E+00
    0.67656E-07        -0.30591E-09         0.00000E+00
    0.67657E-07        -0.25951E-09         0.00000E+00
    0.67657E-07        -0.21125E-09         0.00000E+00
    0.67658E-07        -0.16115E-09         0.00000E+00
    0.67658E-07        -0.10921E-09         0.00000E+00
    0.67659E-07        -0.55439E-10         0.00000E+00
    0.67659E-07        -0.28099E-10         0.00000E+00
    0.70160E-07        -0.39997E-10         0.00000E+00
    0.70160E-07        -0.78411E-10         0.00000E+00
    0.70161E-07        -0.15291E-09         0.00000E+00
    0.70162E-07        -0.22283E-09         0.00000E+00
    0.70163E-07        -0.28828E-09         0.00000E+00
    0.70164E-07        -0.34939E-09         0.00000E+00
    0.70166E-07        -0.40628E-09         0.00000E+00
    0.70168E-07        -0.45906E-09         0.00000E+00
    0.70170E-07        -0.50785E-09         0.00000E+00
    0.70172E-07        -0.55276E-09         0.00000E+00
    0.70174E-07        -0.59389E-09         0.00000E+00
    0.70176E-07        -0.63134E-09         0.00000E+00
    0.70179E-07        -0.66523E-09         0.00000E+00
    0.70181E-07        -0.69564E-09         0.00000E+00
    0.70183E-07        -0.72268E-09         0.00000E+00
    0.70185E-07        -0.74642E-09         0.00000E+00
    0.70188E-07        -0.76697E-09         0.00000E+00
    0.70190E-07        -0.78440E-09         0.00000E+00
    0.70192E-07        -0.79880E-09         0.00000E+00
    0.70194E-07        -0.81025E-09         0.00000E+00
    0.70195E-07        -0.81882E-09         0.00000E+00
    0.70197E-07        -0.82459E-09         0.00000E+00
    0.70199E-07        -0.82762E-09         0.00000E+00
    0.70200E-07        -0.82799E-09         0.00000E+00
    0.70202E-07        -0.82575E-09         0.00000E+00
    0.70203E-07        -0.82097E-09         0.00000E+00
    0.70205E-07        -0.81371E-09         0.00000E+00
    0.70206E-07        -0.80402E-09         0.00000E+00
    0.70207E-07        -0.79196E-09         0.00000E+00
    0.70208E-07        -0.77757E-09         0.00000E+00
    0.70209E-07        -0.76090E-09         0.00000E+00
    0.70210E-07        -0.74200E-09         0.00000E+00
    0.70210E-07        -0.72090E-09         0.00000E+00
    0.70211E-07        -0.69766E-09         0.00000E+00
    0.70211E-07        -0.67230E-09         0.00000E+00
    0.70212E-07        -0.64485E-09         0.00000E+00
    0.70212E-07        -0.61536E-09         0.00000E+00
    0.70213E-07        -0.58385E-09         0.00000E+00
    0.70213E-07        -0.55034E-09         0.00000E+00
    0.70213E-07        -0.51487E-09         0.00000E+00
    0.70213E-07        -0.47745E-09         0.00000E+00
    0.70214E-07        -0.43811E-09         0.00000E+00
    0.70214E-07        -0.39686E-09         0.00000E+00
    0.70214E-07        -0.35372E-09         0.00000E+00
    0.70214E-07        -0.30871E-09         0.00000E+00
    0.70214E-07        -0.26184E-09         0.00000E+00
    0.70214E-07        -0.21311E-09         0.00000E+00
    0.70214E-07        -0.16254E-09         0.00000E+00
    0.70214E-07        -0.11014E-09         0.00000E+00
    0.70214E-07        -0.55908E-10         0.00000E+00
    0.70214E-07        -0.28334E-10         0.00000E+00
    0.72772E-07        -0.40803E-10         0.00000E+00
    0.72772E-07        -0.79939E-10         0.00000E+00
    0.72773E-07        -0.15576E-09         0.00000E+00
    0.72773E-07        -0.22677E-09         0.00000E+00
    0.72773E-07        -0.29310E-09         0.00000E+00
    0.72774E-07        -0.35489E-09         0.00000E+00
    0.72774E-07        -0.41229E-09         0.00000E+00
    0.72775E-07        -0.46542E-09         0.00000E+00
    0.72775E-07        -0.51442E-09         0.00000E+00
    0.72776E-07        -0.55941E-09         0.00000E+00
    0.72776E-07        -0.60050E-09         0.00000E+00
    0.72776E-07        -0.63783E-09         0.00000E+00
    0.72776E-07        -0.67150E-09         0.00000E+00
    0.72777E-07        -0.70162E-09         0.00000E+00
    0.72776E-07        -0.72830E-09         0.00000E+00
    0.72776E-07        -0.75163E-09         0.00000E+00
    0.72776E-07        -0.77173E-09         0.00000E+00
    0.72775E-07        -0.78868E-09         0.00000E+00
    0.72775E-07        -0.80257E-09         0.00000E+00
    0.72774E-07        -0.81350E-09         0.00000E+00
    0.72773E-07        -0.82154E-09         0.00000E+00
    0.72772E-07        -0.82677E-09         0.00000E+00
    0.72771E-07        -0.82927E-09         0.00000E+00
    0.72770E-07        -0.82912E-09         0.00000E+00
    0.72769E-07        -0.82638E-09         0.00000E+00
    0.72767E-07        -0.82112E-09         0.00000E+00
    0.72766E-07        -0.81340E-09         0.00000E+00
    0.72764E-07        -0.80328E-09         0.00000E+00
    0.72762E-07        -0.79081E-09         0.00000E+00
    0.72761E-07        -0.77605E-09         0.00000E+00
    0.72759E-07        -0.75906E-09         0.00000E+00
    0.72757E-07        -0.73986E-09         0.00000E+00
    0.72755E-07        -0.71852E-09         0.00000E+00
    0.72754E-07        -0.69507E-09         0.00000E+00
    0.72752E-07        -0.66954E-09         0.00000E+00
    0.72750E-07        -0.64197E-09         0.00000E+00
    0.72748E-07        -0.61240E-09         0.00000E+00
    0.72747E-07        -0.58085E-09         0.00000E+00
    0.72745E-07        -0.54735E-09         0.00000E+00
    0.72743E-07        -0.51193E-09         0.00000E+00
    0.72742E-07        -0.47460E-09         0.00000E+00
    0.72741E-07        -0.43539E-09         0.00000E+00
    0.72739E-07        -0.39431E-09         0.00000E+00
    0.72738E-07        -0.35138E-09         0.00000E+00
    0.72737E-07        -0.30662E-09         0.00000E+00
    0.72736E-07        -0.26002E-09         0.00000E+00
    0.72735E-07        -0.21161E-09         0.00000E+00
    0.72735E-07        -0.16138E-09         0.00000E+00
    0.72734E-07        -0.10934E-09         0.00000E+00
    0.72734E-07        -0.55497E-10         0.00000E+00
    0.72734E-07        -0.28125E-10         0.00000E+00
    0.75343E-07        -0.40951E-10         0.00000E+00
    0.75343E-07        -0.80168E-10         0.00000E+00
    0.75343E-07        -0.15607E-09         0.00000E+00
    0.75343E-07        -0.22697E-09         0.00000E+00
    0.75342E-07        -0.29306E-09         0.00000E+00
    0.75341E-07        -0.35447E-09         0.00000E+00
    0.75341E-07        -0.41137E-09         0.00000E+00
    0.75339E-07        -0.46391E-09         0.00000E+00
    0.75338E-07        -0.51223E-09         0.00000E+00
    0.75337E-07        -0.55648E-09         0.00000E+00
    0.75335E-07        -0.59678E-09         0.00000E+00
    0.75333E-07        -0.63328E-09         0.00000E+00
    0.75330E-07        -0.66609E-09         0.00000E+00
    0.75328E-07        -0.69533E-09         0.00000E+00
    0.75325E-07        -0.72113E-09         0.00000E+00
    0.75322E-07        -0.74360E-09         0.00000E+00
    0.75319E-07        -0.76284E-09         0.00000E+00
    0.75315E-07        -0.77895E-09         0.00000E+00
    0.75312E-07        -0.79204E-09         0.00000E+00
    0.75308E-07        -0.80220E-09         0.00000E+00
    0.75304E-07        -0.80952E-09         0.00000E+00
    0.75300E-07        -0.81408E-09         0.00000E+00
    0.75295E-07        -0.81597E-09         0.00000E+00
    0.75291E-07        -0.81527E-09         0.00000E+00
    0.75287E-07        -0.81204E-09         0.00000E+00
    0.75282E-07        -0.80637E-09         0.00000E+00
    0.75277E-07        -0.79830E-09         0.00000E+00
    0.75273E-07        -0.78791E-09         0.00000E+00
    0.75268E-07        -0.77526E-09         0.00000E+00
    0.75263E-07        -0.76039E-09         0.00000E+00
    0.75258E-07        -0.74336E-09         0.00000E+00
    0.75254E-07        -0.72422E-09         0.00000E+00
    0.75249E-07        -0.70301E-09         0.00000E+00
    0.75245E-07        -0.67978E-09         0.00000E+00
    0.75240E-07        -0.65455E-09         0.00000E+00
    0.75236E-07        -0.62736E-09         0.00000E+00
    0.75232E-07        -0.59826E-09         0.00000E+00
    0.75228E-07        -0.56725E-09         0.00000E+00
    0.75224E-07        -0.53438E-09         0.00000E+00
    0.75220E-07        -0.49966E-09         0.00000E+00
    0.75217E-07        -0.46312E-09         0.00000E+00
    0.75214E-07        -0.42476E-09         0.00000E+00
    0.75211E-07        -0.38461E-09         0.00000E+00
    0.75208E-07        -0.34268E-09         0.00000E+00
    0.75206E-07        -0.29898E-09         0.00000E+00
    0.75204E-07        -0.25351E-09         0.00000E+00
    0.75202E-07        -0.20629E-09         0.00000E+00
    0.75201E-07        -0.15731E-09         0.00000E+00
    0.75200E-07        -0.10658E-09         0.00000E+00
    0.75200E-07        -0.54094E-10         0.00000E+00
    0.75199E-07        -0.27413E-10         0.00000E+00
    0.77852E-07        -0.40328E-10         0.00000E+00
    0.77851E-07        -0.78882E-10         0.00000E+00
    0.77851E-07        -0.15340E-09         0.00000E+00
    0.77850E-07        -0.22283E-09         0.00000E+00
    0.77848E-07        -0.28737E-09         0.00000E+00
    0.77846E-07        -0.34718E-09         0.00000E+00
    0.77844E-07        -0.40243E-09         0.00000E+00
    0.77841E-07        -0.45331E-09         0.00000E+00
    0.77837E-07        -0.49995E-09         0.00000E+00
    0.77833E-07        -0.54253E-09         0.00000E+00
    0.77829E-07        -0.58119E-09         0.00000E+00
    0.77825E-07        -0.61606E-09         0.00000E+00
    0.77820E-07        -0.64730E-09         0.00000E+00
    0.77814E-07        -0.67503E-09         0.00000E+00
    0.77808E-07        -0.69937E-09         0.00000E+00
    0.77802E-07        -0.72045E-09         0.00000E+00
    0.77796E-07        -0.73839E-09         0.00000E+00
    0.77789E-07        -0.75329E-09         0.00000E+00
    0.77782E-07        -0.76527E-09         0.00000E+00
    0.77775E-07        -0.77441E-09         0.00000E+00
    0.77767E-07        -0.78082E-09         0.00000E+00
    0.77759E-07        -0.78458E-09         0.00000E+00
    0.77752E-07        -0.78579E-09         0.00000E+00
    0.77744E-07        -0.78452E-09         0.00000E+00
    0.77736E-07        -0.78085E-09         0.00000E+00
    0.77727E-07        -0.77486E-09         0.00000E+00
    0.77719E-07        -0.76660E-09         0.00000E+00
    0.77711E-07        -0.75614E-09         0.00000E+00
    0.77703E-07        -0.74355E-09         0.00000E+00
    0.77695E-07        -0.72888E-09         0.00000E+00
    0.77687E-07        -0.71217E-09         0.00000E+00
    0.77679E-07        -0.69348E-09         0.00000E+00
    0.77671E-07        -0.67285E-09         0.00000E+00
    0.77664E-07        -0.65032E-09         0.00000E+00
    0.77656E-07        -0.62593E-09         0.00000E+00
    0.77649E-07        -0.59970E-09         0.00000E+00
    0.77642E-07        -0.57168E-09         0.00000E+00
    0.77636E-07        -0.54188E-09         0.00000E+00
    0.77630E-07        -0.51033E-09         0.00000E+00
    0.77624E-07        -0.47705E-09         0.00000E+00
    0.77618E-07        -0.44206E-09         0.00000E+00
    0.77613E-07        -0.40537E-09         0.00000E+00
    0.77609E-07        -0.36699E-09         0.00000E+00
    0.77605E-07        -0.32694E-09         0.00000E+00
    0.77601E-07        -0.28521E-09         0.00000E+00
    0.77598E-07        -0.24182E-09         0.00000E+00
    0.77595E-07        -0.19676E-09         0.00000E+00
    0.77593E-07        -0.15004E-09         0.00000E+00
    0.77592E-07        -0.10166E-09         0.00000E+00
    0.77591E-07        -0.51597E-10         0.00000E+00
    0.77590E-07        -0.26149E-10         0.00000E+00
    0.80275E-07        -0.38823E-10         0.00000E+00
    0.80275E-07        -0.75864E-10         0.00000E+00
    0.80274E-07        -0.14735E-09         0.00000E+00
    0.80272E-07        -0.21375E-09         0.00000E+00
    0.80269E-07        -0.27526E-09         0.00000E+00
    0.80265E-07        -0.33209E-09         0.00000E+00
    0.80261E-07        -0.38441E-09         0.00000E+00
    0.80256E-07        -0.43242E-09         0.00000E+00
    0.80251E-07        -0.47628E-09         0.00000E+00
    0.80244E-07        -0.51616E-09         0.00000E+00
    0.80237E-07        -0.55223E-09         0.00000E+00
    0.80230E-07        -0.58463E-09         0.00000E+00
    0.80222E-07        -0.61352E-09         0.00000E+00
    0.80213E-07        -0.63903E-09         0.00000E+00
    0.80204E-07        -0.66130E-09         0.00000E+00
    0.80194E-07        -0.68046E-09         0.00000E+00
    0.80184E-07        -0.69663E-09         0.00000E+00
    0.80174E-07        -0.70993E-09         0.00000E+00
    0.80163E-07        -0.72046E-09         0.00000E+00
    0.80152E-07        -0.72834E-09         0.00000E+00
    0.80141E-07        -0.73365E-09         0.00000E+00
    0.80129E-07        -0.73650E-09         0.00000E+00
    0.80117E-07        -0.73697E-09         0.00000E+00
    0.80105E-07        -0.73515E-09         0.00000E+00
    0.80094E-07        -0.73111E-09         0.00000E+00
    0.80082E-07        -0.72492E-09         0.00000E+00
    0.80070E-07        -0.71666E-09         0.00000E+00
    0.80058E-07        -0.70638E-09         0.00000E+00
    0.80046E-07        -0.69415E-09         0.00000E+00
    0.80034E-07        -0.68002E-09         0.00000E+00
    0.80023E-07        -0.66404E-09         0.00000E+00
    0.80011E-07        -0.64625E-09         0.00000E+00
    0.80000E-07        -0.62670E-09         0.00000E+00
    0.79989E-07        -0.60543E-09         0.00000E+00
    0.79979E-07        -0.58247E-09         0.00000E+00
    0.79969E-07        -0.55784E-09         0.00000E+00
    0.79959E-07        -0.53158E-09         0.00000E+00
    0.79950E-07        -0.50371E-09         0.00000E+00
    0.79941E-07        -0.47425E-09         0.00000E+00
    0.79933E-07        -0.44322E-09         0.00000E+00
    0.79925E-07        -0.41062E-09         0.00000E+00
    0.79918E-07        -0.37648E-09         0.00000E+00
    0.79912E-07        -0.34079E-09         0.00000E+00
    0.79906E-07        -0.30357E-09         0.00000E+00
    0.79901E-07        -0.26481E-09         0.00000E+00
    0.79896E-07        -0.22452E-09         0.00000E+00
    0.79893E-07        -0.18269E-09         0.00000E+00
    0.79890E-07        -0.13932E-09         0.00000E+00
    0.79888E-07        -0.94399E-10         0.00000E+00
    0.79886E-07        -0.47919E-10         0.00000E+00
    0.79886E-07        -0.24288E-10         0.00000E+00
    0.82591E-07        -0.36331E-10         0.00000E+00
    0.82590E-07        -0.70909E-10         0.00000E+00
    0.82588E-07        -0.13752E-09         0.00000E+00
    0.82585E-07        -0.19915E-09         0.00000E+00
    0.82581E-07        -0.25602E-09         0.00000E+00
    0.82576E-07        -0.30835E-09         0.00000E+00
    0.82570E-07        -0.35633E-09         0.00000E+00
    0.82563E-07        -0.40016E-09         0.00000E+00
    0.82554E-07        -0.44003E-09         0.00000E+00
    0.82545E-07        -0.47612E-09         0.00000E+00
    0.82535E-07        -0.50858E-09         0.00000E+00
    0.82525E-07        -0.53760E-09         0.00000E+00
    0.82513E-07        -0.56331E-09         0.00000E+00
    0.82501E-07        -0.58588E-09         0.00000E+00
    0.82488E-07        -0.60544E-09         0.00000E+00
    0.82475E-07        -0.62212E-09         0.00000E+00
    0.82461E-07        -0.63605E-09         0.00000E+00
    0.82447E-07        -0.64734E-09         0.00000E+00
    0.82432E-07        -0.65612E-09         0.00000E+00
    0.82417E-07        -0.66249E-09         0.00000E+00
    0.82402E-07        -0.66654E-09         0.00000E+00
    0.82386E-07        -0.66838E-09         0.00000E+00
    0.82370E-07        -0.66809E-09         0.00000E+00
    0.82354E-07        -0.66575E-09         0.00000E+00
    0.82338E-07        -0.66144E-09         0.00000E+00
    0.82322E-07        -0.65523E-09         0.00000E+00
    0.82306E-07        -0.64719E-09         0.00000E+00
    0.82290E-07        -0.63738E-09         0.00000E+00
    0.82275E-07        -0.62585E-09         0.00000E+00
    0.82259E-07        -0.61266E-09         0.00000E+00
    0.82244E-07        -0.59786E-09         0.00000E+00
    0.82229E-07        -0.58147E-09         0.00000E+00
    0.82214E-07        -0.56356E-09         0.00000E+00
    0.82200E-07        -0.54414E-09         0.00000E+00
    0.82186E-07        -0.52325E-09         0.00000E+00
    0.82173E-07        -0.50091E-09         0.00000E+00
    0.82160E-07        -0.47716E-09         0.00000E+00
    0.82148E-07        -0.45199E-09         0.00000E+00
    0.82137E-07        -0.42544E-09         0.00000E+00
    0.82126E-07        -0.39752E-09         0.00000E+00
    0.82116E-07        -0.36822E-09         0.00000E+00
    0.82107E-07        -0.33756E-09         0.00000E+00
    0.82099E-07        -0.30554E-09         0.00000E+00
    0.82091E-07        -0.27217E-09         0.00000E+00
    0.82084E-07        -0.23742E-09         0.00000E+00
    0.82079E-07        -0.20132E-09         0.00000E+00
    0.82074E-07        -0.16383E-09         0.00000E+00
    0.82070E-07        -0.12496E-09         0.00000E+00
    0.82067E-07        -0.84686E-10         0.00000E+00
    0.82066E-07        -0.42998E-10         0.00000E+00
    0.82065E-07        -0.21799E-10         0.00000E+00
    0.84772E-07        -0.32758E-10         0.00000E+00
    0.84771E-07        -0.63834E-10         0.00000E+00
    0.84769E-07        -0.12356E-09         0.00000E+00
    0.84765E-07        -0.17854E-09         0.00000E+00
    0.84759E-07        -0.22903E-09         0.00000E+00
    0.84753E-07        -0.27523E-09         0.00000E+00
    0.84744E-07        -0.31736E-09         0.00000E+00
    0.84735E-07        -0.35563E-09         0.00000E+00
    0.84724E-07        -0.39024E-09         0.00000E+00
    0.84712E-07        -0.42136E-09         0.00000E+00
    0.84699E-07        -0.44918E-09         0.00000E+00
    0.84685E-07        -0.47387E-09         0.00000E+00
    0.84670E-07        -0.49557E-09         0.00000E+00
    0.84654E-07        -0.51446E-09         0.00000E+00
    0.84638E-07        -0.53065E-09         0.00000E+00
    0.84620E-07        -0.54430E-09         0.00000E+00
    0.84602E-07        -0.55552E-09         0.00000E+00
    0.84584E-07        -0.56445E-09         0.00000E+00
    0.84565E-07        -0.57118E-09         0.00000E+00
    0.84546E-07        -0.57583E-09         0.00000E+00
    0.84526E-07        -0.57848E-09         0.00000E+00
    0.84506E-07        -0.57925E-09         0.00000E+00
    0.84486E-07        -0.57820E-09         0.00000E+00
    0.84466E-07        -0.57543E-09         0.00000E+00
    0.84446E-07        -0.57099E-09         0.00000E+00
    0.84426E-07        -0.56497E-09         0.00000E+00
    0.84406E-07        -0.55742E-09         0.00000E+00
    0.84386E-07        -0.54840E-09         0.00000E+00
    0.84366E-07        -0.53796E-09         0.00000E+00
    0.84347E-07        -0.52615E-09         0.00000E+00
    0.84328E-07        -0.51301E-09         0.00000E+00
    0.84309E-07        -0.49857E-09         0.00000E+00
    0.84291E-07        -0.48288E-09         0.00000E+00
    0.84273E-07        -0.46595E-09         0.00000E+00
    0.84256E-07        -0.44782E-09         0.00000E+00
    0.84240E-07        -0.42850E-09         0.00000E+00
    0.84224E-07        -0.40801E-09         0.00000E+00
    0.84209E-07        -0.38637E-09         0.00000E+00
    0.84195E-07        -0.36358E-09         0.00000E+00
    0.84182E-07        -0.33965E-09         0.00000E+00
    0.84170E-07        -0.31458E-09         0.00000E+00
    0.84158E-07        -0.28838E-09         0.00000E+00
    0.84148E-07        -0.26103E-09         0.00000E+00
    0.84139E-07        -0.23254E-09         0.00000E+00
    0.84131E-07        -0.20289E-09         0.00000E+00
    0.84124E-07        -0.17207E-09         0.00000E+00
    0.84118E-07        -0.14008E-09         0.00000E+00
    0.84113E-07        -0.10688E-09         0.00000E+00
    0.84110E-07        -0.72462E-10         0.00000E+00
    0.84108E-07        -0.36809E-10         0.00000E+00
    0.84107E-07        -0.18669E-10         0.00000E+00
    0.86795E-07        -0.28026E-10         0.00000E+00
    0.86794E-07        -0.54496E-10         0.00000E+00
    0.86790E-07        -0.10520E-09         0.00000E+00
    0.86785E-07        -0.15155E-09         0.00000E+00
    0.86778E-07        -0.19380E-09         0.00000E+00
    0.86770E-07        -0.23218E-09         0.00000E+00
    0.86759E-07        -0.26691E-09         0.00000E+00
    0.86747E-07        -0.29820E-09         0.00000E+00
    0.86734E-07        -0.32625E-09         0.00000E+00
    0.86719E-07        -0.35125E-09         0.00000E+00
    0.86702E-07        -0.37337E-09         0.00000E+00
    0.86685E-07        -0.39279E-09         0.00000E+00
    0.86666E-07        -0.40967E-09         0.00000E+00
    0.86647E-07        -0.42415E-09         0.00000E+00
    0.86627E-07        -0.43638E-09         0.00000E+00
    0.86605E-07        -0.44648E-09         0.00000E+00
    0.86584E-07        -0.45458E-09         0.00000E+00
    0.86561E-07        -0.46080E-09         0.00000E+00
    0.86538E-07        -0.46524E-09         0.00000E+00
    0.86515E-07        -0.46800E-09         0.00000E+00
    0.86491E-07        -0.46918E-09         0.00000E+00
    0.86467E-07        -0.46886E-09         0.00000E+00
    0.86443E-07        -0.46712E-09         0.00000E+00
    0.86418E-07        -0.46403E-09         0.00000E+00
    0.86394E-07        -0.45967E-09         0.00000E+00
    0.86370E-07        -0.45408E-09         0.00000E+00
    0.86346E-07        -0.44733E-09         0.00000E+00
    0.86322E-07        -0.43946E-09         0.00000E+00
    0.86298E-07        -0.43053E-09         0.00000E+00
    0.86275E-07        -0.42057E-09         0.00000E+00
    0.86253E-07        -0.40961E-09         0.00000E+00
    0.86230E-07        -0.39768E-09         0.00000E+00
    0.86209E-07        -0.38482E-09         0.00000E+00
    0.86188E-07        -0.37104E-09         0.00000E+00
    0.86168E-07        -0.35635E-09         0.00000E+00
    0.86148E-07        -0.34079E-09         0.00000E+00
    0.86130E-07        -0.32434E-09         0.00000E+00
    0.86112E-07        -0.30703E-09         0.00000E+00
    0.86095E-07        -0.28885E-09         0.00000E+00
    0.86080E-07        -0.26981E-09         0.00000E+00
    0.86065E-07        -0.24989E-09         0.00000E+00
    0.86052E-07        -0.22909E-09         0.00000E+00
    0.86040E-07        -0.20741E-09         0.00000E+00
    0.86029E-07        -0.18483E-09         0.00000E+00
    0.86019E-07        -0.16133E-09         0.00000E+00
    0.86011E-07        -0.13689E-09         0.00000E+00
    0.86004E-07        -0.11151E-09         0.00000E+00
    0.85998E-07        -0.85140E-10         0.00000E+00
    0.85995E-07        -0.57771E-10         0.00000E+00
    0.85992E-07        -0.29370E-10         0.00000E+00
    0.85991E-07        -0.14909E-10         0.00000E+00
    0.88631E-07        -0.22090E-10         0.00000E+00
    0.88630E-07        -0.42808E-10         0.00000E+00
    0.88626E-07        -0.82288E-10         0.00000E+00
    0.88620E-07        -0.11798E-09         0.00000E+00
    0.88611E-07        -0.15014E-09         0.00000E+00
    0.88601E-07        -0.17899E-09         0.00000E+00
    0.88588E-07        -0.20476E-09         0.00000E+00
    0.88574E-07        -0.22767E-09         0.00000E+00
    0.88557E-07        -0.24790E-09         0.00000E+00
    0.88539E-07        -0.26565E-09         0.00000E+00
    0.88520E-07        -0.28109E-09         0.00000E+00
    0.88499E-07        -0.29438E-09         0.00000E+00
    0.88477E-07        -0.30568E-09         0.00000E+00
    0.88454E-07        -0.31512E-09         0.00000E+00
    0.88430E-07        -0.32284E-09         0.00000E+00
    0.88405E-07        -0.32897E-09         0.00000E+00
    0.88380E-07        -0.33361E-09         0.00000E+00
    0.88353E-07        -0.33687E-09         0.00000E+00
    0.88326E-07        -0.33886E-09         0.00000E+00
    0.88299E-07        -0.33965E-09         0.00000E+00
    0.88271E-07        -0.33934E-09         0.00000E+00
    0.88243E-07        -0.33800E-09         0.00000E+00
    0.88215E-07        -0.33569E-09         0.00000E+00
    0.88187E-07        -0.33247E-09         0.00000E+00
    0.88159E-07        -0.32842E-09         0.00000E+00
    0.88131E-07        -0.32356E-09         0.00000E+00
    0.88104E-07        -0.31796E-09         0.00000E+00
    0.88076E-07        -0.31165E-09         0.00000E+00
    0.88049E-07        -0.30466E-09         0.00000E+00
    0.88023E-07        -0.29702E-09         0.00000E+00
    0.87997E-07        -0.28876E-09         0.00000E+00
    0.87971E-07        -0.27991E-09         0.00000E+00
    0.87947E-07        -0.27047E-09         0.00000E+00
    0.87923E-07        -0.26047E-09         0.00000E+00
    0.87900E-07        -0.24991E-09         0.00000E+00
    0.87878E-07        -0.23879E-09         0.00000E+00
    0.87857E-07        -0.22713E-09         0.00000E+00
    0.87837E-07        -0.21491E-09         0.00000E+00
    0.87818E-07        -0.20214E-09         0.00000E+00
    0.87800E-07        -0.18881E-09         0.00000E+00
    0.87783E-07        -0.17490E-09         0.00000E+00
    0.87768E-07        -0.16040E-09         0.00000E+00
    0.87754E-07        -0.14531E-09         0.00000E+00
    0.87742E-07        -0.12959E-09         0.00000E+00
    0.87731E-07        -0.11322E-09         0.00000E+00
    0.87721E-07        -0.96183E-10         0.00000E+00
    0.87714E-07        -0.78451E-10         0.00000E+00
    0.87707E-07        -0.59992E-10         0.00000E+00
    0.87703E-07        -0.40775E-10         0.00000E+00
    0.87700E-07        -0.20766E-10         0.00000E+00
    0.87699E-07        -0.10559E-10         0.00000E+00
    0.90255E-07        -0.14944E-10         0.00000E+00
    0.90253E-07        -0.28769E-10         0.00000E+00
    0.90249E-07        -0.54841E-10         0.00000E+00
    0.90242E-07        -0.77882E-10         0.00000E+00
    0.90232E-07        -0.98139E-10         0.00000E+00
    0.90219E-07        -0.11584E-09         0.00000E+00
    0.90205E-07        -0.13121E-09         0.00000E+00
    0.90188E-07        -0.14444E-09         0.00000E+00
    0.90169E-07        -0.15572E-09         0.00000E+00
    0.90148E-07        -0.16523E-09         0.00000E+00
    0.90126E-07        -0.17313E-09         0.00000E+00
    0.90102E-07        -0.17956E-09         0.00000E+00
    0.90077E-07        -0.18467E-09         0.00000E+00
    0.90051E-07        -0.18859E-09         0.00000E+00
    0.90024E-07        -0.19142E-09         0.00000E+00
    0.89996E-07        -0.19328E-09         0.00000E+00
    0.89967E-07        -0.19426E-09         0.00000E+00
    0.89937E-07        -0.19446E-09         0.00000E+00
    0.89907E-07        -0.19395E-09         0.00000E+00
    0.89876E-07        -0.19281E-09         0.00000E+00
    0.89845E-07        -0.19110E-09         0.00000E+00
    0.89814E-07        -0.18888E-09         0.00000E+00
    0.89782E-07        -0.18621E-09         0.00000E+00
    0.89751E-07        -0.18313E-09         0.00000E+00
    0.89720E-07        -0.17968E-09         0.00000E+00
    0.89689E-07        -0.17590E-09         0.00000E+00
    0.89658E-07        -0.17181E-09         0.00000E+00
    0.89628E-07        -0.16746E-09         0.00000E+00
    0.89598E-07        -0.16285E-09         0.00000E+00
    0.89569E-07        -0.15802E-09         0.00000E+00
    0.89541E-07        -0.15296E-09         0.00000E+00
    0.89513E-07        -0.14770E-09         0.00000E+00
    0.89486E-07        -0.14223E-09         0.00000E+00
    0.89459E-07        -0.13657E-09         0.00000E+00
    0.89434E-07        -0.13072E-09         0.00000E+00
    0.89410E-07        -0.12467E-09         0.00000E+00
    0.89387E-07        -0.11842E-09         0.00000E+00
    0.89365E-07        -0.11195E-09         0.00000E+00
    0.89344E-07        -0.10527E-09         0.00000E+00
    0.89325E-07        -0.98347E-10         0.00000E+00
    0.89307E-07        -0.91174E-10         0.00000E+00
    0.89290E-07        -0.83729E-10         0.00000E+00
    0.89275E-07        -0.75990E-10         0.00000E+00
    0.89261E-07        -0.67932E-10         0.00000E+00
    0.89249E-07        -0.59527E-10         0.00000E+00
    0.89239E-07        -0.50746E-10         0.00000E+00
    0.89230E-07        -0.41555E-10         0.00000E+00
    0.89224E-07        -0.31919E-10         0.00000E+00
    0.89219E-07        -0.21799E-10         0.00000E+00
    0.89216E-07        -0.11157E-10         0.00000E+00
    0.89215E-07        -0.57000E-11         0.00000E+00
    0.91639E-07        -0.66429E-11         0.00000E+00
    0.91637E-07        -0.12497E-10         0.00000E+00
    0.91632E-07        -0.23117E-10         0.00000E+00
    0.91623E-07        -0.31681E-10         0.00000E+00
    0.91612E-07        -0.38422E-10         0.00000E+00
    0.91598E-07        -0.43555E-10         0.00000E+00
    0.91582E-07        -0.47277E-10         0.00000E+00
    0.91563E-07        -0.49771E-10         0.00000E+00
    0.91542E-07        -0.51203E-10         0.00000E+00
    0.91519E-07        -0.51725E-10         0.00000E+00
    0.91495E-07        -0.51473E-10         0.00000E+00
    0.91469E-07        -0.50575E-10         0.00000E+00
    0.91441E-07        -0.49141E-10         0.00000E+00
    0.91412E-07        -0.47274E-10         0.00000E+00
    0.91383E-07        -0.45063E-10         0.00000E+00
    0.91352E-07        -0.42591E-10         0.00000E+00
    0.91320E-07        -0.39927E-10         0.00000E+00
    0.91288E-07        -0.37136E-10         0.00000E+00
    0.91256E-07        -0.34273E-10         0.00000E+00
    0.91223E-07        -0.31386E-10         0.00000E+00
    0.91189E-07        -0.28518E-10         0.00000E+00
    0.91156E-07        -0.25704E-10         0.00000E+00
    0.91123E-07        -0.22976E-10         0.00000E+00
    0.91089E-07        -0.20358E-10         0.00000E+00
    0.91056E-07        -0.17873E-10         0.00000E+00
    0.91024E-07        -0.15538E-10         0.00000E+00
    0.90991E-07        -0.13368E-10         0.00000E+00
    0.90959E-07        -0.11372E-10         0.00000E+00
    0.90928E-07        -0.95582E-11         0.00000E+00
    0.90897E-07        -0.79313E-11         0.00000E+00
    0.90867E-07        -0.64933E-11         0.00000E+00
    0.90837E-07        -0.52439E-11         0.00000E+00
    0.90809E-07        -0.41802E-11         0.00000E+00
    0.90782E-07        -0.32972E-11         0.00000E+00
    0.90755E-07        -0.25876E-11         0.00000E+00
    0.90730E-07        -0.20419E-11         0.00000E+00
    0.90705E-07        -0.16485E-11         0.00000E+00
    0.90682E-07        -0.13934E-11         0.00000E+00
    0.90661E-07        -0.12605E-11         0.00000E+00
    0.90640E-07        -0.12314E-11         0.00000E+00
    0.90621E-07        -0.12852E-11         0.00000E+00
    0.90604E-07        -0.13986E-11         0.00000E+00
    0.90588E-07        -0.15459E-11         0.00000E+00
    0.90574E-07        -0.16987E-11         0.00000E+00
    0.90561E-07        -0.18260E-11         0.00000E+00
    0.90550E-07        -0.18941E-11         0.00000E+00
    0.90541E-07        -0.18666E-11         0.00000E+00
    0.90534E-07        -0.17042E-11         0.00000E+00
    0.90529E-07        -0.13648E-11         0.00000E+00
    0.90526E-07        -0.80379E-12         0.00000E+00
    0.90525E-07        -0.46207E-12         0.00000E+00
    0.92755E-07         0.26758E-11         0.00000E+00
    0.92753E-07         0.57232E-11         0.00000E+00
    0.92747E-07         0.12291E-10         0.00000E+00
    0.92738E-07         0.19696E-10         0.00000E+00
    0.92726E-07         0.27734E-10         0.00000E+00
    0.92711E-07         0.36222E-10         0.00000E+00
    0.92693E-07         0.44994E-10         0.00000E+00
    0.92673E-07         0.53904E-10         0.00000E+00
    0.92651E-07         0.62821E-10         0.00000E+00
    0.92626E-07         0.71634E-10         0.00000E+00
    0.92600E-07         0.80242E-10         0.00000E+00
    0.92573E-07         0.88561E-10         0.00000E+00
    0.92544E-07         0.96518E-10         0.00000E+00
    0.92514E-07         0.10405E-09         0.00000E+00
    0.92483E-07         0.11111E-09         0.00000E+00
    0.92451E-07         0.11766E-09         0.00000E+00
    0.92419E-07         0.12365E-09         0.00000E+00
    0.92386E-07         0.12908E-09         0.00000E+00
    0.92352E-07         0.13390E-09         0.00000E+00
    0.92319E-07         0.13812E-09         0.00000E+00
    0.92285E-07         0.14172E-09         0.00000E+00
    0.92251E-07         0.14470E-09         0.00000E+00
    0.92217E-07         0.14706E-09         0.00000E+00
    0.92184E-07         0.14879E-09         0.00000E+00
    0.92151E-07         0.14990E-09         0.00000E+00
    0.92118E-07         0.15040E-09         0.00000E+00
    0.92085E-07         0.15029E-09         0.00000E+00
    0.92053E-07         0.14958E-09         0.00000E+00
    0.92022E-07         0.14828E-09         0.00000E+00
    0.91991E-07         0.14640E-09         0.00000E+00
    0.91961E-07         0.14395E-09         0.00000E+00
    0.91932E-07         0.14094E-09         0.00000E+00
    0.91904E-07         0.13738E-09         0.00000E+00
    0.91877E-07         0.13329E-09         0.00000E+00
    0.91850E-07         0.12867E-09         0.00000E+00
    0.91825E-07         0.12355E-09         0.00000E+00
    0.91801E-07         0.11794E-09         0.00000E+00
    0.91778E-07         0.11185E-09         0.00000E+00
    0.91757E-07         0.10530E-09         0.00000E+00
    0.91737E-07         0.98307E-10         0.00000E+00
    0.91718E-07         0.90897E-10         0.00000E+00
    0.91700E-07         0.83091E-10         0.00000E+00
    0.91684E-07         0.74912E-10         0.00000E+00
    0.91670E-07         0.66388E-10         0.00000E+00
    0.91658E-07         0.57550E-10         0.00000E+00
    0.91647E-07         0.48431E-10         0.00000E+00
    0.91638E-07         0.39066E-10         0.00000E+00
    0.91631E-07         0.29496E-10         0.00000E+00
    0.91625E-07         0.19763E-10         0.00000E+00
    0.91622E-07         0.99139E-11         0.00000E+00
    0.91621E-07         0.49665E-11         0.00000E+00
    0.93576E-07         0.12760E-10         0.00000E+00
    0.93574E-07         0.25377E-10         0.00000E+00
    0.93568E-07         0.50327E-10         0.00000E+00
    0.93559E-07         0.74624E-10         0.00000E+00
    0.93546E-07         0.98111E-10         0.00000E+00
    0.93530E-07         0.12066E-09         0.00000E+00
    0.93512E-07         0.14215E-09         0.00000E+00
    0.93492E-07         0.16250E-09         0.00000E+00
    0.93469E-07         0.18164E-09         0.00000E+00
    0.93445E-07         0.19952E-09         0.00000E+00
    0.93419E-07         0.21609E-09         0.00000E+00
    0.93391E-07         0.23132E-09         0.00000E+00
    0.93363E-07         0.24522E-09         0.00000E+00
    0.93333E-07         0.25778E-09         0.00000E+00
    0.93303E-07         0.26900E-09         0.00000E+00
    0.93272E-07         0.27889E-09         0.00000E+00
    0.93241E-07         0.28749E-09         0.00000E+00
    0.93210E-07         0.29481E-09         0.00000E+00
    0.93178E-07         0.30089E-09         0.00000E+00
    0.93146E-07         0.30575E-09         0.00000E+00
    0.93114E-07         0.30944E-09         0.00000E+00
    0.93082E-07         0.31198E-09         0.00000E+00
    0.93051E-07         0.31340E-09         0.00000E+00
    0.93019E-07         0.31375E-09         0.00000E+00
    0.92989E-07         0.31306E-09         0.00000E+00
    0.92958E-07         0.31135E-09         0.00000E+00
    0.92928E-07         0.30867E-09         0.00000E+00
    0.92899E-07         0.30502E-09         0.00000E+00
    0.92870E-07         0.30045E-09         0.00000E+00
    0.92842E-07         0.29497E-09         0.00000E+00
    0.92814E-07         0.28861E-09         0.00000E+00
    0.92788E-07         0.28139E-09         0.00000E+00
    0.92762E-07         0.27331E-09         0.00000E+00
    0.92737E-07         0.26441E-09         0.00000E+00
    0.92713E-07         0.25469E-09         0.00000E+00
    0.92690E-07         0.24416E-09         0.00000E+00
    0.92668E-07         0.23285E-09         0.00000E+00
    0.92647E-07         0.22075E-09         0.00000E+00
    0.92627E-07         0.20788E-09         0.00000E+00
    0.92609E-07         0.19426E-09         0.00000E+00
    0.92591E-07         0.17990E-09         0.00000E+00
    0.92575E-07         0.16480E-09         0.00000E+00
    0.92560E-07         0.14900E-09         0.00000E+00
    0.92547E-07         0.13250E-09         0.00000E+00
    0.92535E-07         0.11533E-09         0.00000E+00
    0.92525E-07         0.97521E-10         0.00000E+00
    0.92517E-07         0.79092E-10         0.00000E+00
    0.92510E-07         0.60081E-10         0.00000E+00
    0.92505E-07         0.40527E-10         0.00000E+00
    0.92502E-07         0.20472E-10         0.00000E+00
    0.92501E-07         0.10325E-10         0.00000E+00
    0.94075E-07         0.23205E-10         0.00000E+00
    0.94073E-07         0.45630E-10         0.00000E+00
    0.94067E-07         0.89277E-10         0.00000E+00
    0.94058E-07         0.13047E-09         0.00000E+00
    0.94045E-07         0.16914E-09         0.00000E+00
    0.94030E-07         0.20522E-09         0.00000E+00
    0.94013E-07         0.23870E-09         0.00000E+00
    0.93994E-07         0.26958E-09         0.00000E+00
    0.93972E-07         0.29786E-09         0.00000E+00
    0.93950E-07         0.32360E-09         0.00000E+00
    0.93926E-07         0.34685E-09         0.00000E+00
    0.93901E-07         0.36766E-09         0.00000E+00
    0.93876E-07         0.38612E-09         0.00000E+00
    0.93850E-07         0.40231E-09         0.00000E+00
    0.93823E-07         0.41632E-09         0.00000E+00
    0.93797E-07         0.42825E-09         0.00000E+00
    0.93770E-07         0.43818E-09         0.00000E+00
    0.93743E-07         0.44621E-09         0.00000E+00
    0.93716E-07         0.45243E-09         0.00000E+00
    0.93689E-07         0.45693E-09         0.00000E+00
    0.93663E-07         0.45981E-09         0.00000E+00
    0.93637E-07         0.46113E-09         0.00000E+00
    0.93611E-07         0.46099E-09         0.00000E+00
    0.93586E-07         0.45943E-09         0.00000E+00
    0.93561E-07         0.45655E-09         0.00000E+00
    0.93536E-07         0.45238E-09         0.00000E+00
    0.93513E-07         0.44699E-09         0.00000E+00
    0.93489E-07         0.44041E-09         0.00000E+00
    0.93466E-07         0.43270E-09         0.00000E+00
    0.93444E-07         0.42388E-09         0.00000E+00
    0.93422E-07         0.41398E-09         0.00000E+00
    0.93401E-07         0.40302E-09         0.00000E+00
    0.93381E-07         0.39102E-09         0.00000E+00
    0.93361E-07         0.37800E-09         0.00000E+00
    0.93342E-07         0.36396E-09         0.00000E+00
    0.93324E-07         0.34889E-09         0.00000E+00
    0.93306E-07         0.33282E-09         0.00000E+00
    0.93290E-07         0.31572E-09         0.00000E+00
    0.93274E-07         0.29760E-09         0.00000E+00
    0.93259E-07         0.27845E-09         0.00000E+00
    0.93245E-07         0.25827E-09         0.00000E+00
    0.93231E-07         0.23705E-09         0.00000E+00
    0.93219E-07         0.21479E-09         0.00000E+00
    0.93208E-07         0.19148E-09         0.00000E+00
    0.93198E-07         0.16713E-09         0.00000E+00
    0.93190E-07         0.14174E-09         0.00000E+00
    0.93183E-07         0.11533E-09         0.00000E+00
    0.93177E-07         0.87920E-10         0.00000E+00
    0.93173E-07         0.59525E-10         0.00000E+00
    0.93170E-07         0.30183E-10         0.00000E+00
    0.93169E-07         0.15279E-10         0.00000E+00
    0.94222E-07         0.33323E-10         0.00000E+00
    0.94220E-07         0.65124E-10         0.00000E+00
    0.94215E-07         0.12641E-09         0.00000E+00
    0.94206E-07         0.18309E-09         0.00000E+00
    0.94196E-07         0.23518E-09         0.00000E+00
    0.94183E-07         0.28279E-09         0.00000E+00
    0.94168E-07         0.32603E-09         0.00000E+00
    0.94153E-07         0.36504E-09         0.00000E+00
    0.94136E-07         0.39999E-09         0.00000E+00
    0.94118E-07         0.43104E-09         0.00000E+00
    0.94100E-07         0.45840E-09         0.00000E+00
    0.94082E-07         0.48227E-09         0.00000E+00
    0.94063E-07         0.50284E-09         0.00000E+00
    0.94045E-07         0.52032E-09         0.00000E+00
    0.94027E-07         0.53491E-09         0.00000E+00
    0.94009E-07         0.54682E-09         0.00000E+00
    0.93991E-07         0.55621E-09         0.00000E+00
    0.93974E-07         0.56327E-09         0.00000E+00
    0.93957E-07         0.56817E-09         0.00000E+00
    0.93940E-07         0.57106E-09         0.00000E+00
    0.93924E-07         0.57209E-09         0.00000E+00
    0.93908E-07         0.57137E-09         0.00000E+00
    0.93893E-07         0.56903E-09         0.00000E+00
    0.93878E-07         0.56518E-09         0.00000E+00
    0.93864E-07         0.55991E-09         0.00000E+00
    0.93850E-07         0.55329E-09         0.00000E+00
    0.93837E-07         0.54540E-09         0.00000E+00
    0.93824E-07         0.53629E-09         0.00000E+00
    0.93812E-07         0.52602E-09         0.00000E+00
    0.93799E-07         0.51461E-09         0.00000E+00
    0.93787E-07         0.50211E-09         0.00000E+00
    0.93776E-07         0.48851E-09         0.00000E+00
    0.93765E-07         0.47384E-09         0.00000E+00
    0.93754E-07         0.45810E-09         0.00000E+00
    0.93744E-07         0.44127E-09         0.00000E+00
    0.93733E-07         0.42334E-09         0.00000E+00
    0.93724E-07         0.40428E-09         0.00000E+00
    0.93714E-07         0.38407E-09         0.00000E+00
    0.93705E-07         0.36267E-09         0.00000E+00
    0.93696E-07         0.34005E-09         0.00000E+00
    0.93688E-07         0.31617E-09         0.00000E+00
    0.93679E-07         0.29097E-09         0.00000E+00
    0.93672E-07         0.26443E-09         0.00000E+00
    0.93665E-07         0.23649E-09         0.00000E+00
    0.93659E-07         0.20714E-09         0.00000E+00
    0.93653E-07         0.17632E-09         0.00000E+00
    0.93648E-07         0.14403E-09         0.00000E+00
    0.93644E-07         0.11024E-09         0.00000E+00
    0.93641E-07         0.74937E-10         0.00000E+00
    0.93639E-07         0.38138E-10         0.00000E+00
    0.93638E-07         0.19366E-10         0.00000E+00
    0.93984E-07         0.42197E-10         0.00000E+00
    0.93983E-07         0.81798E-10         0.00000E+00
    0.93979E-07         0.15730E-09         0.00000E+00
    0.93974E-07         0.22558E-09         0.00000E+00
    0.93967E-07         0.28694E-09         0.00000E+00
    0.93959E-07         0.34168E-09         0.00000E+00
    0.93951E-07         0.39013E-09         0.00000E+00
    0.93943E-07         0.43265E-09         0.00000E+00
    0.93935E-07         0.46964E-09         0.00000E+00
    0.93928E-07         0.50152E-09         0.00000E+00
    0.93922E-07         0.52869E-09         0.00000E+00
    0.93916E-07         0.55155E-09         0.00000E+00
    0.93910E-07         0.57048E-09         0.00000E+00
    0.93906E-07         0.58585E-09         0.00000E+00
    0.93903E-07         0.59800E-09         0.00000E+00
    0.93900E-07         0.60722E-09         0.00000E+00
    0.93898E-07         0.61379E-09         0.00000E+00
    0.93896E-07         0.61798E-09         0.00000E+00
    0.93896E-07         0.62001E-09         0.00000E+00
    0.93896E-07         0.62009E-09         0.00000E+00
    0.93896E-07         0.61840E-09         0.00000E+00
    0.93898E-07         0.61509E-09         0.00000E+00
    0.93899E-07         0.61032E-09         0.00000E+00
    0.93901E-07         0.60419E-09         0.00000E+00
    0.93903E-07         0.59683E-09         0.00000E+00
    0.93906E-07         0.58831E-09         0.00000E+00
    0.93908E-07         0.57871E-09         0.00000E+00
    0.93911E-07         0.56809E-09         0.00000E+00
    0.93914E-07         0.55649E-09         0.00000E+00
    0.93917E-07         0.54395E-09         0.00000E+00
    0.93920E-07         0.53048E-09         0.00000E+00
    0.93923E-07         0.51609E-09         0.00000E+00
    0.93926E-07         0.50078E-09         0.00000E+00
    0.93928E-07         0.48454E-09         0.00000E+00
    0.93931E-07         0.46732E-09         0.00000E+00
    0.93933E-07         0.44909E-09         0.00000E+00
    0.93935E-07         0.42980E-09         0.00000E+00
    0.93936E-07         0.40939E-09         0.00000E+00
    0.93937E-07         0.38778E-09         0.00000E+00
    0.93938E-07         0.36488E-09         0.00000E+00
    0.93939E-07         0.34061E-09         0.00000E+00
    0.93939E-07         0.31486E-09         0.00000E+00
    0.93938E-07         0.28752E-09         0.00000E+00
    0.93938E-07         0.25848E-09         0.00000E+00
    0.93937E-07         0.22764E-09         0.00000E+00
    0.93936E-07         0.19488E-09         0.00000E+00
    0.93934E-07         0.16013E-09         0.00000E+00
    0.93933E-07         0.12332E-09         0.00000E+00
    0.93932E-07         0.84377E-10         0.00000E+00
    0.93931E-07         0.43246E-10         0.00000E+00
    0.93931E-07         0.22122E-10         0.00000E+00
    0.93321E-07         0.47130E-10         0.00000E+00
    0.93320E-07         0.90960E-10         0.00000E+00
    0.93320E-07         0.17344E-09         0.00000E+00
    0.93320E-07         0.24563E-09         0.00000E+00
    0.93322E-07         0.30792E-09         0.00000E+00
    0.93326E-07         0.36109E-09         0.00000E+00
    0.93332E-07         0.40605E-09         0.00000E+00
    0.93340E-07         0.44372E-09         0.00000E+00
    0.93351E-07         0.47497E-09         0.00000E+00
    0.93363E-07         0.50059E-09         0.00000E+00
    0.93378E-07         0.52131E-09         0.00000E+00
    0.93394E-07         0.53774E-09         0.00000E+00
    0.93412E-07         0.55043E-09         0.00000E+00
    0.93431E-07         0.55988E-09         0.00000E+00
    0.93452E-07         0.56648E-09         0.00000E+00
    0.93473E-07         0.57061E-09         0.00000E+00
    0.93496E-07         0.57257E-09         0.00000E+00
    0.93519E-07         0.57264E-09         0.00000E+00
    0.93543E-07         0.57106E-09         0.00000E+00
    0.93568E-07         0.56801E-09         0.00000E+00
    0.93593E-07         0.56368E-09         0.00000E+00
    0.93618E-07         0.55821E-09         0.00000E+00
    0.93643E-07         0.55173E-09         0.00000E+00
    0.93668E-07         0.54435E-09         0.00000E+00
    0.93693E-07         0.53616E-09         0.00000E+00
    0.93718E-07         0.52722E-09         0.00000E+00
    0.93743E-07         0.51760E-09         0.00000E+00
    0.93768E-07         0.50734E-09         0.00000E+00
    0.93792E-07         0.49647E-09         0.00000E+00
    0.93815E-07         0.48502E-09         0.00000E+00
    0.93838E-07         0.47299E-09         0.00000E+00
    0.93861E-07         0.46038E-09         0.00000E+00
    0.93882E-07         0.44717E-09         0.00000E+00
    0.93903E-07         0.43334E-09         0.00000E+00
    0.93924E-07         0.41885E-09         0.00000E+00
    0.93943E-07         0.40364E-09         0.00000E+00
    0.93961E-07         0.38765E-09         0.00000E+00
    0.93978E-07         0.37079E-09         0.00000E+00
    0.93994E-07         0.35297E-09         0.00000E+00
    0.94009E-07         0.33407E-09         0.00000E+00
    0.94023E-07         0.31394E-09         0.00000E+00
    0.94035E-07         0.29243E-09         0.00000E+00
    0.94046E-07         0.26934E-09         0.00000E+00
    0.94055E-07         0.24445E-09         0.00000E+00
    0.94063E-07         0.21754E-09         0.00000E+00
    0.94070E-07         0.18832E-09         0.00000E+00
    0.94075E-07         0.15653E-09         0.00000E+00
    0.94078E-07         0.12189E-09         0.00000E+00
    0.94080E-07         0.84209E-10         0.00000E+00
    0.94081E-07         0.43430E-10         0.00000E+00
    0.94081E-07         0.22274E-10         0.00000E+00
    0.92151E-07         0.47785E-10         0.00000E+00
    0.92156E-07         0.88011E-10         0.00000E+00
    0.92169E-07         0.15938E-09         0.00000E+00
    0.92191E-07         0.21478E-09         0.00000E+00
    0.92218E-07         0.25801E-09         0.00000E+00
    0.92252E-07         0.29179E-09         0.00000E+00
    0.92291E-07         0.31814E-09         0.00000E+00
    0.92333E-07         0.33857E-09         0.00000E+00
    0.92379E-07         0.35424E-09         0.00000E+00
    0.92428E-07         0.36602E-09         0.00000E+00
    0.92480E-07         0.37463E-09         0.00000E+00
    0.92533E-07         0.38062E-09         0.00000E+00
    0.92587E-07         0.38443E-09         0.00000E+00
    0.92643E-07         0.38643E-09         0.00000E+00
    0.92699E-07         0.38691E-09         0.00000E+00
    0.92756E-07         0.38610E-09         0.00000E+00
    0.92813E-07         0.38423E-09         0.00000E+00
    0.92870E-07         0.38144E-09         0.00000E+00
    0.92928E-07         0.37789E-09         0.00000E+00
    0.92985E-07         0.37368E-09         0.00000E+00
    0.93041E-07         0.36892E-09         0.00000E+00
    0.93097E-07         0.36369E-09         0.00000E+00
    0.93153E-07         0.35805E-09         0.00000E+00
    0.93208E-07         0.35206E-09         0.00000E+00
    0.93262E-07         0.34576E-09         0.00000E+00
    0.93315E-07         0.33920E-09         0.00000E+00
    0.93367E-07         0.33240E-09         0.00000E+00
    0.93419E-07         0.32539E-09         0.00000E+00
    0.93469E-07         0.31816E-09         0.00000E+00
    0.93518E-07         0.31074E-09         0.00000E+00
    0.93566E-07         0.30312E-09         0.00000E+00
    0.93612E-07         0.29530E-09         0.00000E+00
    0.93658E-07         0.28727E-09         0.00000E+00
    0.93702E-07         0.27900E-09         0.00000E+00
    0.93744E-07         0.27047E-09         0.00000E+00
    0.93786E-07         0.26164E-09         0.00000E+00
    0.93825E-07         0.25246E-09         0.00000E+00
    0.93863E-07         0.24289E-09         0.00000E+00
    0.93899E-07         0.23285E-09         0.00000E+00
    0.93934E-07         0.22224E-09         0.00000E+00
    0.93966E-07         0.21097E-09         0.00000E+00
    0.93997E-07         0.19890E-09         0.00000E+00
    0.94025E-07         0.18586E-09         0.00000E+00
    0.94050E-07         0.17164E-09         0.00000E+00
    0.94074E-07         0.15595E-09         0.00000E+00
    0.94094E-07         0.13844E-09         0.00000E+00
    0.94111E-07         0.11864E-09         0.00000E+00
    0.94125E-07         0.95903E-10         0.00000E+00
    0.94136E-07         0.69340E-10         0.00000E+00
    0.94142E-07         0.37709E-10         0.00000E+00
    0.94144E-07         0.20444E-10         0.00000E+00
    0.91426E-07         0.00000E+00         0.00000E+00
    0.91435E-07         0.00000E+00         0.00000E+00
    0.91461E-07         0.00000E+00         0.00000E+00
    0.91499E-07         0.00000E+00         0.00000E+00
    0.91547E-07         0.00000E+00         0.00000E+00
    0.91602E-07         0.00000E+00         0.00000E+00
    0.91664E-07         0.00000E+00         0.00000E+00
    0.91730E-07         0.00000E+00         0.00000E+00
    0.91799E-07         0.00000E+00         0.00000E+00
    0.91871E-07        -0.27940E-20         0.00000E+00
    0.91945E-07         0.00000E+00         0.00000E+00
    0.92021E-07         0.27940E-20         0.00000E+00
    0.92098E-07         0.00000E+00         0.00000E+00
    0.92175E-07         0.00000E+00         0.00000E+00
    0.92252E-07         0.00000E+00         0.00000E+00
    0.92330E-07         0.00000E+00         0.00000E+00
    0.92407E-07         0.00000E+00         0.00000E+00
    0.92483E-07         0.27940E-20         0.00000E+00
    0.92559E-07         0.00000E+00         0.00000E+00
    0.92635E-07        -0.27940E-20         0.00000E+00
    0.92709E-07         0.00000E+00         0.00000E+00
    0.92782E-07         0.00000E+00         0.00000E+00
    0.92854E-07         0.00000E+00         0.00000E+00
    0.92925E-07         0.00000E+00         0.00000E+00
    0.92995E-07         0.00000E+00         0.00000E+00
    0.93064E-07         0.00000E+00         0.00000E+00
    0.93131E-07         0.00000E+00         0.00000E+00
    0.93197E-07         0.00000E+00         0.00000E+00
    0.93261E-07         0.00000E+00         0.00000E+00
    0.93324E-07         0.00000E+00         0.00000E+00
    0.93385E-07         0.00000E+00         0.00000E+00
    0.93445E-07         0.00000E+00         0.00000E+00
    0.93503E-07         0.00000E+00         0.00000E+00
    0.93560E-07         0.00000E+00         0.00000E+00
    0.93615E-07         0.00000E+00         0.00000E+00
    0.93668E-07         0.00000E+00         0.00000E+00
    0.93720E-07         0.00000E+00         0.00000E+00
    0.93769E-07         0.00000E+00         0.00000E+00
    0.93817E-07         0.00000E+00         0.00000E+00
    0.93862E-07        -0.37253E-20         0.00000E+00
    0.93906E-07        -0.27940E-20         0.00000E+00
    0.93947E-07         0.27940E-20         0.00000E+00
    0.93985E-07         0.27940E-20         0.00000E+00
    0.94021E-07         0.00000E+00         0.00000E+00
    0.94054E-07         0.00000E+00         0.00000E+00
    0.94083E-07         0.00000E+00         0.00000E+00
    0.94109E-07         0.00000E+00         0.00000E+00
    0.94131E-07         0.27940E-20         0.00000E+00
    0.94148E-07         0.93132E-21         0.00000E+00
    0.94159E-07         0.00000E+00         0.00000E+00
    0.94163E-07         0.55879E-20         0.00000E+00
CELL_DATA       5000
TENSORS stressef double 
    0.44809E+06        -0.38793E+04         0.00000E+00
   -0.38793E+04        -0.13592E+05         0.00000E+00
    0.00000E+00         0.00000E+00         0.00000E+00
 
    0.43204E+06        -0.46645E+04         0.00000E+00
   -0.46645E+04        -0.14686E+05         0.00000E+00
    0.00000E+00         0.00000E+00         0.00000E+00
 
    0.41808E+06        -0.49615E+04         0.00000E+00
   -0.49615E+04        -0.16093E+05         0.00000E+00
    0.00000E+00         0.00000E+00         0.00000E+00
 
    0.40565E+06        -0.49863E+04         0.00000E+00
   -0.49863E+04        -0.17657E+05         0.00000E+00
    0.00000E+00         0.00000E+00         0.00000E+00
 
    0.39439E+06        -0.48542E+04         0.00000E+00
   -0.48542E+04        -0.19279E+05         0.00000E+00
    0.00000E+00         0.00000E+00         0.00000E+00
 
    0.38403E+06        -0.46289E+04         0.00000E+00
   -0.46289E+04        -0.20891E+05         0.00000E+00
    0.00000E+00         0.00000E+00         0.00000E+00
 
    0.37439E+06        -0.43466E+04         0.00000E+00
   -0.43466E+04        -0.22452E+05         0.00000E+00
    0.00000E+00         0.00000E+00         0.00000E+00
 
    0.36532E+06        -0.40286E+04         0.00000E+00
   -0.40286E+04        -0.23930E+05         0.00000E+00
    0.00000E+00         0.00000E+00         0.00000E+00
 
    0.35672E+06        -0.36879E+04         0.00000E+00
   -0.36879E+04        -0.25308E+05         0.00000E+00
    0.00000E+00         0.00000E+00         0.00000E+00
 
    0.34849E+06        -0.33327E+04         0.00000E+00
   -0.33327E+04        -0.26569E+05         0.00000E+00
    0.00000E+00         0.00000E+00         0.00000E+00
 
    0.34057E+06        -0.29683E+04         0.00000E+00
   -0.29683E+04        -0.27705E+05         0.00000E+00
    0.00000E+00         0.00000E+00         0.00000E+00
 
    0.33290E+06        -0.25982E+04         0.00000E+00
   -0.25982E+04        -0.28709E+05         0.00000E+00
    0.00000E+00         0.00000E+00         0.00000E+00
 
    0.32544E+06        -0.22246E+04         0.00000E+00
   -0.22246E+04        -0.29577E+05         0.00000E+00
    0.00000E+00         0.00000E+00         0.00000E+00
 
    0.31815E+06        -0.18493E+04         0.00000E+00
   -0.18493E+04        -0.30304E+05         0.00000E+00
    0.00000E+00         0.00000E+00         0.00000E+00
 
    0.31098E+06        -0.14732E+04         0.00000E+00
   -0.14732E+04        -0.30890E+05         0.00000E+00
    0.00000E+00         0.00000E+00         0.00000E+00
 
    0.30392E+06        -0.10971E+04         0.00000E+00
   -0.10971E+04        -0.31331E+05         0.00000E+00
    0.00000E+00         0.00000E+00         0.00000E+00
 
    0.29693E+06        -0.72129E+03         0.00000E+00
   -0.72129E+03        -0.31628E+05         0.00000E+00
    0.00000E+00         0.00000E+00         0.00000E+00
 
    0.29000E+06        -0.34614E+03         0.00000E+00
   -0.34614E+03        -0.31779E+05         0.00000E+00
    0.00000E+00         0.00000E+00         0.00000E+00
 
    0.28311E+06         0.28300E+02         0.00000E+00
    0.28300E+02        -0.31785E+05         0.00000E+00
    0.00000E+00         0.00000E+00         0.00000E+00
 
    0.27624E+06         0.40206E+03         0.00000E+00
    0.40206E+03        -0.31645E+05         0.00000E+00
    0.00000E+00         0.00000E+00         0.00000E+00
 
    0.26937E+06         0.77528E+03         0.00000E+00
    0.77528E+03        -0.31358E+05         0.00000E+00
    0.00000E+00         0.00000E+00         0.00000E+00
 
    0.26249E+06         0.11482E+04         0.00000E+00
    0.11482E+04        -0.30926E+05         0.00000E+00
    0.00000E+00         0.00000E+00         0.00000E+00
 
    0.25558E+06         0.15210E+04         0.00000E+00
    0.15210E+04        -0.30346E+05         0.00000E+00
    0.00000E+00         0.00000E+00         0.00000E+00
 
    0.24864E+06         0.18941E+04         0.00000E+00
    0.18941E+04        -0.29620E+05         0.00000E+00
    0.00000E+00         0.00000E+00         0.00000E+00
 
    0.24165E+06         0.22680E+04         0.00000E+00
    0.22680E+04        -0.28746E+05         0.00000E+00
    0.00000E+00         0.00000E+00         0.00000E+00
 
    0.23461E+06         0.26431E+04         0.00000E+00
    0.26431E+04        -0.27724E+05         0.00000E+00
    0.00000E+00         0.00000E+00         0.00000E+00
 
    0.22749E+06         0.30200E+04         0.00000E+00
    0.30200E+04        -0.26554E+05         0.00000E+00
    0.00000E+00         0.00000E+00         0.00000E+00
 
    0.22029E+06         0.33994E+04         0.00000E+00
    0.33994E+04        -0.25234E+05         0.00000E+00
    0.00000E+00         0.00000E+00         0.00000E+00
 
    0.21301E+06         0.37820E+04         0.00000E+00
    0.37820E+04        -0.23763E+05         0.00000E+00
    0.00000E+00         0.00000E+00         0.00000E+00
 
    0.20562E+06         0.41688E+04         0.00000E+00
    0.41688E+04        -0.22139E+05         0.00000E+00
    0.00000E+00         0.00000E+00         0.00000E+00
 
    0.19813E+06         0.45607E+04         0.00000E+00
    0.45607E+04        -0.20362E+05         0.00000E+00
    0.00000E+00         0.00000E+00         0.00000E+00
 
    0.19051E+06         0.49588E+04         0.00000E+00
    0.49588E+04        -0.18427E+05         0.00000E+00
    0.00000E+00         0.00000E+00         0.00000E+00
 
    0.18276E+06         0.53647E+04         0.00000E+00
    0.53647E+04        -0.16333E+05         0.00000E+00
    0.00000E+00         0.00000E+00         0.00000E+00
 
    0.17486E+06         0.57798E+04         0.00000E+00
    0.57798E+04        -0.14077E+05         0.00000E+00
    0.00000E+00         0.00000E+00         0.00000E+00
 
    0.16681E+06         0.62061E+04         0.00000E+00
    0.62061E+04        -0.11653E+05         0.00000E+00
    0.00000E+00         0.00000E+00         0.00000E+00
 
    0.15859E+06         0.66459E+04         0.00000E+00
    0.66459E+04        -0.90577E+04         0.00000E+00
    0.00000E+00         0.00000E+00         0.00000E+00
 
    0.15018E+06         0.71019E+04         0.00000E+00
    0.71019E+04        -0.62847E+04         0.00000E+00
    0.00000E+00         0.00000E+00         0.00000E+00
 
    0.14156E+06         0.75775E+04         0.00000E+00
    0.75775E+04        -0.33270E+04         0.00000E+00
    0.00000E+00         0.00000E+00         0.00000E+00
 
    0.13272E+06         0.80769E+04         0.00000E+00
    0.80769E+04        -0.17628E+03         0.00000E+00
    0.00000E+00         0.00000E+00         0.00000E+00
 
    0.12362E+06         0.86053E+04         0.00000E+00
    0.86053E+04         0.31778E+04         0.00000E+00
    0.00000E+00         0.00000E+00         0.00000E+00
 
    0.11426E+06         0.91696E+04         0.00000E+00
    0.91696E+04         0.67478E+04         0.00000E+00
    0.00000E+00         0.00000E+00         0.00000E+00
 
    0.10458E+06         0.97785E+04         0.00000E+00
    0.97785E+04         0.10549E+05         0.00000E+00
    0.00000E+00         0.00000E+00         0.00000E+00
 
    0.94549E+05         0.10444E+05         0.00000E+00
    0.10444E+05         0.14600E+05         0.00000E+00
    0.00000E+00         0.00000E+00         0.00000E+00
 
    0.84123E+05         0.11181E+05         0.00000E+00
    0.11181E+05         0.18926E+05         0.00000E+00
    0.00000E+00         0.00000E+00         0.00000E+00
 
    0.73238E+05         0.12013E+05         0.00000E+00
    0.12013E+05         0.23556E+05         0.00000E+00
    0.00000E+00         0.00000E+00         0.00000E+00
 
    0.61813E+05         0.12971E+05         0.00000E+00
    0.12971E+05         0.28530E+05         0.00000E+00
    0.00000E+00         0.00000E+00         0.00000E+00
 
    0.49746E+05         0.14104E+05         0.00000E+00
    0.14104E+05         0.33900E+05         0.00000E+00
    0.00000E+00         0.00000E+00         0.00000E+00
 
    0.36892E+05         0.15484E+05         0.00000E+00
    0.15484E+05         0.39736E+05         0.00000E+00
    0.00000E+00         0.00000E+00         0.00000E+00
 
    0.23052E+05         0.17230E+05         0.00000E+00
    0.17230E+05         0.46135E+05         0.00000E+00
    0.00000E+00         0.00000E+00         0.00000E+00
 
    0.79274E+04         0.19539E+05         0.00000E+00
    0.19539E+05         0.53234E+05         0.00000E+00
    0.00000E+00         0.00000E+00         0.00000E+00
 
    0.40689E+06        -0.27033E+04         0.00000E+00
   -0.27033E+04        -0.38369E+05         0.00000E+00
    0.00000E+00         0.00000E+00         0.00000E+00
 
    0.39713E+06        -0.56595E+04         0.00000E+00
   -0.56595E+04        -0.37920E+05         0.00000E+00
    0.00000E+00         0.00000E+00         0.00000E+00
 
    0.38720E+06        -0.75461E+04         0.00000E+00
   -0.75461E+04        -0.37648E+05         0.00000E+00
    0.00000E+00         0.00000E+00         0.00000E+00
 
    0.37744E+06        -0.86556E+04         0.00000E+00
   -0.86556E+04        -0.37559E+05         0.00000E+00
    0.00000E+00         0.00000E+00         0.00000E+00
 
    0.36800E+06        -0.92013E+04         0.00000E+00
   -0.92013E+04        -0.37630E+05         0.00000E+00
    0.00000E+00         0.00000E+00         0.00000E+00
 
    0.35891E+06        -0.93362E+04         0.00000E+00
   -0.93362E+04        -0.37824E+05         0.00000E+00
    0.00000E+00         0.00000E+00         0.00000E+00
 
    0.35017E+06        -0.91706E+04         0.00000E+00
   -0.91706E+04        -0.38102E+05         0.00000E+00
    0.00000E+00         0.00000E+00         0.00000E+00
 
    0.34175E+06        -0.87835E+04         0.00000E+00
   -0.87835E+04        -0.38430E+05         0.00000E+00
    0.00000E+00         0.00000E+00         0.00000E+00
 
    0.33363E+06        -0.82322E+04         0.00000E+00
   -0.82322E+04        -0.38778E+05         0.00000E+00
    0.00000E+00         0.00000E+00         0.00000E+00
 
    0.32577E+06        -0.75583E+04         0.00000E+00
   -0.75583E+04        -0.39118E+05         0.00000E+00
    0.00000E+00         0.00000E+00         0.00000E+00
 
    0.31813E+06        -0.67924E+04         0.00000E+00
   -0.67924E+04        -0.39430E+05         0.00000E+00
    0.00000E+00         0.00000E+00         0.00000E+00
 
    0.31069E+06        -0.59571E+04         0.00000E+00
   -0.59571E+04        -0.39696E+05         0.00000E+00
    0.00000E+00         0.00000E+00         0.00000E+00
 
    0.30340E+06        -0.50691E+04         0.00000E+00
   -0.50691E+04        -0.39899E+05         0.00000E+00
    0.00000E+00         0.00000E+00         0.00000E+00
 
    0.29625E+06        -0.41409E+04         0.00000E+00
   -0.41409E+04        -0.40028E+05         0.00000E+00
    0.00000E+00         0.00000E+00         0.00000E+00
 
    0.28920E+06        -0.31820E+04         0.00000E+00
   -0.31820E+04        -0.40073E+05         0.00000E+00
    0.00000E+00         0.00000E+00         0.00000E+00
 
    0.28224E+06        -0.21994E+04         0.00000E+00
   -0.21994E+04        -0.40025E+05         0.00000E+00
    0.00000E+00         0.00000E+00         0.00000E+00
 
    0.27535E+06        -0.11983E+04         0.00000E+00
   -0.11983E+04        -0.39877E+05         0.00000E+00
    0.00000E+00         0.00000E+00         0.00000E+00
 
    0.26850E+06        -0.18275E+03         0.00000E+00
   -0.18275E+03        -0.39624E+05         0.00000E+00
    0.00000E+00         0.00000E+00         0.00000E+00
 
    0.26168E+06         0.84448E+03         0.00000E+00
    0.84448E+03        -0.39260E+05         0.00000E+00
    0.00000E+00         0.00000E+00         0.00000E+00
 
    0.25488E+06         0.18813E+04         0.00000E+00
    0.18813E+04        -0.38782E+05         0.00000E+00
    0.00000E+00         0.00000E+00         0.00000E+00
 
    0.24808E+06         0.29265E+04         0.00000E+00
    0.29265E+04        -0.38186E+05         0.00000E+00
    0.00000E+00         0.00000E+00         0.00000E+00
 
    0.24127E+06         0.39792E+04         0.00000E+00
    0.39792E+04        -0.37469E+05         0.00000E+00
    0.00000E+00         0.00000E+00         0.00000E+00
 
    0.23443E+06         0.50390E+04         0.00000E+00
    0.50390E+04        -0.36628E+05         0.00000E+00
    0.00000E+00         0.00000E+00         0.00000E+00
 
    0.22756E+06         0.61060E+04         0.00000E+00
    0.61060E+04        -0.35661E+05         0.00000E+00
    0.00000E+00         0.00000E+00         0.00000E+00
 
    0.22064E+06         0.71806E+04         0.00000E+00
    0.71806E+04        -0.34565E+05         0.00000E+00
    0.00000E+00         0.00000E+00         0.00000E+00
 
    0.21367E+06         0.82637E+04         0.00000E+00
    0.82637E+04        -0.33338E+05         0.00000E+00
    0.00000E+00         0.00000E+00         0.00000E+00
 
    0.20664E+06         0.93563E+04         0.00000E+00
    0.93563E+04        -0.31978E+05         0.00000E+00
    0.00000E+00         0.00000E+00         0.00000E+00
 
    0.19953E+06         0.10460E+05         0.00000E+00
    0.10460E+05        -0.30483E+05         0.00000E+00
    0.00000E+00         0.00000E+00         0.00000E+00
 
    0.19234E+06         0.11576E+05         0.00000E+00
    0.11576E+05        -0.28851E+05         0.00000E+00
    0.00000E+00         0.00000E+00         0.00000E+00
 
    0.18505E+06         0.12707E+05         0.00000E+00
    0.12707E+05        -0.27079E+05         0.00000E+00
    0.00000E+00         0.00000E+00         0.00000E+00
 
    0.17766E+06         0.13855E+05         0.00000E+00
    0.13855E+05        -0.25164E+05         0.00000E+00
    0.00000E+00         0.00000E+00         0.00000E+00
 
    0.17017E+06         0.15024E+05         0.00000E+00
    0.15024E+05        -0.23105E+05         0.00000E+00
    0.00000E+00         0.00000E+00         0.00000E+00
 
    0.16255E+06         0.16217E+05         0.00000E+00
    0.16217E+05        -0.20898E+05         0.00000E+00
    0.00000E+00         0.00000E+00         0.00000E+00
 
    0.15480E+06         0.17438E+05         0.00000E+00
    0.17438E+05        -0.18539E+05         0.00000E+00
    0.00000E+00         0.00000E+00         0.00000E+00
 
    0.14692E+06         0.18692E+05         0.00000E+00
    0.18692E+05        -0.16026E+05         0.00000E+00
    0.00000E+00         0.00000E+00         0.00000E+00
 
    0.13888E+06         0.19986E+05         0.00000E+00
    0.19986E+05        -0.13352E+05         0.00000E+00
    0.00000E+00         0.00000E+00         0.00000E+00
 
    0.13069E+06         0.21325E+05         0.00000E+00
    0.21325E+05        -0.10515E+05         0.00000E+00
    0.00000E+00         0.00000E+00         0.00000E+00
 
    0.12232E+06         0.22720E+05         0.00000E+00
    0.22720E+05        -0.75077E+04         0.00000E+00
    0.00000E+00         0.00000E+00         0.00000E+00
 
    0.11377E+06         0.24180E+05         0.00000E+00
    0.24180E+05        -0.43246E+04         0.00000E+00
    0.00000E+00         0.00000E+00         0.00000E+00
 
    0.10502E+06         0.25717E+05         0.00000E+00
    0.25717E+05        -0.95881E+03         0.00000E+00
    0.00000E+00         0.00000E+00         0.00000E+00
 
    0.96058E+05         0.27348E+05         0.00000E+00
    0.27348E+05         0.25974E+04         0.00000E+00
    0.00000E+00         0.00000E+00         0.00000E+00
 
    0.86871E+05         0.29092E+05         0.00000E+00
    0.29092E+05         0.63524E+04         0.00000E+00
    0.00000E+00         0.00000E+00         0.00000E+00
 
    0.77446E+05         0.30973E+05         0.00000E+00
    0.30973E+05         0.10315E+05         0.00000E+00
    0.00000E+00         0.00000E+00         0.00000E+00
 
    0.67769E+05         0.33023E+05         0.00000E+00
    0.33023E+05         0.14496E+05         0.00000E+00
    0.00000E+00         0.00000E+00         0.00000E+00
 
    0.57834E+05         0.35279E+05         0.00000E+00
    0.35279E+05         0.18902E+05         0.00000E+00
    0.00000E+00         0.00000E+00         0.00000E+00
 
    0.47639E+05         0.37795E+05         0.00000E+00
    0.37795E+05         0.23543E+05         0.00000E+00
    0.00000E+00         0.00000E+00         0.00000E+00
 
    0.37199E+05         0.40635E+05         0.00000E+00
    0.40635E+05         0.28422E+05         0.00000E+00
    0.00000E+00         0.00000E+00         0.00000E+00
 
    0.26561E+05         0.43887E+05         0.00000E+00
    0.43887E+05         0.33532E+05         0.00000E+00
    0.00000E+00         0.00000E+00         0.00000E+00
 
    0.15830E+05         0.47661E+05         0.00000E+00
    0.47661E+05         0.38852E+05         0.00000E+00
    0.00000E+00         0.00000E+00         0.00000E+00
 
    0.52298E+04         0.52100E+05         0.00000E+00
    0.52100E+05         0.44323E+05         0.00000E+00
    0.00000E+00         0.00000E+00         0.00000E+00
 
    0.36785E+06        -0.17215E+04         0.00000E+00
   -0.17215E+04        -0.63064E+05         0.00000E+00
    0.00000E+00         0.00000E+00         0.00000E+00
 
    0.36145E+06        -0.39513E+04         0.00000E+00
   -0.39513E+04        -0.62860E+05         0.00000E+00
    0.00000E+00         0.00000E+00         0.00000E+00
 
    0.35474E+06        -0.57477E+04         0.00000E+00
   -0.57477E+04        -0.62462E+05         0.00000E+00
    0.00000E+00         0.00000E+00         0.00000E+00
 
    0.34777E+06        -0.70736E+04         0.00000E+00
   -0.70736E+04        -0.61959E+05         0.00000E+00
    0.00000E+00         0.00000E+00         0.00000E+00
 
    0.34066E+06        -0.79492E+04         0.00000E+00
   -0.79492E+04        -0.61411E+05         0.00000E+00
    0.00000E+00         0.00000E+00         0.00000E+00
 
    0.33346E+06        -0.84195E+04         0.00000E+00
   -0.84195E+04        -0.60853E+05         0.00000E+00
    0.00000E+00         0.00000E+00         0.00000E+00
 
    0.32626E+06        -0.85374E+04         0.00000E+00
   -0.85374E+04        -0.60302E+05         0.00000E+00
    0.00000E+00         0.00000E+00         0.00000E+00
 
    0.31908E+06        -0.83552E+04         0.00000E+00
   -0.83552E+04        -0.59763E+05         0.00000E+00
    0.00000E+00         0.00000E+00         0.00000E+00
 
    0.31196E+06        -0.79204E+04         0.00000E+00
   -0.79204E+04        -0.59236E+05         0.00000E+00
    0.00000E+00         0.00000E+00         0.00000E+00
 
    0.30490E+06        -0.72748E+04         0.00000E+00
   -0.72748E+04        -0.58714E+05         0.00000E+00
    0.00000E+00         0.00000E+00         0.00000E+00
 
    0.29791E+06        -0.64539E+04         0.00000E+00
   -0.64539E+04        -0.58189E+05         0.00000E+00
    0.00000E+00         0.00000E+00         0.00000E+00
 
    0.29099E+06        -0.54877E+04         0.00000E+00
   -0.54877E+04        -0.57650E+05         0.00000E+00
    0.00000E+00         0.00000E+00         0.00000E+00
 
    0.28414E+06        -0.44008E+04         0.00000E+00
   -0.44008E+04        -0.57087E+05         0.00000E+00
    0.00000E+00         0.00000E+00         0.00000E+00
 
    0.27734E+06        -0.32139E+04         0.00000E+00
   -0.32139E+04        -0.56492E+05         0.00000E+00
    0.00000E+00         0.00000E+00         0.00000E+00
 
    0.27059E+06        -0.19437E+04         0.00000E+00
   -0.19437E+04        -0.55853E+05         0.00000E+00
    0.00000E+00         0.00000E+00         0.00000E+00
 
    0.26388E+06        -0.60391E+03         0.00000E+00
   -0.60391E+03        -0.55162E+05         0.00000E+00
    0.00000E+00         0.00000E+00         0.00000E+00
 
    0.25719E+06         0.79426E+03         0.00000E+00
    0.79426E+03        -0.54411E+05         0.00000E+00
    0.00000E+00         0.00000E+00         0.00000E+00
 
    0.25053E+06         0.22418E+04         0.00000E+00
    0.22418E+04        -0.53593E+05         0.00000E+00
    0.00000E+00         0.00000E+00         0.00000E+00
 
    0.24387E+06         0.37316E+04         0.00000E+00
    0.37316E+04        -0.52702E+05         0.00000E+00
    0.00000E+00         0.00000E+00         0.00000E+00
 
    0.23721E+06         0.52579E+04         0.00000E+00
    0.52579E+04        -0.51730E+05         0.00000E+00
    0.00000E+00         0.00000E+00         0.00000E+00
 
    0.23054E+06         0.68163E+04         0.00000E+00
    0.68163E+04        -0.50672E+05         0.00000E+00
    0.00000E+00         0.00000E+00         0.00000E+00
 
    0.22384E+06         0.84035E+04         0.00000E+00
    0.84035E+04        -0.49525E+05         0.00000E+00
    0.00000E+00         0.00000E+00         0.00000E+00
 
    0.21712E+06         0.10017E+05         0.00000E+00
    0.10017E+05        -0.48282E+05         0.00000E+00
    0.00000E+00         0.00000E+00         0.00000E+00
 
    0.21037E+06         0.11655E+05         0.00000E+00
    0.11655E+05        -0.46941E+05         0.00000E+00
    0.00000E+00         0.00000E+00         0.00000E+00
 
    0.20356E+06         0.13318E+05         0.00000E+00
    0.13318E+05        -0.45496E+05         0.00000E+00
    0.00000E+00         0.00000E+00         0.00000E+00
 
    0.19671E+06         0.15004E+05         0.00000E+00
    0.15004E+05        -0.43946E+05         0.00000E+00
    0.00000E+00         0.00000E+00         0.00000E+00
 
    0.18979E+06         0.16715E+05         0.00000E+00
    0.16715E+05        -0.42286E+05         0.00000E+00
    0.00000E+00         0.00000E+00         0.00000E+00
 
    0.18281E+06         0.18451E+05         0.00000E+00
    0.18451E+05        -0.40513E+05         0.00000E+00
    0.00000E+00         0.00000E+00         0.00000E+00
 
    0.17576E+06         0.20214E+05         0.00000E+00
    0.20214E+05        -0.38624E+05         0.00000E+00
    0.00000E+00         0.00000E+00         0.00000E+00
 
    0.16862E+06         0.22006E+05         0.00000E+00
    0.22006E+05        -0.36617E+05         0.00000E+00
    0.00000E+00         0.00000E+00         0.00000E+00
 
    0.16140E+06         0.23831E+05         0.00000E+00
    0.23831E+05        -0.34489E+05         0.00000E+00
    0.00000E+00         0.00000E+00         0.00000E+00
 
    0.15409E+06         0.25691E+05         0.00000E+00
    0.25691E+05        -0.32236E+05         0.00000E+00
    0.00000E+00         0.00000E+00         0.00000E+00
 
    0.14668E+06         0.27592E+05         0.00000E+00
    0.27592E+05        -0.29857E+05         0.00000E+00
    0.00000E+00         0.00000E+00         0.00000E+00
 
    0.13916E+06         0.29539E+05         0.00000E+00
    0.29539E+05        -0.27348E+05         0.00000E+00
    0.00000E+00         0.00000E+00         0.00000E+00
 
    0.13153E+06         0.31537E+05         0.00000E+00
    0.31537E+05        -0.24707E+05         0.00000E+00
    0.00000E+00         0.00000E+00         0.00000E+00
 
    0.12379E+06         0.33593E+05         0.00000E+00
    0.33593E+05        -0.21931E+05         0.00000E+00
    0.00000E+00         0.00000E+00         0.00000E+00
 
    0.11594E+06         0.35717E+05         0.00000E+00
    0.35717E+05        -0.19018E+05         0.00000E+00
    0.00000E+00         0.00000E+00         0.00000E+00
 
    0.10796E+06         0.37917E+05         0.00000E+00
    0.37917E+05        -0.15964E+05         0.00000E+00
    0.00000E+00         0.00000E+00         0.00000E+00
 
    0.99851E+05         0.40205E+05         0.00000E+00
    0.40205E+05        -0.12769E+05         0.00000E+00
    0.00000E+00         0.00000E+00         0.00000E+00
 
    0.91618E+05         0.42594E+05         0.00000E+00
    0.42594E+05        -0.94303E+04         0.00000E+00
    0.00000E+00         0.00000E+00         0.00000E+00
 
    0.83259E+05         0.45099E+05         0.00000E+00
    0.45099E+05        -0.59471E+04         0.00000E+00
    0.00000E+00         0.00000E+00         0.00000E+00
 
    0.74777E+05         0.47736E+05         0.00000E+00
    0.47736E+05        -0.23198E+04         0.00000E+00
    0.00000E+00         0.00000E+00         0.00000E+00
 
    0.66176E+05         0.50526E+05         0.00000E+00
    0.50526E+05         0.14498E+04         0.00000E+00
    0.00000E+00         0.00000E+00         0.00000E+00
 
    0.57469E+05         0.53489E+05         0.00000E+00
    0.53489E+05         0.53574E+04         0.00000E+00
    0.00000E+00         0.00000E+00         0.00000E+00
 
    0.48672E+05         0.56650E+05         0.00000E+00
    0.56650E+05         0.93950E+04         0.00000E+00
    0.00000E+00         0.00000E+00         0.00000E+00
 
    0.39810E+05         0.60031E+05         0.00000E+00
    0.60031E+05         0.13550E+05         0.00000E+00
    0.00000E+00         0.00000E+00         0.00000E+00
 
    0.30915E+05         0.63654E+05         0.00000E+00
    0.63654E+05         0.17803E+05         0.00000E+00
    0.00000E+00         0.00000E+00         0.00000E+00
 
    0.22026E+05         0.67533E+05         0.00000E+00
    0.67533E+05         0.22127E+05         0.00000E+00
    0.00000E+00         0.00000E+00         0.00000E+00
 
    0.13181E+05         0.71666E+05         0.00000E+00
    0.71666E+05         0.26481E+05         0.00000E+00
    0.00000E+00         0.00000E+00         0.00000E+00
 
    0.43868E+04         0.76015E+05         0.00000E+00
    0.76015E+05         0.30819E+05         0.00000E+00
    0.00000E+00         0.00000E+00         0.00000E+00
 
    0.33415E+06        -0.11368E+04         0.00000E+00
   -0.11368E+04        -0.86649E+05         0.00000E+00
    0.00000E+00         0.00000E+00         0.00000E+00
 
    0.32962E+06        -0.25629E+04         0.00000E+00
   -0.25629E+04        -0.86440E+05         0.00000E+00
    0.00000E+00         0.00000E+00         0.00000E+00
 
    0.32477E+06        -0.36789E+04         0.00000E+00
   -0.36789E+04        -0.86078E+05         0.00000E+00
    0.00000E+00         0.00000E+00         0.00000E+00
 
    0.31964E+06        -0.44998E+04         0.00000E+00
   -0.44998E+04        -0.85574E+05         0.00000E+00
    0.00000E+00         0.00000E+00         0.00000E+00
 
    0.31427E+06        -0.50312E+04         0.00000E+00
   -0.50312E+04        -0.84947E+05         0.00000E+00
    0.00000E+00         0.00000E+00         0.00000E+00
 
    0.30869E+06        -0.52809E+04         0.00000E+00
   -0.52809E+04        -0.84221E+05         0.00000E+00
    0.00000E+00         0.00000E+00         0.00000E+00
 
    0.30295E+06        -0.52619E+04         0.00000E+00
   -0.52619E+04        -0.83414E+05         0.00000E+00
    0.00000E+00         0.00000E+00         0.00000E+00
 
    0.29707E+06        -0.49915E+04         0.00000E+00
   -0.49915E+04        -0.82542E+05         0.00000E+00
    0.00000E+00         0.00000E+00         0.00000E+00
 
    0.29110E+06        -0.44898E+04         0.00000E+00
   -0.44898E+04        -0.81619E+05         0.00000E+00
    0.00000E+00         0.00000E+00         0.00000E+00
 
    0.28504E+06        -0.37779E+04         0.00000E+00
   -0.37779E+04        -0.80652E+05         0.00000E+00
    0.00000E+00         0.00000E+00         0.00000E+00
 
    0.27892E+06        -0.28772E+04         0.00000E+00
   -0.28772E+04        -0.79645E+05         0.00000E+00
    0.00000E+00         0.00000E+00         0.00000E+00
 
    0.27275E+06        -0.18079E+04         0.00000E+00
   -0.18079E+04        -0.78601E+05         0.00000E+00
    0.00000E+00         0.00000E+00         0.00000E+00
 
    0.26654E+06        -0.58904E+03         0.00000E+00
   -0.58904E+03        -0.77520E+05         0.00000E+00
    0.00000E+00         0.00000E+00         0.00000E+00
 
    0.26031E+06         0.76204E+03         0.00000E+00
    0.76204E+03        -0.76399E+05         0.00000E+00
    0.00000E+00         0.00000E+00         0.00000E+00
 
    0.25404E+06         0.22299E+04         0.00000E+00
    0.22299E+04        -0.75237E+05         0.00000E+00
    0.00000E+00         0.00000E+00         0.00000E+00
 
    0.24776E+06         0.38007E+04         0.00000E+00
    0.38007E+04        -0.74029E+05         0.00000E+00
    0.00000E+00         0.00000E+00         0.00000E+00
 
    0.24144E+06         0.54626E+04         0.00000E+00
    0.54626E+04        -0.72772E+05         0.00000E+00
    0.00000E+00         0.00000E+00         0.00000E+00
 
    0.23510E+06         0.72052E+04         0.00000E+00
    0.72052E+04        -0.71462E+05         0.00000E+00
    0.00000E+00         0.00000E+00         0.00000E+00
 
    0.22873E+06         0.90196E+04         0.00000E+00
    0.90196E+04        -0.70093E+05         0.00000E+00
    0.00000E+00         0.00000E+00         0.00000E+00
 
    0.22233E+06         0.10898E+05         0.00000E+00
    0.10898E+05        -0.68663E+05         0.00000E+00
    0.00000E+00         0.00000E+00         0.00000E+00
 
    0.21590E+06         0.12835E+05         0.00000E+00
    0.12835E+05        -0.67167E+05         0.00000E+00
    0.00000E+00         0.00000E+00         0.00000E+00
 
    0.20942E+06         0.14825E+05         0.00000E+00
    0.14825E+05        -0.65601E+05         0.00000E+00
    0.00000E+00         0.00000E+00         0.00000E+00
 
    0.20290E+06         0.16865E+05         0.00000E+00
    0.16865E+05        -0.63960E+05         0.00000E+00
    0.00000E+00         0.00000E+00         0.00000E+00
 
    0.19634E+06         0.18950E+05         0.00000E+00
    0.18950E+05        -0.62242E+05         0.00000E+00
    0.00000E+00         0.00000E+00         0.00000E+00
 
    0.18973E+06         0.21079E+05         0.00000E+00
    0.21079E+05        -0.60443E+05         0.00000E+00
    0.00000E+00         0.00000E+00         0.00000E+00
 
    0.18306E+06         0.23250E+05         0.00000E+00
    0.23250E+05        -0.58559E+05         0.00000E+00
    0.00000E+00         0.00000E+00         0.00000E+00
 
    0.17633E+06         0.25463E+05         0.00000E+00
    0.25463E+05        -0.56587E+05         0.00000E+00
    0.00000E+00         0.00000E+00         0.00000E+00
 
    0.16954E+06         0.27718E+05         0.00000E+00
    0.27718E+05        -0.54525E+05         0.00000E+00
    0.00000E+00         0.00000E+00         0.00000E+00
 
    0.16269E+06         0.30016E+05         0.00000E+00
    0.30016E+05        -0.52370E+05         0.00000E+00
    0.00000E+00         0.00000E+00         0.00000E+00
 
    0.15576E+06         0.32358E+05         0.00000E+00
    0.32358E+05        -0.50120E+05         0.00000E+00
    0.00000E+00         0.00000E+00         0.00000E+00
 
    0.14876E+06         0.34746E+05         0.00000E+00
    0.34746E+05        -0.47772E+05         0.00000E+00
    0.00000E+00         0.00000E+00         0.00000E+00
 
    0.14169E+06         0.37183E+05         0.00000E+00
    0.37183E+05        -0.45325E+05         0.00000E+00
    0.00000E+00         0.00000E+00         0.00000E+00
 
    0.13455E+06         0.39673E+05         0.00000E+00
    0.39673E+05        -0.42776E+05         0.00000E+00
    0.00000E+00         0.00000E+00         0.00000E+00
 
    0.12732E+06         0.42220E+05         0.00000E+00
    0.42220E+05        -0.40124E+05         0.00000E+00
    0.00000E+00         0.00000E+00         0.00000E+00
 
    0.12001E+06         0.44829E+05         0.00000E+00
    0.44829E+05        -0.37369E+05         0.00000E+00
    0.00000E+00         0.00000E+00         0.00000E+00
 
    0.11263E+06         0.47506E+05         0.00000E+00
    0.47506E+05        -0.34509E+05         0.00000E+00
    0.00000E+00         0.00000E+00         0.00000E+00
 
    0.10516E+06         0.50257E+05         0.00000E+00
    0.50257E+05        -0.31545E+05         0.00000E+00
    0.00000E+00         0.00000E+00         0.00000E+00
 
    0.97618E+05         0.53089E+05         0.00000E+00
    0.53089E+05        -0.28477E+05         0.00000E+00
    0.00000E+00         0.00000E+00         0.00000E+00
 
    0.89999E+05         0.56010E+05         0.00000E+00
    0.56010E+05        -0.25306E+05         0.00000E+00
    0.00000E+00         0.00000E+00         0.00000E+00
 
    0.82310E+05         0.59029E+05         0.00000E+00
    0.59029E+05        -0.22035E+05         0.00000E+00
    0.00000E+00         0.00000E+00         0.00000E+00
 
    0.74555E+05         0.62155E+05         0.00000E+00
    0.62155E+05        -0.18666E+05         0.00000E+00
    0.00000E+00         0.00000E+00         0.00000E+00
 
    0.66744E+05         0.65397E+05         0.00000E+00
    0.65397E+05        -0.15204E+05         0.00000E+00
    0.00000E+00         0.00000E+00         0.00000E+00
 
    0.58887E+05         0.68765E+05         0.00000E+00
    0.68765E+05        -0.11656E+05         0.00000E+00
    0.00000E+00         0.00000E+00         0.00000E+00
 
    0.50995E+05         0.72267E+05         0.00000E+00
    0.72267E+05        -0.80293E+04         0.00000E+00
    0.00000E+00         0.00000E+00         0.00000E+00
 
    0.43084E+05         0.75912E+05         0.00000E+00
    0.75912E+05        -0.43339E+04         0.00000E+00
    0.00000E+00         0.00000E+00         0.00000E+00
 
    0.35170E+05         0.79707E+05         0.00000E+00
    0.79707E+05        -0.58152E+03         0.00000E+00
    0.00000E+00         0.00000E+00         0.00000E+00
 
    0.27270E+05         0.83655E+05         0.00000E+00
    0.83655E+05         0.32147E+04         0.00000E+00
    0.00000E+00         0.00000E+00         0.00000E+00
 
    0.19401E+05         0.87759E+05         0.00000E+00
    0.87759E+05         0.70414E+04         0.00000E+00
    0.00000E+00         0.00000E+00         0.00000E+00
 
    0.11583E+05         0.92024E+05         0.00000E+00
    0.92024E+05         0.10887E+05         0.00000E+00
    0.00000E+00         0.00000E+00         0.00000E+00
 
    0.38448E+04         0.96464E+05         0.00000E+00
    0.96464E+05         0.14747E+05         0.00000E+00
    0.00000E+00         0.00000E+00         0.00000E+00
 
    0.30542E+06        -0.58817E+03         0.00000E+00
   -0.58817E+03        -0.10966E+06         0.00000E+00
    0.00000E+00         0.00000E+00         0.00000E+00
 
    0.30217E+06        -0.11999E+04         0.00000E+00
   -0.11999E+04        -0.10946E+06         0.00000E+00
    0.00000E+00         0.00000E+00         0.00000E+00
 
    0.29860E+06        -0.15998E+04         0.00000E+00
   -0.15998E+04        -0.10910E+06         0.00000E+00
    0.00000E+00         0.00000E+00         0.00000E+00
 
    0.29472E+06        -0.17860E+04         0.00000E+00
   -0.17860E+04        -0.10858E+06         0.00000E+00
    0.00000E+00         0.00000E+00         0.00000E+00
 
    0.29057E+06        -0.17618E+04         0.00000E+00
   -0.17618E+04        -0.10793E+06         0.00000E+00
    0.00000E+00         0.00000E+00         0.00000E+00
 
    0.28618E+06        -0.15323E+04         0.00000E+00
   -0.15323E+04        -0.10715E+06         0.00000E+00
    0.00000E+00         0.00000E+00         0.00000E+00
 
    0.28156E+06        -0.11033E+04         0.00000E+00
   -0.11033E+04        -0.10627E+06         0.00000E+00
    0.00000E+00         0.00000E+00         0.00000E+00
 
    0.27676E+06        -0.48203E+03         0.00000E+00
   -0.48203E+03        -0.10528E+06         0.00000E+00
    0.00000E+00         0.00000E+00         0.00000E+00
 
    0.27177E+06         0.32326E+03         0.00000E+00
    0.32326E+03        -0.10421E+06         0.00000E+00
    0.00000E+00         0.00000E+00         0.00000E+00
 
    0.26664E+06         0.13032E+04         0.00000E+00
    0.13032E+04        -0.10305E+06         0.00000E+00
    0.00000E+00         0.00000E+00         0.00000E+00
 
    0.26136E+06         0.24476E+04         0.00000E+00
    0.24476E+04        -0.10183E+06         0.00000E+00
    0.00000E+00         0.00000E+00         0.00000E+00
 
    0.25597E+06         0.37458E+04         0.00000E+00
    0.37458E+04        -0.10053E+06         0.00000E+00
    0.00000E+00         0.00000E+00         0.00000E+00
 
    0.25046E+06         0.51870E+04         0.00000E+00
    0.51870E+04        -0.99172E+05         0.00000E+00
    0.00000E+00         0.00000E+00         0.00000E+00
 
    0.24486E+06         0.67606E+04         0.00000E+00
    0.67606E+04        -0.97754E+05         0.00000E+00
    0.00000E+00         0.00000E+00         0.00000E+00
 
    0.23918E+06         0.84562E+04         0.00000E+00
    0.84562E+04        -0.96278E+05         0.00000E+00
    0.00000E+00         0.00000E+00         0.00000E+00
 
    0.23341E+06         0.10264E+05         0.00000E+00
    0.10264E+05        -0.94746E+05         0.00000E+00
    0.00000E+00         0.00000E+00         0.00000E+00
 
    0.22757E+06         0.12175E+05         0.00000E+00
    0.12175E+05        -0.93158E+05         0.00000E+00
    0.00000E+00         0.00000E+00         0.00000E+00
 
    0.22165E+06         0.14181E+05         0.00000E+00
    0.14181E+05        -0.91512E+05         0.00000E+00
    0.00000E+00         0.00000E+00         0.00000E+00
 
    0.21568E+06         0.16275E+05         0.00000E+00
    0.16275E+05        -0.89809E+05         0.00000E+00
    0.00000E+00         0.00000E+00         0.00000E+00
 
    0.20963E+06         0.18449E+05         0.00000E+00
    0.18449E+05        -0.88047E+05         0.00000E+00
    0.00000E+00         0.00000E+00         0.00000E+00
 
    0.20353E+06         0.20698E+05         0.00000E+00
    0.20698E+05        -0.86224E+05         0.00000E+00
    0.00000E+00         0.00000E+00         0.00000E+00
 
    0.19736E+06         0.23016E+05         0.00000E+00
    0.23016E+05        -0.84339E+05         0.00000E+00
    0.00000E+00         0.00000E+00         0.00000E+00
 
    0.19113E+06         0.25401E+05         0.00000E+00
    0.25401E+05        -0.82390E+05         0.00000E+00
    0.00000E+00         0.00000E+00         0.00000E+00
 
    0.18484E+06         0.27847E+05         0.00000E+00
    0.27847E+05        -0.80374E+05         0.00000E+00
    0.00000E+00         0.00000E+00         0.00000E+00
 
    0.17849E+06         0.30352E+05         0.00000E+00
    0.30352E+05        -0.78290E+05         0.00000E+00
    0.00000E+00         0.00000E+00         0.00000E+00
 
    0.17208E+06         0.32914E+05         0.00000E+00
    0.32914E+05        -0.76137E+05         0.00000E+00
    0.00000E+00         0.00000E+00         0.00000E+00
 
    0.16560E+06         0.35531E+05         0.00000E+00
    0.35531E+05        -0.73912E+05         0.00000E+00
    0.00000E+00         0.00000E+00         0.00000E+00
 
    0.15907E+06         0.38203E+05         0.00000E+00
    0.38203E+05        -0.71614E+05         0.00000E+00
    0.00000E+00         0.00000E+00         0.00000E+00
 
    0.15247E+06         0.40929E+05         0.00000E+00
    0.40929E+05        -0.69241E+05         0.00000E+00
    0.00000E+00         0.00000E+00         0.00000E+00
 
    0.14580E+06         0.43711E+05         0.00000E+00
    0.43711E+05        -0.66792E+05         0.00000E+00
    0.00000E+00         0.00000E+00         0.00000E+00
 
    0.13908E+06         0.46547E+05         0.00000E+00
    0.46547E+05        -0.64267E+05         0.00000E+00
    0.00000E+00         0.00000E+00         0.00000E+00
 
    0.13229E+06         0.49441E+05         0.00000E+00
    0.49441E+05        -0.61664E+05         0.00000E+00
    0.00000E+00         0.00000E+00         0.00000E+00
 
    0.12544E+06         0.52394E+05         0.00000E+00
    0.52394E+05        -0.58983E+05         0.00000E+00
    0.00000E+00         0.00000E+00         0.00000E+00
 
    0.11853E+06         0.55408E+05         0.00000E+00
    0.55408E+05        -0.56224E+05         0.00000E+00
    0.00000E+00         0.00000E+00         0.00000E+00
 
    0.11156E+06         0.58486E+05         0.00000E+00
    0.58486E+05        -0.53388E+05         0.00000E+00
    0.00000E+00         0.00000E+00         0.00000E+00
 
    0.10453E+06         0.61632E+05         0.00000E+00
    0.61632E+05        -0.50475E+05         0.00000E+00
    0.00000E+00         0.00000E+00         0.00000E+00
 
    0.97453E+05         0.64849E+05         0.00000E+00
    0.64849E+05        -0.47486E+05         0.00000E+00
    0.00000E+00         0.00000E+00         0.00000E+00
 
    0.90322E+05         0.68141E+05         0.00000E+00
    0.68141E+05        -0.44424E+05         0.00000E+00
    0.00000E+00         0.00000E+00         0.00000E+00
 
    0.83147E+05         0.71512E+05         0.00000E+00
    0.71512E+05        -0.41291E+05         0.00000E+00
    0.00000E+00         0.00000E+00         0.00000E+00
 
    0.75932E+05         0.74966E+05         0.00000E+00
    0.74966E+05        -0.38091E+05         0.00000E+00
    0.00000E+00         0.00000E+00         0.00000E+00
 
    0.68684E+05         0.78508E+05         0.00000E+00
    0.78508E+05        -0.34827E+05         0.00000E+00
    0.00000E+00         0.00000E+00         0.00000E+00
 
    0.61411E+05         0.82140E+05         0.00000E+00
    0.82140E+05        -0.31504E+05         0.00000E+00
    0.00000E+00         0.00000E+00         0.00000E+00
 
    0.54121E+05         0.85868E+05         0.00000E+00
    0.85868E+05        -0.28128E+05         0.00000E+00
    0.00000E+00         0.00000E+00         0.00000E+00
 
    0.46823E+05         0.89693E+05         0.00000E+00
    0.89693E+05        -0.24706E+05         0.00000E+00
    0.00000E+00         0.00000E+00         0.00000E+00
 
    0.39529E+05         0.93619E+05         0.00000E+00
    0.93619E+05        -0.21244E+05         0.00000E+00
    0.00000E+00         0.00000E+00         0.00000E+00
 
    0.32249E+05         0.97647E+05         0.00000E+00
    0.97647E+05        -0.17750E+05         0.00000E+00
    0.00000E+00         0.00000E+00         0.00000E+00
 
    0.24995E+05         0.10178E+06         0.00000E+00
    0.10178E+06        -0.14233E+05         0.00000E+00
    0.00000E+00         0.00000E+00         0.00000E+00
 
    0.17781E+05         0.10602E+06         0.00000E+00
    0.10602E+06        -0.10700E+05         0.00000E+00
    0.00000E+00         0.00000E+00         0.00000E+00
 
    0.10621E+05         0.11036E+06         0.00000E+00
    0.11036E+06        -0.71632E+04         0.00000E+00
    0.00000E+00         0.00000E+00         0.00000E+00
 
    0.35285E+04         0.11480E+06         0.00000E+00
    0.11480E+06        -0.36348E+04         0.00000E+00
    0.00000E+00         0.00000E+00         0.00000E+00
 
    0.28140E+06        -0.95596E+02         0.00000E+00
   -0.95596E+02        -0.13223E+06         0.00000E+00
    0.00000E+00         0.00000E+00         0.00000E+00
 
    0.27904E+06         0.10602E+03         0.00000E+00
    0.10602E+03        -0.13204E+06         0.00000E+00
    0.00000E+00         0.00000E+00         0.00000E+00
 
    0.27636E+06         0.45569E+03         0.00000E+00
    0.45569E+03        -0.13169E+06         0.00000E+00
    0.00000E+00         0.00000E+00         0.00000E+00
 
    0.27338E+06         0.95523E+03         0.00000E+00
    0.95523E+03        -0.13119E+06         0.00000E+00
    0.00000E+00         0.00000E+00         0.00000E+00
 
    0.27012E+06         0.16058E+04         0.00000E+00
    0.16058E+04        -0.13054E+06         0.00000E+00
    0.00000E+00         0.00000E+00         0.00000E+00
 
    0.26660E+06         0.24073E+04         0.00000E+00
    0.24073E+04        -0.12975E+06         0.00000E+00
    0.00000E+00         0.00000E+00         0.00000E+00
 
    0.26284E+06         0.33579E+04         0.00000E+00
    0.33579E+04        -0.12885E+06         0.00000E+00
    0.00000E+00         0.00000E+00         0.00000E+00
 
    0.25885E+06         0.44550E+04         0.00000E+00
    0.44550E+04        -0.12783E+06         0.00000E+00
    0.00000E+00         0.00000E+00         0.00000E+00
 
    0.25466E+06         0.56952E+04         0.00000E+00
    0.56952E+04        -0.12670E+06         0.00000E+00
    0.00000E+00         0.00000E+00         0.00000E+00
 
    0.25029E+06         0.70742E+04         0.00000E+00
    0.70742E+04        -0.12547E+06         0.00000E+00
    0.00000E+00         0.00000E+00         0.00000E+00
 
    0.24573E+06         0.85872E+04         0.00000E+00
    0.85872E+04        -0.12415E+06         0.00000E+00
    0.00000E+00         0.00000E+00         0.00000E+00
 
    0.24102E+06         0.10229E+05         0.00000E+00
    0.10229E+05        -0.12274E+06         0.00000E+00
    0.00000E+00         0.00000E+00         0.00000E+00
 
    0.23616E+06         0.11994E+05         0.00000E+00
    0.11994E+05        -0.12126E+06         0.00000E+00
    0.00000E+00         0.00000E+00         0.00000E+00
 
    0.23116E+06         0.13876E+05         0.00000E+00
    0.13876E+05        -0.11969E+06         0.00000E+00
    0.00000E+00         0.00000E+00         0.00000E+00
 
    0.22604E+06         0.15870E+05         0.00000E+00
    0.15870E+05        -0.11806E+06         0.00000E+00
    0.00000E+00         0.00000E+00         0.00000E+00
 
    0.22080E+06         0.17969E+05         0.00000E+00
    0.17969E+05        -0.11635E+06         0.00000E+00
    0.00000E+00         0.00000E+00         0.00000E+00
 
    0.21545E+06         0.20168E+05         0.00000E+00
    0.20168E+05        -0.11458E+06         0.00000E+00
    0.00000E+00         0.00000E+00         0.00000E+00
 
    0.20999E+06         0.22461E+05         0.00000E+00
    0.22461E+05        -0.11274E+06         0.00000E+00
    0.00000E+00         0.00000E+00         0.00000E+00
 
    0.20444E+06         0.24843E+05         0.00000E+00
    0.24843E+05        -0.11084E+06         0.00000E+00
    0.00000E+00         0.00000E+00         0.00000E+00
 
    0.19880E+06         0.27310E+05         0.00000E+00
    0.27310E+05        -0.10888E+06         0.00000E+00
    0.00000E+00         0.00000E+00         0.00000E+00
 
    0.19307E+06         0.29856E+05         0.00000E+00
    0.29856E+05        -0.10685E+06         0.00000E+00
    0.00000E+00         0.00000E+00         0.00000E+00
 
    0.18726E+06         0.32477E+05         0.00000E+00
    0.32477E+05        -0.10477E+06         0.00000E+00
    0.00000E+00         0.00000E+00         0.00000E+00
 
    0.18137E+06         0.35171E+05         0.00000E+00
    0.35171E+05        -0.10262E+06         0.00000E+00
    0.00000E+00         0.00000E+00         0.00000E+00
 
    0.17541E+06         0.37933E+05         0.00000E+00
    0.37933E+05        -0.10041E+06         0.00000E+00
    0.00000E+00         0.00000E+00         0.00000E+00
 
    0.16937E+06         0.40761E+05         0.00000E+00
    0.40761E+05        -0.98134E+05         0.00000E+00
    0.00000E+00         0.00000E+00         0.00000E+00
 
    0.16325E+06         0.43653E+05         0.00000E+00
    0.43653E+05        -0.95800E+05         0.00000E+00
    0.00000E+00         0.00000E+00         0.00000E+00
 
    0.15707E+06         0.46607E+05         0.00000E+00
    0.46607E+05        -0.93403E+05         0.00000E+00
    0.00000E+00         0.00000E+00         0.00000E+00
 
    0.15083E+06         0.49622E+05         0.00000E+00
    0.49622E+05        -0.90945E+05         0.00000E+00
    0.00000E+00         0.00000E+00         0.00000E+00
 
    0.14452E+06         0.52696E+05         0.00000E+00
    0.52696E+05        -0.88424E+05         0.00000E+00
    0.00000E+00         0.00000E+00         0.00000E+00
 
    0.13814E+06         0.55829E+05         0.00000E+00
    0.55829E+05        -0.85841E+05         0.00000E+00
    0.00000E+00         0.00000E+00         0.00000E+00
 
    0.13171E+06         0.59021E+05         0.00000E+00
    0.59021E+05        -0.83197E+05         0.00000E+00
    0.00000E+00         0.00000E+00         0.00000E+00
 
    0.12522E+06         0.62272E+05         0.00000E+00
    0.62272E+05        -0.80491E+05         0.00000E+00
    0.00000E+00         0.00000E+00         0.00000E+00
 
    0.11867E+06         0.65582E+05         0.00000E+00
    0.65582E+05        -0.77724E+05         0.00000E+00
    0.00000E+00         0.00000E+00         0.00000E+00
 
    0.11207E+06         0.68953E+05         0.00000E+00
    0.68953E+05        -0.74899E+05         0.00000E+00
    0.00000E+00         0.00000E+00         0.00000E+00
 
    0.10542E+06         0.72384E+05         0.00000E+00
    0.72384E+05        -0.72014E+05         0.00000E+00
    0.00000E+00         0.00000E+00         0.00000E+00
 
    0.98728E+05         0.75878E+05         0.00000E+00
    0.75878E+05        -0.69073E+05         0.00000E+00
    0.00000E+00         0.00000E+00         0.00000E+00
 
    0.91992E+05         0.79435E+05         0.00000E+00
    0.79435E+05        -0.66078E+05         0.00000E+00
    0.00000E+00         0.00000E+00         0.00000E+00
 
    0.85220E+05         0.83057E+05         0.00000E+00
    0.83057E+05        -0.63030E+05         0.00000E+00
    0.00000E+00         0.00000E+00         0.00000E+00
 
    0.78416E+05         0.86745E+05         0.00000E+00
    0.86745E+05        -0.59933E+05         0.00000E+00
    0.00000E+00         0.00000E+00         0.00000E+00
 
    0.71585E+05         0.90500E+05         0.00000E+00
    0.90500E+05        -0.56789E+05         0.00000E+00
    0.00000E+00         0.00000E+00         0.00000E+00
 
    0.64733E+05         0.94324E+05         0.00000E+00
    0.94324E+05        -0.53603E+05         0.00000E+00
    0.00000E+00         0.00000E+00         0.00000E+00
 
    0.57867E+05         0.98218E+05         0.00000E+00
    0.98218E+05        -0.50379E+05         0.00000E+00
    0.00000E+00         0.00000E+00         0.00000E+00
 
    0.50993E+05         0.10218E+06         0.00000E+00
    0.10218E+06        -0.47120E+05         0.00000E+00
    0.00000E+00         0.00000E+00         0.00000E+00
 
    0.44119E+05         0.10622E+06         0.00000E+00
    0.10622E+06        -0.43833E+05         0.00000E+00
    0.00000E+00         0.00000E+00         0.00000E+00
 
    0.37252E+05         0.11032E+06         0.00000E+00
    0.11032E+06        -0.40521E+05         0.00000E+00
    0.00000E+00         0.00000E+00         0.00000E+00
 
    0.30402E+05         0.11450E+06         0.00000E+00
    0.11450E+06        -0.37192E+05         0.00000E+00
    0.00000E+00         0.00000E+00         0.00000E+00
 
    0.23576E+05         0.11874E+06         0.00000E+00
    0.11874E+06        -0.33851E+05         0.00000E+00
    0.00000E+00         0.00000E+00         0.00000E+00
 
    0.16784E+05         0.12306E+06         0.00000E+00
    0.12306E+06        -0.30504E+05         0.00000E+00
    0.00000E+00         0.00000E+00         0.00000E+00
 
    0.10034E+05         0.12744E+06         0.00000E+00
    0.12744E+06        -0.27158E+05         0.00000E+00
    0.00000E+00         0.00000E+00         0.00000E+00
 
    0.33351E+04         0.13188E+06         0.00000E+00
    0.13188E+06        -0.23818E+05         0.00000E+00
    0.00000E+00         0.00000E+00         0.00000E+00
 
    0.26179E+06         0.36241E+03         0.00000E+00
    0.36241E+03        -0.15453E+06         0.00000E+00
    0.00000E+00         0.00000E+00         0.00000E+00
 
    0.26004E+06         0.13516E+04         0.00000E+00
    0.13516E+04        -0.15436E+06         0.00000E+00
    0.00000E+00         0.00000E+00         0.00000E+00
 
    0.25799E+06         0.24431E+04         0.00000E+00
    0.24431E+04        -0.15402E+06         0.00000E+00
    0.00000E+00         0.00000E+00         0.00000E+00
 
    0.25564E+06         0.36398E+04         0.00000E+00
    0.36398E+04        -0.15353E+06         0.00000E+00
    0.00000E+00         0.00000E+00         0.00000E+00
 
    0.25302E+06         0.49439E+04         0.00000E+00
    0.49439E+04        -0.15290E+06         0.00000E+00
    0.00000E+00         0.00000E+00         0.00000E+00
 
    0.25014E+06         0.63567E+04         0.00000E+00
    0.63567E+04        -0.15213E+06         0.00000E+00
    0.00000E+00         0.00000E+00         0.00000E+00
 
    0.24702E+06         0.78790E+04         0.00000E+00
    0.78790E+04        -0.15124E+06         0.00000E+00
    0.00000E+00         0.00000E+00         0.00000E+00
 
    0.24366E+06         0.95107E+04         0.00000E+00
    0.95107E+04        -0.15022E+06         0.00000E+00
    0.00000E+00         0.00000E+00         0.00000E+00
 
    0.24009E+06         0.11251E+05         0.00000E+00
    0.11251E+05        -0.14909E+06         0.00000E+00
    0.00000E+00         0.00000E+00         0.00000E+00
 
    0.23631E+06         0.13099E+05         0.00000E+00
    0.13099E+05        -0.14785E+06         0.00000E+00
    0.00000E+00         0.00000E+00         0.00000E+00
 
    0.23234E+06         0.15052E+05         0.00000E+00
    0.15052E+05        -0.14650E+06         0.00000E+00
    0.00000E+00         0.00000E+00         0.00000E+00
 
    0.22819E+06         0.17109E+05         0.00000E+00
    0.17109E+05        -0.14506E+06         0.00000E+00
    0.00000E+00         0.00000E+00         0.00000E+00
 
    0.22388E+06         0.19266E+05         0.00000E+00
    0.19266E+05        -0.14353E+06         0.00000E+00
    0.00000E+00         0.00000E+00         0.00000E+00
 
    0.21940E+06         0.21521E+05         0.00000E+00
    0.21521E+05        -0.14191E+06         0.00000E+00
    0.00000E+00         0.00000E+00         0.00000E+00
 
    0.21478E+06         0.23871E+05         0.00000E+00
    0.23871E+05        -0.14021E+06         0.00000E+00
    0.00000E+00         0.00000E+00         0.00000E+00
 
    0.21001E+06         0.26313E+05         0.00000E+00
    0.26313E+05        -0.13844E+06         0.00000E+00
    0.00000E+00         0.00000E+00         0.00000E+00
 
    0.20512E+06         0.28843E+05         0.00000E+00
    0.28843E+05        -0.13658E+06         0.00000E+00
    0.00000E+00         0.00000E+00         0.00000E+00
 
    0.20010E+06         0.31458E+05         0.00000E+00
    0.31458E+05        -0.13465E+06         0.00000E+00
    0.00000E+00         0.00000E+00         0.00000E+00
 
    0.19496E+06         0.34155E+05         0.00000E+00
    0.34155E+05        -0.13266E+06         0.00000E+00
    0.00000E+00         0.00000E+00         0.00000E+00
 
    0.18972E+06         0.36930E+05         0.00000E+00
    0.36930E+05        -0.13059E+06         0.00000E+00
    0.00000E+00         0.00000E+00         0.00000E+00
 
    0.18436E+06         0.39781E+05         0.00000E+00
    0.39781E+05        -0.12846E+06         0.00000E+00
    0.00000E+00         0.00000E+00         0.00000E+00
 
    0.17891E+06         0.42705E+05         0.00000E+00
    0.42705E+05        -0.12627E+06         0.00000E+00
    0.00000E+00         0.00000E+00         0.00000E+00
 
    0.17337E+06         0.45698E+05         0.00000E+00
    0.45698E+05        -0.12401E+06         0.00000E+00
    0.00000E+00         0.00000E+00         0.00000E+00
 
    0.16774E+06         0.48759E+05         0.00000E+00
    0.48759E+05        -0.12170E+06         0.00000E+00
    0.00000E+00         0.00000E+00         0.00000E+00
 
    0.16202E+06         0.51886E+05         0.00000E+00
    0.51886E+05        -0.11932E+06         0.00000E+00
    0.00000E+00         0.00000E+00         0.00000E+00
 
    0.15622E+06         0.55075E+05         0.00000E+00
    0.55075E+05        -0.11689E+06         0.00000E+00
    0.00000E+00         0.00000E+00         0.00000E+00
 
    0.15034E+06         0.58327E+05         0.00000E+00
    0.58327E+05        -0.11440E+06         0.00000E+00
    0.00000E+00         0.00000E+00         0.00000E+00
 
    0.14439E+06         0.61638E+05         0.00000E+00
    0.61638E+05        -0.11185E+06         0.00000E+00
    0.00000E+00         0.00000E+00         0.00000E+00
 
    0.13837E+06         0.65008E+05         0.00000E+00
    0.65008E+05        -0.10925E+06         0.00000E+00
    0.00000E+00         0.00000E+00         0.00000E+00
 
    0.13229E+06         0.68435E+05         0.00000E+00
    0.68435E+05        -0.10659E+06         0.00000E+00
    0.00000E+00         0.00000E+00         0.00000E+00
 
    0.12614E+06         0.71919E+05         0.00000E+00
    0.71919E+05        -0.10388E+06         0.00000E+00
    0.00000E+00         0.00000E+00         0.00000E+00
 
    0.11994E+06         0.75459E+05         0.00000E+00
    0.75459E+05        -0.10112E+06         0.00000E+00
    0.00000E+00         0.00000E+00         0.00000E+00
 
    0.11368E+06         0.79054E+05         0.00000E+00
    0.79054E+05        -0.98311E+05         0.00000E+00
    0.00000E+00         0.00000E+00         0.00000E+00
 
    0.10736E+06         0.82704E+05         0.00000E+00
    0.82704E+05        -0.95453E+05         0.00000E+00
    0.00000E+00         0.00000E+00         0.00000E+00
 
    0.10100E+06         0.86408E+05         0.00000E+00
    0.86408E+05        -0.92549E+05         0.00000E+00
    0.00000E+00         0.00000E+00         0.00000E+00
 
    0.94602E+05         0.90167E+05         0.00000E+00
    0.90167E+05        -0.89601E+05         0.00000E+00
    0.00000E+00         0.00000E+00         0.00000E+00
 
    0.88161E+05         0.93980E+05         0.00000E+00
    0.93980E+05        -0.86611E+05         0.00000E+00
    0.00000E+00         0.00000E+00         0.00000E+00
 
    0.81685E+05         0.97848E+05         0.00000E+00
    0.97848E+05        -0.83582E+05         0.00000E+00
    0.00000E+00         0.00000E+00         0.00000E+00
 
    0.75180E+05         0.10177E+06         0.00000E+00
    0.10177E+06        -0.80516E+05         0.00000E+00
    0.00000E+00         0.00000E+00         0.00000E+00
 
    0.68650E+05         0.10574E+06         0.00000E+00
    0.10574E+06        -0.77416E+05         0.00000E+00
    0.00000E+00         0.00000E+00         0.00000E+00
 
    0.62101E+05         0.10977E+06         0.00000E+00
    0.10977E+06        -0.74286E+05         0.00000E+00
    0.00000E+00         0.00000E+00         0.00000E+00
 
    0.55538E+05         0.11385E+06         0.00000E+00
    0.11385E+06        -0.71129E+05         0.00000E+00
    0.00000E+00         0.00000E+00         0.00000E+00
 
    0.48965E+05         0.11798E+06         0.00000E+00
    0.11798E+06        -0.67949E+05         0.00000E+00
    0.00000E+00         0.00000E+00         0.00000E+00
 
    0.42391E+05         0.12216E+06         0.00000E+00
    0.12216E+06        -0.64749E+05         0.00000E+00
    0.00000E+00         0.00000E+00         0.00000E+00
 
    0.35819E+05         0.12639E+06         0.00000E+00
    0.12639E+06        -0.61534E+05         0.00000E+00
    0.00000E+00         0.00000E+00         0.00000E+00
 
    0.29256E+05         0.13067E+06         0.00000E+00
    0.13067E+06        -0.58307E+05         0.00000E+00
    0.00000E+00         0.00000E+00         0.00000E+00
 
    0.22709E+05         0.13499E+06         0.00000E+00
    0.13499E+06        -0.55074E+05         0.00000E+00
    0.00000E+00         0.00000E+00         0.00000E+00
 
    0.16183E+05         0.13936E+06         0.00000E+00
    0.13936E+06        -0.51838E+05         0.00000E+00
    0.00000E+00         0.00000E+00         0.00000E+00
 
    0.96859E+04         0.14377E+06         0.00000E+00
    0.14377E+06        -0.48604E+05         0.00000E+00
    0.00000E+00         0.00000E+00         0.00000E+00
 
    0.32225E+04         0.14821E+06         0.00000E+00
    0.14821E+06        -0.45378E+05         0.00000E+00
    0.00000E+00         0.00000E+00         0.00000E+00
 
    0.24626E+06         0.78842E+03         0.00000E+00
    0.78842E+03        -0.17672E+06         0.00000E+00
    0.00000E+00         0.00000E+00         0.00000E+00
 
    0.24492E+06         0.25336E+04         0.00000E+00
    0.25336E+04        -0.17655E+06         0.00000E+00
    0.00000E+00         0.00000E+00         0.00000E+00
 
    0.24329E+06         0.43459E+04         0.00000E+00
    0.43459E+04        -0.17624E+06         0.00000E+00
    0.00000E+00         0.00000E+00         0.00000E+00
 
    0.24139E+06         0.62291E+04         0.00000E+00
    0.62291E+04        -0.17577E+06         0.00000E+00
    0.00000E+00         0.00000E+00         0.00000E+00
 
    0.23922E+06         0.81860E+04         0.00000E+00
    0.81860E+04        -0.17516E+06         0.00000E+00
    0.00000E+00         0.00000E+00         0.00000E+00
 
    0.23680E+06         0.10219E+05         0.00000E+00
    0.10219E+05        -0.17442E+06         0.00000E+00
    0.00000E+00         0.00000E+00         0.00000E+00
 
    0.23414E+06         0.12330E+05         0.00000E+00
    0.12330E+05        -0.17355E+06         0.00000E+00
    0.00000E+00         0.00000E+00         0.00000E+00
 
    0.23125E+06         0.14520E+05         0.00000E+00
    0.14520E+05        -0.17256E+06         0.00000E+00
    0.00000E+00         0.00000E+00         0.00000E+00
 
    0.22814E+06         0.16791E+05         0.00000E+00
    0.16791E+05        -0.17145E+06         0.00000E+00
    0.00000E+00         0.00000E+00         0.00000E+00
 
    0.22482E+06         0.19141E+05         0.00000E+00
    0.19141E+05        -0.17023E+06         0.00000E+00
    0.00000E+00         0.00000E+00         0.00000E+00
 
    0.22131E+06         0.21572E+05         0.00000E+00
    0.21572E+05        -0.16890E+06         0.00000E+00
    0.00000E+00         0.00000E+00         0.00000E+00
 
    0.21761E+06         0.24083E+05         0.00000E+00
    0.24083E+05        -0.16747E+06         0.00000E+00
    0.00000E+00         0.00000E+00         0.00000E+00
 
    0.21373E+06         0.26673E+05         0.00000E+00
    0.26673E+05        -0.16594E+06         0.00000E+00
    0.00000E+00         0.00000E+00         0.00000E+00
 
    0.20968E+06         0.29340E+05         0.00000E+00
    0.29340E+05        -0.16432E+06         0.00000E+00
    0.00000E+00         0.00000E+00         0.00000E+00
 
    0.20548E+06         0.32085E+05         0.00000E+00
    0.32085E+05        -0.16262E+06         0.00000E+00
    0.00000E+00         0.00000E+00         0.00000E+00
 
    0.20112E+06         0.34904E+05         0.00000E+00
    0.34904E+05        -0.16082E+06         0.00000E+00
    0.00000E+00         0.00000E+00         0.00000E+00
 
    0.19661E+06         0.37797E+05         0.00000E+00
    0.37797E+05        -0.15895E+06         0.00000E+00
    0.00000E+00         0.00000E+00         0.00000E+00
 
    0.19197E+06         0.40762E+05         0.00000E+00
    0.40762E+05        -0.15700E+06         0.00000E+00
    0.00000E+00         0.00000E+00         0.00000E+00
 
    0.18721E+06         0.43797E+05         0.00000E+00
    0.43797E+05        -0.15498E+06         0.00000E+00
    0.00000E+00         0.00000E+00         0.00000E+00
 
    0.18231E+06         0.46900E+05         0.00000E+00
    0.46900E+05        -0.15288E+06         0.00000E+00
    0.00000E+00         0.00000E+00         0.00000E+00
 
    0.17731E+06         0.50070E+05         0.00000E+00
    0.50070E+05        -0.15072E+06         0.00000E+00
    0.00000E+00         0.00000E+00         0.00000E+00
 
    0.17219E+06         0.53304E+05         0.00000E+00
    0.53304E+05        -0.14849E+06         0.00000E+00
    0.00000E+00         0.00000E+00         0.00000E+00
 
    0.16697E+06         0.56600E+05         0.00000E+00
    0.56600E+05        -0.14619E+06         0.00000E+00
    0.00000E+00         0.00000E+00         0.00000E+00
 
    0.16164E+06         0.59957E+05         0.00000E+00
    0.59957E+05        -0.14384E+06         0.00000E+00
    0.00000E+00         0.00000E+00         0.00000E+00
 
    0.15623E+06         0.63373E+05         0.00000E+00
    0.63373E+05        -0.14142E+06         0.00000E+00
    0.00000E+00         0.00000E+00         0.00000E+00
 
    0.15072E+06         0.66846E+05         0.00000E+00
    0.66846E+05        -0.13895E+06         0.00000E+00
    0.00000E+00         0.00000E+00         0.00000E+00
 
    0.14513E+06         0.70376E+05         0.00000E+00
    0.70376E+05        -0.13642E+06         0.00000E+00
    0.00000E+00         0.00000E+00         0.00000E+00
 
    0.13946E+06         0.73960E+05         0.00000E+00
    0.73960E+05        -0.13384E+06         0.00000E+00
    0.00000E+00         0.00000E+00         0.00000E+00
 
    0.13371E+06         0.77596E+05         0.00000E+00
    0.77596E+05        -0.13120E+06         0.00000E+00
    0.00000E+00         0.00000E+00         0.00000E+00
 
    0.12790E+06         0.81285E+05         0.00000E+00
    0.81285E+05        -0.12852E+06         0.00000E+00
    0.00000E+00         0.00000E+00         0.00000E+00
 
    0.12201E+06         0.85024E+05         0.00000E+00
    0.85024E+05        -0.12579E+06         0.00000E+00
    0.00000E+00         0.00000E+00         0.00000E+00
 
    0.11606E+06         0.88812E+05         0.00000E+00
    0.88812E+05        -0.12301E+06         0.00000E+00
    0.00000E+00         0.00000E+00         0.00000E+00
 
    0.11006E+06         0.92649E+05         0.00000E+00
    0.92649E+05        -0.12019E+06         0.00000E+00
    0.00000E+00         0.00000E+00         0.00000E+00
 
    0.10400E+06         0.96533E+05         0.00000E+00
    0.96533E+05        -0.11733E+06         0.00000E+00
    0.00000E+00         0.00000E+00         0.00000E+00
 
    0.97885E+05         0.10046E+06         0.00000E+00
    0.10046E+06        -0.11443E+06         0.00000E+00
    0.00000E+00         0.00000E+00         0.00000E+00
 
    0.91727E+05         0.10444E+06         0.00000E+00
    0.10444E+06        -0.11149E+06         0.00000E+00
    0.00000E+00         0.00000E+00         0.00000E+00
 
    0.85528E+05         0.10846E+06         0.00000E+00
    0.10846E+06        -0.10851E+06         0.00000E+00
    0.00000E+00         0.00000E+00         0.00000E+00
 
    0.79290E+05         0.11252E+06         0.00000E+00
    0.11252E+06        -0.10550E+06         0.00000E+00
    0.00000E+00         0.00000E+00         0.00000E+00
 
    0.73020E+05         0.11663E+06         0.00000E+00
    0.11663E+06        -0.10247E+06         0.00000E+00
    0.00000E+00         0.00000E+00         0.00000E+00
 
    0.66721E+05         0.12078E+06         0.00000E+00
    0.12078E+06        -0.99402E+05         0.00000E+00
    0.00000E+00         0.00000E+00         0.00000E+00
 
    0.60398E+05         0.12496E+06         0.00000E+00
    0.12496E+06        -0.96314E+05         0.00000E+00
    0.00000E+00         0.00000E+00         0.00000E+00
 
    0.54055E+05         0.12919E+06         0.00000E+00
    0.12919E+06        -0.93203E+05         0.00000E+00
    0.00000E+00         0.00000E+00         0.00000E+00
 
    0.47697E+05         0.13345E+06         0.00000E+00
    0.13345E+06        -0.90075E+05         0.00000E+00
    0.00000E+00         0.00000E+00         0.00000E+00
 
    0.41329E+05         0.13774E+06         0.00000E+00
    0.13774E+06        -0.86931E+05         0.00000E+00
    0.00000E+00         0.00000E+00         0.00000E+00
 
    0.34955E+05         0.14207E+06         0.00000E+00
    0.14207E+06        -0.83775E+05         0.00000E+00
    0.00000E+00         0.00000E+00         0.00000E+00
 
    0.28581E+05         0.14643E+06         0.00000E+00
    0.14643E+06        -0.80610E+05         0.00000E+00
    0.00000E+00         0.00000E+00         0.00000E+00
 
    0.22209E+05         0.15082E+06         0.00000E+00
    0.15082E+06        -0.77440E+05         0.00000E+00
    0.00000E+00         0.00000E+00         0.00000E+00
 
    0.15846E+05         0.15524E+06         0.00000E+00
    0.15524E+06        -0.74268E+05         0.00000E+00
    0.00000E+00         0.00000E+00         0.00000E+00
 
    0.94955E+04         0.15967E+06         0.00000E+00
    0.15967E+06        -0.71097E+05         0.00000E+00
    0.00000E+00         0.00000E+00         0.00000E+00
 
    0.31620E+04         0.16413E+06         0.00000E+00
    0.16413E+06        -0.67931E+05         0.00000E+00
    0.00000E+00         0.00000E+00         0.00000E+00
 
    0.23448E+06         0.11850E+04         0.00000E+00
    0.11850E+04        -0.19893E+06         0.00000E+00
    0.00000E+00         0.00000E+00         0.00000E+00
 
    0.23339E+06         0.36491E+04         0.00000E+00
    0.36491E+04        -0.19877E+06         0.00000E+00
    0.00000E+00         0.00000E+00         0.00000E+00
 
    0.23204E+06         0.61534E+04         0.00000E+00
    0.61534E+04        -0.19847E+06         0.00000E+00
    0.00000E+00         0.00000E+00         0.00000E+00
 
    0.23042E+06         0.87017E+04         0.00000E+00
    0.87017E+04        -0.19803E+06         0.00000E+00
    0.00000E+00         0.00000E+00         0.00000E+00
 
    0.22856E+06         0.11297E+05         0.00000E+00
    0.11297E+05        -0.19745E+06         0.00000E+00
    0.00000E+00         0.00000E+00         0.00000E+00
 
    0.22646E+06         0.13943E+05         0.00000E+00
    0.13943E+05        -0.19674E+06         0.00000E+00
    0.00000E+00         0.00000E+00         0.00000E+00
 
    0.22412E+06         0.16641E+05         0.00000E+00
    0.16641E+05        -0.19591E+06         0.00000E+00
    0.00000E+00         0.00000E+00         0.00000E+00
 
    0.22156E+06         0.19394E+05         0.00000E+00
    0.19394E+05        -0.19495E+06         0.00000E+00
    0.00000E+00         0.00000E+00         0.00000E+00
 
    0.21879E+06         0.22203E+05         0.00000E+00
    0.22203E+05        -0.19388E+06         0.00000E+00
    0.00000E+00         0.00000E+00         0.00000E+00
 
    0.21581E+06         0.25069E+05         0.00000E+00
    0.25069E+05        -0.19269E+06         0.00000E+00
    0.00000E+00         0.00000E+00         0.00000E+00
 
    0.21264E+06         0.27993E+05         0.00000E+00
    0.27993E+05        -0.19140E+06         0.00000E+00
    0.00000E+00         0.00000E+00         0.00000E+00
 
    0.20928E+06         0.30977E+05         0.00000E+00
    0.30977E+05        -0.19000E+06         0.00000E+00
    0.00000E+00         0.00000E+00         0.00000E+00
 
    0.20573E+06         0.34019E+05         0.00000E+00
    0.34019E+05        -0.18851E+06         0.00000E+00
    0.00000E+00         0.00000E+00         0.00000E+00
 
    0.20202E+06         0.37121E+05         0.00000E+00
    0.37121E+05        -0.18692E+06         0.00000E+00
    0.00000E+00         0.00000E+00         0.00000E+00
 
    0.19815E+06         0.40281E+05         0.00000E+00
    0.40281E+05        -0.18524E+06         0.00000E+00
    0.00000E+00         0.00000E+00         0.00000E+00
 
    0.19411E+06         0.43500E+05         0.00000E+00
    0.43500E+05        -0.18347E+06         0.00000E+00
    0.00000E+00         0.00000E+00         0.00000E+00
 
    0.18993E+06         0.46777E+05         0.00000E+00
    0.46777E+05        -0.18162E+06         0.00000E+00
    0.00000E+00         0.00000E+00         0.00000E+00
 
    0.18560E+06         0.50111E+05         0.00000E+00
    0.50111E+05        -0.17968E+06         0.00000E+00
    0.00000E+00         0.00000E+00         0.00000E+00
 
    0.18114E+06         0.53502E+05         0.00000E+00
    0.53502E+05        -0.17767E+06         0.00000E+00
    0.00000E+00         0.00000E+00         0.00000E+00
 
    0.17655E+06         0.56948E+05         0.00000E+00
    0.56948E+05        -0.17559E+06         0.00000E+00
    0.00000E+00         0.00000E+00         0.00000E+00
 
    0.17183E+06         0.60448E+05         0.00000E+00
    0.60448E+05        -0.17343E+06         0.00000E+00
    0.00000E+00         0.00000E+00         0.00000E+00
 
    0.16700E+06         0.64002E+05         0.00000E+00
    0.64002E+05        -0.17121E+06         0.00000E+00
    0.00000E+00         0.00000E+00         0.00000E+00
 
    0.16205E+06         0.67608E+05         0.00000E+00
    0.67608E+05        -0.16892E+06         0.00000E+00
    0.00000E+00         0.00000E+00         0.00000E+00
 
    0.15700E+06         0.71264E+05         0.00000E+00
    0.71264E+05        -0.16657E+06         0.00000E+00
    0.00000E+00         0.00000E+00         0.00000E+00
 
    0.15185E+06         0.74970E+05         0.00000E+00
    0.74970E+05        -0.16416E+06         0.00000E+00
    0.00000E+00         0.00000E+00         0.00000E+00
 
    0.14660E+06         0.78724E+05         0.00000E+00
    0.78724E+05        -0.16168E+06         0.00000E+00
    0.00000E+00         0.00000E+00         0.00000E+00
 
    0.14126E+06         0.82526E+05         0.00000E+00
    0.82526E+05        -0.15916E+06         0.00000E+00
    0.00000E+00         0.00000E+00         0.00000E+00
 
    0.13583E+06         0.86373E+05         0.00000E+00
    0.86373E+05        -0.15658E+06         0.00000E+00
    0.00000E+00         0.00000E+00         0.00000E+00
 
    0.13032E+06         0.90265E+05         0.00000E+00
    0.90265E+05        -0.15395E+06         0.00000E+00
    0.00000E+00         0.00000E+00         0.00000E+00
 
    0.12473E+06         0.94200E+05         0.00000E+00
    0.94200E+05        -0.15127E+06         0.00000E+00
    0.00000E+00         0.00000E+00         0.00000E+00
 
    0.11907E+06         0.98177E+05         0.00000E+00
    0.98177E+05        -0.14855E+06         0.00000E+00
    0.00000E+00         0.00000E+00         0.00000E+00
 
    0.11334E+06         0.10219E+06         0.00000E+00
    0.10219E+06        -0.14578E+06         0.00000E+00
    0.00000E+00         0.00000E+00         0.00000E+00
 
    0.10754E+06         0.10625E+06         0.00000E+00
    0.10625E+06        -0.14297E+06         0.00000E+00
    0.00000E+00         0.00000E+00         0.00000E+00
 
    0.10169E+06         0.11035E+06         0.00000E+00
    0.11035E+06        -0.14012E+06         0.00000E+00
    0.00000E+00         0.00000E+00         0.00000E+00
 
    0.95780E+05         0.11448E+06         0.00000E+00
    0.11448E+06        -0.13723E+06         0.00000E+00
    0.00000E+00         0.00000E+00         0.00000E+00
 
    0.89818E+05         0.11865E+06         0.00000E+00
    0.11865E+06        -0.13431E+06         0.00000E+00
    0.00000E+00         0.00000E+00         0.00000E+00
 
    0.83808E+05         0.12285E+06         0.00000E+00
    0.12285E+06        -0.13135E+06         0.00000E+00
    0.00000E+00         0.00000E+00         0.00000E+00
 
    0.77754E+05         0.12709E+06         0.00000E+00
    0.12709E+06        -0.12837E+06         0.00000E+00
    0.00000E+00         0.00000E+00         0.00000E+00
 
    0.71661E+05         0.13136E+06         0.00000E+00
    0.13136E+06        -0.12536E+06         0.00000E+00
    0.00000E+00         0.00000E+00         0.00000E+00
 
    0.65532E+05         0.13565E+06         0.00000E+00
    0.13565E+06        -0.12232E+06         0.00000E+00
    0.00000E+00         0.00000E+00         0.00000E+00
 
    0.59372E+05         0.13998E+06         0.00000E+00
    0.13998E+06        -0.11926E+06         0.00000E+00
    0.00000E+00         0.00000E+00         0.00000E+00
 
    0.53184E+05         0.14433E+06         0.00000E+00
    0.14433E+06        -0.11618E+06         0.00000E+00
    0.00000E+00         0.00000E+00         0.00000E+00
 
    0.46972E+05         0.14871E+06         0.00000E+00
    0.14871E+06        -0.11309E+06         0.00000E+00
    0.00000E+00         0.00000E+00         0.00000E+00
 
    0.40740E+05         0.15311E+06         0.00000E+00
    0.15311E+06        -0.10998E+06         0.00000E+00
    0.00000E+00         0.00000E+00         0.00000E+00
 
    0.34492E+05         0.15753E+06         0.00000E+00
    0.15753E+06        -0.10686E+06         0.00000E+00
    0.00000E+00         0.00000E+00         0.00000E+00
 
    0.28232E+05         0.16197E+06         0.00000E+00
    0.16197E+06        -0.10373E+06         0.00000E+00
    0.00000E+00         0.00000E+00         0.00000E+00
 
    0.21963E+05         0.16642E+06         0.00000E+00
    0.16642E+06        -0.10059E+06         0.00000E+00
    0.00000E+00         0.00000E+00         0.00000E+00
 
    0.15688E+05         0.17089E+06         0.00000E+00
    0.17089E+06        -0.97450E+05         0.00000E+00
    0.00000E+00         0.00000E+00         0.00000E+00
 
    0.94119E+04         0.17537E+06         0.00000E+00
    0.17537E+06        -0.94307E+05         0.00000E+00
    0.00000E+00         0.00000E+00         0.00000E+00
 
    0.31368E+04         0.17985E+06         0.00000E+00
    0.17985E+06        -0.91167E+05         0.00000E+00
    0.00000E+00         0.00000E+00         0.00000E+00
 
    0.22610E+06         0.15538E+04         0.00000E+00
    0.15538E+04        -0.22128E+06         0.00000E+00
    0.00000E+00         0.00000E+00         0.00000E+00
 
    0.22515E+06         0.46983E+04         0.00000E+00
    0.46983E+04        -0.22114E+06         0.00000E+00
    0.00000E+00         0.00000E+00         0.00000E+00
 
    0.22395E+06         0.78619E+04         0.00000E+00
    0.78619E+04        -0.22085E+06         0.00000E+00
    0.00000E+00         0.00000E+00         0.00000E+00
 
    0.22251E+06         0.11048E+05         0.00000E+00
    0.11048E+05        -0.22044E+06         0.00000E+00
    0.00000E+00         0.00000E+00         0.00000E+00
 
    0.22083E+06         0.14261E+05         0.00000E+00
    0.14261E+05        -0.21989E+06         0.00000E+00
    0.00000E+00         0.00000E+00         0.00000E+00
 
    0.21893E+06         0.17503E+05         0.00000E+00
    0.17503E+05        -0.21921E+06         0.00000E+00
    0.00000E+00         0.00000E+00         0.00000E+00
 
    0.21681E+06         0.20777E+05         0.00000E+00
    0.20777E+05        -0.21842E+06         0.00000E+00
    0.00000E+00         0.00000E+00         0.00000E+00
 
    0.21447E+06         0.24085E+05         0.00000E+00
    0.24085E+05        -0.21750E+06         0.00000E+00
    0.00000E+00         0.00000E+00         0.00000E+00
 
    0.21192E+06         0.27429E+05         0.00000E+00
    0.27429E+05        -0.21647E+06         0.00000E+00
    0.00000E+00         0.00000E+00         0.00000E+00
 
    0.20918E+06         0.30811E+05         0.00000E+00
    0.30811E+05        -0.21533E+06         0.00000E+00
    0.00000E+00         0.00000E+00         0.00000E+00
 
    0.20625E+06         0.34232E+05         0.00000E+00
    0.34232E+05        -0.21409E+06         0.00000E+00
    0.00000E+00         0.00000E+00         0.00000E+00
 
    0.20313E+06         0.37694E+05         0.00000E+00
    0.37694E+05        -0.21274E+06         0.00000E+00
    0.00000E+00         0.00000E+00         0.00000E+00
 
    0.19984E+06         0.41197E+05         0.00000E+00
    0.41197E+05        -0.21129E+06         0.00000E+00
    0.00000E+00         0.00000E+00         0.00000E+00
 
    0.19637E+06         0.44742E+05         0.00000E+00
    0.44742E+05        -0.20974E+06         0.00000E+00
    0.00000E+00         0.00000E+00         0.00000E+00
 
    0.19274E+06         0.48330E+05         0.00000E+00
    0.48330E+05        -0.20810E+06         0.00000E+00
    0.00000E+00         0.00000E+00         0.00000E+00
 
    0.18896E+06         0.51960E+05         0.00000E+00
    0.51960E+05        -0.20638E+06         0.00000E+00
    0.00000E+00         0.00000E+00         0.00000E+00
 
    0.18502E+06         0.55633E+05         0.00000E+00
    0.55633E+05        -0.20456E+06         0.00000E+00
    0.00000E+00         0.00000E+00         0.00000E+00
 
    0.18093E+06         0.59349E+05         0.00000E+00
    0.59349E+05        -0.20267E+06         0.00000E+00
    0.00000E+00         0.00000E+00         0.00000E+00
 
    0.17671E+06         0.63107E+05         0.00000E+00
    0.63107E+05        -0.20070E+06         0.00000E+00
    0.00000E+00         0.00000E+00         0.00000E+00
 
    0.17236E+06         0.66907E+05         0.00000E+00
    0.66907E+05        -0.19865E+06         0.00000E+00
    0.00000E+00         0.00000E+00         0.00000E+00
 
    0.16787E+06         0.70748E+05         0.00000E+00
    0.70748E+05        -0.19653E+06         0.00000E+00
    0.00000E+00         0.00000E+00         0.00000E+00
 
    0.16327E+06         0.74631E+05         0.00000E+00
    0.74631E+05        -0.19433E+06         0.00000E+00
    0.00000E+00         0.00000E+00         0.00000E+00
 
    0.15854E+06         0.78553E+05         0.00000E+00
    0.78553E+05        -0.19207E+06         0.00000E+00
    0.00000E+00         0.00000E+00         0.00000E+00
 
    0.15371E+06         0.82515E+05         0.00000E+00
    0.82515E+05        -0.18975E+06         0.00000E+00
    0.00000E+00         0.00000E+00         0.00000E+00
 
    0.14877E+06         0.86516E+05         0.00000E+00
    0.86516E+05        -0.18736E+06         0.00000E+00
    0.00000E+00         0.00000E+00         0.00000E+00
 
    0.14372E+06         0.90555E+05         0.00000E+00
    0.90555E+05        -0.18492E+06         0.00000E+00
    0.00000E+00         0.00000E+00         0.00000E+00
 
    0.13858E+06         0.94630E+05         0.00000E+00
    0.94630E+05        -0.18242E+06         0.00000E+00
    0.00000E+00         0.00000E+00         0.00000E+00
 
    0.13335E+06         0.98740E+05         0.00000E+00
    0.98740E+05        -0.17986E+06         0.00000E+00
    0.00000E+00         0.00000E+00         0.00000E+00
 
    0.12803E+06         0.10289E+06         0.00000E+00
    0.10289E+06        -0.17726E+06         0.00000E+00
    0.00000E+00         0.00000E+00         0.00000E+00
 
    0.12262E+06         0.10706E+06         0.00000E+00
    0.10706E+06        -0.17460E+06         0.00000E+00
    0.00000E+00         0.00000E+00         0.00000E+00
 
    0.11714E+06         0.11128E+06         0.00000E+00
    0.11128E+06        -0.17190E+06         0.00000E+00
    0.00000E+00         0.00000E+00         0.00000E+00
 
    0.11158E+06         0.11552E+06         0.00000E+00
    0.11552E+06        -0.16915E+06         0.00000E+00
    0.00000E+00         0.00000E+00         0.00000E+00
 
    0.10596E+06         0.11979E+06         0.00000E+00
    0.11979E+06        -0.16636E+06         0.00000E+00
    0.00000E+00         0.00000E+00         0.00000E+00
 
    0.10026E+06         0.12409E+06         0.00000E+00
    0.12409E+06        -0.16353E+06         0.00000E+00
    0.00000E+00         0.00000E+00         0.00000E+00
 
    0.94504E+05         0.12842E+06         0.00000E+00
    0.12842E+06        -0.16067E+06         0.00000E+00
    0.00000E+00         0.00000E+00         0.00000E+00
 
    0.88689E+05         0.13277E+06         0.00000E+00
    0.13277E+06        -0.15777E+06         0.00000E+00
    0.00000E+00         0.00000E+00         0.00000E+00
 
    0.82818E+05         0.13715E+06         0.00000E+00
    0.13715E+06        -0.15484E+06         0.00000E+00
    0.00000E+00         0.00000E+00         0.00000E+00
 
    0.76897E+05         0.14155E+06         0.00000E+00
    0.14155E+06        -0.15187E+06         0.00000E+00
    0.00000E+00         0.00000E+00         0.00000E+00
 
    0.70928E+05         0.14598E+06         0.00000E+00
    0.14598E+06        -0.14888E+06         0.00000E+00
    0.00000E+00         0.00000E+00         0.00000E+00
 
    0.64916E+05         0.15042E+06         0.00000E+00
    0.15042E+06        -0.14587E+06         0.00000E+00
    0.00000E+00         0.00000E+00         0.00000E+00
 
    0.58864E+05         0.15488E+06         0.00000E+00
    0.15488E+06        -0.14283E+06         0.00000E+00
    0.00000E+00         0.00000E+00         0.00000E+00
 
    0.52775E+05         0.15936E+06         0.00000E+00
    0.15936E+06        -0.13977E+06         0.00000E+00
    0.00000E+00         0.00000E+00         0.00000E+00
 
    0.46653E+05         0.16385E+06         0.00000E+00
    0.16385E+06        -0.13670E+06         0.00000E+00
    0.00000E+00         0.00000E+00         0.00000E+00
 
    0.40502E+05         0.16835E+06         0.00000E+00
    0.16835E+06        -0.13361E+06         0.00000E+00
    0.00000E+00         0.00000E+00         0.00000E+00
 
    0.34324E+05         0.17287E+06         0.00000E+00
    0.17287E+06        -0.13050E+06         0.00000E+00
    0.00000E+00         0.00000E+00         0.00000E+00
 
    0.28122E+05         0.17739E+06         0.00000E+00
    0.17739E+06        -0.12738E+06         0.00000E+00
    0.00000E+00         0.00000E+00         0.00000E+00
 
    0.21899E+05         0.18192E+06         0.00000E+00
    0.18192E+06        -0.12426E+06         0.00000E+00
    0.00000E+00         0.00000E+00         0.00000E+00
 
    0.15659E+05         0.18645E+06         0.00000E+00
    0.18645E+06        -0.12113E+06         0.00000E+00
    0.00000E+00         0.00000E+00         0.00000E+00
 
    0.94042E+04         0.19099E+06         0.00000E+00
    0.19099E+06        -0.11799E+06         0.00000E+00
    0.00000E+00         0.00000E+00         0.00000E+00
 
    0.31366E+04         0.19552E+06         0.00000E+00
    0.19552E+06        -0.11485E+06         0.00000E+00
    0.00000E+00         0.00000E+00         0.00000E+00
 
    0.22081E+06         0.18970E+04         0.00000E+00
    0.18970E+04        -0.24391E+06         0.00000E+00
    0.00000E+00         0.00000E+00         0.00000E+00
 
    0.21990E+06         0.56840E+04         0.00000E+00
    0.56840E+04        -0.24377E+06         0.00000E+00
    0.00000E+00         0.00000E+00         0.00000E+00
 
    0.21876E+06         0.94736E+04         0.00000E+00
    0.94736E+04        -0.24350E+06         0.00000E+00
    0.00000E+00         0.00000E+00         0.00000E+00
 
    0.21740E+06         0.13270E+05         0.00000E+00
    0.13270E+05        -0.24311E+06         0.00000E+00
    0.00000E+00         0.00000E+00         0.00000E+00
 
    0.21582E+06         0.17075E+05         0.00000E+00
    0.17075E+05        -0.24259E+06         0.00000E+00
    0.00000E+00         0.00000E+00         0.00000E+00
 
    0.21402E+06         0.20893E+05         0.00000E+00
    0.20893E+05        -0.24195E+06         0.00000E+00
    0.00000E+00         0.00000E+00         0.00000E+00
 
    0.21202E+06         0.24725E+05         0.00000E+00
    0.24725E+05        -0.24119E+06         0.00000E+00
    0.00000E+00         0.00000E+00         0.00000E+00
 
    0.20981E+06         0.28576E+05         0.00000E+00
    0.28576E+05        -0.24032E+06         0.00000E+00
    0.00000E+00         0.00000E+00         0.00000E+00
 
    0.20741E+06         0.32445E+05         0.00000E+00
    0.32445E+05        -0.23933E+06         0.00000E+00
    0.00000E+00         0.00000E+00         0.00000E+00
 
    0.20481E+06         0.36337E+05         0.00000E+00
    0.36337E+05        -0.23824E+06         0.00000E+00
    0.00000E+00         0.00000E+00         0.00000E+00
 
    0.20203E+06         0.40251E+05         0.00000E+00
    0.40251E+05        -0.23704E+06         0.00000E+00
    0.00000E+00         0.00000E+00         0.00000E+00
 
    0.19908E+06         0.44190E+05         0.00000E+00
    0.44190E+05        -0.23574E+06         0.00000E+00
    0.00000E+00         0.00000E+00         0.00000E+00
 
    0.19595E+06         0.48155E+05         0.00000E+00
    0.48155E+05        -0.23434E+06         0.00000E+00
    0.00000E+00         0.00000E+00         0.00000E+00
 
    0.19265E+06         0.52146E+05         0.00000E+00
    0.52146E+05        -0.23284E+06         0.00000E+00
    0.00000E+00         0.00000E+00         0.00000E+00
 
    0.18919E+06         0.56165E+05         0.00000E+00
    0.56165E+05        -0.23126E+06         0.00000E+00
    0.00000E+00         0.00000E+00         0.00000E+00
 
    0.18558E+06         0.60212E+05         0.00000E+00
    0.60212E+05        -0.22958E+06         0.00000E+00
    0.00000E+00         0.00000E+00         0.00000E+00
 
    0.18181E+06         0.64287E+05         0.00000E+00
    0.64287E+05        -0.22782E+06         0.00000E+00
    0.00000E+00         0.00000E+00         0.00000E+00
 
    0.17790E+06         0.68392E+05         0.00000E+00
    0.68392E+05        -0.22597E+06         0.00000E+00
    0.00000E+00         0.00000E+00         0.00000E+00
 
    0.17385E+06         0.72525E+05         0.00000E+00
    0.72525E+05        -0.22405E+06         0.00000E+00
    0.00000E+00         0.00000E+00         0.00000E+00
 
    0.16967E+06         0.76687E+05         0.00000E+00
    0.76687E+05        -0.22204E+06         0.00000E+00
    0.00000E+00         0.00000E+00         0.00000E+00
 
    0.16535E+06         0.80878E+05         0.00000E+00
    0.80878E+05        -0.21997E+06         0.00000E+00
    0.00000E+00         0.00000E+00         0.00000E+00
 
    0.16091E+06         0.85098E+05         0.00000E+00
    0.85098E+05        -0.21782E+06         0.00000E+00
    0.00000E+00         0.00000E+00         0.00000E+00
 
    0.15635E+06         0.89346E+05         0.00000E+00
    0.89346E+05        -0.21560E+06         0.00000E+00
    0.00000E+00         0.00000E+00         0.00000E+00
 
    0.15168E+06         0.93621E+05         0.00000E+00
    0.93621E+05        -0.21331E+06         0.00000E+00
    0.00000E+00         0.00000E+00         0.00000E+00
 
    0.14690E+06         0.97924E+05         0.00000E+00
    0.97924E+05        -0.21097E+06         0.00000E+00
    0.00000E+00         0.00000E+00         0.00000E+00
 
    0.14201E+06         0.10225E+06         0.00000E+00
    0.10225E+06        -0.20856E+06         0.00000E+00
    0.00000E+00         0.00000E+00         0.00000E+00
 
    0.13701E+06         0.10661E+06         0.00000E+00
    0.10661E+06        -0.20609E+06         0.00000E+00
    0.00000E+00         0.00000E+00         0.00000E+00
 
    0.13193E+06         0.11099E+06         0.00000E+00
    0.11099E+06        -0.20357E+06         0.00000E+00
    0.00000E+00         0.00000E+00         0.00000E+00
 
    0.12675E+06         0.11539E+06         0.00000E+00
    0.11539E+06        -0.20099E+06         0.00000E+00
    0.00000E+00         0.00000E+00         0.00000E+00
 
    0.12148E+06         0.11982E+06         0.00000E+00
    0.11982E+06        -0.19837E+06         0.00000E+00
    0.00000E+00         0.00000E+00         0.00000E+00
 
    0.11612E+06         0.12427E+06         0.00000E+00
    0.12427E+06        -0.19569E+06         0.00000E+00
    0.00000E+00         0.00000E+00         0.00000E+00
 
    0.11069E+06         0.12874E+06         0.00000E+00
    0.12874E+06        -0.19297E+06         0.00000E+00
    0.00000E+00         0.00000E+00         0.00000E+00
 
    0.10518E+06         0.13323E+06         0.00000E+00
    0.13323E+06        -0.19021E+06         0.00000E+00
    0.00000E+00         0.00000E+00         0.00000E+00
 
    0.99593E+05         0.13774E+06         0.00000E+00
    0.13774E+06        -0.18741E+06         0.00000E+00
    0.00000E+00         0.00000E+00         0.00000E+00
 
    0.93941E+05         0.14227E+06         0.00000E+00
    0.14227E+06        -0.18456E+06         0.00000E+00
    0.00000E+00         0.00000E+00         0.00000E+00
 
    0.88223E+05         0.14681E+06         0.00000E+00
    0.14681E+06        -0.18169E+06         0.00000E+00
    0.00000E+00         0.00000E+00         0.00000E+00
 
    0.82444E+05         0.15137E+06         0.00000E+00
    0.15137E+06        -0.17877E+06         0.00000E+00
    0.00000E+00         0.00000E+00         0.00000E+00
 
    0.76606E+05         0.15594E+06         0.00000E+00
    0.15594E+06        -0.17583E+06         0.00000E+00
    0.00000E+00         0.00000E+00         0.00000E+00
 
    0.70714E+05         0.16052E+06         0.00000E+00
    0.16052E+06        -0.17285E+06         0.00000E+00
    0.00000E+00         0.00000E+00         0.00000E+00
 
    0.64770E+05         0.16511E+06         0.00000E+00
    0.16511E+06        -0.16985E+06         0.00000E+00
    0.00000E+00         0.00000E+00         0.00000E+00
 
    0.58778E+05         0.16972E+06         0.00000E+00
    0.16972E+06        -0.16683E+06         0.00000E+00
    0.00000E+00         0.00000E+00         0.00000E+00
 
    0.52741E+05         0.17433E+06         0.00000E+00
    0.17433E+06        -0.16378E+06         0.00000E+00
    0.00000E+00         0.00000E+00         0.00000E+00
 
    0.46661E+05         0.17894E+06         0.00000E+00
    0.17894E+06        -0.16071E+06         0.00000E+00
    0.00000E+00         0.00000E+00         0.00000E+00
 
    0.40543E+05         0.18356E+06         0.00000E+00
    0.18356E+06        -0.15762E+06         0.00000E+00
    0.00000E+00         0.00000E+00         0.00000E+00
 
    0.34387E+05         0.18818E+06         0.00000E+00
    0.18818E+06        -0.15452E+06         0.00000E+00
    0.00000E+00         0.00000E+00         0.00000E+00
 
    0.28199E+05         0.19280E+06         0.00000E+00
    0.19280E+06        -0.15140E+06         0.00000E+00
    0.00000E+00         0.00000E+00         0.00000E+00
 
    0.21979E+05         0.19742E+06         0.00000E+00
    0.19742E+06        -0.14827E+06         0.00000E+00
    0.00000E+00         0.00000E+00         0.00000E+00
 
    0.15730E+05         0.20203E+06         0.00000E+00
    0.20203E+06        -0.14513E+06         0.00000E+00
    0.00000E+00         0.00000E+00         0.00000E+00
 
    0.94549E+04         0.20664E+06         0.00000E+00
    0.20664E+06        -0.14198E+06         0.00000E+00
    0.00000E+00         0.00000E+00         0.00000E+00
 
    0.31555E+04         0.21124E+06         0.00000E+00
    0.21124E+06        -0.13882E+06         0.00000E+00
    0.00000E+00         0.00000E+00         0.00000E+00
 
    0.21829E+06         0.22173E+04         0.00000E+00
    0.22173E+04        -0.26691E+06         0.00000E+00
    0.00000E+00         0.00000E+00         0.00000E+00
 
    0.21735E+06         0.66112E+04         0.00000E+00
    0.66112E+04        -0.26679E+06         0.00000E+00
    0.00000E+00         0.00000E+00         0.00000E+00
 
    0.21620E+06         0.10995E+05         0.00000E+00
    0.10995E+05        -0.26653E+06         0.00000E+00
    0.00000E+00         0.00000E+00         0.00000E+00
 
    0.21485E+06         0.15372E+05         0.00000E+00
    0.15372E+05        -0.26616E+06         0.00000E+00
    0.00000E+00         0.00000E+00         0.00000E+00
 
    0.21328E+06         0.19746E+05         0.00000E+00
    0.19746E+05        -0.26567E+06         0.00000E+00
    0.00000E+00         0.00000E+00         0.00000E+00
 
    0.21152E+06         0.24118E+05         0.00000E+00
    0.24118E+05        -0.26506E+06         0.00000E+00
    0.00000E+00         0.00000E+00         0.00000E+00
 
    0.20956E+06         0.28492E+05         0.00000E+00
    0.28492E+05        -0.26433E+06         0.00000E+00
    0.00000E+00         0.00000E+00         0.00000E+00
 
    0.20740E+06         0.32869E+05         0.00000E+00
    0.32869E+05        -0.26350E+06         0.00000E+00
    0.00000E+00         0.00000E+00         0.00000E+00
 
    0.20507E+06         0.37252E+05         0.00000E+00
    0.37252E+05        -0.26256E+06         0.00000E+00
    0.00000E+00         0.00000E+00         0.00000E+00
 
    0.20255E+06         0.41643E+05         0.00000E+00
    0.41643E+05        -0.26151E+06         0.00000E+00
    0.00000E+00         0.00000E+00         0.00000E+00
 
    0.19985E+06         0.46044E+05         0.00000E+00
    0.46044E+05        -0.26035E+06         0.00000E+00
    0.00000E+00         0.00000E+00         0.00000E+00
 
    0.19698E+06         0.50455E+05         0.00000E+00
    0.50455E+05        -0.25910E+06         0.00000E+00
    0.00000E+00         0.00000E+00         0.00000E+00
 
    0.19394E+06         0.54878E+05         0.00000E+00
    0.54878E+05        -0.25775E+06         0.00000E+00
    0.00000E+00         0.00000E+00         0.00000E+00
 
    0.19075E+06         0.59315E+05         0.00000E+00
    0.59315E+05        -0.25630E+06         0.00000E+00
    0.00000E+00         0.00000E+00         0.00000E+00
 
    0.18739E+06         0.63766E+05         0.00000E+00
    0.63766E+05        -0.25477E+06         0.00000E+00
    0.00000E+00         0.00000E+00         0.00000E+00
 
    0.18388E+06         0.68231E+05         0.00000E+00
    0.68231E+05        -0.25314E+06         0.00000E+00
    0.00000E+00         0.00000E+00         0.00000E+00
 
    0.18022E+06         0.72713E+05         0.00000E+00
    0.72713E+05        -0.25143E+06         0.00000E+00
    0.00000E+00         0.00000E+00         0.00000E+00
 
    0.17642E+06         0.77211E+05         0.00000E+00
    0.77211E+05        -0.24963E+06         0.00000E+00
    0.00000E+00         0.00000E+00         0.00000E+00
 
    0.17248E+06         0.81725E+05         0.00000E+00
    0.81725E+05        -0.24775E+06         0.00000E+00
    0.00000E+00         0.00000E+00         0.00000E+00
 
    0.16841E+06         0.86256E+05         0.00000E+00
    0.86256E+05        -0.24580E+06         0.00000E+00
    0.00000E+00         0.00000E+00         0.00000E+00
 
    0.16420E+06         0.90803E+05         0.00000E+00
    0.90803E+05        -0.24377E+06         0.00000E+00
    0.00000E+00         0.00000E+00         0.00000E+00
 
    0.15987E+06         0.95367E+05         0.00000E+00
    0.95367E+05        -0.24166E+06         0.00000E+00
    0.00000E+00         0.00000E+00         0.00000E+00
 
    0.15542E+06         0.99948E+05         0.00000E+00
    0.99948E+05        -0.23949E+06         0.00000E+00
    0.00000E+00         0.00000E+00         0.00000E+00
 
    0.15085E+06         0.10455E+06         0.00000E+00
    0.10455E+06        -0.23725E+06         0.00000E+00
    0.00000E+00         0.00000E+00         0.00000E+00
 
    0.14617E+06         0.10916E+06         0.00000E+00
    0.10916E+06        -0.23494E+06         0.00000E+00
    0.00000E+00         0.00000E+00         0.00000E+00
 
    0.14138E+06         0.11379E+06         0.00000E+00
    0.11379E+06        -0.23257E+06         0.00000E+00
    0.00000E+00         0.00000E+00         0.00000E+00
 
    0.13648E+06         0.11843E+06         0.00000E+00
    0.11843E+06        -0.23014E+06         0.00000E+00
    0.00000E+00         0.00000E+00         0.00000E+00
 
    0.13148E+06         0.12309E+06         0.00000E+00
    0.12309E+06        -0.22765E+06         0.00000E+00
    0.00000E+00         0.00000E+00         0.00000E+00
 
    0.12639E+06         0.12776E+06         0.00000E+00
    0.12776E+06        -0.22511E+06         0.00000E+00
    0.00000E+00         0.00000E+00         0.00000E+00
 
    0.12121E+06         0.13245E+06         0.00000E+00
    0.13245E+06        -0.22251E+06         0.00000E+00
    0.00000E+00         0.00000E+00         0.00000E+00
 
    0.11593E+06         0.13714E+06         0.00000E+00
    0.13714E+06        -0.21986E+06         0.00000E+00
    0.00000E+00         0.00000E+00         0.00000E+00
 
    0.11057E+06         0.14185E+06         0.00000E+00
    0.14185E+06        -0.21717E+06         0.00000E+00
    0.00000E+00         0.00000E+00         0.00000E+00
 
    0.10513E+06         0.14657E+06         0.00000E+00
    0.14657E+06        -0.21443E+06         0.00000E+00
    0.00000E+00         0.00000E+00         0.00000E+00
 
    0.99610E+05         0.15130E+06         0.00000E+00
    0.15130E+06        -0.21164E+06         0.00000E+00
    0.00000E+00         0.00000E+00         0.00000E+00
 
    0.94015E+05         0.15603E+06         0.00000E+00
    0.15603E+06        -0.20882E+06         0.00000E+00
    0.00000E+00         0.00000E+00         0.00000E+00
 
    0.88349E+05         0.16077E+06         0.00000E+00
    0.16077E+06        -0.20596E+06         0.00000E+00
    0.00000E+00         0.00000E+00         0.00000E+00
 
    0.82614E+05         0.16552E+06         0.00000E+00
    0.16552E+06        -0.20306E+06         0.00000E+00
    0.00000E+00         0.00000E+00         0.00000E+00
 
    0.76815E+05         0.17027E+06         0.00000E+00
    0.17027E+06        -0.20012E+06         0.00000E+00
    0.00000E+00         0.00000E+00         0.00000E+00
 
    0.70953E+05         0.17503E+06         0.00000E+00
    0.17503E+06        -0.19716E+06         0.00000E+00
    0.00000E+00         0.00000E+00         0.00000E+00
 
    0.65033E+05         0.17978E+06         0.00000E+00
    0.17978E+06        -0.19416E+06         0.00000E+00
    0.00000E+00         0.00000E+00         0.00000E+00
 
    0.59057E+05         0.18454E+06         0.00000E+00
    0.18454E+06        -0.19113E+06         0.00000E+00
    0.00000E+00         0.00000E+00         0.00000E+00
 
    0.53027E+05         0.18930E+06         0.00000E+00
    0.18930E+06        -0.18808E+06         0.00000E+00
    0.00000E+00         0.00000E+00         0.00000E+00
 
    0.46948E+05         0.19405E+06         0.00000E+00
    0.19405E+06        -0.18501E+06         0.00000E+00
    0.00000E+00         0.00000E+00         0.00000E+00
 
    0.40821E+05         0.19880E+06         0.00000E+00
    0.19880E+06        -0.18191E+06         0.00000E+00
    0.00000E+00         0.00000E+00         0.00000E+00
 
    0.34648E+05         0.20354E+06         0.00000E+00
    0.20354E+06        -0.17879E+06         0.00000E+00
    0.00000E+00         0.00000E+00         0.00000E+00
 
    0.28433E+05         0.20827E+06         0.00000E+00
    0.20827E+06        -0.17566E+06         0.00000E+00
    0.00000E+00         0.00000E+00         0.00000E+00
 
    0.22178E+05         0.21300E+06         0.00000E+00
    0.21300E+06        -0.17251E+06         0.00000E+00
    0.00000E+00         0.00000E+00         0.00000E+00
 
    0.15884E+05         0.21771E+06         0.00000E+00
    0.21771E+06        -0.16934E+06         0.00000E+00
    0.00000E+00         0.00000E+00         0.00000E+00
 
    0.95543E+04         0.22241E+06         0.00000E+00
    0.22241E+06        -0.16616E+06         0.00000E+00
    0.00000E+00         0.00000E+00         0.00000E+00
 
    0.31903E+04         0.22709E+06         0.00000E+00
    0.22709E+06        -0.16297E+06         0.00000E+00
    0.00000E+00         0.00000E+00         0.00000E+00
 
    0.21826E+06         0.25175E+04         0.00000E+00
    0.25175E+04        -0.29041E+06         0.00000E+00
    0.00000E+00         0.00000E+00         0.00000E+00
 
    0.21724E+06         0.74869E+04         0.00000E+00
    0.74869E+04        -0.29029E+06         0.00000E+00
    0.00000E+00         0.00000E+00         0.00000E+00
 
    0.21602E+06         0.12436E+05         0.00000E+00
    0.12436E+05        -0.29005E+06         0.00000E+00
    0.00000E+00         0.00000E+00         0.00000E+00
 
    0.21461E+06         0.17369E+05         0.00000E+00
    0.17369E+05        -0.28970E+06         0.00000E+00
    0.00000E+00         0.00000E+00         0.00000E+00
 
    0.21300E+06         0.22288E+05         0.00000E+00
    0.22288E+05        -0.28923E+06         0.00000E+00
    0.00000E+00         0.00000E+00         0.00000E+00
 
    0.21121E+06         0.27194E+05         0.00000E+00
    0.27194E+05        -0.28864E+06         0.00000E+00
    0.00000E+00         0.00000E+00         0.00000E+00
 
    0.20924E+06         0.32091E+05         0.00000E+00
    0.32091E+05        -0.28795E+06         0.00000E+00
    0.00000E+00         0.00000E+00         0.00000E+00
 
    0.20708E+06         0.36981E+05         0.00000E+00
    0.36981E+05        -0.28715E+06         0.00000E+00
    0.00000E+00         0.00000E+00         0.00000E+00
 
    0.20474E+06         0.41865E+05         0.00000E+00
    0.41865E+05        -0.28624E+06         0.00000E+00
    0.00000E+00         0.00000E+00         0.00000E+00
 
    0.20223E+06         0.46745E+05         0.00000E+00
    0.46745E+05        -0.28523E+06         0.00000E+00
    0.00000E+00         0.00000E+00         0.00000E+00
 
    0.19956E+06         0.51624E+05         0.00000E+00
    0.51624E+05        -0.28412E+06         0.00000E+00
    0.00000E+00         0.00000E+00         0.00000E+00
 
    0.19671E+06         0.56501E+05         0.00000E+00
    0.56501E+05        -0.28291E+06         0.00000E+00
    0.00000E+00         0.00000E+00         0.00000E+00
 
    0.19371E+06         0.61379E+05         0.00000E+00
    0.61379E+05        -0.28160E+06         0.00000E+00
    0.00000E+00         0.00000E+00         0.00000E+00
 
    0.19055E+06         0.66258E+05         0.00000E+00
    0.66258E+05        -0.28020E+06         0.00000E+00
    0.00000E+00         0.00000E+00         0.00000E+00
 
    0.18723E+06         0.71141E+05         0.00000E+00
    0.71141E+05        -0.27871E+06         0.00000E+00
    0.00000E+00         0.00000E+00         0.00000E+00
 
    0.18377E+06         0.76026E+05         0.00000E+00
    0.76026E+05        -0.27713E+06         0.00000E+00
    0.00000E+00         0.00000E+00         0.00000E+00
 
    0.18016E+06         0.80916E+05         0.00000E+00
    0.80916E+05        -0.27546E+06         0.00000E+00
    0.00000E+00         0.00000E+00         0.00000E+00
 
    0.17641E+06         0.85810E+05         0.00000E+00
    0.85810E+05        -0.27371E+06         0.00000E+00
    0.00000E+00         0.00000E+00         0.00000E+00
 
    0.17252E+06         0.90710E+05         0.00000E+00
    0.90710E+05        -0.27188E+06         0.00000E+00
    0.00000E+00         0.00000E+00         0.00000E+00
 
    0.16849E+06         0.95615E+05         0.00000E+00
    0.95615E+05        -0.26996E+06         0.00000E+00
    0.00000E+00         0.00000E+00         0.00000E+00
 
    0.16434E+06         0.10053E+06         0.00000E+00
    0.10053E+06        -0.26797E+06         0.00000E+00
    0.00000E+00         0.00000E+00         0.00000E+00
 
    0.16006E+06         0.10544E+06         0.00000E+00
    0.10544E+06        -0.26591E+06         0.00000E+00
    0.00000E+00         0.00000E+00         0.00000E+00
 
    0.15566E+06         0.11036E+06         0.00000E+00
    0.11036E+06        -0.26377E+06         0.00000E+00
    0.00000E+00         0.00000E+00         0.00000E+00
 
    0.15115E+06         0.11529E+06         0.00000E+00
    0.11529E+06        -0.26157E+06         0.00000E+00
    0.00000E+00         0.00000E+00         0.00000E+00
 
    0.14651E+06         0.12022E+06         0.00000E+00
    0.12022E+06        -0.25930E+06         0.00000E+00
    0.00000E+00         0.00000E+00         0.00000E+00
 
    0.14177E+06         0.12516E+06         0.00000E+00
    0.12516E+06        -0.25696E+06         0.00000E+00
    0.00000E+00         0.00000E+00         0.00000E+00
 
    0.13692E+06         0.13011E+06         0.00000E+00
    0.13011E+06        -0.25456E+06         0.00000E+00
    0.00000E+00         0.00000E+00         0.00000E+00
 
    0.13197E+06         0.13505E+06         0.00000E+00
    0.13505E+06        -0.25210E+06         0.00000E+00
    0.00000E+00         0.00000E+00         0.00000E+00
 
    0.12691E+06         0.14000E+06         0.00000E+00
    0.14000E+06        -0.24958E+06         0.00000E+00
    0.00000E+00         0.00000E+00         0.00000E+00
 
    0.12176E+06         0.14496E+06         0.00000E+00
    0.14496E+06        -0.24701E+06         0.00000E+00
    0.00000E+00         0.00000E+00         0.00000E+00
 
    0.11652E+06         0.14991E+06         0.00000E+00
    0.14991E+06        -0.24439E+06         0.00000E+00
    0.00000E+00         0.00000E+00         0.00000E+00
 
    0.11118E+06         0.15487E+06         0.00000E+00
    0.15487E+06        -0.24171E+06         0.00000E+00
    0.00000E+00         0.00000E+00         0.00000E+00
 
    0.10576E+06         0.15983E+06         0.00000E+00
    0.15983E+06        -0.23898E+06         0.00000E+00
    0.00000E+00         0.00000E+00         0.00000E+00
 
    0.10026E+06         0.16479E+06         0.00000E+00
    0.16479E+06        -0.23621E+06         0.00000E+00
    0.00000E+00         0.00000E+00         0.00000E+00
 
    0.94678E+05         0.16974E+06         0.00000E+00
    0.16974E+06        -0.23340E+06         0.00000E+00
    0.00000E+00         0.00000E+00         0.00000E+00
 
    0.89019E+05         0.17470E+06         0.00000E+00
    0.17470E+06        -0.23054E+06         0.00000E+00
    0.00000E+00         0.00000E+00         0.00000E+00
 
    0.83285E+05         0.17965E+06         0.00000E+00
    0.17965E+06        -0.22765E+06         0.00000E+00
    0.00000E+00         0.00000E+00         0.00000E+00
 
    0.77480E+05         0.18460E+06         0.00000E+00
    0.18460E+06        -0.22471E+06         0.00000E+00
    0.00000E+00         0.00000E+00         0.00000E+00
 
    0.71607E+05         0.18954E+06         0.00000E+00
    0.18954E+06        -0.22174E+06         0.00000E+00
    0.00000E+00         0.00000E+00         0.00000E+00
 
    0.65668E+05         0.19448E+06         0.00000E+00
    0.19448E+06        -0.21874E+06         0.00000E+00
    0.00000E+00         0.00000E+00         0.00000E+00
 
    0.59667E+05         0.19940E+06         0.00000E+00
    0.19940E+06        -0.21570E+06         0.00000E+00
    0.00000E+00         0.00000E+00         0.00000E+00
 
    0.53606E+05         0.20432E+06         0.00000E+00
    0.20432E+06        -0.21264E+06         0.00000E+00
    0.00000E+00         0.00000E+00         0.00000E+00
 
    0.47487E+05         0.20923E+06         0.00000E+00
    0.20923E+06        -0.20954E+06         0.00000E+00
    0.00000E+00         0.00000E+00         0.00000E+00
 
    0.41314E+05         0.21412E+06         0.00000E+00
    0.21412E+06        -0.20643E+06         0.00000E+00
    0.00000E+00         0.00000E+00         0.00000E+00
 
    0.35087E+05         0.21901E+06         0.00000E+00
    0.21901E+06        -0.20328E+06         0.00000E+00
    0.00000E+00         0.00000E+00         0.00000E+00
 
    0.28810E+05         0.22387E+06         0.00000E+00
    0.22387E+06        -0.20012E+06         0.00000E+00
    0.00000E+00         0.00000E+00         0.00000E+00
 
    0.22485E+05         0.22872E+06         0.00000E+00
    0.22872E+06        -0.19693E+06         0.00000E+00
    0.00000E+00         0.00000E+00         0.00000E+00
 
    0.16114E+05         0.23356E+06         0.00000E+00
    0.23356E+06        -0.19373E+06         0.00000E+00
    0.00000E+00         0.00000E+00         0.00000E+00
 
    0.96979E+04         0.23837E+06         0.00000E+00
    0.23837E+06        -0.19051E+06         0.00000E+00
    0.00000E+00         0.00000E+00         0.00000E+00
 
    0.32395E+04         0.24316E+06         0.00000E+00
    0.24316E+06        -0.18727E+06         0.00000E+00
    0.00000E+00         0.00000E+00         0.00000E+00
 
    0.22045E+06         0.28011E+04         0.00000E+00
    0.28011E+04        -0.31451E+06         0.00000E+00
    0.00000E+00         0.00000E+00         0.00000E+00
 
    0.21931E+06         0.83190E+04         0.00000E+00
    0.83190E+04        -0.31440E+06         0.00000E+00
    0.00000E+00         0.00000E+00         0.00000E+00
 
    0.21798E+06         0.13810E+05         0.00000E+00
    0.13810E+05        -0.31417E+06         0.00000E+00
    0.00000E+00         0.00000E+00         0.00000E+00
 
    0.21647E+06         0.19276E+05         0.00000E+00
    0.19276E+05        -0.31383E+06         0.00000E+00
    0.00000E+00         0.00000E+00         0.00000E+00
 
    0.21478E+06         0.24720E+05         0.00000E+00
    0.24720E+05        -0.31338E+06         0.00000E+00
    0.00000E+00         0.00000E+00         0.00000E+00
 
    0.21291E+06         0.30143E+05         0.00000E+00
    0.30143E+05        -0.31282E+06         0.00000E+00
    0.00000E+00         0.00000E+00         0.00000E+00
 
    0.21087E+06         0.35548E+05         0.00000E+00
    0.35548E+05        -0.31215E+06         0.00000E+00
    0.00000E+00         0.00000E+00         0.00000E+00
 
    0.20865E+06         0.40937E+05         0.00000E+00
    0.40937E+05        -0.31137E+06         0.00000E+00
    0.00000E+00         0.00000E+00         0.00000E+00
 
    0.20627E+06         0.46310E+05         0.00000E+00
    0.46310E+05        -0.31050E+06         0.00000E+00
    0.00000E+00         0.00000E+00         0.00000E+00
 
    0.20372E+06         0.51671E+05         0.00000E+00
    0.51671E+05        -0.30952E+06         0.00000E+00
    0.00000E+00         0.00000E+00         0.00000E+00
 
    0.20101E+06         0.57019E+05         0.00000E+00
    0.57019E+05        -0.30844E+06         0.00000E+00
    0.00000E+00         0.00000E+00         0.00000E+00
 
    0.19814E+06         0.62357E+05         0.00000E+00
    0.62357E+05        -0.30727E+06         0.00000E+00
    0.00000E+00         0.00000E+00         0.00000E+00
 
    0.19512E+06         0.67686E+05         0.00000E+00
    0.67686E+05        -0.30599E+06         0.00000E+00
    0.00000E+00         0.00000E+00         0.00000E+00
 
    0.19194E+06         0.73006E+05         0.00000E+00
    0.73006E+05        -0.30463E+06         0.00000E+00
    0.00000E+00         0.00000E+00         0.00000E+00
 
    0.18861E+06         0.78318E+05         0.00000E+00
    0.78318E+05        -0.30317E+06         0.00000E+00
    0.00000E+00         0.00000E+00         0.00000E+00
 
    0.18514E+06         0.83624E+05         0.00000E+00
    0.83624E+05        -0.30163E+06         0.00000E+00
    0.00000E+00         0.00000E+00         0.00000E+00
 
    0.18152E+06         0.88924E+05         0.00000E+00
    0.88924E+05        -0.30000E+06         0.00000E+00
    0.00000E+00         0.00000E+00         0.00000E+00
 
    0.17777E+06         0.94219E+05         0.00000E+00
    0.94219E+05        -0.29828E+06         0.00000E+00
    0.00000E+00         0.00000E+00         0.00000E+00
 
    0.17388E+06         0.99508E+05         0.00000E+00
    0.99508E+05        -0.29648E+06         0.00000E+00
    0.00000E+00         0.00000E+00         0.00000E+00
 
    0.16986E+06         0.10479E+06         0.00000E+00
    0.10479E+06        -0.29461E+06         0.00000E+00
    0.00000E+00         0.00000E+00         0.00000E+00
 
    0.16570E+06         0.11007E+06         0.00000E+00
    0.11007E+06        -0.29265E+06         0.00000E+00
    0.00000E+00         0.00000E+00         0.00000E+00
 
    0.16143E+06         0.11535E+06         0.00000E+00
    0.11535E+06        -0.29062E+06         0.00000E+00
    0.00000E+00         0.00000E+00         0.00000E+00
 
    0.15703E+06         0.12062E+06         0.00000E+00
    0.12062E+06        -0.28851E+06         0.00000E+00
    0.00000E+00         0.00000E+00         0.00000E+00
 
    0.15251E+06         0.12589E+06         0.00000E+00
    0.12589E+06        -0.28633E+06         0.00000E+00
    0.00000E+00         0.00000E+00         0.00000E+00
 
    0.14788E+06         0.13115E+06         0.00000E+00
    0.13115E+06        -0.28409E+06         0.00000E+00
    0.00000E+00         0.00000E+00         0.00000E+00
 
    0.14313E+06         0.13641E+06         0.00000E+00
    0.13641E+06        -0.28178E+06         0.00000E+00
    0.00000E+00         0.00000E+00         0.00000E+00
 
    0.13828E+06         0.14166E+06         0.00000E+00
    0.14166E+06        -0.27940E+06         0.00000E+00
    0.00000E+00         0.00000E+00         0.00000E+00
 
    0.13332E+06         0.14691E+06         0.00000E+00
    0.14691E+06        -0.27696E+06         0.00000E+00
    0.00000E+00         0.00000E+00         0.00000E+00
 
    0.12826E+06         0.15215E+06         0.00000E+00
    0.15215E+06        -0.27446E+06         0.00000E+00
    0.00000E+00         0.00000E+00         0.00000E+00
 
    0.12310E+06         0.15739E+06         0.00000E+00
    0.15739E+06        -0.27190E+06         0.00000E+00
    0.00000E+00         0.00000E+00         0.00000E+00
 
    0.11784E+06         0.16262E+06         0.00000E+00
    0.16262E+06        -0.26929E+06         0.00000E+00
    0.00000E+00         0.00000E+00         0.00000E+00
 
    0.11249E+06         0.16784E+06         0.00000E+00
    0.16784E+06        -0.26662E+06         0.00000E+00
    0.00000E+00         0.00000E+00         0.00000E+00
 
    0.10704E+06         0.17306E+06         0.00000E+00
    0.17306E+06        -0.26390E+06         0.00000E+00
    0.00000E+00         0.00000E+00         0.00000E+00
 
    0.10151E+06         0.17826E+06         0.00000E+00
    0.17826E+06        -0.26113E+06         0.00000E+00
    0.00000E+00         0.00000E+00         0.00000E+00
 
    0.95899E+05         0.18345E+06         0.00000E+00
    0.18345E+06        -0.25831E+06         0.00000E+00
    0.00000E+00         0.00000E+00         0.00000E+00
 
    0.90203E+05         0.18864E+06         0.00000E+00
    0.18864E+06        -0.25545E+06         0.00000E+00
    0.00000E+00         0.00000E+00         0.00000E+00
 
    0.84428E+05         0.19381E+06         0.00000E+00
    0.19381E+06        -0.25255E+06         0.00000E+00
    0.00000E+00         0.00000E+00         0.00000E+00
 
    0.78577E+05         0.19897E+06         0.00000E+00
    0.19897E+06        -0.24960E+06         0.00000E+00
    0.00000E+00         0.00000E+00         0.00000E+00
 
    0.72652E+05         0.20412E+06         0.00000E+00
    0.20412E+06        -0.24661E+06         0.00000E+00
    0.00000E+00         0.00000E+00         0.00000E+00
 
    0.66656E+05         0.20925E+06         0.00000E+00
    0.20925E+06        -0.24359E+06         0.00000E+00
    0.00000E+00         0.00000E+00         0.00000E+00
 
    0.60592E+05         0.21437E+06         0.00000E+00
    0.21437E+06        -0.24053E+06         0.00000E+00
    0.00000E+00         0.00000E+00         0.00000E+00
 
    0.54461E+05         0.21947E+06         0.00000E+00
    0.21947E+06        -0.23744E+06         0.00000E+00
    0.00000E+00         0.00000E+00         0.00000E+00
 
    0.48267E+05         0.22455E+06         0.00000E+00
    0.22455E+06        -0.23432E+06         0.00000E+00
    0.00000E+00         0.00000E+00         0.00000E+00
 
    0.42011E+05         0.22961E+06         0.00000E+00
    0.22961E+06        -0.23116E+06         0.00000E+00
    0.00000E+00         0.00000E+00         0.00000E+00
 
    0.35695E+05         0.23465E+06         0.00000E+00
    0.23465E+06        -0.22798E+06         0.00000E+00
    0.00000E+00         0.00000E+00         0.00000E+00
 
    0.29323E+05         0.23967E+06         0.00000E+00
    0.23967E+06        -0.22477E+06         0.00000E+00
    0.00000E+00         0.00000E+00         0.00000E+00
 
    0.22896E+05         0.24467E+06         0.00000E+00
    0.24467E+06        -0.22154E+06         0.00000E+00
    0.00000E+00         0.00000E+00         0.00000E+00
 
    0.16415E+05         0.24964E+06         0.00000E+00
    0.24964E+06        -0.21828E+06         0.00000E+00
    0.00000E+00         0.00000E+00         0.00000E+00
 
    0.98837E+04         0.25459E+06         0.00000E+00
    0.25459E+06        -0.21501E+06         0.00000E+00
    0.00000E+00         0.00000E+00         0.00000E+00
 
    0.33027E+04         0.25951E+06         0.00000E+00
    0.25951E+06        -0.21171E+06         0.00000E+00
    0.00000E+00         0.00000E+00         0.00000E+00
 
    0.22465E+06         0.30713E+04         0.00000E+00
    0.30713E+04        -0.33932E+06         0.00000E+00
    0.00000E+00         0.00000E+00         0.00000E+00
 
    0.22335E+06         0.91164E+04         0.00000E+00
    0.91164E+04        -0.33921E+06         0.00000E+00
    0.00000E+00         0.00000E+00         0.00000E+00
 
    0.22188E+06         0.15129E+05         0.00000E+00
    0.15129E+05        -0.33898E+06         0.00000E+00
    0.00000E+00         0.00000E+00         0.00000E+00
 
    0.22023E+06         0.21111E+05         0.00000E+00
    0.21111E+05        -0.33865E+06         0.00000E+00
    0.00000E+00         0.00000E+00         0.00000E+00
 
    0.21842E+06         0.27063E+05         0.00000E+00
    0.27063E+05        -0.33822E+06         0.00000E+00
    0.00000E+00         0.00000E+00         0.00000E+00
 
    0.21644E+06         0.32989E+05         0.00000E+00
    0.32989E+05        -0.33767E+06         0.00000E+00
    0.00000E+00         0.00000E+00         0.00000E+00
 
    0.21429E+06         0.38890E+05         0.00000E+00
    0.38890E+05        -0.33702E+06         0.00000E+00
    0.00000E+00         0.00000E+00         0.00000E+00
 
    0.21197E+06         0.44766E+05         0.00000E+00
    0.44766E+05        -0.33627E+06         0.00000E+00
    0.00000E+00         0.00000E+00         0.00000E+00
 
    0.20950E+06         0.50621E+05         0.00000E+00
    0.50621E+05        -0.33542E+06         0.00000E+00
    0.00000E+00         0.00000E+00         0.00000E+00
 
    0.20687E+06         0.56454E+05         0.00000E+00
    0.56454E+05        -0.33446E+06         0.00000E+00
    0.00000E+00         0.00000E+00         0.00000E+00
 
    0.20408E+06         0.62267E+05         0.00000E+00
    0.62267E+05        -0.33341E+06         0.00000E+00
    0.00000E+00         0.00000E+00         0.00000E+00
 
    0.20114E+06         0.68061E+05         0.00000E+00
    0.68061E+05        -0.33226E+06         0.00000E+00
    0.00000E+00         0.00000E+00         0.00000E+00
 
    0.19805E+06         0.73837E+05         0.00000E+00
    0.73837E+05        -0.33102E+06         0.00000E+00
    0.00000E+00         0.00000E+00         0.00000E+00
 
    0.19481E+06         0.79596E+05         0.00000E+00
    0.79596E+05        -0.32968E+06         0.00000E+00
    0.00000E+00         0.00000E+00         0.00000E+00
 
    0.19142E+06         0.85340E+05         0.00000E+00
    0.85340E+05        -0.32825E+06         0.00000E+00
    0.00000E+00         0.00000E+00         0.00000E+00
 
    0.18789E+06         0.91067E+05         0.00000E+00
    0.91067E+05        -0.32673E+06         0.00000E+00
    0.00000E+00         0.00000E+00         0.00000E+00
 
    0.18423E+06         0.96780E+05         0.00000E+00
    0.96780E+05        -0.32513E+06         0.00000E+00
    0.00000E+00         0.00000E+00         0.00000E+00
 
    0.18042E+06         0.10248E+06         0.00000E+00
    0.10248E+06        -0.32344E+06         0.00000E+00
    0.00000E+00         0.00000E+00         0.00000E+00
 
    0.17649E+06         0.10816E+06         0.00000E+00
    0.10816E+06        -0.32166E+06         0.00000E+00
    0.00000E+00         0.00000E+00         0.00000E+00
 
    0.17242E+06         0.11383E+06         0.00000E+00
    0.11383E+06        -0.31981E+06         0.00000E+00
    0.00000E+00         0.00000E+00         0.00000E+00
 
    0.16822E+06         0.11949E+06         0.00000E+00
    0.11949E+06        -0.31787E+06         0.00000E+00
    0.00000E+00         0.00000E+00         0.00000E+00
 
    0.16390E+06         0.12513E+06         0.00000E+00
    0.12513E+06        -0.31586E+06         0.00000E+00
    0.00000E+00         0.00000E+00         0.00000E+00
 
    0.15946E+06         0.13076E+06         0.00000E+00
    0.13076E+06        -0.31378E+06         0.00000E+00
    0.00000E+00         0.00000E+00         0.00000E+00
 
    0.15489E+06         0.13638E+06         0.00000E+00
    0.13638E+06        -0.31162E+06         0.00000E+00
    0.00000E+00         0.00000E+00         0.00000E+00
 
    0.15022E+06         0.14199E+06         0.00000E+00
    0.14199E+06        -0.30938E+06         0.00000E+00
    0.00000E+00         0.00000E+00         0.00000E+00
 
    0.14542E+06         0.14758E+06         0.00000E+00
    0.14758E+06        -0.30708E+06         0.00000E+00
    0.00000E+00         0.00000E+00         0.00000E+00
 
    0.14052E+06         0.15315E+06         0.00000E+00
    0.15315E+06        -0.30472E+06         0.00000E+00
    0.00000E+00         0.00000E+00         0.00000E+00
 
    0.13551E+06         0.15871E+06         0.00000E+00
    0.15871E+06        -0.30228E+06         0.00000E+00
    0.00000E+00         0.00000E+00         0.00000E+00
 
    0.13039E+06         0.16426E+06         0.00000E+00
    0.16426E+06        -0.29979E+06         0.00000E+00
    0.00000E+00         0.00000E+00         0.00000E+00
 
    0.12518E+06         0.16980E+06         0.00000E+00
    0.16980E+06        -0.29723E+06         0.00000E+00
    0.00000E+00         0.00000E+00         0.00000E+00
 
    0.11986E+06         0.17531E+06         0.00000E+00
    0.17531E+06        -0.29462E+06         0.00000E+00
    0.00000E+00         0.00000E+00         0.00000E+00
 
    0.11445E+06         0.18081E+06         0.00000E+00
    0.18081E+06        -0.29195E+06         0.00000E+00
    0.00000E+00         0.00000E+00         0.00000E+00
 
    0.10894E+06         0.18630E+06         0.00000E+00
    0.18630E+06        -0.28922E+06         0.00000E+00
    0.00000E+00         0.00000E+00         0.00000E+00
 
    0.10334E+06         0.19177E+06         0.00000E+00
    0.19177E+06        -0.28644E+06         0.00000E+00
    0.00000E+00         0.00000E+00         0.00000E+00
 
    0.97656E+05         0.19722E+06         0.00000E+00
    0.19722E+06        -0.28361E+06         0.00000E+00
    0.00000E+00         0.00000E+00         0.00000E+00
 
    0.91884E+05         0.20265E+06         0.00000E+00
    0.20265E+06        -0.28073E+06         0.00000E+00
    0.00000E+00         0.00000E+00         0.00000E+00
 
    0.86028E+05         0.20806E+06         0.00000E+00
    0.20806E+06        -0.27780E+06         0.00000E+00
    0.00000E+00         0.00000E+00         0.00000E+00
 
    0.80091E+05         0.21345E+06         0.00000E+00
    0.21345E+06        -0.27483E+06         0.00000E+00
    0.00000E+00         0.00000E+00         0.00000E+00
 
    0.74076E+05         0.21882E+06         0.00000E+00
    0.21882E+06        -0.27182E+06         0.00000E+00
    0.00000E+00         0.00000E+00         0.00000E+00
 
    0.67985E+05         0.22417E+06         0.00000E+00
    0.22417E+06        -0.26876E+06         0.00000E+00
    0.00000E+00         0.00000E+00         0.00000E+00
 
    0.61820E+05         0.22949E+06         0.00000E+00
    0.22949E+06        -0.26567E+06         0.00000E+00
    0.00000E+00         0.00000E+00         0.00000E+00
 
    0.55584E+05         0.23479E+06         0.00000E+00
    0.23479E+06        -0.26253E+06         0.00000E+00
    0.00000E+00         0.00000E+00         0.00000E+00
 
    0.49279E+05         0.24007E+06         0.00000E+00
    0.24007E+06        -0.25936E+06         0.00000E+00
    0.00000E+00         0.00000E+00         0.00000E+00
 
    0.42906E+05         0.24532E+06         0.00000E+00
    0.24532E+06        -0.25616E+06         0.00000E+00
    0.00000E+00         0.00000E+00         0.00000E+00
 
    0.36469E+05         0.25054E+06         0.00000E+00
    0.25054E+06        -0.25293E+06         0.00000E+00
    0.00000E+00         0.00000E+00         0.00000E+00
 
    0.29969E+05         0.25573E+06         0.00000E+00
    0.25573E+06        -0.24966E+06         0.00000E+00
    0.00000E+00         0.00000E+00         0.00000E+00
 
    0.23408E+05         0.26090E+06         0.00000E+00
    0.26090E+06        -0.24637E+06         0.00000E+00
    0.00000E+00         0.00000E+00         0.00000E+00
 
    0.16789E+05         0.26603E+06         0.00000E+00
    0.26603E+06        -0.24305E+06         0.00000E+00
    0.00000E+00         0.00000E+00         0.00000E+00
 
    0.10112E+05         0.27113E+06         0.00000E+00
    0.27113E+06        -0.23970E+06         0.00000E+00
    0.00000E+00         0.00000E+00         0.00000E+00
 
    0.33796E+04         0.27621E+06         0.00000E+00
    0.27621E+06        -0.23633E+06         0.00000E+00
    0.00000E+00         0.00000E+00         0.00000E+00
 
    0.23065E+06         0.33316E+04         0.00000E+00
    0.33316E+04        -0.36493E+06         0.00000E+00
    0.00000E+00         0.00000E+00         0.00000E+00
 
    0.22917E+06         0.98876E+04         0.00000E+00
    0.98876E+04        -0.36482E+06         0.00000E+00
    0.00000E+00         0.00000E+00         0.00000E+00
 
    0.22753E+06         0.16407E+05         0.00000E+00
    0.16407E+05        -0.36460E+06         0.00000E+00
    0.00000E+00         0.00000E+00         0.00000E+00
 
    0.22572E+06         0.22891E+05         0.00000E+00
    0.22891E+05        -0.36428E+06         0.00000E+00
    0.00000E+00         0.00000E+00         0.00000E+00
 
    0.22375E+06         0.29341E+05         0.00000E+00
    0.29341E+05        -0.36385E+06         0.00000E+00
    0.00000E+00         0.00000E+00         0.00000E+00
 
    0.22163E+06         0.35759E+05         0.00000E+00
    0.35759E+05        -0.36332E+06         0.00000E+00
    0.00000E+00         0.00000E+00         0.00000E+00
 
    0.21934E+06         0.42146E+05         0.00000E+00
    0.42146E+05        -0.36268E+06         0.00000E+00
    0.00000E+00         0.00000E+00         0.00000E+00
 
    0.21690E+06         0.48504E+05         0.00000E+00
    0.48504E+05        -0.36194E+06         0.00000E+00
    0.00000E+00         0.00000E+00         0.00000E+00
 
    0.21430E+06         0.54832E+05         0.00000E+00
    0.54832E+05        -0.36110E+06         0.00000E+00
    0.00000E+00         0.00000E+00         0.00000E+00
 
    0.21155E+06         0.61133E+05         0.00000E+00
    0.61133E+05        -0.36016E+06         0.00000E+00
    0.00000E+00         0.00000E+00         0.00000E+00
 
    0.20864E+06         0.67407E+05         0.00000E+00
    0.67407E+05        -0.35913E+06         0.00000E+00
    0.00000E+00         0.00000E+00         0.00000E+00
 
    0.20559E+06         0.73655E+05         0.00000E+00
    0.73655E+05        -0.35800E+06         0.00000E+00
    0.00000E+00         0.00000E+00         0.00000E+00
 
    0.20240E+06         0.79878E+05         0.00000E+00
    0.79878E+05        -0.35677E+06         0.00000E+00
    0.00000E+00         0.00000E+00         0.00000E+00
 
    0.19906E+06         0.86077E+05         0.00000E+00
    0.86077E+05        -0.35545E+06         0.00000E+00
    0.00000E+00         0.00000E+00         0.00000E+00
 
    0.19557E+06         0.92252E+05         0.00000E+00
    0.92252E+05        -0.35404E+06         0.00000E+00
    0.00000E+00         0.00000E+00         0.00000E+00
 
    0.19195E+06         0.98404E+05         0.00000E+00
    0.98404E+05        -0.35253E+06         0.00000E+00
    0.00000E+00         0.00000E+00         0.00000E+00
 
    0.18819E+06         0.10453E+06         0.00000E+00
    0.10453E+06        -0.35094E+06         0.00000E+00
    0.00000E+00         0.00000E+00         0.00000E+00
 
    0.18430E+06         0.11064E+06         0.00000E+00
    0.11064E+06        -0.34927E+06         0.00000E+00
    0.00000E+00         0.00000E+00         0.00000E+00
 
    0.18027E+06         0.11673E+06         0.00000E+00
    0.11673E+06        -0.34751E+06         0.00000E+00
    0.00000E+00         0.00000E+00         0.00000E+00
 
    0.17611E+06         0.12279E+06         0.00000E+00
    0.12279E+06        -0.34566E+06         0.00000E+00
    0.00000E+00         0.00000E+00         0.00000E+00
 
    0.17183E+06         0.12883E+06         0.00000E+00
    0.12883E+06        -0.34374E+06         0.00000E+00
    0.00000E+00         0.00000E+00         0.00000E+00
 
    0.16742E+06         0.13485E+06         0.00000E+00
    0.13485E+06        -0.34173E+06         0.00000E+00
    0.00000E+00         0.00000E+00         0.00000E+00
 
    0.16289E+06         0.14085E+06         0.00000E+00
    0.14085E+06        -0.33965E+06         0.00000E+00
    0.00000E+00         0.00000E+00         0.00000E+00
 
    0.15824E+06         0.14683E+06         0.00000E+00
    0.14683E+06        -0.33750E+06         0.00000E+00
    0.00000E+00         0.00000E+00         0.00000E+00
 
    0.15347E+06         0.15278E+06         0.00000E+00
    0.15278E+06        -0.33527E+06         0.00000E+00
    0.00000E+00         0.00000E+00         0.00000E+00
 
    0.14859E+06         0.15872E+06         0.00000E+00
    0.15872E+06        -0.33297E+06         0.00000E+00
    0.00000E+00         0.00000E+00         0.00000E+00
 
    0.14360E+06         0.16463E+06         0.00000E+00
    0.16463E+06        -0.33060E+06         0.00000E+00
    0.00000E+00         0.00000E+00         0.00000E+00
 
    0.13850E+06         0.17052E+06         0.00000E+00
    0.17052E+06        -0.32816E+06         0.00000E+00
    0.00000E+00         0.00000E+00         0.00000E+00
 
    0.13329E+06         0.17639E+06         0.00000E+00
    0.17639E+06        -0.32565E+06         0.00000E+00
    0.00000E+00         0.00000E+00         0.00000E+00
 
    0.12798E+06         0.18223E+06         0.00000E+00
    0.18223E+06        -0.32309E+06         0.00000E+00
    0.00000E+00         0.00000E+00         0.00000E+00
 
    0.12256E+06         0.18805E+06         0.00000E+00
    0.18805E+06        -0.32046E+06         0.00000E+00
    0.00000E+00         0.00000E+00         0.00000E+00
 
    0.11705E+06         0.19385E+06         0.00000E+00
    0.19385E+06        -0.31777E+06         0.00000E+00
    0.00000E+00         0.00000E+00         0.00000E+00
 
    0.11144E+06         0.19962E+06         0.00000E+00
    0.19962E+06        -0.31502E+06         0.00000E+00
    0.00000E+00         0.00000E+00         0.00000E+00
 
    0.10573E+06         0.20537E+06         0.00000E+00
    0.20537E+06        -0.31221E+06         0.00000E+00
    0.00000E+00         0.00000E+00         0.00000E+00
 
    0.99932E+05         0.21109E+06         0.00000E+00
    0.21109E+06        -0.30935E+06         0.00000E+00
    0.00000E+00         0.00000E+00         0.00000E+00
 
    0.94045E+05         0.21679E+06         0.00000E+00
    0.21679E+06        -0.30644E+06         0.00000E+00
    0.00000E+00         0.00000E+00         0.00000E+00
 
    0.88071E+05         0.22246E+06         0.00000E+00
    0.22246E+06        -0.30348E+06         0.00000E+00
    0.00000E+00         0.00000E+00         0.00000E+00
 
    0.82012E+05         0.22810E+06         0.00000E+00
    0.22810E+06        -0.30047E+06         0.00000E+00
    0.00000E+00         0.00000E+00         0.00000E+00
 
    0.75870E+05         0.23371E+06         0.00000E+00
    0.23371E+06        -0.29741E+06         0.00000E+00
    0.00000E+00         0.00000E+00         0.00000E+00
 
    0.69648E+05         0.23929E+06         0.00000E+00
    0.23929E+06        -0.29431E+06         0.00000E+00
    0.00000E+00         0.00000E+00         0.00000E+00
 
    0.63348E+05         0.24485E+06         0.00000E+00
    0.24485E+06        -0.29116E+06         0.00000E+00
    0.00000E+00         0.00000E+00         0.00000E+00
 
    0.56971E+05         0.25037E+06         0.00000E+00
    0.25037E+06        -0.28798E+06         0.00000E+00
    0.00000E+00         0.00000E+00         0.00000E+00
 
    0.50521E+05         0.25586E+06         0.00000E+00
    0.25586E+06        -0.28475E+06         0.00000E+00
    0.00000E+00         0.00000E+00         0.00000E+00
 
    0.43999E+05         0.26132E+06         0.00000E+00
    0.26132E+06        -0.28148E+06         0.00000E+00
    0.00000E+00         0.00000E+00         0.00000E+00
 
    0.37408E+05         0.26674E+06         0.00000E+00
    0.26674E+06        -0.27818E+06         0.00000E+00
    0.00000E+00         0.00000E+00         0.00000E+00
 
    0.30748E+05         0.27213E+06         0.00000E+00
    0.27213E+06        -0.27484E+06         0.00000E+00
    0.00000E+00         0.00000E+00         0.00000E+00
 
    0.24023E+05         0.27748E+06         0.00000E+00
    0.27748E+06        -0.27147E+06         0.00000E+00
    0.00000E+00         0.00000E+00         0.00000E+00
 
    0.17234E+05         0.28280E+06         0.00000E+00
    0.28280E+06        -0.26807E+06         0.00000E+00
    0.00000E+00         0.00000E+00         0.00000E+00
 
    0.10382E+05         0.28808E+06         0.00000E+00
    0.28808E+06        -0.26464E+06         0.00000E+00
    0.00000E+00         0.00000E+00         0.00000E+00
 
    0.34706E+04         0.29332E+06         0.00000E+00
    0.29332E+06        -0.26118E+06         0.00000E+00
    0.00000E+00         0.00000E+00         0.00000E+00
 
    0.23827E+06         0.35851E+04         0.00000E+00
    0.35851E+04        -0.39144E+06         0.00000E+00
    0.00000E+00         0.00000E+00         0.00000E+00
 
    0.23660E+06         0.10641E+05         0.00000E+00
    0.10641E+05        -0.39133E+06         0.00000E+00
    0.00000E+00         0.00000E+00         0.00000E+00
 
    0.23477E+06         0.17658E+05         0.00000E+00
    0.17658E+05        -0.39112E+06         0.00000E+00
    0.00000E+00         0.00000E+00         0.00000E+00
 
    0.23278E+06         0.24636E+05         0.00000E+00
    0.24636E+05        -0.39080E+06         0.00000E+00
    0.00000E+00         0.00000E+00         0.00000E+00
 
    0.23064E+06         0.31576E+05         0.00000E+00
    0.31576E+05        -0.39038E+06         0.00000E+00
    0.00000E+00         0.00000E+00         0.00000E+00
 
    0.22834E+06         0.38480E+05         0.00000E+00
    0.38480E+05        -0.38985E+06         0.00000E+00
    0.00000E+00         0.00000E+00         0.00000E+00
 
    0.22589E+06         0.45348E+05         0.00000E+00
    0.45348E+05        -0.38922E+06         0.00000E+00
    0.00000E+00         0.00000E+00         0.00000E+00
 
    0.22329E+06         0.52182E+05         0.00000E+00
    0.52182E+05        -0.38849E+06         0.00000E+00
    0.00000E+00         0.00000E+00         0.00000E+00
 
    0.22054E+06         0.58982E+05         0.00000E+00
    0.58982E+05        -0.38766E+06         0.00000E+00
    0.00000E+00         0.00000E+00         0.00000E+00
 
    0.21764E+06         0.65748E+05         0.00000E+00
    0.65748E+05        -0.38673E+06         0.00000E+00
    0.00000E+00         0.00000E+00         0.00000E+00
 
    0.21459E+06         0.72482E+05         0.00000E+00
    0.72482E+05        -0.38570E+06         0.00000E+00
    0.00000E+00         0.00000E+00         0.00000E+00
 
    0.21140E+06         0.79185E+05         0.00000E+00
    0.79185E+05        -0.38457E+06         0.00000E+00
    0.00000E+00         0.00000E+00         0.00000E+00
 
    0.20806E+06         0.85856E+05         0.00000E+00
    0.85856E+05        -0.38335E+06         0.00000E+00
    0.00000E+00         0.00000E+00         0.00000E+00
 
    0.20459E+06         0.92497E+05         0.00000E+00
    0.92497E+05        -0.38204E+06         0.00000E+00
    0.00000E+00         0.00000E+00         0.00000E+00
 
    0.20097E+06         0.99108E+05         0.00000E+00
    0.99108E+05        -0.38063E+06         0.00000E+00
    0.00000E+00         0.00000E+00         0.00000E+00
 
    0.19722E+06         0.10569E+06         0.00000E+00
    0.10569E+06        -0.37913E+06         0.00000E+00
    0.00000E+00         0.00000E+00         0.00000E+00
 
    0.19333E+06         0.11224E+06         0.00000E+00
    0.11224E+06        -0.37755E+06         0.00000E+00
    0.00000E+00         0.00000E+00         0.00000E+00
 
    0.18931E+06         0.11876E+06         0.00000E+00
    0.11876E+06        -0.37587E+06         0.00000E+00
    0.00000E+00         0.00000E+00         0.00000E+00
 
    0.18516E+06         0.12526E+06         0.00000E+00
    0.12526E+06        -0.37411E+06         0.00000E+00
    0.00000E+00         0.00000E+00         0.00000E+00
 
    0.18088E+06         0.13172E+06         0.00000E+00
    0.13172E+06        -0.37227E+06         0.00000E+00
    0.00000E+00         0.00000E+00         0.00000E+00
 
    0.17647E+06         0.13816E+06         0.00000E+00
    0.13816E+06        -0.37034E+06         0.00000E+00
    0.00000E+00         0.00000E+00         0.00000E+00
 
    0.17194E+06         0.14456E+06         0.00000E+00
    0.14456E+06        -0.36833E+06         0.00000E+00
    0.00000E+00         0.00000E+00         0.00000E+00
 
    0.16728E+06         0.15094E+06         0.00000E+00
    0.15094E+06        -0.36624E+06         0.00000E+00
    0.00000E+00         0.00000E+00         0.00000E+00
 
    0.16251E+06         0.15729E+06         0.00000E+00
    0.15729E+06        -0.36408E+06         0.00000E+00
    0.00000E+00         0.00000E+00         0.00000E+00
 
    0.15761E+06         0.16361E+06         0.00000E+00
    0.16361E+06        -0.36183E+06         0.00000E+00
    0.00000E+00         0.00000E+00         0.00000E+00
 
    0.15261E+06         0.16990E+06         0.00000E+00
    0.16990E+06        -0.35952E+06         0.00000E+00
    0.00000E+00         0.00000E+00         0.00000E+00
 
    0.14749E+06         0.17616E+06         0.00000E+00
    0.17616E+06        -0.35713E+06         0.00000E+00
    0.00000E+00         0.00000E+00         0.00000E+00
 
    0.14225E+06         0.18240E+06         0.00000E+00
    0.18240E+06        -0.35467E+06         0.00000E+00
    0.00000E+00         0.00000E+00         0.00000E+00
 
    0.13691E+06         0.18860E+06         0.00000E+00
    0.18860E+06        -0.35215E+06         0.00000E+00
    0.00000E+00         0.00000E+00         0.00000E+00
 
    0.13147E+06         0.19477E+06         0.00000E+00
    0.19477E+06        -0.34955E+06         0.00000E+00
    0.00000E+00         0.00000E+00         0.00000E+00
 
    0.12591E+06         0.20091E+06         0.00000E+00
    0.20091E+06        -0.34689E+06         0.00000E+00
    0.00000E+00         0.00000E+00         0.00000E+00
 
    0.12026E+06         0.20702E+06         0.00000E+00
    0.20702E+06        -0.34417E+06         0.00000E+00
    0.00000E+00         0.00000E+00         0.00000E+00
 
    0.11451E+06         0.21310E+06         0.00000E+00
    0.21310E+06        -0.34139E+06         0.00000E+00
    0.00000E+00         0.00000E+00         0.00000E+00
 
    0.10866E+06         0.21914E+06         0.00000E+00
    0.21914E+06        -0.33854E+06         0.00000E+00
    0.00000E+00         0.00000E+00         0.00000E+00
 
    0.10271E+06         0.22516E+06         0.00000E+00
    0.22516E+06        -0.33564E+06         0.00000E+00
    0.00000E+00         0.00000E+00         0.00000E+00
 
    0.96677E+05         0.23113E+06         0.00000E+00
    0.23113E+06        -0.33268E+06         0.00000E+00
    0.00000E+00         0.00000E+00         0.00000E+00
 
    0.90548E+05         0.23708E+06         0.00000E+00
    0.23708E+06        -0.32967E+06         0.00000E+00
    0.00000E+00         0.00000E+00         0.00000E+00
 
    0.84332E+05         0.24299E+06         0.00000E+00
    0.24299E+06        -0.32661E+06         0.00000E+00
    0.00000E+00         0.00000E+00         0.00000E+00
 
    0.78028E+05         0.24886E+06         0.00000E+00
    0.24886E+06        -0.32349E+06         0.00000E+00
    0.00000E+00         0.00000E+00         0.00000E+00
 
    0.71641E+05         0.25470E+06         0.00000E+00
    0.25470E+06        -0.32033E+06         0.00000E+00
    0.00000E+00         0.00000E+00         0.00000E+00
 
    0.65171E+05         0.26050E+06         0.00000E+00
    0.26050E+06        -0.31711E+06         0.00000E+00
    0.00000E+00         0.00000E+00         0.00000E+00
 
    0.58621E+05         0.26626E+06         0.00000E+00
    0.26626E+06        -0.31386E+06         0.00000E+00
    0.00000E+00         0.00000E+00         0.00000E+00
 
    0.51993E+05         0.27199E+06         0.00000E+00
    0.27199E+06        -0.31056E+06         0.00000E+00
    0.00000E+00         0.00000E+00         0.00000E+00
 
    0.45289E+05         0.27767E+06         0.00000E+00
    0.27767E+06        -0.30721E+06         0.00000E+00
    0.00000E+00         0.00000E+00         0.00000E+00
 
    0.38511E+05         0.28332E+06         0.00000E+00
    0.28332E+06        -0.30383E+06         0.00000E+00
    0.00000E+00         0.00000E+00         0.00000E+00
 
    0.31661E+05         0.28892E+06         0.00000E+00
    0.28892E+06        -0.30041E+06         0.00000E+00
    0.00000E+00         0.00000E+00         0.00000E+00
 
    0.24740E+05         0.29449E+06         0.00000E+00
    0.29449E+06        -0.29695E+06         0.00000E+00
    0.00000E+00         0.00000E+00         0.00000E+00
 
    0.17751E+05         0.30001E+06         0.00000E+00
    0.30001E+06        -0.29345E+06         0.00000E+00
    0.00000E+00         0.00000E+00         0.00000E+00
 
    0.10696E+05         0.30548E+06         0.00000E+00
    0.30548E+06        -0.28992E+06         0.00000E+00
    0.00000E+00         0.00000E+00         0.00000E+00
 
    0.35760E+04         0.31092E+06         0.00000E+00
    0.31092E+06        -0.28636E+06         0.00000E+00
    0.00000E+00         0.00000E+00         0.00000E+00
 
    0.24738E+06         0.38349E+04         0.00000E+00
    0.38349E+04        -0.41896E+06         0.00000E+00
    0.00000E+00         0.00000E+00         0.00000E+00
 
    0.24550E+06         0.11386E+05         0.00000E+00
    0.11386E+05        -0.41885E+06         0.00000E+00
    0.00000E+00         0.00000E+00         0.00000E+00
 
    0.24347E+06         0.18895E+05         0.00000E+00
    0.18895E+05        -0.41864E+06         0.00000E+00
    0.00000E+00         0.00000E+00         0.00000E+00
 
    0.24129E+06         0.26363E+05         0.00000E+00
    0.26363E+05        -0.41832E+06         0.00000E+00
    0.00000E+00         0.00000E+00         0.00000E+00
 
    0.23895E+06         0.33790E+05         0.00000E+00
    0.33790E+05        -0.41790E+06         0.00000E+00
    0.00000E+00         0.00000E+00         0.00000E+00
 
    0.23647E+06         0.41177E+05         0.00000E+00
    0.41177E+05        -0.41737E+06         0.00000E+00
    0.00000E+00         0.00000E+00         0.00000E+00
 
    0.23383E+06         0.48525E+05         0.00000E+00
    0.48525E+05        -0.41674E+06         0.00000E+00
    0.00000E+00         0.00000E+00         0.00000E+00
 
    0.23105E+06         0.55835E+05         0.00000E+00
    0.55835E+05        -0.41601E+06         0.00000E+00
    0.00000E+00         0.00000E+00         0.00000E+00
 
    0.22812E+06         0.63106E+05         0.00000E+00
    0.63106E+05        -0.41518E+06         0.00000E+00
    0.00000E+00         0.00000E+00         0.00000E+00
 
    0.22505E+06         0.70340E+05         0.00000E+00
    0.70340E+05        -0.41425E+06         0.00000E+00
    0.00000E+00         0.00000E+00         0.00000E+00
 
    0.22183E+06         0.77536E+05         0.00000E+00
    0.77536E+05        -0.41322E+06         0.00000E+00
    0.00000E+00         0.00000E+00         0.00000E+00
 
    0.21847E+06         0.84696E+05         0.00000E+00
    0.84696E+05        -0.41209E+06         0.00000E+00
    0.00000E+00         0.00000E+00         0.00000E+00
 
    0.21497E+06         0.91819E+05         0.00000E+00
    0.91819E+05        -0.41087E+06         0.00000E+00
    0.00000E+00         0.00000E+00         0.00000E+00
 
    0.21133E+06         0.98907E+05         0.00000E+00
    0.98907E+05        -0.40955E+06         0.00000E+00
    0.00000E+00         0.00000E+00         0.00000E+00
 
    0.20755E+06         0.10596E+06         0.00000E+00
    0.10596E+06        -0.40814E+06         0.00000E+00
    0.00000E+00         0.00000E+00         0.00000E+00
 
    0.20363E+06         0.11297E+06         0.00000E+00
    0.11297E+06        -0.40663E+06         0.00000E+00
    0.00000E+00         0.00000E+00         0.00000E+00
 
    0.19959E+06         0.11995E+06         0.00000E+00
    0.11995E+06        -0.40504E+06         0.00000E+00
    0.00000E+00         0.00000E+00         0.00000E+00
 
    0.19541E+06         0.12690E+06         0.00000E+00
    0.12690E+06        -0.40336E+06         0.00000E+00
    0.00000E+00         0.00000E+00         0.00000E+00
 
    0.19109E+06         0.13381E+06         0.00000E+00
    0.13381E+06        -0.40158E+06         0.00000E+00
    0.00000E+00         0.00000E+00         0.00000E+00
 
    0.18666E+06         0.14069E+06         0.00000E+00
    0.14069E+06        -0.39972E+06         0.00000E+00
    0.00000E+00         0.00000E+00         0.00000E+00
 
    0.18209E+06         0.14752E+06         0.00000E+00
    0.14752E+06        -0.39778E+06         0.00000E+00
    0.00000E+00         0.00000E+00         0.00000E+00
 
    0.17740E+06         0.15433E+06         0.00000E+00
    0.15433E+06        -0.39575E+06         0.00000E+00
    0.00000E+00         0.00000E+00         0.00000E+00
 
    0.17259E+06         0.16110E+06         0.00000E+00
    0.16110E+06        -0.39364E+06         0.00000E+00
    0.00000E+00         0.00000E+00         0.00000E+00
 
    0.16765E+06         0.16783E+06         0.00000E+00
    0.16783E+06        -0.39145E+06         0.00000E+00
    0.00000E+00         0.00000E+00         0.00000E+00
 
    0.16260E+06         0.17453E+06         0.00000E+00
    0.17453E+06        -0.38919E+06         0.00000E+00
    0.00000E+00         0.00000E+00         0.00000E+00
 
    0.15743E+06         0.18119E+06         0.00000E+00
    0.18119E+06        -0.38684E+06         0.00000E+00
    0.00000E+00         0.00000E+00         0.00000E+00
 
    0.15214E+06         0.18782E+06         0.00000E+00
    0.18782E+06        -0.38442E+06         0.00000E+00
    0.00000E+00         0.00000E+00         0.00000E+00
 
    0.14675E+06         0.19441E+06         0.00000E+00
    0.19441E+06        -0.38193E+06         0.00000E+00
    0.00000E+00         0.00000E+00         0.00000E+00
 
    0.14124E+06         0.20096E+06         0.00000E+00
    0.20096E+06        -0.37937E+06         0.00000E+00
    0.00000E+00         0.00000E+00         0.00000E+00
 
    0.13562E+06         0.20747E+06         0.00000E+00
    0.20747E+06        -0.37673E+06         0.00000E+00
    0.00000E+00         0.00000E+00         0.00000E+00
 
    0.12990E+06         0.21395E+06         0.00000E+00
    0.21395E+06        -0.37403E+06         0.00000E+00
    0.00000E+00         0.00000E+00         0.00000E+00
 
    0.12408E+06         0.22039E+06         0.00000E+00
    0.22039E+06        -0.37126E+06         0.00000E+00
    0.00000E+00         0.00000E+00         0.00000E+00
 
    0.11815E+06         0.22679E+06         0.00000E+00
    0.22679E+06        -0.36842E+06         0.00000E+00
    0.00000E+00         0.00000E+00         0.00000E+00
 
    0.11212E+06         0.23315E+06         0.00000E+00
    0.23315E+06        -0.36553E+06         0.00000E+00
    0.00000E+00         0.00000E+00         0.00000E+00
 
    0.10599E+06         0.23947E+06         0.00000E+00
    0.23947E+06        -0.36257E+06         0.00000E+00
    0.00000E+00         0.00000E+00         0.00000E+00
 
    0.99769E+05         0.24575E+06         0.00000E+00
    0.24575E+06        -0.35955E+06         0.00000E+00
    0.00000E+00         0.00000E+00         0.00000E+00
 
    0.93453E+05         0.25199E+06         0.00000E+00
    0.25199E+06        -0.35647E+06         0.00000E+00
    0.00000E+00         0.00000E+00         0.00000E+00
 
    0.87044E+05         0.25819E+06         0.00000E+00
    0.25819E+06        -0.35334E+06         0.00000E+00
    0.00000E+00         0.00000E+00         0.00000E+00
 
    0.80546E+05         0.26435E+06         0.00000E+00
    0.26435E+06        -0.35015E+06         0.00000E+00
    0.00000E+00         0.00000E+00         0.00000E+00
 
    0.73960E+05         0.27046E+06         0.00000E+00
    0.27046E+06        -0.34691E+06         0.00000E+00
    0.00000E+00         0.00000E+00         0.00000E+00
 
    0.67288E+05         0.27653E+06         0.00000E+00
    0.27653E+06        -0.34362E+06         0.00000E+00
    0.00000E+00         0.00000E+00         0.00000E+00
 
    0.60532E+05         0.28255E+06         0.00000E+00
    0.28255E+06        -0.34027E+06         0.00000E+00
    0.00000E+00         0.00000E+00         0.00000E+00
 
    0.53694E+05         0.28853E+06         0.00000E+00
    0.28853E+06        -0.33688E+06         0.00000E+00
    0.00000E+00         0.00000E+00         0.00000E+00
 
    0.46776E+05         0.29447E+06         0.00000E+00
    0.29447E+06        -0.33345E+06         0.00000E+00
    0.00000E+00         0.00000E+00         0.00000E+00
 
    0.39780E+05         0.30036E+06         0.00000E+00
    0.30036E+06        -0.32997E+06         0.00000E+00
    0.00000E+00         0.00000E+00         0.00000E+00
 
    0.32708E+05         0.30620E+06         0.00000E+00
    0.30620E+06        -0.32644E+06         0.00000E+00
    0.00000E+00         0.00000E+00         0.00000E+00
 
    0.25562E+05         0.31199E+06         0.00000E+00
    0.31199E+06        -0.32288E+06         0.00000E+00
    0.00000E+00         0.00000E+00         0.00000E+00
 
    0.18343E+05         0.31773E+06         0.00000E+00
    0.31773E+06        -0.31927E+06         0.00000E+00
    0.00000E+00         0.00000E+00         0.00000E+00
 
    0.11054E+05         0.32343E+06         0.00000E+00
    0.32343E+06        -0.31563E+06         0.00000E+00
    0.00000E+00         0.00000E+00         0.00000E+00
 
    0.36960E+04         0.32907E+06         0.00000E+00
    0.32907E+06        -0.31195E+06         0.00000E+00
    0.00000E+00         0.00000E+00         0.00000E+00
 
    0.25786E+06         0.40837E+04         0.00000E+00
    0.40837E+04        -0.44758E+06         0.00000E+00
    0.00000E+00         0.00000E+00         0.00000E+00
 
    0.25576E+06         0.12129E+05         0.00000E+00
    0.12129E+05        -0.44747E+06         0.00000E+00
    0.00000E+00         0.00000E+00         0.00000E+00
 
    0.25352E+06         0.20130E+05         0.00000E+00
    0.20130E+05        -0.44726E+06         0.00000E+00
    0.00000E+00         0.00000E+00         0.00000E+00
 
    0.25113E+06         0.28088E+05         0.00000E+00
    0.28088E+05        -0.44694E+06         0.00000E+00
    0.00000E+00         0.00000E+00         0.00000E+00
 
    0.24858E+06         0.36003E+05         0.00000E+00
    0.36003E+05        -0.44652E+06         0.00000E+00
    0.00000E+00         0.00000E+00         0.00000E+00
 
    0.24589E+06         0.43876E+05         0.00000E+00
    0.43876E+05        -0.44599E+06         0.00000E+00
    0.00000E+00         0.00000E+00         0.00000E+00
 
    0.24306E+06         0.51706E+05         0.00000E+00
    0.51706E+05        -0.44535E+06         0.00000E+00
    0.00000E+00         0.00000E+00         0.00000E+00
 
    0.24008E+06         0.59494E+05         0.00000E+00
    0.59494E+05        -0.44462E+06         0.00000E+00
    0.00000E+00         0.00000E+00         0.00000E+00
 
    0.23695E+06         0.67240E+05         0.00000E+00
    0.67240E+05        -0.44378E+06         0.00000E+00
    0.00000E+00         0.00000E+00         0.00000E+00
 
    0.23368E+06         0.74945E+05         0.00000E+00
    0.74945E+05        -0.44284E+06         0.00000E+00
    0.00000E+00         0.00000E+00         0.00000E+00
 
    0.23027E+06         0.82609E+05         0.00000E+00
    0.82609E+05        -0.44180E+06         0.00000E+00
    0.00000E+00         0.00000E+00         0.00000E+00
 
    0.22672E+06         0.90232E+05         0.00000E+00
    0.90232E+05        -0.44066E+06         0.00000E+00
    0.00000E+00         0.00000E+00         0.00000E+00
 
    0.22303E+06         0.97813E+05         0.00000E+00
    0.97813E+05        -0.43943E+06         0.00000E+00
    0.00000E+00         0.00000E+00         0.00000E+00
 
    0.21920E+06         0.10535E+06         0.00000E+00
    0.10535E+06        -0.43809E+06         0.00000E+00
    0.00000E+00         0.00000E+00         0.00000E+00
 
    0.21523E+06         0.11285E+06         0.00000E+00
    0.11285E+06        -0.43667E+06         0.00000E+00
    0.00000E+00         0.00000E+00         0.00000E+00
 
    0.21113E+06         0.12031E+06         0.00000E+00
    0.12031E+06        -0.43514E+06         0.00000E+00
    0.00000E+00         0.00000E+00         0.00000E+00
 
    0.20689E+06         0.12773E+06         0.00000E+00
    0.12773E+06        -0.43353E+06         0.00000E+00
    0.00000E+00         0.00000E+00         0.00000E+00
 
    0.20253E+06         0.13511E+06         0.00000E+00
    0.13511E+06        -0.43182E+06         0.00000E+00
    0.00000E+00         0.00000E+00         0.00000E+00
 
    0.19803E+06         0.14245E+06         0.00000E+00
    0.14245E+06        -0.43003E+06         0.00000E+00
    0.00000E+00         0.00000E+00         0.00000E+00
 
    0.19340E+06         0.14974E+06         0.00000E+00
    0.14974E+06        -0.42814E+06         0.00000E+00
    0.00000E+00         0.00000E+00         0.00000E+00
 
    0.18865E+06         0.15700E+06         0.00000E+00
    0.15700E+06        -0.42617E+06         0.00000E+00
    0.00000E+00         0.00000E+00         0.00000E+00
 
    0.18377E+06         0.16421E+06         0.00000E+00
    0.16421E+06        -0.42411E+06         0.00000E+00
    0.00000E+00         0.00000E+00         0.00000E+00
 
    0.17876E+06         0.17139E+06         0.00000E+00
    0.17139E+06        -0.42197E+06         0.00000E+00
    0.00000E+00         0.00000E+00         0.00000E+00
 
    0.17364E+06         0.17852E+06         0.00000E+00
    0.17852E+06        -0.41974E+06         0.00000E+00
    0.00000E+00         0.00000E+00         0.00000E+00
 
    0.16839E+06         0.18561E+06         0.00000E+00
    0.18561E+06        -0.41743E+06         0.00000E+00
    0.00000E+00         0.00000E+00         0.00000E+00
 
    0.16303E+06         0.19265E+06         0.00000E+00
    0.19265E+06        -0.41505E+06         0.00000E+00
    0.00000E+00         0.00000E+00         0.00000E+00
 
    0.15755E+06         0.19966E+06         0.00000E+00
    0.19966E+06        -0.41258E+06         0.00000E+00
    0.00000E+00         0.00000E+00         0.00000E+00
 
    0.15196E+06         0.20662E+06         0.00000E+00
    0.20662E+06        -0.41004E+06         0.00000E+00
    0.00000E+00         0.00000E+00         0.00000E+00
 
    0.14625E+06         0.21354E+06         0.00000E+00
    0.21354E+06        -0.40742E+06         0.00000E+00
    0.00000E+00         0.00000E+00         0.00000E+00
 
    0.14043E+06         0.22041E+06         0.00000E+00
    0.22041E+06        -0.40473E+06         0.00000E+00
    0.00000E+00         0.00000E+00         0.00000E+00
 
    0.13451E+06         0.22724E+06         0.00000E+00
    0.22724E+06        -0.40197E+06         0.00000E+00
    0.00000E+00         0.00000E+00         0.00000E+00
 
    0.12847E+06         0.23403E+06         0.00000E+00
    0.23403E+06        -0.39914E+06         0.00000E+00
    0.00000E+00         0.00000E+00         0.00000E+00
 
    0.12234E+06         0.24077E+06         0.00000E+00
    0.24077E+06        -0.39624E+06         0.00000E+00
    0.00000E+00         0.00000E+00         0.00000E+00
 
    0.11610E+06         0.24747E+06         0.00000E+00
    0.24747E+06        -0.39327E+06         0.00000E+00
    0.00000E+00         0.00000E+00         0.00000E+00
 
    0.10976E+06         0.25411E+06         0.00000E+00
    0.25411E+06        -0.39024E+06         0.00000E+00
    0.00000E+00         0.00000E+00         0.00000E+00
 
    0.10332E+06         0.26072E+06         0.00000E+00
    0.26072E+06        -0.38715E+06         0.00000E+00
    0.00000E+00         0.00000E+00         0.00000E+00
 
    0.96778E+05         0.26727E+06         0.00000E+00
    0.26727E+06        -0.38399E+06         0.00000E+00
    0.00000E+00         0.00000E+00         0.00000E+00
 
    0.90145E+05         0.27378E+06         0.00000E+00
    0.27378E+06        -0.38077E+06         0.00000E+00
    0.00000E+00         0.00000E+00         0.00000E+00
 
    0.83420E+05         0.28023E+06         0.00000E+00
    0.28023E+06        -0.37749E+06         0.00000E+00
    0.00000E+00         0.00000E+00         0.00000E+00
 
    0.76603E+05         0.28664E+06         0.00000E+00
    0.28664E+06        -0.37416E+06         0.00000E+00
    0.00000E+00         0.00000E+00         0.00000E+00
 
    0.69697E+05         0.29300E+06         0.00000E+00
    0.29300E+06        -0.37077E+06         0.00000E+00
    0.00000E+00         0.00000E+00         0.00000E+00
 
    0.62703E+05         0.29931E+06         0.00000E+00
    0.29931E+06        -0.36733E+06         0.00000E+00
    0.00000E+00         0.00000E+00         0.00000E+00
 
    0.55624E+05         0.30556E+06         0.00000E+00
    0.30556E+06        -0.36384E+06         0.00000E+00
    0.00000E+00         0.00000E+00         0.00000E+00
 
    0.48461E+05         0.31177E+06         0.00000E+00
    0.31177E+06        -0.36029E+06         0.00000E+00
    0.00000E+00         0.00000E+00         0.00000E+00
 
    0.41216E+05         0.31792E+06         0.00000E+00
    0.31792E+06        -0.35670E+06         0.00000E+00
    0.00000E+00         0.00000E+00         0.00000E+00
 
    0.33891E+05         0.32402E+06         0.00000E+00
    0.32402E+06        -0.35306E+06         0.00000E+00
    0.00000E+00         0.00000E+00         0.00000E+00
 
    0.26489E+05         0.33006E+06         0.00000E+00
    0.33006E+06        -0.34938E+06         0.00000E+00
    0.00000E+00         0.00000E+00         0.00000E+00
 
    0.19010E+05         0.33605E+06         0.00000E+00
    0.33605E+06        -0.34565E+06         0.00000E+00
    0.00000E+00         0.00000E+00         0.00000E+00
 
    0.11457E+05         0.34198E+06         0.00000E+00
    0.34198E+06        -0.34188E+06         0.00000E+00
    0.00000E+00         0.00000E+00         0.00000E+00
 
    0.38308E+04         0.34786E+06         0.00000E+00
    0.34786E+06        -0.33807E+06         0.00000E+00
    0.00000E+00         0.00000E+00         0.00000E+00
 
    0.26961E+06         0.43339E+04         0.00000E+00
    0.43339E+04        -0.47741E+06         0.00000E+00
    0.00000E+00         0.00000E+00         0.00000E+00
 
    0.26729E+06         0.12877E+05         0.00000E+00
    0.12877E+05        -0.47730E+06         0.00000E+00
    0.00000E+00         0.00000E+00         0.00000E+00
 
    0.26483E+06         0.21375E+05         0.00000E+00
    0.21375E+05        -0.47709E+06         0.00000E+00
    0.00000E+00         0.00000E+00         0.00000E+00
 
    0.26221E+06         0.29828E+05         0.00000E+00
    0.29828E+05        -0.47676E+06         0.00000E+00
    0.00000E+00         0.00000E+00         0.00000E+00
 
    0.25945E+06         0.38236E+05         0.00000E+00
    0.38236E+05        -0.47633E+06         0.00000E+00
    0.00000E+00         0.00000E+00         0.00000E+00
 
    0.25655E+06         0.46599E+05         0.00000E+00
    0.46599E+05        -0.47580E+06         0.00000E+00
    0.00000E+00         0.00000E+00         0.00000E+00
 
    0.25350E+06         0.54917E+05         0.00000E+00
    0.54917E+05        -0.47515E+06         0.00000E+00
    0.00000E+00         0.00000E+00         0.00000E+00
 
    0.25030E+06         0.63190E+05         0.00000E+00
    0.63190E+05        -0.47440E+06         0.00000E+00
    0.00000E+00         0.00000E+00         0.00000E+00
 
    0.24696E+06         0.71418E+05         0.00000E+00
    0.71418E+05        -0.47355E+06         0.00000E+00
    0.00000E+00         0.00000E+00         0.00000E+00
 
    0.24348E+06         0.79602E+05         0.00000E+00
    0.79602E+05        -0.47260E+06         0.00000E+00
    0.00000E+00         0.00000E+00         0.00000E+00
 
    0.23986E+06         0.87740E+05         0.00000E+00
    0.87740E+05        -0.47154E+06         0.00000E+00
    0.00000E+00         0.00000E+00         0.00000E+00
 
    0.23609E+06         0.95834E+05         0.00000E+00
    0.95834E+05        -0.47039E+06         0.00000E+00
    0.00000E+00         0.00000E+00         0.00000E+00
 
    0.23219E+06         0.10388E+06         0.00000E+00
    0.10388E+06        -0.46913E+06         0.00000E+00
    0.00000E+00         0.00000E+00         0.00000E+00
 
    0.22815E+06         0.11189E+06         0.00000E+00
    0.11189E+06        -0.46777E+06         0.00000E+00
    0.00000E+00         0.00000E+00         0.00000E+00
 
    0.22397E+06         0.11985E+06         0.00000E+00
    0.11985E+06        -0.46632E+06         0.00000E+00
    0.00000E+00         0.00000E+00         0.00000E+00
 
    0.21965E+06         0.12776E+06         0.00000E+00
    0.12776E+06        -0.46477E+06         0.00000E+00
    0.00000E+00         0.00000E+00         0.00000E+00
 
    0.21520E+06         0.13563E+06         0.00000E+00
    0.13563E+06        -0.46312E+06         0.00000E+00
    0.00000E+00         0.00000E+00         0.00000E+00
 
    0.21062E+06         0.14345E+06         0.00000E+00
    0.14345E+06        -0.46138E+06         0.00000E+00
    0.00000E+00         0.00000E+00         0.00000E+00
 
    0.20591E+06         0.15123E+06         0.00000E+00
    0.15123E+06        -0.45955E+06         0.00000E+00
    0.00000E+00         0.00000E+00         0.00000E+00
 
    0.20107E+06         0.15896E+06         0.00000E+00
    0.15896E+06        -0.45763E+06         0.00000E+00
    0.00000E+00         0.00000E+00         0.00000E+00
 
    0.19610E+06         0.16664E+06         0.00000E+00
    0.16664E+06        -0.45561E+06         0.00000E+00
    0.00000E+00         0.00000E+00         0.00000E+00
 
    0.19100E+06         0.17428E+06         0.00000E+00
    0.17428E+06        -0.45351E+06         0.00000E+00
    0.00000E+00         0.00000E+00         0.00000E+00
 
    0.18578E+06         0.18187E+06         0.00000E+00
    0.18187E+06        -0.45132E+06         0.00000E+00
    0.00000E+00         0.00000E+00         0.00000E+00
 
    0.18044E+06         0.18941E+06         0.00000E+00
    0.18941E+06        -0.44905E+06         0.00000E+00
    0.00000E+00         0.00000E+00         0.00000E+00
 
    0.17497E+06         0.19691E+06         0.00000E+00
    0.19691E+06        -0.44669E+06         0.00000E+00
    0.00000E+00         0.00000E+00         0.00000E+00
 
    0.16938E+06         0.20436E+06         0.00000E+00
    0.20436E+06        -0.44424E+06         0.00000E+00
    0.00000E+00         0.00000E+00         0.00000E+00
 
    0.16368E+06         0.21176E+06         0.00000E+00
    0.21176E+06        -0.44172E+06         0.00000E+00
    0.00000E+00         0.00000E+00         0.00000E+00
 
    0.15786E+06         0.21911E+06         0.00000E+00
    0.21911E+06        -0.43911E+06         0.00000E+00
    0.00000E+00         0.00000E+00         0.00000E+00
 
    0.15192E+06         0.22641E+06         0.00000E+00
    0.22641E+06        -0.43643E+06         0.00000E+00
    0.00000E+00         0.00000E+00         0.00000E+00
 
    0.14587E+06         0.23366E+06         0.00000E+00
    0.23366E+06        -0.43367E+06         0.00000E+00
    0.00000E+00         0.00000E+00         0.00000E+00
 
    0.13971E+06         0.24086E+06         0.00000E+00
    0.24086E+06        -0.43084E+06         0.00000E+00
    0.00000E+00         0.00000E+00         0.00000E+00
 
    0.13344E+06         0.24801E+06         0.00000E+00
    0.24801E+06        -0.42793E+06         0.00000E+00
    0.00000E+00         0.00000E+00         0.00000E+00
 
    0.12707E+06         0.25511E+06         0.00000E+00
    0.25511E+06        -0.42495E+06         0.00000E+00
    0.00000E+00         0.00000E+00         0.00000E+00
 
    0.12058E+06         0.26216E+06         0.00000E+00
    0.26216E+06        -0.42190E+06         0.00000E+00
    0.00000E+00         0.00000E+00         0.00000E+00
 
    0.11400E+06         0.26915E+06         0.00000E+00
    0.26915E+06        -0.41878E+06         0.00000E+00
    0.00000E+00         0.00000E+00         0.00000E+00
 
    0.10731E+06         0.27610E+06         0.00000E+00
    0.27610E+06        -0.41559E+06         0.00000E+00
    0.00000E+00         0.00000E+00         0.00000E+00
 
    0.10052E+06         0.28298E+06         0.00000E+00
    0.28298E+06        -0.41234E+06         0.00000E+00
    0.00000E+00         0.00000E+00         0.00000E+00
 
    0.93630E+05         0.28982E+06         0.00000E+00
    0.28982E+06        -0.40902E+06         0.00000E+00
    0.00000E+00         0.00000E+00         0.00000E+00
 
    0.86646E+05         0.29660E+06         0.00000E+00
    0.29660E+06        -0.40564E+06         0.00000E+00
    0.00000E+00         0.00000E+00         0.00000E+00
 
    0.79567E+05         0.30332E+06         0.00000E+00
    0.30332E+06        -0.40220E+06         0.00000E+00
    0.00000E+00         0.00000E+00         0.00000E+00
 
    0.72395E+05         0.30999E+06         0.00000E+00
    0.30999E+06        -0.39870E+06         0.00000E+00
    0.00000E+00         0.00000E+00         0.00000E+00
 
    0.65133E+05         0.31660E+06         0.00000E+00
    0.31660E+06        -0.39515E+06         0.00000E+00
    0.00000E+00         0.00000E+00         0.00000E+00
 
    0.57781E+05         0.32315E+06         0.00000E+00
    0.32315E+06        -0.39153E+06         0.00000E+00
    0.00000E+00         0.00000E+00         0.00000E+00
 
    0.50343E+05         0.32965E+06         0.00000E+00
    0.32965E+06        -0.38787E+06         0.00000E+00
    0.00000E+00         0.00000E+00         0.00000E+00
 
    0.42818E+05         0.33608E+06         0.00000E+00
    0.33608E+06        -0.38415E+06         0.00000E+00
    0.00000E+00         0.00000E+00         0.00000E+00
 
    0.35210E+05         0.34246E+06         0.00000E+00
    0.34246E+06        -0.38038E+06         0.00000E+00
    0.00000E+00         0.00000E+00         0.00000E+00
 
    0.27521E+05         0.34877E+06         0.00000E+00
    0.34877E+06        -0.37656E+06         0.00000E+00
    0.00000E+00         0.00000E+00         0.00000E+00
 
    0.19752E+05         0.35503E+06         0.00000E+00
    0.35503E+06        -0.37269E+06         0.00000E+00
    0.00000E+00         0.00000E+00         0.00000E+00
 
    0.11904E+05         0.36122E+06         0.00000E+00
    0.36122E+06        -0.36878E+06         0.00000E+00
    0.00000E+00         0.00000E+00         0.00000E+00
 
    0.39806E+04         0.36735E+06         0.00000E+00
    0.36735E+06        -0.36482E+06         0.00000E+00
    0.00000E+00         0.00000E+00         0.00000E+00
 
    0.28257E+06         0.45880E+04         0.00000E+00
    0.45880E+04        -0.50855E+06         0.00000E+00
    0.00000E+00         0.00000E+00         0.00000E+00
 
    0.28002E+06         0.13637E+05         0.00000E+00
    0.13637E+05        -0.50844E+06         0.00000E+00
    0.00000E+00         0.00000E+00         0.00000E+00
 
    0.27733E+06         0.22640E+05         0.00000E+00
    0.22640E+05        -0.50822E+06         0.00000E+00
    0.00000E+00         0.00000E+00         0.00000E+00
 
    0.27448E+06         0.31596E+05         0.00000E+00
    0.31596E+05        -0.50789E+06         0.00000E+00
    0.00000E+00         0.00000E+00         0.00000E+00
 
    0.27150E+06         0.40505E+05         0.00000E+00
    0.40505E+05        -0.50745E+06         0.00000E+00
    0.00000E+00         0.00000E+00         0.00000E+00
 
    0.26836E+06         0.49367E+05         0.00000E+00
    0.49367E+05        -0.50690E+06         0.00000E+00
    0.00000E+00         0.00000E+00         0.00000E+00
 
    0.26508E+06         0.58182E+05         0.00000E+00
    0.58182E+05        -0.50624E+06         0.00000E+00
    0.00000E+00         0.00000E+00         0.00000E+00
 
    0.26166E+06         0.66950E+05         0.00000E+00
    0.66950E+05        -0.50548E+06         0.00000E+00
    0.00000E+00         0.00000E+00         0.00000E+00
 
    0.25809E+06         0.75670E+05         0.00000E+00
    0.75670E+05        -0.50461E+06         0.00000E+00
    0.00000E+00         0.00000E+00         0.00000E+00
 
    0.25438E+06         0.84343E+05         0.00000E+00
    0.84343E+05        -0.50363E+06         0.00000E+00
    0.00000E+00         0.00000E+00         0.00000E+00
 
    0.25052E+06         0.92967E+05         0.00000E+00
    0.92967E+05        -0.50255E+06         0.00000E+00
    0.00000E+00         0.00000E+00         0.00000E+00
 
    0.24653E+06         0.10154E+06         0.00000E+00
    0.10154E+06        -0.50137E+06         0.00000E+00
    0.00000E+00         0.00000E+00         0.00000E+00
 
    0.24239E+06         0.11007E+06         0.00000E+00
    0.11007E+06        -0.50008E+06         0.00000E+00
    0.00000E+00         0.00000E+00         0.00000E+00
 
    0.23812E+06         0.11855E+06         0.00000E+00
    0.11855E+06        -0.49869E+06         0.00000E+00
    0.00000E+00         0.00000E+00         0.00000E+00
 
    0.23371E+06         0.12698E+06         0.00000E+00
    0.12698E+06        -0.49720E+06         0.00000E+00
    0.00000E+00         0.00000E+00         0.00000E+00
 
    0.22916E+06         0.13536E+06         0.00000E+00
    0.13536E+06        -0.49562E+06         0.00000E+00
    0.00000E+00         0.00000E+00         0.00000E+00
 
    0.22448E+06         0.14369E+06         0.00000E+00
    0.14369E+06        -0.49393E+06         0.00000E+00
    0.00000E+00         0.00000E+00         0.00000E+00
 
    0.21966E+06         0.15197E+06         0.00000E+00
    0.15197E+06        -0.49215E+06         0.00000E+00
    0.00000E+00         0.00000E+00         0.00000E+00
 
    0.21471E+06         0.16020E+06         0.00000E+00
    0.16020E+06        -0.49027E+06         0.00000E+00
    0.00000E+00         0.00000E+00         0.00000E+00
 
    0.20963E+06         0.16838E+06         0.00000E+00
    0.16838E+06        -0.48829E+06         0.00000E+00
    0.00000E+00         0.00000E+00         0.00000E+00
 
    0.20442E+06         0.17651E+06         0.00000E+00
    0.17651E+06        -0.48623E+06         0.00000E+00
    0.00000E+00         0.00000E+00         0.00000E+00
 
    0.19908E+06         0.18458E+06         0.00000E+00
    0.18458E+06        -0.48407E+06         0.00000E+00
    0.00000E+00         0.00000E+00         0.00000E+00
 
    0.19361E+06         0.19261E+06         0.00000E+00
    0.19261E+06        -0.48182E+06         0.00000E+00
    0.00000E+00         0.00000E+00         0.00000E+00
 
    0.18802E+06         0.20058E+06         0.00000E+00
    0.20058E+06        -0.47948E+06         0.00000E+00
    0.00000E+00         0.00000E+00         0.00000E+00
 
    0.18231E+06         0.20850E+06         0.00000E+00
    0.20850E+06        -0.47705E+06         0.00000E+00
    0.00000E+00         0.00000E+00         0.00000E+00
 
    0.17647E+06         0.21637E+06         0.00000E+00
    0.21637E+06        -0.47454E+06         0.00000E+00
    0.00000E+00         0.00000E+00         0.00000E+00
 
    0.17051E+06         0.22418E+06         0.00000E+00
    0.22418E+06        -0.47195E+06         0.00000E+00
    0.00000E+00         0.00000E+00         0.00000E+00
 
    0.16443E+06         0.23193E+06         0.00000E+00
    0.23193E+06        -0.46926E+06         0.00000E+00
    0.00000E+00         0.00000E+00         0.00000E+00
 
    0.15824E+06         0.23964E+06         0.00000E+00
    0.23964E+06        -0.46650E+06         0.00000E+00
    0.00000E+00         0.00000E+00         0.00000E+00
 
    0.15193E+06         0.24728E+06         0.00000E+00
    0.24728E+06        -0.46366E+06         0.00000E+00
    0.00000E+00         0.00000E+00         0.00000E+00
 
    0.14551E+06         0.25487E+06         0.00000E+00
    0.25487E+06        -0.46074E+06         0.00000E+00
    0.00000E+00         0.00000E+00         0.00000E+00
 
    0.13897E+06         0.26241E+06         0.00000E+00
    0.26241E+06        -0.45774E+06         0.00000E+00
    0.00000E+00         0.00000E+00         0.00000E+00
 
    0.13232E+06         0.26989E+06         0.00000E+00
    0.26989E+06        -0.45466E+06         0.00000E+00
    0.00000E+00         0.00000E+00         0.00000E+00
 
    0.12557E+06         0.27730E+06         0.00000E+00
    0.27730E+06        -0.45151E+06         0.00000E+00
    0.00000E+00         0.00000E+00         0.00000E+00
 
    0.11871E+06         0.28467E+06         0.00000E+00
    0.28467E+06        -0.44829E+06         0.00000E+00
    0.00000E+00         0.00000E+00         0.00000E+00
 
    0.11174E+06         0.29197E+06         0.00000E+00
    0.29197E+06        -0.44500E+06         0.00000E+00
    0.00000E+00         0.00000E+00         0.00000E+00
 
    0.10467E+06         0.29921E+06         0.00000E+00
    0.29921E+06        -0.44164E+06         0.00000E+00
    0.00000E+00         0.00000E+00         0.00000E+00
 
    0.97494E+05         0.30639E+06         0.00000E+00
    0.30639E+06        -0.43821E+06         0.00000E+00
    0.00000E+00         0.00000E+00         0.00000E+00
 
    0.90221E+05         0.31351E+06         0.00000E+00
    0.31351E+06        -0.43471E+06         0.00000E+00
    0.00000E+00         0.00000E+00         0.00000E+00
 
    0.82850E+05         0.32057E+06         0.00000E+00
    0.32057E+06        -0.43115E+06         0.00000E+00
    0.00000E+00         0.00000E+00         0.00000E+00
 
    0.75383E+05         0.32757E+06         0.00000E+00
    0.32757E+06        -0.42752E+06         0.00000E+00
    0.00000E+00         0.00000E+00         0.00000E+00
 
    0.67821E+05         0.33450E+06         0.00000E+00
    0.33450E+06        -0.42384E+06         0.00000E+00
    0.00000E+00         0.00000E+00         0.00000E+00
 
    0.60167E+05         0.34137E+06         0.00000E+00
    0.34137E+06        -0.42009E+06         0.00000E+00
    0.00000E+00         0.00000E+00         0.00000E+00
 
    0.52422E+05         0.34818E+06         0.00000E+00
    0.34818E+06        -0.41629E+06         0.00000E+00
    0.00000E+00         0.00000E+00         0.00000E+00
 
    0.44588E+05         0.35492E+06         0.00000E+00
    0.35492E+06        -0.41243E+06         0.00000E+00
    0.00000E+00         0.00000E+00         0.00000E+00
 
    0.36666E+05         0.36160E+06         0.00000E+00
    0.36160E+06        -0.40851E+06         0.00000E+00
    0.00000E+00         0.00000E+00         0.00000E+00
 
    0.28660E+05         0.36821E+06         0.00000E+00
    0.36821E+06        -0.40454E+06         0.00000E+00
    0.00000E+00         0.00000E+00         0.00000E+00
 
    0.20569E+05         0.37475E+06         0.00000E+00
    0.37475E+06        -0.40052E+06         0.00000E+00
    0.00000E+00         0.00000E+00         0.00000E+00
 
    0.12397E+05         0.38122E+06         0.00000E+00
    0.38122E+06        -0.39645E+06         0.00000E+00
    0.00000E+00         0.00000E+00         0.00000E+00
 
    0.41456E+04         0.38763E+06         0.00000E+00
    0.38763E+06        -0.39233E+06         0.00000E+00
    0.00000E+00         0.00000E+00         0.00000E+00
 
    0.29667E+06         0.48478E+04         0.00000E+00
    0.48478E+04        -0.54111E+06         0.00000E+00
    0.00000E+00         0.00000E+00         0.00000E+00
 
    0.29389E+06         0.14414E+05         0.00000E+00
    0.14414E+05        -0.54099E+06         0.00000E+00
    0.00000E+00         0.00000E+00         0.00000E+00
 
    0.29096E+06         0.23934E+05         0.00000E+00
    0.23934E+05        -0.54077E+06         0.00000E+00
    0.00000E+00         0.00000E+00         0.00000E+00
 
    0.28788E+06         0.33405E+05         0.00000E+00
    0.33405E+05        -0.54043E+06         0.00000E+00
    0.00000E+00         0.00000E+00         0.00000E+00
 
    0.28465E+06         0.42828E+05         0.00000E+00
    0.42828E+05        -0.53997E+06         0.00000E+00
    0.00000E+00         0.00000E+00         0.00000E+00
 
    0.28128E+06         0.52202E+05         0.00000E+00
    0.52202E+05        -0.53941E+06         0.00000E+00
    0.00000E+00         0.00000E+00         0.00000E+00
 
    0.27776E+06         0.61526E+05         0.00000E+00
    0.61526E+05        -0.53873E+06         0.00000E+00
    0.00000E+00         0.00000E+00         0.00000E+00
 
    0.27410E+06         0.70801E+05         0.00000E+00
    0.70801E+05        -0.53795E+06         0.00000E+00
    0.00000E+00         0.00000E+00         0.00000E+00
 
    0.27029E+06         0.80026E+05         0.00000E+00
    0.80026E+05        -0.53705E+06         0.00000E+00
    0.00000E+00         0.00000E+00         0.00000E+00
 
    0.26633E+06         0.89201E+05         0.00000E+00
    0.89201E+05        -0.53605E+06         0.00000E+00
    0.00000E+00         0.00000E+00         0.00000E+00
 
    0.26223E+06         0.98324E+05         0.00000E+00
    0.98324E+05        -0.53494E+06         0.00000E+00
    0.00000E+00         0.00000E+00         0.00000E+00
 
    0.25799E+06         0.10740E+06         0.00000E+00
    0.10740E+06        -0.53372E+06         0.00000E+00
    0.00000E+00         0.00000E+00         0.00000E+00
 
    0.25361E+06         0.11642E+06         0.00000E+00
    0.11642E+06        -0.53239E+06         0.00000E+00
    0.00000E+00         0.00000E+00         0.00000E+00
 
    0.24908E+06         0.12538E+06         0.00000E+00
    0.12538E+06        -0.53096E+06         0.00000E+00
    0.00000E+00         0.00000E+00         0.00000E+00
 
    0.24442E+06         0.13430E+06         0.00000E+00
    0.13430E+06        -0.52943E+06         0.00000E+00
    0.00000E+00         0.00000E+00         0.00000E+00
 
    0.23962E+06         0.14316E+06         0.00000E+00
    0.14316E+06        -0.52780E+06         0.00000E+00
    0.00000E+00         0.00000E+00         0.00000E+00
 
    0.23468E+06         0.15197E+06         0.00000E+00
    0.15197E+06        -0.52606E+06         0.00000E+00
    0.00000E+00         0.00000E+00         0.00000E+00
 
    0.22960E+06         0.16072E+06         0.00000E+00
    0.16072E+06        -0.52422E+06         0.00000E+00
    0.00000E+00         0.00000E+00         0.00000E+00
 
    0.22440E+06         0.16942E+06         0.00000E+00
    0.16942E+06        -0.52229E+06         0.00000E+00
    0.00000E+00         0.00000E+00         0.00000E+00
 
    0.21905E+06         0.17807E+06         0.00000E+00
    0.17807E+06        -0.52025E+06         0.00000E+00
    0.00000E+00         0.00000E+00         0.00000E+00
 
    0.21358E+06         0.18665E+06         0.00000E+00
    0.18665E+06        -0.51812E+06         0.00000E+00
    0.00000E+00         0.00000E+00         0.00000E+00
 
    0.20797E+06         0.19519E+06         0.00000E+00
    0.19519E+06        -0.51590E+06         0.00000E+00
    0.00000E+00         0.00000E+00         0.00000E+00
 
    0.20224E+06         0.20366E+06         0.00000E+00
    0.20366E+06        -0.51358E+06         0.00000E+00
    0.00000E+00         0.00000E+00         0.00000E+00
 
    0.19637E+06         0.21208E+06         0.00000E+00
    0.21208E+06        -0.51116E+06         0.00000E+00
    0.00000E+00         0.00000E+00         0.00000E+00
 
    0.19038E+06         0.22044E+06         0.00000E+00
    0.22044E+06        -0.50866E+06         0.00000E+00
    0.00000E+00         0.00000E+00         0.00000E+00
 
    0.18427E+06         0.22874E+06         0.00000E+00
    0.22874E+06        -0.50606E+06         0.00000E+00
    0.00000E+00         0.00000E+00         0.00000E+00
 
    0.17803E+06         0.23698E+06         0.00000E+00
    0.23698E+06        -0.50338E+06         0.00000E+00
    0.00000E+00         0.00000E+00         0.00000E+00
 
    0.17167E+06         0.24516E+06         0.00000E+00
    0.24516E+06        -0.50061E+06         0.00000E+00
    0.00000E+00         0.00000E+00         0.00000E+00
 
    0.16519E+06         0.25329E+06         0.00000E+00
    0.25329E+06        -0.49776E+06         0.00000E+00
    0.00000E+00         0.00000E+00         0.00000E+00
 
    0.15859E+06         0.26135E+06         0.00000E+00
    0.26135E+06        -0.49482E+06         0.00000E+00
    0.00000E+00         0.00000E+00         0.00000E+00
 
    0.15188E+06         0.26935E+06         0.00000E+00
    0.26935E+06        -0.49179E+06         0.00000E+00
    0.00000E+00         0.00000E+00         0.00000E+00
 
    0.14505E+06         0.27728E+06         0.00000E+00
    0.27728E+06        -0.48869E+06         0.00000E+00
    0.00000E+00         0.00000E+00         0.00000E+00
 
    0.13810E+06         0.28516E+06         0.00000E+00
    0.28516E+06        -0.48551E+06         0.00000E+00
    0.00000E+00         0.00000E+00         0.00000E+00
 
    0.13105E+06         0.29297E+06         0.00000E+00
    0.29297E+06        -0.48224E+06         0.00000E+00
    0.00000E+00         0.00000E+00         0.00000E+00
 
    0.12388E+06         0.30072E+06         0.00000E+00
    0.30072E+06        -0.47891E+06         0.00000E+00
    0.00000E+00         0.00000E+00         0.00000E+00
 
    0.11660E+06         0.30840E+06         0.00000E+00
    0.30840E+06        -0.47549E+06         0.00000E+00
    0.00000E+00         0.00000E+00         0.00000E+00
 
    0.10922E+06         0.31602E+06         0.00000E+00
    0.31602E+06        -0.47201E+06         0.00000E+00
    0.00000E+00         0.00000E+00         0.00000E+00
 
    0.10173E+06         0.32357E+06         0.00000E+00
    0.32357E+06        -0.46845E+06         0.00000E+00
    0.00000E+00         0.00000E+00         0.00000E+00
 
    0.94143E+05         0.33105E+06         0.00000E+00
    0.33105E+06        -0.46482E+06         0.00000E+00
    0.00000E+00         0.00000E+00         0.00000E+00
 
    0.86450E+05         0.33847E+06         0.00000E+00
    0.33847E+06        -0.46112E+06         0.00000E+00
    0.00000E+00         0.00000E+00         0.00000E+00
 
    0.78658E+05         0.34581E+06         0.00000E+00
    0.34581E+06        -0.45735E+06         0.00000E+00
    0.00000E+00         0.00000E+00         0.00000E+00
 
    0.70767E+05         0.35309E+06         0.00000E+00
    0.35309E+06        -0.45352E+06         0.00000E+00
    0.00000E+00         0.00000E+00         0.00000E+00
 
    0.62780E+05         0.36030E+06         0.00000E+00
    0.36030E+06        -0.44963E+06         0.00000E+00
    0.00000E+00         0.00000E+00         0.00000E+00
 
    0.54699E+05         0.36744E+06         0.00000E+00
    0.36744E+06        -0.44567E+06         0.00000E+00
    0.00000E+00         0.00000E+00         0.00000E+00
 
    0.46524E+05         0.37451E+06         0.00000E+00
    0.37451E+06        -0.44165E+06         0.00000E+00
    0.00000E+00         0.00000E+00         0.00000E+00
 
    0.38259E+05         0.38151E+06         0.00000E+00
    0.38151E+06        -0.43758E+06         0.00000E+00
    0.00000E+00         0.00000E+00         0.00000E+00
 
    0.29905E+05         0.38843E+06         0.00000E+00
    0.38843E+06        -0.43344E+06         0.00000E+00
    0.00000E+00         0.00000E+00         0.00000E+00
 
    0.21463E+05         0.39528E+06         0.00000E+00
    0.39528E+06        -0.42925E+06         0.00000E+00
    0.00000E+00         0.00000E+00         0.00000E+00
 
    0.12937E+05         0.40206E+06         0.00000E+00
    0.40206E+06        -0.42501E+06         0.00000E+00
    0.00000E+00         0.00000E+00         0.00000E+00
 
    0.43260E+04         0.40876E+06         0.00000E+00
    0.40876E+06        -0.42071E+06         0.00000E+00
    0.00000E+00         0.00000E+00         0.00000E+00
 
    0.31188E+06         0.51153E+04         0.00000E+00
    0.51153E+04        -0.57518E+06         0.00000E+00
    0.00000E+00         0.00000E+00         0.00000E+00
 
    0.30886E+06         0.15215E+05         0.00000E+00
    0.15215E+05        -0.57506E+06         0.00000E+00
    0.00000E+00         0.00000E+00         0.00000E+00
 
    0.30569E+06         0.25266E+05         0.00000E+00
    0.25266E+05        -0.57483E+06         0.00000E+00
    0.00000E+00         0.00000E+00         0.00000E+00
 
    0.30237E+06         0.35267E+05         0.00000E+00
    0.35267E+05        -0.57448E+06         0.00000E+00
    0.00000E+00         0.00000E+00         0.00000E+00
 
    0.29889E+06         0.45219E+05         0.00000E+00
    0.45219E+05        -0.57401E+06         0.00000E+00
    0.00000E+00         0.00000E+00         0.00000E+00
 
    0.29527E+06         0.55120E+05         0.00000E+00
    0.55120E+05        -0.57342E+06         0.00000E+00
    0.00000E+00         0.00000E+00         0.00000E+00
 
    0.29150E+06         0.64969E+05         0.00000E+00
    0.64969E+05        -0.57273E+06         0.00000E+00
    0.00000E+00         0.00000E+00         0.00000E+00
 
    0.28759E+06         0.74767E+05         0.00000E+00
    0.74767E+05        -0.57191E+06         0.00000E+00
    0.00000E+00         0.00000E+00         0.00000E+00
 
    0.28352E+06         0.84513E+05         0.00000E+00
    0.84513E+05        -0.57099E+06         0.00000E+00
    0.00000E+00         0.00000E+00         0.00000E+00
 
    0.27931E+06         0.94205E+05         0.00000E+00
    0.94205E+05        -0.56995E+06         0.00000E+00
    0.00000E+00         0.00000E+00         0.00000E+00
 
    0.27495E+06         0.10384E+06         0.00000E+00
    0.10384E+06        -0.56880E+06         0.00000E+00
    0.00000E+00         0.00000E+00         0.00000E+00
 
    0.27044E+06         0.11343E+06         0.00000E+00
    0.11343E+06        -0.56754E+06         0.00000E+00
    0.00000E+00         0.00000E+00         0.00000E+00
 
    0.26580E+06         0.12296E+06         0.00000E+00
    0.12296E+06        -0.56618E+06         0.00000E+00
    0.00000E+00         0.00000E+00         0.00000E+00
 
    0.26101E+06         0.13243E+06         0.00000E+00
    0.13243E+06        -0.56470E+06         0.00000E+00
    0.00000E+00         0.00000E+00         0.00000E+00
 
    0.25607E+06         0.14185E+06         0.00000E+00
    0.14185E+06        -0.56311E+06         0.00000E+00
    0.00000E+00         0.00000E+00         0.00000E+00
 
    0.25100E+06         0.15121E+06         0.00000E+00
    0.15121E+06        -0.56142E+06         0.00000E+00
    0.00000E+00         0.00000E+00         0.00000E+00
 
    0.24578E+06         0.16051E+06         0.00000E+00
    0.16051E+06        -0.55963E+06         0.00000E+00
    0.00000E+00         0.00000E+00         0.00000E+00
 
    0.24043E+06         0.16975E+06         0.00000E+00
    0.16975E+06        -0.55773E+06         0.00000E+00
    0.00000E+00         0.00000E+00         0.00000E+00
 
    0.23494E+06         0.17894E+06         0.00000E+00
    0.17894E+06        -0.55572E+06         0.00000E+00
    0.00000E+00         0.00000E+00         0.00000E+00
 
    0.22931E+06         0.18807E+06         0.00000E+00
    0.18807E+06        -0.55362E+06         0.00000E+00
    0.00000E+00         0.00000E+00         0.00000E+00
 
    0.22355E+06         0.19713E+06         0.00000E+00
    0.19713E+06        -0.55141E+06         0.00000E+00
    0.00000E+00         0.00000E+00         0.00000E+00
 
    0.21766E+06         0.20614E+06         0.00000E+00
    0.20614E+06        -0.54911E+06         0.00000E+00
    0.00000E+00         0.00000E+00         0.00000E+00
 
    0.21163E+06         0.21508E+06         0.00000E+00
    0.21508E+06        -0.54671E+06         0.00000E+00
    0.00000E+00         0.00000E+00         0.00000E+00
 
    0.20547E+06         0.22396E+06         0.00000E+00
    0.22396E+06        -0.54421E+06         0.00000E+00
    0.00000E+00         0.00000E+00         0.00000E+00
 
    0.19918E+06         0.23278E+06         0.00000E+00
    0.23278E+06        -0.54161E+06         0.00000E+00
    0.00000E+00         0.00000E+00         0.00000E+00
 
    0.19277E+06         0.24154E+06         0.00000E+00
    0.24154E+06        -0.53892E+06         0.00000E+00
    0.00000E+00         0.00000E+00         0.00000E+00
 
    0.18623E+06         0.25023E+06         0.00000E+00
    0.25023E+06        -0.53614E+06         0.00000E+00
    0.00000E+00         0.00000E+00         0.00000E+00
 
    0.17956E+06         0.25886E+06         0.00000E+00
    0.25886E+06        -0.53327E+06         0.00000E+00
    0.00000E+00         0.00000E+00         0.00000E+00
 
    0.17277E+06         0.26742E+06         0.00000E+00
    0.26742E+06        -0.53031E+06         0.00000E+00
    0.00000E+00         0.00000E+00         0.00000E+00
 
    0.16585E+06         0.27592E+06         0.00000E+00
    0.27592E+06        -0.52726E+06         0.00000E+00
    0.00000E+00         0.00000E+00         0.00000E+00
 
    0.15882E+06         0.28434E+06         0.00000E+00
    0.28434E+06        -0.52412E+06         0.00000E+00
    0.00000E+00         0.00000E+00         0.00000E+00
 
    0.15167E+06         0.29271E+06         0.00000E+00
    0.29271E+06        -0.52090E+06         0.00000E+00
    0.00000E+00         0.00000E+00         0.00000E+00
 
    0.14440E+06         0.30100E+06         0.00000E+00
    0.30100E+06        -0.51760E+06         0.00000E+00
    0.00000E+00         0.00000E+00         0.00000E+00
 
    0.13701E+06         0.30922E+06         0.00000E+00
    0.30922E+06        -0.51421E+06         0.00000E+00
    0.00000E+00         0.00000E+00         0.00000E+00
 
    0.12951E+06         0.31738E+06         0.00000E+00
    0.31738E+06        -0.51074E+06         0.00000E+00
    0.00000E+00         0.00000E+00         0.00000E+00
 
    0.12190E+06         0.32546E+06         0.00000E+00
    0.32546E+06        -0.50719E+06         0.00000E+00
    0.00000E+00         0.00000E+00         0.00000E+00
 
    0.11418E+06         0.33347E+06         0.00000E+00
    0.33347E+06        -0.50357E+06         0.00000E+00
    0.00000E+00         0.00000E+00         0.00000E+00
 
    0.10635E+06         0.34141E+06         0.00000E+00
    0.34141E+06        -0.49987E+06         0.00000E+00
    0.00000E+00         0.00000E+00         0.00000E+00
 
    0.98410E+05         0.34928E+06         0.00000E+00
    0.34928E+06        -0.49609E+06         0.00000E+00
    0.00000E+00         0.00000E+00         0.00000E+00
 
    0.90366E+05         0.35708E+06         0.00000E+00
    0.35708E+06        -0.49224E+06         0.00000E+00
    0.00000E+00         0.00000E+00         0.00000E+00
 
    0.82219E+05         0.36480E+06         0.00000E+00
    0.36480E+06        -0.48832E+06         0.00000E+00
    0.00000E+00         0.00000E+00         0.00000E+00
 
    0.73970E+05         0.37244E+06         0.00000E+00
    0.37244E+06        -0.48433E+06         0.00000E+00
    0.00000E+00         0.00000E+00         0.00000E+00
 
    0.65621E+05         0.38001E+06         0.00000E+00
    0.38001E+06        -0.48027E+06         0.00000E+00
    0.00000E+00         0.00000E+00         0.00000E+00
 
    0.57173E+05         0.38751E+06         0.00000E+00
    0.38751E+06        -0.47615E+06         0.00000E+00
    0.00000E+00         0.00000E+00         0.00000E+00
 
    0.48628E+05         0.39492E+06         0.00000E+00
    0.39492E+06        -0.47196E+06         0.00000E+00
    0.00000E+00         0.00000E+00         0.00000E+00
 
    0.39989E+05         0.40226E+06         0.00000E+00
    0.40226E+06        -0.46770E+06         0.00000E+00
    0.00000E+00         0.00000E+00         0.00000E+00
 
    0.31257E+05         0.40952E+06         0.00000E+00
    0.40952E+06        -0.46339E+06         0.00000E+00
    0.00000E+00         0.00000E+00         0.00000E+00
 
    0.22434E+05         0.41670E+06         0.00000E+00
    0.41670E+06        -0.45901E+06         0.00000E+00
    0.00000E+00         0.00000E+00         0.00000E+00
 
    0.13522E+05         0.42381E+06         0.00000E+00
    0.42381E+06        -0.45458E+06         0.00000E+00
    0.00000E+00         0.00000E+00         0.00000E+00
 
    0.45216E+04         0.43083E+06         0.00000E+00
    0.43083E+06        -0.45009E+06         0.00000E+00
    0.00000E+00         0.00000E+00         0.00000E+00
 
    0.32817E+06         0.53922E+04         0.00000E+00
    0.53922E+04        -0.61088E+06         0.00000E+00
    0.00000E+00         0.00000E+00         0.00000E+00
 
    0.32490E+06         0.16043E+05         0.00000E+00
    0.16043E+05        -0.61076E+06         0.00000E+00
    0.00000E+00         0.00000E+00         0.00000E+00
 
    0.32149E+06         0.26644E+05         0.00000E+00
    0.26644E+05        -0.61052E+06         0.00000E+00
    0.00000E+00         0.00000E+00         0.00000E+00
 
    0.31791E+06         0.37194E+05         0.00000E+00
    0.37194E+05        -0.61015E+06         0.00000E+00
    0.00000E+00         0.00000E+00         0.00000E+00
 
    0.31419E+06         0.47692E+05         0.00000E+00
    0.47692E+05        -0.60967E+06         0.00000E+00
    0.00000E+00         0.00000E+00         0.00000E+00
 
    0.31031E+06         0.58138E+05         0.00000E+00
    0.58138E+05        -0.60906E+06         0.00000E+00
    0.00000E+00         0.00000E+00         0.00000E+00
 
    0.30628E+06         0.68531E+05         0.00000E+00
    0.68531E+05        -0.60834E+06         0.00000E+00
    0.00000E+00         0.00000E+00         0.00000E+00
 
    0.30210E+06         0.78870E+05         0.00000E+00
    0.78870E+05        -0.60749E+06         0.00000E+00
    0.00000E+00         0.00000E+00         0.00000E+00
 
    0.29777E+06         0.89154E+05         0.00000E+00
    0.89154E+05        -0.60653E+06         0.00000E+00
    0.00000E+00         0.00000E+00         0.00000E+00
 
    0.29328E+06         0.99383E+05         0.00000E+00
    0.99383E+05        -0.60546E+06         0.00000E+00
    0.00000E+00         0.00000E+00         0.00000E+00
 
    0.28865E+06         0.10955E+06         0.00000E+00
    0.10955E+06        -0.60427E+06         0.00000E+00
    0.00000E+00         0.00000E+00         0.00000E+00
 
    0.28387E+06         0.11967E+06         0.00000E+00
    0.11967E+06        -0.60296E+06         0.00000E+00
    0.00000E+00         0.00000E+00         0.00000E+00
 
    0.27894E+06         0.12973E+06         0.00000E+00
    0.12973E+06        -0.60154E+06         0.00000E+00
    0.00000E+00         0.00000E+00         0.00000E+00
 
    0.27387E+06         0.13972E+06         0.00000E+00
    0.13972E+06        -0.60001E+06         0.00000E+00
    0.00000E+00         0.00000E+00         0.00000E+00
 
    0.26865E+06         0.14966E+06         0.00000E+00
    0.14966E+06        -0.59836E+06         0.00000E+00
    0.00000E+00         0.00000E+00         0.00000E+00
 
    0.26328E+06         0.15954E+06         0.00000E+00
    0.15954E+06        -0.59661E+06         0.00000E+00
    0.00000E+00         0.00000E+00         0.00000E+00
 
    0.25777E+06         0.16936E+06         0.00000E+00
    0.16936E+06        -0.59474E+06         0.00000E+00
    0.00000E+00         0.00000E+00         0.00000E+00
 
    0.25212E+06         0.17911E+06         0.00000E+00
    0.17911E+06        -0.59277E+06         0.00000E+00
    0.00000E+00         0.00000E+00         0.00000E+00
 
    0.24633E+06         0.18880E+06         0.00000E+00
    0.18880E+06        -0.59069E+06         0.00000E+00
    0.00000E+00         0.00000E+00         0.00000E+00
 
    0.24040E+06         0.19843E+06         0.00000E+00
    0.19843E+06        -0.58851E+06         0.00000E+00
    0.00000E+00         0.00000E+00         0.00000E+00
 
    0.23433E+06         0.20800E+06         0.00000E+00
    0.20800E+06        -0.58622E+06         0.00000E+00
    0.00000E+00         0.00000E+00         0.00000E+00
 
    0.22813E+06         0.21749E+06         0.00000E+00
    0.21749E+06        -0.58382E+06         0.00000E+00
    0.00000E+00         0.00000E+00         0.00000E+00
 
    0.22179E+06         0.22693E+06         0.00000E+00
    0.22693E+06        -0.58133E+06         0.00000E+00
    0.00000E+00         0.00000E+00         0.00000E+00
 
    0.21531E+06         0.23629E+06         0.00000E+00
    0.23629E+06        -0.57873E+06         0.00000E+00
    0.00000E+00         0.00000E+00         0.00000E+00
 
    0.20870E+06         0.24559E+06         0.00000E+00
    0.24559E+06        -0.57604E+06         0.00000E+00
    0.00000E+00         0.00000E+00         0.00000E+00
 
    0.20196E+06         0.25482E+06         0.00000E+00
    0.25482E+06        -0.57324E+06         0.00000E+00
    0.00000E+00         0.00000E+00         0.00000E+00
 
    0.19509E+06         0.26399E+06         0.00000E+00
    0.26399E+06        -0.57035E+06         0.00000E+00
    0.00000E+00         0.00000E+00         0.00000E+00
 
    0.18808E+06         0.27308E+06         0.00000E+00
    0.27308E+06        -0.56737E+06         0.00000E+00
    0.00000E+00         0.00000E+00         0.00000E+00
 
    0.18096E+06         0.28210E+06         0.00000E+00
    0.28210E+06        -0.56429E+06         0.00000E+00
    0.00000E+00         0.00000E+00         0.00000E+00
 
    0.17370E+06         0.29105E+06         0.00000E+00
    0.29105E+06        -0.56111E+06         0.00000E+00
    0.00000E+00         0.00000E+00         0.00000E+00
 
    0.16633E+06         0.29993E+06         0.00000E+00
    0.29993E+06        -0.55785E+06         0.00000E+00
    0.00000E+00         0.00000E+00         0.00000E+00
 
    0.15882E+06         0.30874E+06         0.00000E+00
    0.30874E+06        -0.55450E+06         0.00000E+00
    0.00000E+00         0.00000E+00         0.00000E+00
 
    0.15120E+06         0.31747E+06         0.00000E+00
    0.31747E+06        -0.55106E+06         0.00000E+00
    0.00000E+00         0.00000E+00         0.00000E+00
 
    0.14346E+06         0.32613E+06         0.00000E+00
    0.32613E+06        -0.54753E+06         0.00000E+00
    0.00000E+00         0.00000E+00         0.00000E+00
 
    0.13560E+06         0.33471E+06         0.00000E+00
    0.33471E+06        -0.54392E+06         0.00000E+00
    0.00000E+00         0.00000E+00         0.00000E+00
 
    0.12763E+06         0.34322E+06         0.00000E+00
    0.34322E+06        -0.54022E+06         0.00000E+00
    0.00000E+00         0.00000E+00         0.00000E+00
 
    0.11954E+06         0.35165E+06         0.00000E+00
    0.35165E+06        -0.53644E+06         0.00000E+00
    0.00000E+00         0.00000E+00         0.00000E+00
 
    0.11133E+06         0.36000E+06         0.00000E+00
    0.36000E+06        -0.53258E+06         0.00000E+00
    0.00000E+00         0.00000E+00         0.00000E+00
 
    0.10302E+06         0.36828E+06         0.00000E+00
    0.36828E+06        -0.52865E+06         0.00000E+00
    0.00000E+00         0.00000E+00         0.00000E+00
 
    0.94597E+05         0.37647E+06         0.00000E+00
    0.37647E+06        -0.52463E+06         0.00000E+00
    0.00000E+00         0.00000E+00         0.00000E+00
 
    0.86066E+05         0.38459E+06         0.00000E+00
    0.38459E+06        -0.52054E+06         0.00000E+00
    0.00000E+00         0.00000E+00         0.00000E+00
 
    0.77429E+05         0.39262E+06         0.00000E+00
    0.39262E+06        -0.51638E+06         0.00000E+00
    0.00000E+00         0.00000E+00         0.00000E+00
 
    0.68688E+05         0.40057E+06         0.00000E+00
    0.40057E+06        -0.51214E+06         0.00000E+00
    0.00000E+00         0.00000E+00         0.00000E+00
 
    0.59844E+05         0.40845E+06         0.00000E+00
    0.40845E+06        -0.50783E+06         0.00000E+00
    0.00000E+00         0.00000E+00         0.00000E+00
 
    0.50900E+05         0.41623E+06         0.00000E+00
    0.41623E+06        -0.50346E+06         0.00000E+00
    0.00000E+00         0.00000E+00         0.00000E+00
 
    0.41857E+05         0.42394E+06         0.00000E+00
    0.42394E+06        -0.49901E+06         0.00000E+00
    0.00000E+00         0.00000E+00         0.00000E+00
 
    0.32717E+05         0.43156E+06         0.00000E+00
    0.43156E+06        -0.49450E+06         0.00000E+00
    0.00000E+00         0.00000E+00         0.00000E+00
 
    0.23482E+05         0.43909E+06         0.00000E+00
    0.43909E+06        -0.48993E+06         0.00000E+00
    0.00000E+00         0.00000E+00         0.00000E+00
 
    0.14153E+05         0.44654E+06         0.00000E+00
    0.44654E+06        -0.48529E+06         0.00000E+00
    0.00000E+00         0.00000E+00         0.00000E+00
 
    0.47327E+04         0.45390E+06         0.00000E+00
    0.45390E+06        -0.48060E+06         0.00000E+00
    0.00000E+00         0.00000E+00         0.00000E+00
 
    0.34553E+06         0.56798E+04         0.00000E+00
    0.56798E+04        -0.64833E+06         0.00000E+00
    0.00000E+00         0.00000E+00         0.00000E+00
 
    0.34201E+06         0.16903E+05         0.00000E+00
    0.16903E+05        -0.64820E+06         0.00000E+00
    0.00000E+00         0.00000E+00         0.00000E+00
 
    0.33834E+06         0.28075E+05         0.00000E+00
    0.28075E+05        -0.64794E+06         0.00000E+00
    0.00000E+00         0.00000E+00         0.00000E+00
 
    0.33451E+06         0.39194E+05         0.00000E+00
    0.39194E+05        -0.64756E+06         0.00000E+00
    0.00000E+00         0.00000E+00         0.00000E+00
 
    0.33053E+06         0.50261E+05         0.00000E+00
    0.50261E+05        -0.64706E+06         0.00000E+00
    0.00000E+00         0.00000E+00         0.00000E+00
 
    0.32638E+06         0.61273E+05         0.00000E+00
    0.61273E+05        -0.64643E+06         0.00000E+00
    0.00000E+00         0.00000E+00         0.00000E+00
 
    0.32208E+06         0.72230E+05         0.00000E+00
    0.72230E+05        -0.64567E+06         0.00000E+00
    0.00000E+00         0.00000E+00         0.00000E+00
 
    0.31762E+06         0.83131E+05         0.00000E+00
    0.83131E+05        -0.64480E+06         0.00000E+00
    0.00000E+00         0.00000E+00         0.00000E+00
 
    0.31301E+06         0.93975E+05         0.00000E+00
    0.93975E+05        -0.64380E+06         0.00000E+00
    0.00000E+00         0.00000E+00         0.00000E+00
 
    0.30825E+06         0.10476E+06         0.00000E+00
    0.10476E+06        -0.64268E+06         0.00000E+00
    0.00000E+00         0.00000E+00         0.00000E+00
 
    0.30333E+06         0.11549E+06         0.00000E+00
    0.11549E+06        -0.64144E+06         0.00000E+00
    0.00000E+00         0.00000E+00         0.00000E+00
 
    0.29825E+06         0.12615E+06         0.00000E+00
    0.12615E+06        -0.64008E+06         0.00000E+00
    0.00000E+00         0.00000E+00         0.00000E+00
 
    0.29303E+06         0.13676E+06         0.00000E+00
    0.13676E+06        -0.63860E+06         0.00000E+00
    0.00000E+00         0.00000E+00         0.00000E+00
 
    0.28766E+06         0.14730E+06         0.00000E+00
    0.14730E+06        -0.63701E+06         0.00000E+00
    0.00000E+00         0.00000E+00         0.00000E+00
 
    0.28213E+06         0.15778E+06         0.00000E+00
    0.15778E+06        -0.63530E+06         0.00000E+00
    0.00000E+00         0.00000E+00         0.00000E+00
 
    0.27646E+06         0.16820E+06         0.00000E+00
    0.16820E+06        -0.63347E+06         0.00000E+00
    0.00000E+00         0.00000E+00         0.00000E+00
 
    0.27064E+06         0.17855E+06         0.00000E+00
    0.17855E+06        -0.63153E+06         0.00000E+00
    0.00000E+00         0.00000E+00         0.00000E+00
 
    0.26467E+06         0.18883E+06         0.00000E+00
    0.18883E+06        -0.62948E+06         0.00000E+00
    0.00000E+00         0.00000E+00         0.00000E+00
 
    0.25856E+06         0.19905E+06         0.00000E+00
    0.19905E+06        -0.62731E+06         0.00000E+00
    0.00000E+00         0.00000E+00         0.00000E+00
 
    0.25231E+06         0.20921E+06         0.00000E+00
    0.20921E+06        -0.62504E+06         0.00000E+00
    0.00000E+00         0.00000E+00         0.00000E+00
 
    0.24591E+06         0.21929E+06         0.00000E+00
    0.21929E+06        -0.62265E+06         0.00000E+00
    0.00000E+00         0.00000E+00         0.00000E+00
 
    0.23937E+06         0.22930E+06         0.00000E+00
    0.22930E+06        -0.62016E+06         0.00000E+00
    0.00000E+00         0.00000E+00         0.00000E+00
 
    0.23269E+06         0.23925E+06         0.00000E+00
    0.23925E+06        -0.61756E+06         0.00000E+00
    0.00000E+00         0.00000E+00         0.00000E+00
 
    0.22588E+06         0.24912E+06         0.00000E+00
    0.24912E+06        -0.61486E+06         0.00000E+00
    0.00000E+00         0.00000E+00         0.00000E+00
 
    0.21892E+06         0.25892E+06         0.00000E+00
    0.25892E+06        -0.61205E+06         0.00000E+00
    0.00000E+00         0.00000E+00         0.00000E+00
 
    0.21183E+06         0.26865E+06         0.00000E+00
    0.26865E+06        -0.60914E+06         0.00000E+00
    0.00000E+00         0.00000E+00         0.00000E+00
 
    0.20461E+06         0.27831E+06         0.00000E+00
    0.27831E+06        -0.60613E+06         0.00000E+00
    0.00000E+00         0.00000E+00         0.00000E+00
 
    0.19725E+06         0.28789E+06         0.00000E+00
    0.28789E+06        -0.60302E+06         0.00000E+00
    0.00000E+00         0.00000E+00         0.00000E+00
 
    0.18976E+06         0.29739E+06         0.00000E+00
    0.29739E+06        -0.59981E+06         0.00000E+00
    0.00000E+00         0.00000E+00         0.00000E+00
 
    0.18214E+06         0.30682E+06         0.00000E+00
    0.30682E+06        -0.59650E+06         0.00000E+00
    0.00000E+00         0.00000E+00         0.00000E+00
 
    0.17439E+06         0.31617E+06         0.00000E+00
    0.31617E+06        -0.59310E+06         0.00000E+00
    0.00000E+00         0.00000E+00         0.00000E+00
 
    0.16652E+06         0.32544E+06         0.00000E+00
    0.32544E+06        -0.58960E+06         0.00000E+00
    0.00000E+00         0.00000E+00         0.00000E+00
 
    0.15852E+06         0.33464E+06         0.00000E+00
    0.33464E+06        -0.58601E+06         0.00000E+00
    0.00000E+00         0.00000E+00         0.00000E+00
 
    0.15039E+06         0.34375E+06         0.00000E+00
    0.34375E+06        -0.58233E+06         0.00000E+00
    0.00000E+00         0.00000E+00         0.00000E+00
 
    0.14215E+06         0.35279E+06         0.00000E+00
    0.35279E+06        -0.57856E+06         0.00000E+00
    0.00000E+00         0.00000E+00         0.00000E+00
 
    0.13378E+06         0.36174E+06         0.00000E+00
    0.36174E+06        -0.57470E+06         0.00000E+00
    0.00000E+00         0.00000E+00         0.00000E+00
 
    0.12529E+06         0.37061E+06         0.00000E+00
    0.37061E+06        -0.57076E+06         0.00000E+00
    0.00000E+00         0.00000E+00         0.00000E+00
 
    0.11669E+06         0.37940E+06         0.00000E+00
    0.37940E+06        -0.56673E+06         0.00000E+00
    0.00000E+00         0.00000E+00         0.00000E+00
 
    0.10797E+06         0.38811E+06         0.00000E+00
    0.38811E+06        -0.56262E+06         0.00000E+00
    0.00000E+00         0.00000E+00         0.00000E+00
 
    0.99143E+05         0.39672E+06         0.00000E+00
    0.39672E+06        -0.55842E+06         0.00000E+00
    0.00000E+00         0.00000E+00         0.00000E+00
 
    0.90199E+05         0.40526E+06         0.00000E+00
    0.40526E+06        -0.55415E+06         0.00000E+00
    0.00000E+00         0.00000E+00         0.00000E+00
 
    0.81145E+05         0.41370E+06         0.00000E+00
    0.41370E+06        -0.54980E+06         0.00000E+00
    0.00000E+00         0.00000E+00         0.00000E+00
 
    0.71983E+05         0.42206E+06         0.00000E+00
    0.42206E+06        -0.54537E+06         0.00000E+00
    0.00000E+00         0.00000E+00         0.00000E+00
 
    0.62714E+05         0.43034E+06         0.00000E+00
    0.43034E+06        -0.54086E+06         0.00000E+00
    0.00000E+00         0.00000E+00         0.00000E+00
 
    0.53340E+05         0.43852E+06         0.00000E+00
    0.43852E+06        -0.53629E+06         0.00000E+00
    0.00000E+00         0.00000E+00         0.00000E+00
 
    0.43863E+05         0.44661E+06         0.00000E+00
    0.44661E+06        -0.53164E+06         0.00000E+00
    0.00000E+00         0.00000E+00         0.00000E+00
 
    0.34284E+05         0.45461E+06         0.00000E+00
    0.45461E+06        -0.52692E+06         0.00000E+00
    0.00000E+00         0.00000E+00         0.00000E+00
 
    0.24606E+05         0.46252E+06         0.00000E+00
    0.46252E+06        -0.52213E+06         0.00000E+00
    0.00000E+00         0.00000E+00         0.00000E+00
 
    0.14831E+05         0.47034E+06         0.00000E+00
    0.47034E+06        -0.51727E+06         0.00000E+00
    0.00000E+00         0.00000E+00         0.00000E+00
 
    0.49594E+04         0.47807E+06         0.00000E+00
    0.47807E+06        -0.51235E+06         0.00000E+00
    0.00000E+00         0.00000E+00         0.00000E+00
 
    0.36396E+06         0.59796E+04         0.00000E+00
    0.59796E+04        -0.68762E+06         0.00000E+00
    0.00000E+00         0.00000E+00         0.00000E+00
 
    0.36019E+06         0.17799E+05         0.00000E+00
    0.17799E+05        -0.68749E+06         0.00000E+00
    0.00000E+00         0.00000E+00         0.00000E+00
 
    0.35626E+06         0.29566E+05         0.00000E+00
    0.29566E+05        -0.68722E+06         0.00000E+00
    0.00000E+00         0.00000E+00         0.00000E+00
 
    0.35216E+06         0.41279E+05         0.00000E+00
    0.41279E+05        -0.68683E+06         0.00000E+00
    0.00000E+00         0.00000E+00         0.00000E+00
 
    0.34790E+06         0.52937E+05         0.00000E+00
    0.52937E+05        -0.68630E+06         0.00000E+00
    0.00000E+00         0.00000E+00         0.00000E+00
 
    0.34348E+06         0.64538E+05         0.00000E+00
    0.64538E+05        -0.68564E+06         0.00000E+00
    0.00000E+00         0.00000E+00         0.00000E+00
 
    0.33890E+06         0.76083E+05         0.00000E+00
    0.76083E+05        -0.68486E+06         0.00000E+00
    0.00000E+00         0.00000E+00         0.00000E+00
 
    0.33415E+06         0.87569E+05         0.00000E+00
    0.87569E+05        -0.68394E+06         0.00000E+00
    0.00000E+00         0.00000E+00         0.00000E+00
 
    0.32925E+06         0.98995E+05         0.00000E+00
    0.98995E+05        -0.68290E+06         0.00000E+00
    0.00000E+00         0.00000E+00         0.00000E+00
 
    0.32419E+06         0.11036E+06         0.00000E+00
    0.11036E+06        -0.68173E+06         0.00000E+00
    0.00000E+00         0.00000E+00         0.00000E+00
 
    0.31897E+06         0.12166E+06         0.00000E+00
    0.12166E+06        -0.68044E+06         0.00000E+00
    0.00000E+00         0.00000E+00         0.00000E+00
 
    0.31359E+06         0.13291E+06         0.00000E+00
    0.13291E+06        -0.67902E+06         0.00000E+00
    0.00000E+00         0.00000E+00         0.00000E+00
 
    0.30805E+06         0.14408E+06         0.00000E+00
    0.14408E+06        -0.67748E+06         0.00000E+00
    0.00000E+00         0.00000E+00         0.00000E+00
 
    0.30236E+06         0.15519E+06         0.00000E+00
    0.15519E+06        -0.67582E+06         0.00000E+00
    0.00000E+00         0.00000E+00         0.00000E+00
 
    0.29652E+06         0.16624E+06         0.00000E+00
    0.16624E+06        -0.67403E+06         0.00000E+00
    0.00000E+00         0.00000E+00         0.00000E+00
 
    0.29052E+06         0.17722E+06         0.00000E+00
    0.17722E+06        -0.67213E+06         0.00000E+00
    0.00000E+00         0.00000E+00         0.00000E+00
 
    0.28437E+06         0.18813E+06         0.00000E+00
    0.18813E+06        -0.67010E+06         0.00000E+00
    0.00000E+00         0.00000E+00         0.00000E+00
 
    0.27807E+06         0.19897E+06         0.00000E+00
    0.19897E+06        -0.66796E+06         0.00000E+00
    0.00000E+00         0.00000E+00         0.00000E+00
 
    0.27162E+06         0.20974E+06         0.00000E+00
    0.20974E+06        -0.66570E+06         0.00000E+00
    0.00000E+00         0.00000E+00         0.00000E+00
 
    0.26502E+06         0.22043E+06         0.00000E+00
    0.22043E+06        -0.66333E+06         0.00000E+00
    0.00000E+00         0.00000E+00         0.00000E+00
 
    0.25828E+06         0.23106E+06         0.00000E+00
    0.23106E+06        -0.66084E+06         0.00000E+00
    0.00000E+00         0.00000E+00         0.00000E+00
 
    0.25139E+06         0.24161E+06         0.00000E+00
    0.24161E+06        -0.65824E+06         0.00000E+00
    0.00000E+00         0.00000E+00         0.00000E+00
 
    0.24435E+06         0.25209E+06         0.00000E+00
    0.25209E+06        -0.65553E+06         0.00000E+00
    0.00000E+00         0.00000E+00         0.00000E+00
 
    0.23717E+06         0.26250E+06         0.00000E+00
    0.26250E+06        -0.65271E+06         0.00000E+00
    0.00000E+00         0.00000E+00         0.00000E+00
 
    0.22985E+06         0.27282E+06         0.00000E+00
    0.27282E+06        -0.64978E+06         0.00000E+00
    0.00000E+00         0.00000E+00         0.00000E+00
 
    0.22238E+06         0.28307E+06         0.00000E+00
    0.28307E+06        -0.64674E+06         0.00000E+00
    0.00000E+00         0.00000E+00         0.00000E+00
 
    0.21478E+06         0.29324E+06         0.00000E+00
    0.29324E+06        -0.64360E+06         0.00000E+00
    0.00000E+00         0.00000E+00         0.00000E+00
 
    0.20704E+06         0.30333E+06         0.00000E+00
    0.30333E+06        -0.64035E+06         0.00000E+00
    0.00000E+00         0.00000E+00         0.00000E+00
 
    0.19917E+06         0.31335E+06         0.00000E+00
    0.31335E+06        -0.63700E+06         0.00000E+00
    0.00000E+00         0.00000E+00         0.00000E+00
 
    0.19116E+06         0.32328E+06         0.00000E+00
    0.32328E+06        -0.63354E+06         0.00000E+00
    0.00000E+00         0.00000E+00         0.00000E+00
 
    0.18302E+06         0.33312E+06         0.00000E+00
    0.33312E+06        -0.62999E+06         0.00000E+00
    0.00000E+00         0.00000E+00         0.00000E+00
 
    0.17474E+06         0.34289E+06         0.00000E+00
    0.34289E+06        -0.62634E+06         0.00000E+00
    0.00000E+00         0.00000E+00         0.00000E+00
 
    0.16634E+06         0.35257E+06         0.00000E+00
    0.35257E+06        -0.62259E+06         0.00000E+00
    0.00000E+00         0.00000E+00         0.00000E+00
 
    0.15780E+06         0.36217E+06         0.00000E+00
    0.36217E+06        -0.61874E+06         0.00000E+00
    0.00000E+00         0.00000E+00         0.00000E+00
 
    0.14915E+06         0.37168E+06         0.00000E+00
    0.37168E+06        -0.61480E+06         0.00000E+00
    0.00000E+00         0.00000E+00         0.00000E+00
 
    0.14036E+06         0.38110E+06         0.00000E+00
    0.38110E+06        -0.61077E+06         0.00000E+00
    0.00000E+00         0.00000E+00         0.00000E+00
 
    0.13145E+06         0.39043E+06         0.00000E+00
    0.39043E+06        -0.60664E+06         0.00000E+00
    0.00000E+00         0.00000E+00         0.00000E+00
 
    0.12242E+06         0.39968E+06         0.00000E+00
    0.39968E+06        -0.60243E+06         0.00000E+00
    0.00000E+00         0.00000E+00         0.00000E+00
 
    0.11327E+06         0.40884E+06         0.00000E+00
    0.40884E+06        -0.59813E+06         0.00000E+00
    0.00000E+00         0.00000E+00         0.00000E+00
 
    0.10400E+06         0.41790E+06         0.00000E+00
    0.41790E+06        -0.59374E+06         0.00000E+00
    0.00000E+00         0.00000E+00         0.00000E+00
 
    0.94619E+05         0.42688E+06         0.00000E+00
    0.42688E+06        -0.58927E+06         0.00000E+00
    0.00000E+00         0.00000E+00         0.00000E+00
 
    0.85120E+05         0.43576E+06         0.00000E+00
    0.43576E+06        -0.58471E+06         0.00000E+00
    0.00000E+00         0.00000E+00         0.00000E+00
 
    0.75507E+05         0.44455E+06         0.00000E+00
    0.44455E+06        -0.58008E+06         0.00000E+00
    0.00000E+00         0.00000E+00         0.00000E+00
 
    0.65782E+05         0.45325E+06         0.00000E+00
    0.45325E+06        -0.57536E+06         0.00000E+00
    0.00000E+00         0.00000E+00         0.00000E+00
 
    0.55949E+05         0.46185E+06         0.00000E+00
    0.46185E+06        -0.57057E+06         0.00000E+00
    0.00000E+00         0.00000E+00         0.00000E+00
 
    0.46007E+05         0.47035E+06         0.00000E+00
    0.47035E+06        -0.56570E+06         0.00000E+00
    0.00000E+00         0.00000E+00         0.00000E+00
 
    0.35960E+05         0.47876E+06         0.00000E+00
    0.47876E+06        -0.56075E+06         0.00000E+00
    0.00000E+00         0.00000E+00         0.00000E+00
 
    0.25809E+05         0.48707E+06         0.00000E+00
    0.48707E+06        -0.55573E+06         0.00000E+00
    0.00000E+00         0.00000E+00         0.00000E+00
 
    0.15555E+05         0.49529E+06         0.00000E+00
    0.49529E+06        -0.55064E+06         0.00000E+00
    0.00000E+00         0.00000E+00         0.00000E+00
 
    0.52017E+04         0.50340E+06         0.00000E+00
    0.50340E+06        -0.54548E+06         0.00000E+00
    0.00000E+00         0.00000E+00         0.00000E+00
 
    0.38346E+06         0.62930E+04         0.00000E+00
    0.62930E+04        -0.72890E+06         0.00000E+00
    0.00000E+00         0.00000E+00         0.00000E+00
 
    0.37943E+06         0.18735E+05         0.00000E+00
    0.18735E+05        -0.72876E+06         0.00000E+00
    0.00000E+00         0.00000E+00         0.00000E+00
 
    0.37523E+06         0.31123E+05         0.00000E+00
    0.31123E+05        -0.72848E+06         0.00000E+00
    0.00000E+00         0.00000E+00         0.00000E+00
 
    0.37086E+06         0.43455E+05         0.00000E+00
    0.43455E+05        -0.72807E+06         0.00000E+00
    0.00000E+00         0.00000E+00         0.00000E+00
 
    0.36632E+06         0.55731E+05         0.00000E+00
    0.55731E+05        -0.72751E+06         0.00000E+00
    0.00000E+00         0.00000E+00         0.00000E+00
 
    0.36161E+06         0.67948E+05         0.00000E+00
    0.67948E+05        -0.72683E+06         0.00000E+00
    0.00000E+00         0.00000E+00         0.00000E+00
 
    0.35673E+06         0.80105E+05         0.00000E+00
    0.80105E+05        -0.72600E+06         0.00000E+00
    0.00000E+00         0.00000E+00         0.00000E+00
 
    0.35169E+06         0.92202E+05         0.00000E+00
    0.92202E+05        -0.72505E+06         0.00000E+00
    0.00000E+00         0.00000E+00         0.00000E+00
 
    0.34648E+06         0.10424E+06         0.00000E+00
    0.10424E+06        -0.72396E+06         0.00000E+00
    0.00000E+00         0.00000E+00         0.00000E+00
 
    0.34111E+06         0.11621E+06         0.00000E+00
    0.11621E+06        -0.72274E+06         0.00000E+00
    0.00000E+00         0.00000E+00         0.00000E+00
 
    0.33558E+06         0.12811E+06         0.00000E+00
    0.12811E+06        -0.72139E+06         0.00000E+00
    0.00000E+00         0.00000E+00         0.00000E+00
 
    0.32988E+06         0.13995E+06         0.00000E+00
    0.13995E+06        -0.71991E+06         0.00000E+00
    0.00000E+00         0.00000E+00         0.00000E+00
 
    0.32402E+06         0.15173E+06         0.00000E+00
    0.15173E+06        -0.71830E+06         0.00000E+00
    0.00000E+00         0.00000E+00         0.00000E+00
 
    0.31799E+06         0.16343E+06         0.00000E+00
    0.16343E+06        -0.71656E+06         0.00000E+00
    0.00000E+00         0.00000E+00         0.00000E+00
 
    0.31181E+06         0.17507E+06         0.00000E+00
    0.17507E+06        -0.71469E+06         0.00000E+00
    0.00000E+00         0.00000E+00         0.00000E+00
 
    0.30547E+06         0.18663E+06         0.00000E+00
    0.18663E+06        -0.71270E+06         0.00000E+00
    0.00000E+00         0.00000E+00         0.00000E+00
 
    0.29898E+06         0.19813E+06         0.00000E+00
    0.19813E+06        -0.71059E+06         0.00000E+00
    0.00000E+00         0.00000E+00         0.00000E+00
 
    0.29232E+06         0.20955E+06         0.00000E+00
    0.20955E+06        -0.70835E+06         0.00000E+00
    0.00000E+00         0.00000E+00         0.00000E+00
 
    0.28551E+06         0.22089E+06         0.00000E+00
    0.22089E+06        -0.70599E+06         0.00000E+00
    0.00000E+00         0.00000E+00         0.00000E+00
 
    0.27855E+06         0.23216E+06         0.00000E+00
    0.23216E+06        -0.70351E+06         0.00000E+00
    0.00000E+00         0.00000E+00         0.00000E+00
 
    0.27144E+06         0.24335E+06         0.00000E+00
    0.24335E+06        -0.70091E+06         0.00000E+00
    0.00000E+00         0.00000E+00         0.00000E+00
 
    0.26417E+06         0.25447E+06         0.00000E+00
    0.25447E+06        -0.69820E+06         0.00000E+00
    0.00000E+00         0.00000E+00         0.00000E+00
 
    0.25675E+06         0.26551E+06         0.00000E+00
    0.26551E+06        -0.69536E+06         0.00000E+00
    0.00000E+00         0.00000E+00         0.00000E+00
 
    0.24919E+06         0.27647E+06         0.00000E+00
    0.27647E+06        -0.69241E+06         0.00000E+00
    0.00000E+00         0.00000E+00         0.00000E+00
 
    0.24148E+06         0.28734E+06         0.00000E+00
    0.28734E+06        -0.68935E+06         0.00000E+00
    0.00000E+00         0.00000E+00         0.00000E+00
 
    0.23362E+06         0.29814E+06         0.00000E+00
    0.29814E+06        -0.68617E+06         0.00000E+00
    0.00000E+00         0.00000E+00         0.00000E+00
 
    0.22562E+06         0.30885E+06         0.00000E+00
    0.30885E+06        -0.68289E+06         0.00000E+00
    0.00000E+00         0.00000E+00         0.00000E+00
 
    0.21748E+06         0.31948E+06         0.00000E+00
    0.31948E+06        -0.67949E+06         0.00000E+00
    0.00000E+00         0.00000E+00         0.00000E+00
 
    0.20919E+06         0.33002E+06         0.00000E+00
    0.33002E+06        -0.67598E+06         0.00000E+00
    0.00000E+00         0.00000E+00         0.00000E+00
 
    0.20077E+06         0.34048E+06         0.00000E+00
    0.34048E+06        -0.67237E+06         0.00000E+00
    0.00000E+00         0.00000E+00         0.00000E+00
 
    0.19220E+06         0.35085E+06         0.00000E+00
    0.35085E+06        -0.66865E+06         0.00000E+00
    0.00000E+00         0.00000E+00         0.00000E+00
 
    0.18350E+06         0.36113E+06         0.00000E+00
    0.36113E+06        -0.66483E+06         0.00000E+00
    0.00000E+00         0.00000E+00         0.00000E+00
 
    0.17467E+06         0.37132E+06         0.00000E+00
    0.37132E+06        -0.66091E+06         0.00000E+00
    0.00000E+00         0.00000E+00         0.00000E+00
 
    0.16570E+06         0.38142E+06         0.00000E+00
    0.38142E+06        -0.65689E+06         0.00000E+00
    0.00000E+00         0.00000E+00         0.00000E+00
 
    0.15660E+06         0.39143E+06         0.00000E+00
    0.39143E+06        -0.65276E+06         0.00000E+00
    0.00000E+00         0.00000E+00         0.00000E+00
 
    0.14737E+06         0.40135E+06         0.00000E+00
    0.40135E+06        -0.64854E+06         0.00000E+00
    0.00000E+00         0.00000E+00         0.00000E+00
 
    0.13801E+06         0.41118E+06         0.00000E+00
    0.41118E+06        -0.64423E+06         0.00000E+00
    0.00000E+00         0.00000E+00         0.00000E+00
 
    0.12853E+06         0.42091E+06         0.00000E+00
    0.42091E+06        -0.63981E+06         0.00000E+00
    0.00000E+00         0.00000E+00         0.00000E+00
 
    0.11892E+06         0.43054E+06         0.00000E+00
    0.43054E+06        -0.63531E+06         0.00000E+00
    0.00000E+00         0.00000E+00         0.00000E+00
 
    0.10918E+06         0.44008E+06         0.00000E+00
    0.44008E+06        -0.63072E+06         0.00000E+00
    0.00000E+00         0.00000E+00         0.00000E+00
 
    0.99328E+05         0.44952E+06         0.00000E+00
    0.44952E+06        -0.62603E+06         0.00000E+00
    0.00000E+00         0.00000E+00         0.00000E+00
 
    0.89353E+05         0.45887E+06         0.00000E+00
    0.45887E+06        -0.62126E+06         0.00000E+00
    0.00000E+00         0.00000E+00         0.00000E+00
 
    0.79260E+05         0.46811E+06         0.00000E+00
    0.46811E+06        -0.61640E+06         0.00000E+00
    0.00000E+00         0.00000E+00         0.00000E+00
 
    0.69051E+05         0.47726E+06         0.00000E+00
    0.47726E+06        -0.61146E+06         0.00000E+00
    0.00000E+00         0.00000E+00         0.00000E+00
 
    0.58728E+05         0.48630E+06         0.00000E+00
    0.48630E+06        -0.60643E+06         0.00000E+00
    0.00000E+00         0.00000E+00         0.00000E+00
 
    0.48292E+05         0.49524E+06         0.00000E+00
    0.49524E+06        -0.60132E+06         0.00000E+00
    0.00000E+00         0.00000E+00         0.00000E+00
 
    0.37745E+05         0.50408E+06         0.00000E+00
    0.50408E+06        -0.59614E+06         0.00000E+00
    0.00000E+00         0.00000E+00         0.00000E+00
 
    0.27090E+05         0.51282E+06         0.00000E+00
    0.51282E+06        -0.59087E+06         0.00000E+00
    0.00000E+00         0.00000E+00         0.00000E+00
 
    0.16327E+05         0.52145E+06         0.00000E+00
    0.52145E+06        -0.58553E+06         0.00000E+00
    0.00000E+00         0.00000E+00         0.00000E+00
 
    0.54598E+04         0.52997E+06         0.00000E+00
    0.52997E+06        -0.58012E+06         0.00000E+00
    0.00000E+00         0.00000E+00         0.00000E+00
 
    0.40405E+06         0.66210E+04         0.00000E+00
    0.66210E+04        -0.77227E+06         0.00000E+00
    0.00000E+00         0.00000E+00         0.00000E+00
 
    0.39975E+06         0.19715E+05         0.00000E+00
    0.19715E+05        -0.77212E+06         0.00000E+00
    0.00000E+00         0.00000E+00         0.00000E+00
 
    0.39527E+06         0.32752E+05         0.00000E+00
    0.32752E+05        -0.77183E+06         0.00000E+00
    0.00000E+00         0.00000E+00         0.00000E+00
 
    0.39062E+06         0.45732E+05         0.00000E+00
    0.45732E+05        -0.77140E+06         0.00000E+00
    0.00000E+00         0.00000E+00         0.00000E+00
 
    0.38579E+06         0.58653E+05         0.00000E+00
    0.58653E+05        -0.77082E+06         0.00000E+00
    0.00000E+00         0.00000E+00         0.00000E+00
 
    0.38078E+06         0.71514E+05         0.00000E+00
    0.71514E+05        -0.77010E+06         0.00000E+00
    0.00000E+00         0.00000E+00         0.00000E+00
 
    0.37560E+06         0.84313E+05         0.00000E+00
    0.84313E+05        -0.76924E+06         0.00000E+00
    0.00000E+00         0.00000E+00         0.00000E+00
 
    0.37025E+06         0.97048E+05         0.00000E+00
    0.97048E+05        -0.76824E+06         0.00000E+00
    0.00000E+00         0.00000E+00         0.00000E+00
 
    0.36472E+06         0.10972E+06         0.00000E+00
    0.10972E+06        -0.76710E+06         0.00000E+00
    0.00000E+00         0.00000E+00         0.00000E+00
 
    0.35903E+06         0.12232E+06         0.00000E+00
    0.12232E+06        -0.76583E+06         0.00000E+00
    0.00000E+00         0.00000E+00         0.00000E+00
 
    0.35316E+06         0.13486E+06         0.00000E+00
    0.13486E+06        -0.76441E+06         0.00000E+00
    0.00000E+00         0.00000E+00         0.00000E+00
 
    0.34713E+06         0.14733E+06         0.00000E+00
    0.14733E+06        -0.76286E+06         0.00000E+00
    0.00000E+00         0.00000E+00         0.00000E+00
 
    0.34092E+06         0.15972E+06         0.00000E+00
    0.15972E+06        -0.76118E+06         0.00000E+00
    0.00000E+00         0.00000E+00         0.00000E+00
 
    0.33455E+06         0.17205E+06         0.00000E+00
    0.17205E+06        -0.75936E+06         0.00000E+00
    0.00000E+00         0.00000E+00         0.00000E+00
 
    0.32802E+06         0.18430E+06         0.00000E+00
    0.18430E+06        -0.75741E+06         0.00000E+00
    0.00000E+00         0.00000E+00         0.00000E+00
 
    0.32132E+06         0.19648E+06         0.00000E+00
    0.19648E+06        -0.75532E+06         0.00000E+00
    0.00000E+00         0.00000E+00         0.00000E+00
 
    0.31445E+06         0.20858E+06         0.00000E+00
    0.20858E+06        -0.75311E+06         0.00000E+00
    0.00000E+00         0.00000E+00         0.00000E+00
 
    0.30743E+06         0.22061E+06         0.00000E+00
    0.22061E+06        -0.75077E+06         0.00000E+00
    0.00000E+00         0.00000E+00         0.00000E+00
 
    0.30024E+06         0.23256E+06         0.00000E+00
    0.23256E+06        -0.74830E+06         0.00000E+00
    0.00000E+00         0.00000E+00         0.00000E+00
 
    0.29290E+06         0.24443E+06         0.00000E+00
    0.24443E+06        -0.74571E+06         0.00000E+00
    0.00000E+00         0.00000E+00         0.00000E+00
 
    0.28539E+06         0.25621E+06         0.00000E+00
    0.25621E+06        -0.74299E+06         0.00000E+00
    0.00000E+00         0.00000E+00         0.00000E+00
 
    0.27773E+06         0.26792E+06         0.00000E+00
    0.26792E+06        -0.74014E+06         0.00000E+00
    0.00000E+00         0.00000E+00         0.00000E+00
 
    0.26991E+06         0.27954E+06         0.00000E+00
    0.27954E+06        -0.73718E+06         0.00000E+00
    0.00000E+00         0.00000E+00         0.00000E+00
 
    0.26194E+06         0.29108E+06         0.00000E+00
    0.29108E+06        -0.73409E+06         0.00000E+00
    0.00000E+00         0.00000E+00         0.00000E+00
 
    0.25382E+06         0.30254E+06         0.00000E+00
    0.30254E+06        -0.73088E+06         0.00000E+00
    0.00000E+00         0.00000E+00         0.00000E+00
 
    0.24555E+06         0.31390E+06         0.00000E+00
    0.31390E+06        -0.72756E+06         0.00000E+00
    0.00000E+00         0.00000E+00         0.00000E+00
 
    0.23712E+06         0.32518E+06         0.00000E+00
    0.32518E+06        -0.72412E+06         0.00000E+00
    0.00000E+00         0.00000E+00         0.00000E+00
 
    0.22855E+06         0.33637E+06         0.00000E+00
    0.33637E+06        -0.72056E+06         0.00000E+00
    0.00000E+00         0.00000E+00         0.00000E+00
 
    0.21983E+06         0.34747E+06         0.00000E+00
    0.34747E+06        -0.71690E+06         0.00000E+00
    0.00000E+00         0.00000E+00         0.00000E+00
 
    0.21096E+06         0.35848E+06         0.00000E+00
    0.35848E+06        -0.71311E+06         0.00000E+00
    0.00000E+00         0.00000E+00         0.00000E+00
 
    0.20195E+06         0.36940E+06         0.00000E+00
    0.36940E+06        -0.70922E+06         0.00000E+00
    0.00000E+00         0.00000E+00         0.00000E+00
 
    0.19280E+06         0.38022E+06         0.00000E+00
    0.38022E+06        -0.70522E+06         0.00000E+00
    0.00000E+00         0.00000E+00         0.00000E+00
 
    0.18351E+06         0.39095E+06         0.00000E+00
    0.39095E+06        -0.70111E+06         0.00000E+00
    0.00000E+00         0.00000E+00         0.00000E+00
 
    0.17408E+06         0.40159E+06         0.00000E+00
    0.40159E+06        -0.69690E+06         0.00000E+00
    0.00000E+00         0.00000E+00         0.00000E+00
 
    0.16452E+06         0.41212E+06         0.00000E+00
    0.41212E+06        -0.69258E+06         0.00000E+00
    0.00000E+00         0.00000E+00         0.00000E+00
 
    0.15481E+06         0.42256E+06         0.00000E+00
    0.42256E+06        -0.68816E+06         0.00000E+00
    0.00000E+00         0.00000E+00         0.00000E+00
 
    0.14498E+06         0.43291E+06         0.00000E+00
    0.43291E+06        -0.68363E+06         0.00000E+00
    0.00000E+00         0.00000E+00         0.00000E+00
 
    0.13501E+06         0.44315E+06         0.00000E+00
    0.44315E+06        -0.67901E+06         0.00000E+00
    0.00000E+00         0.00000E+00         0.00000E+00
 
    0.12491E+06         0.45329E+06         0.00000E+00
    0.45329E+06        -0.67429E+06         0.00000E+00
    0.00000E+00         0.00000E+00         0.00000E+00
 
    0.11468E+06         0.46332E+06         0.00000E+00
    0.46332E+06        -0.66947E+06         0.00000E+00
    0.00000E+00         0.00000E+00         0.00000E+00
 
    0.10433E+06         0.47326E+06         0.00000E+00
    0.47326E+06        -0.66456E+06         0.00000E+00
    0.00000E+00         0.00000E+00         0.00000E+00
 
    0.93848E+05         0.48309E+06         0.00000E+00
    0.48309E+06        -0.65956E+06         0.00000E+00
    0.00000E+00         0.00000E+00         0.00000E+00
 
    0.83246E+05         0.49282E+06         0.00000E+00
    0.49282E+06        -0.65446E+06         0.00000E+00
    0.00000E+00         0.00000E+00         0.00000E+00
 
    0.72522E+05         0.50244E+06         0.00000E+00
    0.50244E+06        -0.64928E+06         0.00000E+00
    0.00000E+00         0.00000E+00         0.00000E+00
 
    0.61679E+05         0.51195E+06         0.00000E+00
    0.51195E+06        -0.64401E+06         0.00000E+00
    0.00000E+00         0.00000E+00         0.00000E+00
 
    0.50718E+05         0.52135E+06         0.00000E+00
    0.52135E+06        -0.63865E+06         0.00000E+00
    0.00000E+00         0.00000E+00         0.00000E+00
 
    0.39641E+05         0.53065E+06         0.00000E+00
    0.53065E+06        -0.63321E+06         0.00000E+00
    0.00000E+00         0.00000E+00         0.00000E+00
 
    0.28450E+05         0.53984E+06         0.00000E+00
    0.53984E+06        -0.62768E+06         0.00000E+00
    0.00000E+00         0.00000E+00         0.00000E+00
 
    0.17147E+05         0.54891E+06         0.00000E+00
    0.54891E+06        -0.62207E+06         0.00000E+00
    0.00000E+00         0.00000E+00         0.00000E+00
 
    0.57338E+04         0.55787E+06         0.00000E+00
    0.55787E+06        -0.61639E+06         0.00000E+00
    0.00000E+00         0.00000E+00         0.00000E+00
 
    0.42576E+06         0.69649E+04         0.00000E+00
    0.69649E+04        -0.81787E+06         0.00000E+00
    0.00000E+00         0.00000E+00         0.00000E+00
 
    0.42117E+06         0.20741E+05         0.00000E+00
    0.20741E+05        -0.81772E+06         0.00000E+00
    0.00000E+00         0.00000E+00         0.00000E+00
 
    0.41641E+06         0.34459E+05         0.00000E+00
    0.34459E+05        -0.81741E+06         0.00000E+00
    0.00000E+00         0.00000E+00         0.00000E+00
 
    0.41146E+06         0.48118E+05         0.00000E+00
    0.48118E+05        -0.81696E+06         0.00000E+00
    0.00000E+00         0.00000E+00         0.00000E+00
 
    0.40632E+06         0.61715E+05         0.00000E+00
    0.61715E+05        -0.81635E+06         0.00000E+00
    0.00000E+00         0.00000E+00         0.00000E+00
 
    0.40101E+06         0.75249E+05         0.00000E+00
    0.75249E+05        -0.81560E+06         0.00000E+00
    0.00000E+00         0.00000E+00         0.00000E+00
 
    0.39551E+06         0.88719E+05         0.00000E+00
    0.88719E+05        -0.81470E+06         0.00000E+00
    0.00000E+00         0.00000E+00         0.00000E+00
 
    0.38983E+06         0.10212E+06         0.00000E+00
    0.10212E+06        -0.81365E+06         0.00000E+00
    0.00000E+00         0.00000E+00         0.00000E+00
 
    0.38398E+06         0.11546E+06         0.00000E+00
    0.11546E+06        -0.81246E+06         0.00000E+00
    0.00000E+00         0.00000E+00         0.00000E+00
 
    0.37794E+06         0.12873E+06         0.00000E+00
    0.12873E+06        -0.81112E+06         0.00000E+00
    0.00000E+00         0.00000E+00         0.00000E+00
 
    0.37173E+06         0.14192E+06         0.00000E+00
    0.14192E+06        -0.80964E+06         0.00000E+00
    0.00000E+00         0.00000E+00         0.00000E+00
 
    0.36535E+06         0.15505E+06         0.00000E+00
    0.15505E+06        -0.80801E+06         0.00000E+00
    0.00000E+00         0.00000E+00         0.00000E+00
 
    0.35879E+06         0.16810E+06         0.00000E+00
    0.16810E+06        -0.80625E+06         0.00000E+00
    0.00000E+00         0.00000E+00         0.00000E+00
 
    0.35205E+06         0.18107E+06         0.00000E+00
    0.18107E+06        -0.80434E+06         0.00000E+00
    0.00000E+00         0.00000E+00         0.00000E+00
 
    0.34514E+06         0.19397E+06         0.00000E+00
    0.19397E+06        -0.80230E+06         0.00000E+00
    0.00000E+00         0.00000E+00         0.00000E+00
 
    0.33807E+06         0.20679E+06         0.00000E+00
    0.20679E+06        -0.80012E+06         0.00000E+00
    0.00000E+00         0.00000E+00         0.00000E+00
 
    0.33082E+06         0.21953E+06         0.00000E+00
    0.21953E+06        -0.79780E+06         0.00000E+00
    0.00000E+00         0.00000E+00         0.00000E+00
 
    0.32340E+06         0.23219E+06         0.00000E+00
    0.23219E+06        -0.79535E+06         0.00000E+00
    0.00000E+00         0.00000E+00         0.00000E+00
 
    0.31582E+06         0.24477E+06         0.00000E+00
    0.24477E+06        -0.79276E+06         0.00000E+00
    0.00000E+00         0.00000E+00         0.00000E+00
 
    0.30807E+06         0.25727E+06         0.00000E+00
    0.25727E+06        -0.79005E+06         0.00000E+00
    0.00000E+00         0.00000E+00         0.00000E+00
 
    0.30015E+06         0.26968E+06         0.00000E+00
    0.26968E+06        -0.78720E+06         0.00000E+00
    0.00000E+00         0.00000E+00         0.00000E+00
 
    0.29208E+06         0.28200E+06         0.00000E+00
    0.28200E+06        -0.78422E+06         0.00000E+00
    0.00000E+00         0.00000E+00         0.00000E+00
 
    0.28384E+06         0.29424E+06         0.00000E+00
    0.29424E+06        -0.78111E+06         0.00000E+00
    0.00000E+00         0.00000E+00         0.00000E+00
 
    0.27544E+06         0.30639E+06         0.00000E+00
    0.30639E+06        -0.77788E+06         0.00000E+00
    0.00000E+00         0.00000E+00         0.00000E+00
 
    0.26688E+06         0.31845E+06         0.00000E+00
    0.31845E+06        -0.77452E+06         0.00000E+00
    0.00000E+00         0.00000E+00         0.00000E+00
 
    0.25816E+06         0.33042E+06         0.00000E+00
    0.33042E+06        -0.77104E+06         0.00000E+00
    0.00000E+00         0.00000E+00         0.00000E+00
 
    0.24929E+06         0.34229E+06         0.00000E+00
    0.34229E+06        -0.76744E+06         0.00000E+00
    0.00000E+00         0.00000E+00         0.00000E+00
 
    0.24026E+06         0.35407E+06         0.00000E+00
    0.35407E+06        -0.76371E+06         0.00000E+00
    0.00000E+00         0.00000E+00         0.00000E+00
 
    0.23109E+06         0.36576E+06         0.00000E+00
    0.36576E+06        -0.75987E+06         0.00000E+00
    0.00000E+00         0.00000E+00         0.00000E+00
 
    0.22176E+06         0.37735E+06         0.00000E+00
    0.37735E+06        -0.75590E+06         0.00000E+00
    0.00000E+00         0.00000E+00         0.00000E+00
 
    0.21228E+06         0.38884E+06         0.00000E+00
    0.38884E+06        -0.75183E+06         0.00000E+00
    0.00000E+00         0.00000E+00         0.00000E+00
 
    0.20265E+06         0.40024E+06         0.00000E+00
    0.40024E+06        -0.74763E+06         0.00000E+00
    0.00000E+00         0.00000E+00         0.00000E+00
 
    0.19288E+06         0.41153E+06         0.00000E+00
    0.41153E+06        -0.74333E+06         0.00000E+00
    0.00000E+00         0.00000E+00         0.00000E+00
 
    0.18296E+06         0.42272E+06         0.00000E+00
    0.42272E+06        -0.73891E+06         0.00000E+00
    0.00000E+00         0.00000E+00         0.00000E+00
 
    0.17290E+06         0.43382E+06         0.00000E+00
    0.43382E+06        -0.73438E+06         0.00000E+00
    0.00000E+00         0.00000E+00         0.00000E+00
 
    0.16269E+06         0.44480E+06         0.00000E+00
    0.44480E+06        -0.72975E+06         0.00000E+00
    0.00000E+00         0.00000E+00         0.00000E+00
 
    0.15235E+06         0.45569E+06         0.00000E+00
    0.45569E+06        -0.72500E+06         0.00000E+00
    0.00000E+00         0.00000E+00         0.00000E+00
 
    0.14187E+06         0.46647E+06         0.00000E+00
    0.46647E+06        -0.72016E+06         0.00000E+00
    0.00000E+00         0.00000E+00         0.00000E+00
 
    0.13125E+06         0.47714E+06         0.00000E+00
    0.47714E+06        -0.71521E+06         0.00000E+00
    0.00000E+00         0.00000E+00         0.00000E+00
 
    0.12050E+06         0.48770E+06         0.00000E+00
    0.48770E+06        -0.71015E+06         0.00000E+00
    0.00000E+00         0.00000E+00         0.00000E+00
 
    0.10962E+06         0.49816E+06         0.00000E+00
    0.49816E+06        -0.70500E+06         0.00000E+00
    0.00000E+00         0.00000E+00         0.00000E+00
 
    0.98609E+05         0.50850E+06         0.00000E+00
    0.50850E+06        -0.69975E+06         0.00000E+00
    0.00000E+00         0.00000E+00         0.00000E+00
 
    0.87467E+05         0.51874E+06         0.00000E+00
    0.51874E+06        -0.69441E+06         0.00000E+00
    0.00000E+00         0.00000E+00         0.00000E+00
 
    0.76198E+05         0.52886E+06         0.00000E+00
    0.52886E+06        -0.68897E+06         0.00000E+00
    0.00000E+00         0.00000E+00         0.00000E+00
 
    0.64804E+05         0.53887E+06         0.00000E+00
    0.53887E+06        -0.68343E+06         0.00000E+00
    0.00000E+00         0.00000E+00         0.00000E+00
 
    0.53286E+05         0.54876E+06         0.00000E+00
    0.54876E+06        -0.67781E+06         0.00000E+00
    0.00000E+00         0.00000E+00         0.00000E+00
 
    0.41648E+05         0.55854E+06         0.00000E+00
    0.55854E+06        -0.67209E+06         0.00000E+00
    0.00000E+00         0.00000E+00         0.00000E+00
 
    0.29890E+05         0.56820E+06         0.00000E+00
    0.56820E+06        -0.66629E+06         0.00000E+00
    0.00000E+00         0.00000E+00         0.00000E+00
 
    0.18015E+05         0.57775E+06         0.00000E+00
    0.57775E+06        -0.66040E+06         0.00000E+00
    0.00000E+00         0.00000E+00         0.00000E+00
 
    0.60240E+04         0.58718E+06         0.00000E+00
    0.58718E+06        -0.65443E+06         0.00000E+00
    0.00000E+00         0.00000E+00         0.00000E+00
 
    0.44860E+06         0.73258E+04         0.00000E+00
    0.73258E+04        -0.86583E+06         0.00000E+00
    0.00000E+00         0.00000E+00         0.00000E+00
 
    0.44373E+06         0.21818E+05         0.00000E+00
    0.21818E+05        -0.86567E+06         0.00000E+00
    0.00000E+00         0.00000E+00         0.00000E+00
 
    0.43866E+06         0.36250E+05         0.00000E+00
    0.36250E+05        -0.86535E+06         0.00000E+00
    0.00000E+00         0.00000E+00         0.00000E+00
 
    0.43340E+06         0.50620E+05         0.00000E+00
    0.50620E+05        -0.86488E+06         0.00000E+00
    0.00000E+00         0.00000E+00         0.00000E+00
 
    0.42795E+06         0.64926E+05         0.00000E+00
    0.64926E+05        -0.86424E+06         0.00000E+00
    0.00000E+00         0.00000E+00         0.00000E+00
 
    0.42232E+06         0.79166E+05         0.00000E+00
    0.79166E+05        -0.86345E+06         0.00000E+00
    0.00000E+00         0.00000E+00         0.00000E+00
 
    0.41649E+06         0.93339E+05         0.00000E+00
    0.93339E+05        -0.86251E+06         0.00000E+00
    0.00000E+00         0.00000E+00         0.00000E+00
 
    0.41047E+06         0.10744E+06         0.00000E+00
    0.10744E+06        -0.86141E+06         0.00000E+00
    0.00000E+00         0.00000E+00         0.00000E+00
 
    0.40427E+06         0.12148E+06         0.00000E+00
    0.12148E+06        -0.86016E+06         0.00000E+00
    0.00000E+00         0.00000E+00         0.00000E+00
 
    0.39789E+06         0.13544E+06         0.00000E+00
    0.13544E+06        -0.85875E+06         0.00000E+00
    0.00000E+00         0.00000E+00         0.00000E+00
 
    0.39131E+06         0.14933E+06         0.00000E+00
    0.14933E+06        -0.85720E+06         0.00000E+00
    0.00000E+00         0.00000E+00         0.00000E+00
 
    0.38456E+06         0.16314E+06         0.00000E+00
    0.16314E+06        -0.85550E+06         0.00000E+00
    0.00000E+00         0.00000E+00         0.00000E+00
 
    0.37762E+06         0.17687E+06         0.00000E+00
    0.17687E+06        -0.85365E+06         0.00000E+00
    0.00000E+00         0.00000E+00         0.00000E+00
 
    0.37051E+06         0.19053E+06         0.00000E+00
    0.19053E+06        -0.85165E+06         0.00000E+00
    0.00000E+00         0.00000E+00         0.00000E+00
 
    0.36321E+06         0.20410E+06         0.00000E+00
    0.20410E+06        -0.84951E+06         0.00000E+00
    0.00000E+00         0.00000E+00         0.00000E+00
 
    0.35573E+06         0.21760E+06         0.00000E+00
    0.21760E+06        -0.84723E+06         0.00000E+00
    0.00000E+00         0.00000E+00         0.00000E+00
 
    0.34808E+06         0.23101E+06         0.00000E+00
    0.23101E+06        -0.84480E+06         0.00000E+00
    0.00000E+00         0.00000E+00         0.00000E+00
 
    0.34025E+06         0.24434E+06         0.00000E+00
    0.24434E+06        -0.84223E+06         0.00000E+00
    0.00000E+00         0.00000E+00         0.00000E+00
 
    0.33225E+06         0.25758E+06         0.00000E+00
    0.25758E+06        -0.83952E+06         0.00000E+00
    0.00000E+00         0.00000E+00         0.00000E+00
 
    0.32408E+06         0.27073E+06         0.00000E+00
    0.27073E+06        -0.83667E+06         0.00000E+00
    0.00000E+00         0.00000E+00         0.00000E+00
 
    0.31573E+06         0.28379E+06         0.00000E+00
    0.28379E+06        -0.83368E+06         0.00000E+00
    0.00000E+00         0.00000E+00         0.00000E+00
 
    0.30722E+06         0.29677E+06         0.00000E+00
    0.29677E+06        -0.83056E+06         0.00000E+00
    0.00000E+00         0.00000E+00         0.00000E+00
 
    0.29853E+06         0.30965E+06         0.00000E+00
    0.30965E+06        -0.82731E+06         0.00000E+00
    0.00000E+00         0.00000E+00         0.00000E+00
 
    0.28968E+06         0.32244E+06         0.00000E+00
    0.32244E+06        -0.82392E+06         0.00000E+00
    0.00000E+00         0.00000E+00         0.00000E+00
 
    0.28066E+06         0.33513E+06         0.00000E+00
    0.33513E+06        -0.82040E+06         0.00000E+00
    0.00000E+00         0.00000E+00         0.00000E+00
 
    0.27148E+06         0.34773E+06         0.00000E+00
    0.34773E+06        -0.81675E+06         0.00000E+00
    0.00000E+00         0.00000E+00         0.00000E+00
 
    0.26214E+06         0.36023E+06         0.00000E+00
    0.36023E+06        -0.81297E+06         0.00000E+00
    0.00000E+00         0.00000E+00         0.00000E+00
 
    0.25264E+06         0.37263E+06         0.00000E+00
    0.37263E+06        -0.80906E+06         0.00000E+00
    0.00000E+00         0.00000E+00         0.00000E+00
 
    0.24297E+06         0.38493E+06         0.00000E+00
    0.38493E+06        -0.80503E+06         0.00000E+00
    0.00000E+00         0.00000E+00         0.00000E+00
 
    0.23315E+06         0.39713E+06         0.00000E+00
    0.39713E+06        -0.80088E+06         0.00000E+00
    0.00000E+00         0.00000E+00         0.00000E+00
 
    0.22318E+06         0.40923E+06         0.00000E+00
    0.40923E+06        -0.79660E+06         0.00000E+00
    0.00000E+00         0.00000E+00         0.00000E+00
 
    0.21305E+06         0.42122E+06         0.00000E+00
    0.42122E+06        -0.79221E+06         0.00000E+00
    0.00000E+00         0.00000E+00         0.00000E+00
 
    0.20276E+06         0.43311E+06         0.00000E+00
    0.43311E+06        -0.78769E+06         0.00000E+00
    0.00000E+00         0.00000E+00         0.00000E+00
 
    0.19233E+06         0.44489E+06         0.00000E+00
    0.44489E+06        -0.78306E+06         0.00000E+00
    0.00000E+00         0.00000E+00         0.00000E+00
 
    0.18175E+06         0.45657E+06         0.00000E+00
    0.45657E+06        -0.77831E+06         0.00000E+00
    0.00000E+00         0.00000E+00         0.00000E+00
 
    0.17102E+06         0.46813E+06         0.00000E+00
    0.46813E+06        -0.77345E+06         0.00000E+00
    0.00000E+00         0.00000E+00         0.00000E+00
 
    0.16014E+06         0.47959E+06         0.00000E+00
    0.47959E+06        -0.76847E+06         0.00000E+00
    0.00000E+00         0.00000E+00         0.00000E+00
 
    0.14912E+06         0.49093E+06         0.00000E+00
    0.49093E+06        -0.76339E+06         0.00000E+00
    0.00000E+00         0.00000E+00         0.00000E+00
 
    0.13796E+06         0.50217E+06         0.00000E+00
    0.50217E+06        -0.75820E+06         0.00000E+00
    0.00000E+00         0.00000E+00         0.00000E+00
 
    0.12666E+06         0.51328E+06         0.00000E+00
    0.51328E+06        -0.75289E+06         0.00000E+00
    0.00000E+00         0.00000E+00         0.00000E+00
 
    0.11521E+06         0.52429E+06         0.00000E+00
    0.52429E+06        -0.74749E+06         0.00000E+00
    0.00000E+00         0.00000E+00         0.00000E+00
 
    0.10364E+06         0.53517E+06         0.00000E+00
    0.53517E+06        -0.74198E+06         0.00000E+00
    0.00000E+00         0.00000E+00         0.00000E+00
 
    0.91925E+05         0.54595E+06         0.00000E+00
    0.54595E+06        -0.73637E+06         0.00000E+00
    0.00000E+00         0.00000E+00         0.00000E+00
 
    0.80081E+05         0.55660E+06         0.00000E+00
    0.55660E+06        -0.73065E+06         0.00000E+00
    0.00000E+00         0.00000E+00         0.00000E+00
 
    0.68105E+05         0.56713E+06         0.00000E+00
    0.56713E+06        -0.72484E+06         0.00000E+00
    0.00000E+00         0.00000E+00         0.00000E+00
 
    0.56000E+05         0.57754E+06         0.00000E+00
    0.57754E+06        -0.71894E+06         0.00000E+00
    0.00000E+00         0.00000E+00         0.00000E+00
 
    0.43769E+05         0.58783E+06         0.00000E+00
    0.58783E+06        -0.71294E+06         0.00000E+00
    0.00000E+00         0.00000E+00         0.00000E+00
 
    0.31412E+05         0.59800E+06         0.00000E+00
    0.59800E+06        -0.70684E+06         0.00000E+00
    0.00000E+00         0.00000E+00         0.00000E+00
 
    0.18932E+05         0.60804E+06         0.00000E+00
    0.60804E+06        -0.70066E+06         0.00000E+00
    0.00000E+00         0.00000E+00         0.00000E+00
 
    0.63306E+04         0.61796E+06         0.00000E+00
    0.61796E+06        -0.69438E+06         0.00000E+00
    0.00000E+00         0.00000E+00         0.00000E+00
 
    0.47261E+06         0.77046E+04         0.00000E+00
    0.77046E+04        -0.91630E+06         0.00000E+00
    0.00000E+00         0.00000E+00         0.00000E+00
 
    0.46744E+06         0.22948E+05         0.00000E+00
    0.22948E+05        -0.91613E+06         0.00000E+00
    0.00000E+00         0.00000E+00         0.00000E+00
 
    0.46206E+06         0.38129E+05         0.00000E+00
    0.38129E+05        -0.91580E+06         0.00000E+00
    0.00000E+00         0.00000E+00         0.00000E+00
 
    0.45648E+06         0.53245E+05         0.00000E+00
    0.53245E+05        -0.91530E+06         0.00000E+00
    0.00000E+00         0.00000E+00         0.00000E+00
 
    0.45071E+06         0.68294E+05         0.00000E+00
    0.68294E+05        -0.91463E+06         0.00000E+00
    0.00000E+00         0.00000E+00         0.00000E+00
 
    0.44473E+06         0.83275E+05         0.00000E+00
    0.83275E+05        -0.91380E+06         0.00000E+00
    0.00000E+00         0.00000E+00         0.00000E+00
 
    0.43856E+06         0.98186E+05         0.00000E+00
    0.98186E+05        -0.91281E+06         0.00000E+00
    0.00000E+00         0.00000E+00         0.00000E+00
 
    0.43219E+06         0.11302E+06         0.00000E+00
    0.11302E+06        -0.91166E+06         0.00000E+00
    0.00000E+00         0.00000E+00         0.00000E+00
 
    0.42563E+06         0.12779E+06         0.00000E+00
    0.12779E+06        -0.91034E+06         0.00000E+00
    0.00000E+00         0.00000E+00         0.00000E+00
 
    0.41887E+06         0.14248E+06         0.00000E+00
    0.14248E+06        -0.90887E+06         0.00000E+00
    0.00000E+00         0.00000E+00         0.00000E+00
 
    0.41192E+06         0.15709E+06         0.00000E+00
    0.15709E+06        -0.90724E+06         0.00000E+00
    0.00000E+00         0.00000E+00         0.00000E+00
 
    0.40478E+06         0.17162E+06         0.00000E+00
    0.17162E+06        -0.90546E+06         0.00000E+00
    0.00000E+00         0.00000E+00         0.00000E+00
 
    0.39745E+06         0.18608E+06         0.00000E+00
    0.18608E+06        -0.90352E+06         0.00000E+00
    0.00000E+00         0.00000E+00         0.00000E+00
 
    0.38993E+06         0.20045E+06         0.00000E+00
    0.20045E+06        -0.90143E+06         0.00000E+00
    0.00000E+00         0.00000E+00         0.00000E+00
 
    0.38223E+06         0.21473E+06         0.00000E+00
    0.21473E+06        -0.89918E+06         0.00000E+00
    0.00000E+00         0.00000E+00         0.00000E+00
 
    0.37434E+06         0.22893E+06         0.00000E+00
    0.22893E+06        -0.89678E+06         0.00000E+00
    0.00000E+00         0.00000E+00         0.00000E+00
 
    0.36626E+06         0.24305E+06         0.00000E+00
    0.24305E+06        -0.89424E+06         0.00000E+00
    0.00000E+00         0.00000E+00         0.00000E+00
 
    0.35800E+06         0.25707E+06         0.00000E+00
    0.25707E+06        -0.89154E+06         0.00000E+00
    0.00000E+00         0.00000E+00         0.00000E+00
 
    0.34956E+06         0.27100E+06         0.00000E+00
    0.27100E+06        -0.88870E+06         0.00000E+00
    0.00000E+00         0.00000E+00         0.00000E+00
 
    0.34094E+06         0.28485E+06         0.00000E+00
    0.28485E+06        -0.88572E+06         0.00000E+00
    0.00000E+00         0.00000E+00         0.00000E+00
 
    0.33214E+06         0.29859E+06         0.00000E+00
    0.29859E+06        -0.88258E+06         0.00000E+00
    0.00000E+00         0.00000E+00         0.00000E+00
 
    0.32317E+06         0.31225E+06         0.00000E+00
    0.31225E+06        -0.87931E+06         0.00000E+00
    0.00000E+00         0.00000E+00         0.00000E+00
 
    0.31402E+06         0.32580E+06         0.00000E+00
    0.32580E+06        -0.87590E+06         0.00000E+00
    0.00000E+00         0.00000E+00         0.00000E+00
 
    0.30469E+06         0.33926E+06         0.00000E+00
    0.33926E+06        -0.87234E+06         0.00000E+00
    0.00000E+00         0.00000E+00         0.00000E+00
 
    0.29519E+06         0.35262E+06         0.00000E+00
    0.35262E+06        -0.86865E+06         0.00000E+00
    0.00000E+00         0.00000E+00         0.00000E+00
 
    0.28552E+06         0.36588E+06         0.00000E+00
    0.36588E+06        -0.86483E+06         0.00000E+00
    0.00000E+00         0.00000E+00         0.00000E+00
 
    0.27568E+06         0.37904E+06         0.00000E+00
    0.37904E+06        -0.86086E+06         0.00000E+00
    0.00000E+00         0.00000E+00         0.00000E+00
 
    0.26568E+06         0.39209E+06         0.00000E+00
    0.39209E+06        -0.85677E+06         0.00000E+00
    0.00000E+00         0.00000E+00         0.00000E+00
 
    0.25550E+06         0.40504E+06         0.00000E+00
    0.40504E+06        -0.85254E+06         0.00000E+00
    0.00000E+00         0.00000E+00         0.00000E+00
 
    0.24517E+06         0.41788E+06         0.00000E+00
    0.41788E+06        -0.84819E+06         0.00000E+00
    0.00000E+00         0.00000E+00         0.00000E+00
 
    0.23467E+06         0.43061E+06         0.00000E+00
    0.43061E+06        -0.84370E+06         0.00000E+00
    0.00000E+00         0.00000E+00         0.00000E+00
 
    0.22401E+06         0.44324E+06         0.00000E+00
    0.44324E+06        -0.83909E+06         0.00000E+00
    0.00000E+00         0.00000E+00         0.00000E+00
 
    0.21319E+06         0.45575E+06         0.00000E+00
    0.45575E+06        -0.83435E+06         0.00000E+00
    0.00000E+00         0.00000E+00         0.00000E+00
 
    0.20221E+06         0.46815E+06         0.00000E+00
    0.46815E+06        -0.82949E+06         0.00000E+00
    0.00000E+00         0.00000E+00         0.00000E+00
 
    0.19108E+06         0.48044E+06         0.00000E+00
    0.48044E+06        -0.82451E+06         0.00000E+00
    0.00000E+00         0.00000E+00         0.00000E+00
 
    0.17979E+06         0.49262E+06         0.00000E+00
    0.49262E+06        -0.81941E+06         0.00000E+00
    0.00000E+00         0.00000E+00         0.00000E+00
 
    0.16835E+06         0.50467E+06         0.00000E+00
    0.50467E+06        -0.81419E+06         0.00000E+00
    0.00000E+00         0.00000E+00         0.00000E+00
 
    0.15676E+06         0.51661E+06         0.00000E+00
    0.51661E+06        -0.80885E+06         0.00000E+00
    0.00000E+00         0.00000E+00         0.00000E+00
 
    0.14502E+06         0.52844E+06         0.00000E+00
    0.52844E+06        -0.80340E+06         0.00000E+00
    0.00000E+00         0.00000E+00         0.00000E+00
 
    0.13314E+06         0.54014E+06         0.00000E+00
    0.54014E+06        -0.79784E+06         0.00000E+00
    0.00000E+00         0.00000E+00         0.00000E+00
 
    0.12111E+06         0.55172E+06         0.00000E+00
    0.55172E+06        -0.79216E+06         0.00000E+00
    0.00000E+00         0.00000E+00         0.00000E+00
 
    0.10894E+06         0.56318E+06         0.00000E+00
    0.56318E+06        -0.78638E+06         0.00000E+00
    0.00000E+00         0.00000E+00         0.00000E+00
 
    0.96626E+05         0.57452E+06         0.00000E+00
    0.57452E+06        -0.78048E+06         0.00000E+00
    0.00000E+00         0.00000E+00         0.00000E+00
 
    0.84175E+05         0.58573E+06         0.00000E+00
    0.58573E+06        -0.77449E+06         0.00000E+00
    0.00000E+00         0.00000E+00         0.00000E+00
 
    0.71586E+05         0.59682E+06         0.00000E+00
    0.59682E+06        -0.76838E+06         0.00000E+00
    0.00000E+00         0.00000E+00         0.00000E+00
 
    0.58862E+05         0.60777E+06         0.00000E+00
    0.60777E+06        -0.76218E+06         0.00000E+00
    0.00000E+00         0.00000E+00         0.00000E+00
 
    0.46004E+05         0.61861E+06         0.00000E+00
    0.61861E+06        -0.75588E+06         0.00000E+00
    0.00000E+00         0.00000E+00         0.00000E+00
 
    0.33016E+05         0.62931E+06         0.00000E+00
    0.62931E+06        -0.74947E+06         0.00000E+00
    0.00000E+00         0.00000E+00         0.00000E+00
 
    0.19898E+05         0.63988E+06         0.00000E+00
    0.63988E+06        -0.74298E+06         0.00000E+00
    0.00000E+00         0.00000E+00         0.00000E+00
 
    0.66539E+04         0.65032E+06         0.00000E+00
    0.65032E+06        -0.73638E+06         0.00000E+00
    0.00000E+00         0.00000E+00         0.00000E+00
 
    0.49783E+06         0.81026E+04         0.00000E+00
    0.81026E+04        -0.96941E+06         0.00000E+00
    0.00000E+00         0.00000E+00         0.00000E+00
 
    0.49234E+06         0.24135E+05         0.00000E+00
    0.24135E+05        -0.96924E+06         0.00000E+00
    0.00000E+00         0.00000E+00         0.00000E+00
 
    0.48664E+06         0.40102E+05         0.00000E+00
    0.40102E+05        -0.96889E+06         0.00000E+00
    0.00000E+00         0.00000E+00         0.00000E+00
 
    0.48073E+06         0.56001E+05         0.00000E+00
    0.56001E+05        -0.96836E+06         0.00000E+00
    0.00000E+00         0.00000E+00         0.00000E+00
 
    0.47461E+06         0.71830E+05         0.00000E+00
    0.71830E+05        -0.96766E+06         0.00000E+00
    0.00000E+00         0.00000E+00         0.00000E+00
 
    0.46828E+06         0.87588E+05         0.00000E+00
    0.87588E+05        -0.96679E+06         0.00000E+00
    0.00000E+00         0.00000E+00         0.00000E+00
 
    0.46175E+06         0.10327E+06         0.00000E+00
    0.10327E+06        -0.96575E+06         0.00000E+00
    0.00000E+00         0.00000E+00         0.00000E+00
 
    0.45501E+06         0.11888E+06         0.00000E+00
    0.11888E+06        -0.96454E+06         0.00000E+00
    0.00000E+00         0.00000E+00         0.00000E+00
 
    0.44807E+06         0.13441E+06         0.00000E+00
    0.13441E+06        -0.96317E+06         0.00000E+00
    0.00000E+00         0.00000E+00         0.00000E+00
 
    0.44093E+06         0.14987E+06         0.00000E+00
    0.14987E+06        -0.96162E+06         0.00000E+00
    0.00000E+00         0.00000E+00         0.00000E+00
 
    0.43359E+06         0.16524E+06         0.00000E+00
    0.16524E+06        -0.95991E+06         0.00000E+00
    0.00000E+00         0.00000E+00         0.00000E+00
 
    0.42604E+06         0.18053E+06         0.00000E+00
    0.18053E+06        -0.95804E+06         0.00000E+00
    0.00000E+00         0.00000E+00         0.00000E+00
 
    0.41830E+06         0.19573E+06         0.00000E+00
    0.19573E+06        -0.95601E+06         0.00000E+00
    0.00000E+00         0.00000E+00         0.00000E+00
 
    0.41036E+06         0.21085E+06         0.00000E+00
    0.21085E+06        -0.95381E+06         0.00000E+00
    0.00000E+00         0.00000E+00         0.00000E+00
 
    0.40223E+06         0.22588E+06         0.00000E+00
    0.22588E+06        -0.95146E+06         0.00000E+00
    0.00000E+00         0.00000E+00         0.00000E+00
 
    0.39390E+06         0.24082E+06         0.00000E+00
    0.24082E+06        -0.94894E+06         0.00000E+00
    0.00000E+00         0.00000E+00         0.00000E+00
 
    0.38538E+06         0.25567E+06         0.00000E+00
    0.25567E+06        -0.94627E+06         0.00000E+00
    0.00000E+00         0.00000E+00         0.00000E+00
 
    0.37667E+06         0.27043E+06         0.00000E+00
    0.27043E+06        -0.94344E+06         0.00000E+00
    0.00000E+00         0.00000E+00         0.00000E+00
 
    0.36777E+06         0.28509E+06         0.00000E+00
    0.28509E+06        -0.94046E+06         0.00000E+00
    0.00000E+00         0.00000E+00         0.00000E+00
 
    0.35868E+06         0.29966E+06         0.00000E+00
    0.29966E+06        -0.93733E+06         0.00000E+00
    0.00000E+00         0.00000E+00         0.00000E+00
 
    0.34940E+06         0.31412E+06         0.00000E+00
    0.31412E+06        -0.93405E+06         0.00000E+00
    0.00000E+00         0.00000E+00         0.00000E+00
 
    0.33995E+06         0.32849E+06         0.00000E+00
    0.32849E+06        -0.93062E+06         0.00000E+00
    0.00000E+00         0.00000E+00         0.00000E+00
 
    0.33030E+06         0.34276E+06         0.00000E+00
    0.34276E+06        -0.92704E+06         0.00000E+00
    0.00000E+00         0.00000E+00         0.00000E+00
 
    0.32048E+06         0.35692E+06         0.00000E+00
    0.35692E+06        -0.92331E+06         0.00000E+00
    0.00000E+00         0.00000E+00         0.00000E+00
 
    0.31047E+06         0.37098E+06         0.00000E+00
    0.37098E+06        -0.91944E+06         0.00000E+00
    0.00000E+00         0.00000E+00         0.00000E+00
 
    0.30029E+06         0.38493E+06         0.00000E+00
    0.38493E+06        -0.91542E+06         0.00000E+00
    0.00000E+00         0.00000E+00         0.00000E+00
 
    0.28993E+06         0.39878E+06         0.00000E+00
    0.39878E+06        -0.91127E+06         0.00000E+00
    0.00000E+00         0.00000E+00         0.00000E+00
 
    0.27939E+06         0.41252E+06         0.00000E+00
    0.41252E+06        -0.90697E+06         0.00000E+00
    0.00000E+00         0.00000E+00         0.00000E+00
 
    0.26869E+06         0.42614E+06         0.00000E+00
    0.42614E+06        -0.90254E+06         0.00000E+00
    0.00000E+00         0.00000E+00         0.00000E+00
 
    0.25781E+06         0.43966E+06         0.00000E+00
    0.43966E+06        -0.89797E+06         0.00000E+00
    0.00000E+00         0.00000E+00         0.00000E+00
 
    0.24676E+06         0.45306E+06         0.00000E+00
    0.45306E+06        -0.89326E+06         0.00000E+00
    0.00000E+00         0.00000E+00         0.00000E+00
 
    0.23554E+06         0.46635E+06         0.00000E+00
    0.46635E+06        -0.88842E+06         0.00000E+00
    0.00000E+00         0.00000E+00         0.00000E+00
 
    0.22416E+06         0.47952E+06         0.00000E+00
    0.47952E+06        -0.88345E+06         0.00000E+00
    0.00000E+00         0.00000E+00         0.00000E+00
 
    0.21261E+06         0.49257E+06         0.00000E+00
    0.49257E+06        -0.87835E+06         0.00000E+00
    0.00000E+00         0.00000E+00         0.00000E+00
 
    0.20090E+06         0.50550E+06         0.00000E+00
    0.50550E+06        -0.87312E+06         0.00000E+00
    0.00000E+00         0.00000E+00         0.00000E+00
 
    0.18902E+06         0.51832E+06         0.00000E+00
    0.51832E+06        -0.86777E+06         0.00000E+00
    0.00000E+00         0.00000E+00         0.00000E+00
 
    0.17699E+06         0.53101E+06         0.00000E+00
    0.53101E+06        -0.86229E+06         0.00000E+00
    0.00000E+00         0.00000E+00         0.00000E+00
 
    0.16480E+06         0.54358E+06         0.00000E+00
    0.54358E+06        -0.85669E+06         0.00000E+00
    0.00000E+00         0.00000E+00         0.00000E+00
 
    0.15246E+06         0.55602E+06         0.00000E+00
    0.55602E+06        -0.85097E+06         0.00000E+00
    0.00000E+00         0.00000E+00         0.00000E+00
 
    0.13996E+06         0.56834E+06         0.00000E+00
    0.56834E+06        -0.84513E+06         0.00000E+00
    0.00000E+00         0.00000E+00         0.00000E+00
 
    0.12732E+06         0.58053E+06         0.00000E+00
    0.58053E+06        -0.83917E+06         0.00000E+00
    0.00000E+00         0.00000E+00         0.00000E+00
 
    0.11452E+06         0.59259E+06         0.00000E+00
    0.59259E+06        -0.83310E+06         0.00000E+00
    0.00000E+00         0.00000E+00         0.00000E+00
 
    0.10157E+06         0.60453E+06         0.00000E+00
    0.60453E+06        -0.82691E+06         0.00000E+00
    0.00000E+00         0.00000E+00         0.00000E+00
 
    0.88483E+05         0.61633E+06         0.00000E+00
    0.61633E+06        -0.82061E+06         0.00000E+00
    0.00000E+00         0.00000E+00         0.00000E+00
 
    0.75249E+05         0.62800E+06         0.00000E+00
    0.62800E+06        -0.81420E+06         0.00000E+00
    0.00000E+00         0.00000E+00         0.00000E+00
 
    0.61873E+05         0.63954E+06         0.00000E+00
    0.63954E+06        -0.80768E+06         0.00000E+00
    0.00000E+00         0.00000E+00         0.00000E+00
 
    0.48358E+05         0.65094E+06         0.00000E+00
    0.65094E+06        -0.80106E+06         0.00000E+00
    0.00000E+00         0.00000E+00         0.00000E+00
 
    0.34705E+05         0.66221E+06         0.00000E+00
    0.66221E+06        -0.79433E+06         0.00000E+00
    0.00000E+00         0.00000E+00         0.00000E+00
 
    0.20916E+05         0.67333E+06         0.00000E+00
    0.67333E+06        -0.78750E+06         0.00000E+00
    0.00000E+00         0.00000E+00         0.00000E+00
 
    0.69941E+04         0.68432E+06         0.00000E+00
    0.68432E+06        -0.78057E+06         0.00000E+00
    0.00000E+00         0.00000E+00         0.00000E+00
 
    0.52430E+06         0.85206E+04         0.00000E+00
    0.85206E+04        -0.10253E+07         0.00000E+00
    0.00000E+00         0.00000E+00         0.00000E+00
 
    0.51848E+06         0.25381E+05         0.00000E+00
    0.25381E+05        -0.10251E+07         0.00000E+00
    0.00000E+00         0.00000E+00         0.00000E+00
 
    0.51244E+06         0.42173E+05         0.00000E+00
    0.42173E+05        -0.10248E+07         0.00000E+00
    0.00000E+00         0.00000E+00         0.00000E+00
 
    0.50618E+06         0.58894E+05         0.00000E+00
    0.58894E+05        -0.10242E+07         0.00000E+00
    0.00000E+00         0.00000E+00         0.00000E+00
 
    0.49970E+06         0.75543E+05         0.00000E+00
    0.75543E+05        -0.10235E+07         0.00000E+00
    0.00000E+00         0.00000E+00         0.00000E+00
 
    0.49301E+06         0.92116E+05         0.00000E+00
    0.92116E+05        -0.10226E+07         0.00000E+00
    0.00000E+00         0.00000E+00         0.00000E+00
 
    0.48610E+06         0.10861E+06         0.00000E+00
    0.10861E+06        -0.10215E+07         0.00000E+00
    0.00000E+00         0.00000E+00         0.00000E+00
 
    0.47897E+06         0.12503E+06         0.00000E+00
    0.12503E+06        -0.10202E+07         0.00000E+00
    0.00000E+00         0.00000E+00         0.00000E+00
 
    0.47164E+06         0.14137E+06         0.00000E+00
    0.14137E+06        -0.10188E+07         0.00000E+00
    0.00000E+00         0.00000E+00         0.00000E+00
 
    0.46409E+06         0.15762E+06         0.00000E+00
    0.15762E+06        -0.10172E+07         0.00000E+00
    0.00000E+00         0.00000E+00         0.00000E+00
 
    0.45633E+06         0.17379E+06         0.00000E+00
    0.17379E+06        -0.10154E+07         0.00000E+00
    0.00000E+00         0.00000E+00         0.00000E+00
 
    0.44837E+06         0.18988E+06         0.00000E+00
    0.18988E+06        -0.10134E+07         0.00000E+00
    0.00000E+00         0.00000E+00         0.00000E+00
 
    0.44019E+06         0.20587E+06         0.00000E+00
    0.20587E+06        -0.10113E+07         0.00000E+00
    0.00000E+00         0.00000E+00         0.00000E+00
 
    0.43181E+06         0.22177E+06         0.00000E+00
    0.22177E+06        -0.10090E+07         0.00000E+00
    0.00000E+00         0.00000E+00         0.00000E+00
 
    0.42323E+06         0.23759E+06         0.00000E+00
    0.23759E+06        -0.10065E+07         0.00000E+00
    0.00000E+00         0.00000E+00         0.00000E+00
 
    0.41445E+06         0.25330E+06         0.00000E+00
    0.25330E+06        -0.10039E+07         0.00000E+00
    0.00000E+00         0.00000E+00         0.00000E+00
 
    0.40546E+06         0.26893E+06         0.00000E+00
    0.26893E+06        -0.10010E+07         0.00000E+00
    0.00000E+00         0.00000E+00         0.00000E+00
 
    0.39627E+06         0.28445E+06         0.00000E+00
    0.28445E+06        -0.99809E+06         0.00000E+00
    0.00000E+00         0.00000E+00         0.00000E+00
 
    0.38689E+06         0.29988E+06         0.00000E+00
    0.29988E+06        -0.99496E+06         0.00000E+00
    0.00000E+00         0.00000E+00         0.00000E+00
 
    0.37731E+06         0.31520E+06         0.00000E+00
    0.31520E+06        -0.99167E+06         0.00000E+00
    0.00000E+00         0.00000E+00         0.00000E+00
 
    0.36754E+06         0.33042E+06         0.00000E+00
    0.33042E+06        -0.98823E+06         0.00000E+00
    0.00000E+00         0.00000E+00         0.00000E+00
 
    0.35757E+06         0.34554E+06         0.00000E+00
    0.34554E+06        -0.98463E+06         0.00000E+00
    0.00000E+00         0.00000E+00         0.00000E+00
 
    0.34741E+06         0.36055E+06         0.00000E+00
    0.36055E+06        -0.98087E+06         0.00000E+00
    0.00000E+00         0.00000E+00         0.00000E+00
 
    0.33706E+06         0.37545E+06         0.00000E+00
    0.37545E+06        -0.97696E+06         0.00000E+00
    0.00000E+00         0.00000E+00         0.00000E+00
 
    0.32653E+06         0.39025E+06         0.00000E+00
    0.39025E+06        -0.97290E+06         0.00000E+00
    0.00000E+00         0.00000E+00         0.00000E+00
 
    0.31580E+06         0.40493E+06         0.00000E+00
    0.40493E+06        -0.96869E+06         0.00000E+00
    0.00000E+00         0.00000E+00         0.00000E+00
 
    0.30490E+06         0.41950E+06         0.00000E+00
    0.41950E+06        -0.96433E+06         0.00000E+00
    0.00000E+00         0.00000E+00         0.00000E+00
 
    0.29381E+06         0.43395E+06         0.00000E+00
    0.43395E+06        -0.95983E+06         0.00000E+00
    0.00000E+00         0.00000E+00         0.00000E+00
 
    0.28254E+06         0.44829E+06         0.00000E+00
    0.44829E+06        -0.95517E+06         0.00000E+00
    0.00000E+00         0.00000E+00         0.00000E+00
 
    0.27109E+06         0.46252E+06         0.00000E+00
    0.46252E+06        -0.95038E+06         0.00000E+00
    0.00000E+00         0.00000E+00         0.00000E+00
 
    0.25946E+06         0.47662E+06         0.00000E+00
    0.47662E+06        -0.94544E+06         0.00000E+00
    0.00000E+00         0.00000E+00         0.00000E+00
 
    0.24766E+06         0.49060E+06         0.00000E+00
    0.49060E+06        -0.94036E+06         0.00000E+00
    0.00000E+00         0.00000E+00         0.00000E+00
 
    0.23568E+06         0.50446E+06         0.00000E+00
    0.50446E+06        -0.93515E+06         0.00000E+00
    0.00000E+00         0.00000E+00         0.00000E+00
 
    0.22353E+06         0.51820E+06         0.00000E+00
    0.51820E+06        -0.92980E+06         0.00000E+00
    0.00000E+00         0.00000E+00         0.00000E+00
 
    0.21121E+06         0.53181E+06         0.00000E+00
    0.53181E+06        -0.92431E+06         0.00000E+00
    0.00000E+00         0.00000E+00         0.00000E+00
 
    0.19873E+06         0.54530E+06         0.00000E+00
    0.54530E+06        -0.91869E+06         0.00000E+00
    0.00000E+00         0.00000E+00         0.00000E+00
 
    0.18607E+06         0.55866E+06         0.00000E+00
    0.55866E+06        -0.91294E+06         0.00000E+00
    0.00000E+00         0.00000E+00         0.00000E+00
 
    0.17326E+06         0.57189E+06         0.00000E+00
    0.57189E+06        -0.90706E+06         0.00000E+00
    0.00000E+00         0.00000E+00         0.00000E+00
 
    0.16028E+06         0.58499E+06         0.00000E+00
    0.58499E+06        -0.90105E+06         0.00000E+00
    0.00000E+00         0.00000E+00         0.00000E+00
 
    0.14714E+06         0.59796E+06         0.00000E+00
    0.59796E+06        -0.89492E+06         0.00000E+00
    0.00000E+00         0.00000E+00         0.00000E+00
 
    0.13384E+06         0.61079E+06         0.00000E+00
    0.61079E+06        -0.88867E+06         0.00000E+00
    0.00000E+00         0.00000E+00         0.00000E+00
 
    0.12038E+06         0.62349E+06         0.00000E+00
    0.62349E+06        -0.88229E+06         0.00000E+00
    0.00000E+00         0.00000E+00         0.00000E+00
 
    0.10677E+06         0.63605E+06         0.00000E+00
    0.63605E+06        -0.87579E+06         0.00000E+00
    0.00000E+00         0.00000E+00         0.00000E+00
 
    0.93011E+05         0.64848E+06         0.00000E+00
    0.64848E+06        -0.86917E+06         0.00000E+00
    0.00000E+00         0.00000E+00         0.00000E+00
 
    0.79098E+05         0.66076E+06         0.00000E+00
    0.66076E+06        -0.86244E+06         0.00000E+00
    0.00000E+00         0.00000E+00         0.00000E+00
 
    0.65038E+05         0.67291E+06         0.00000E+00
    0.67291E+06        -0.85560E+06         0.00000E+00
    0.00000E+00         0.00000E+00         0.00000E+00
 
    0.50830E+05         0.68491E+06         0.00000E+00
    0.68491E+06        -0.84864E+06         0.00000E+00
    0.00000E+00         0.00000E+00         0.00000E+00
 
    0.36479E+05         0.69678E+06         0.00000E+00
    0.69678E+06        -0.84157E+06         0.00000E+00
    0.00000E+00         0.00000E+00         0.00000E+00
 
    0.21985E+05         0.70850E+06         0.00000E+00
    0.70850E+06        -0.83439E+06         0.00000E+00
    0.00000E+00         0.00000E+00         0.00000E+00
 
    0.73516E+04         0.72007E+06         0.00000E+00
    0.72007E+06        -0.82711E+06         0.00000E+00
    0.00000E+00         0.00000E+00         0.00000E+00
 
    0.55206E+06         0.89599E+04         0.00000E+00
    0.89599E+04        -0.10842E+07         0.00000E+00
    0.00000E+00         0.00000E+00         0.00000E+00
 
    0.54590E+06         0.26690E+05         0.00000E+00
    0.26690E+05        -0.10840E+07         0.00000E+00
    0.00000E+00         0.00000E+00         0.00000E+00
 
    0.53950E+06         0.44349E+05         0.00000E+00
    0.44349E+05        -0.10836E+07         0.00000E+00
    0.00000E+00         0.00000E+00         0.00000E+00
 
    0.53288E+06         0.61933E+05         0.00000E+00
    0.61933E+05        -0.10830E+07         0.00000E+00
    0.00000E+00         0.00000E+00         0.00000E+00
 
    0.52602E+06         0.79441E+05         0.00000E+00
    0.79441E+05        -0.10823E+07         0.00000E+00
    0.00000E+00         0.00000E+00         0.00000E+00
 
    0.51894E+06         0.96871E+05         0.00000E+00
    0.96871E+05        -0.10813E+07         0.00000E+00
    0.00000E+00         0.00000E+00         0.00000E+00
 
    0.51164E+06         0.11422E+06         0.00000E+00
    0.11422E+06        -0.10802E+07         0.00000E+00
    0.00000E+00         0.00000E+00         0.00000E+00
 
    0.50411E+06         0.13149E+06         0.00000E+00
    0.13149E+06        -0.10788E+07         0.00000E+00
    0.00000E+00         0.00000E+00         0.00000E+00
 
    0.49636E+06         0.14867E+06         0.00000E+00
    0.14867E+06        -0.10773E+07         0.00000E+00
    0.00000E+00         0.00000E+00         0.00000E+00
 
    0.48838E+06         0.16576E+06         0.00000E+00
    0.16576E+06        -0.10756E+07         0.00000E+00
    0.00000E+00         0.00000E+00         0.00000E+00
 
    0.48019E+06         0.18277E+06         0.00000E+00
    0.18277E+06        -0.10737E+07         0.00000E+00
    0.00000E+00         0.00000E+00         0.00000E+00
 
    0.47178E+06         0.19969E+06         0.00000E+00
    0.19969E+06        -0.10717E+07         0.00000E+00
    0.00000E+00         0.00000E+00         0.00000E+00
 
    0.46316E+06         0.21651E+06         0.00000E+00
    0.21651E+06        -0.10694E+07         0.00000E+00
    0.00000E+00         0.00000E+00         0.00000E+00
 
    0.45432E+06         0.23324E+06         0.00000E+00
    0.23324E+06        -0.10670E+07         0.00000E+00
    0.00000E+00         0.00000E+00         0.00000E+00
 
    0.44526E+06         0.24987E+06         0.00000E+00
    0.24987E+06        -0.10644E+07         0.00000E+00
    0.00000E+00         0.00000E+00         0.00000E+00
 
    0.43600E+06         0.26640E+06         0.00000E+00
    0.26640E+06        -0.10617E+07         0.00000E+00
    0.00000E+00         0.00000E+00         0.00000E+00
 
    0.42652E+06         0.28284E+06         0.00000E+00
    0.28284E+06        -0.10587E+07         0.00000E+00
    0.00000E+00         0.00000E+00         0.00000E+00
 
    0.41684E+06         0.29917E+06         0.00000E+00
    0.29917E+06        -0.10556E+07         0.00000E+00
    0.00000E+00         0.00000E+00         0.00000E+00
 
    0.40695E+06         0.31539E+06         0.00000E+00
    0.31539E+06        -0.10523E+07         0.00000E+00
    0.00000E+00         0.00000E+00         0.00000E+00
 
    0.39686E+06         0.33151E+06         0.00000E+00
    0.33151E+06        -0.10489E+07         0.00000E+00
    0.00000E+00         0.00000E+00         0.00000E+00
 
    0.38656E+06         0.34753E+06         0.00000E+00
    0.34753E+06        -0.10453E+07         0.00000E+00
    0.00000E+00         0.00000E+00         0.00000E+00
 
    0.37606E+06         0.36343E+06         0.00000E+00
    0.36343E+06        -0.10415E+07         0.00000E+00
    0.00000E+00         0.00000E+00         0.00000E+00
 
    0.36536E+06         0.37922E+06         0.00000E+00
    0.37922E+06        -0.10376E+07         0.00000E+00
    0.00000E+00         0.00000E+00         0.00000E+00
 
    0.35446E+06         0.39490E+06         0.00000E+00
    0.39490E+06        -0.10335E+07         0.00000E+00
    0.00000E+00         0.00000E+00         0.00000E+00
 
    0.34337E+06         0.41047E+06         0.00000E+00
    0.41047E+06        -0.10292E+07         0.00000E+00
    0.00000E+00         0.00000E+00         0.00000E+00
 
    0.33208E+06         0.42591E+06         0.00000E+00
    0.42591E+06        -0.10248E+07         0.00000E+00
    0.00000E+00         0.00000E+00         0.00000E+00
 
    0.32060E+06         0.44124E+06         0.00000E+00
    0.44124E+06        -0.10202E+07         0.00000E+00
    0.00000E+00         0.00000E+00         0.00000E+00
 
    0.30893E+06         0.45645E+06         0.00000E+00
    0.45645E+06        -0.10155E+07         0.00000E+00
    0.00000E+00         0.00000E+00         0.00000E+00
 
    0.29707E+06         0.47154E+06         0.00000E+00
    0.47154E+06        -0.10106E+07         0.00000E+00
    0.00000E+00         0.00000E+00         0.00000E+00
 
    0.28502E+06         0.48651E+06         0.00000E+00
    0.48651E+06        -0.10056E+07         0.00000E+00
    0.00000E+00         0.00000E+00         0.00000E+00
 
    0.27279E+06         0.50135E+06         0.00000E+00
    0.50135E+06        -0.10004E+07         0.00000E+00
    0.00000E+00         0.00000E+00         0.00000E+00
 
    0.26037E+06         0.51607E+06         0.00000E+00
    0.51607E+06        -0.99507E+06         0.00000E+00
    0.00000E+00         0.00000E+00         0.00000E+00
 
    0.24777E+06         0.53065E+06         0.00000E+00
    0.53065E+06        -0.98960E+06         0.00000E+00
    0.00000E+00         0.00000E+00         0.00000E+00
 
    0.23499E+06         0.54511E+06         0.00000E+00
    0.54511E+06        -0.98398E+06         0.00000E+00
    0.00000E+00         0.00000E+00         0.00000E+00
 
    0.22204E+06         0.55944E+06         0.00000E+00
    0.55944E+06        -0.97823E+06         0.00000E+00
    0.00000E+00         0.00000E+00         0.00000E+00
 
    0.20891E+06         0.57363E+06         0.00000E+00
    0.57363E+06        -0.97233E+06         0.00000E+00
    0.00000E+00         0.00000E+00         0.00000E+00
 
    0.19560E+06         0.58769E+06         0.00000E+00
    0.58769E+06        -0.96629E+06         0.00000E+00
    0.00000E+00         0.00000E+00         0.00000E+00
 
    0.18212E+06         0.60162E+06         0.00000E+00
    0.60162E+06        -0.96012E+06         0.00000E+00
    0.00000E+00         0.00000E+00         0.00000E+00
 
    0.16848E+06         0.61541E+06         0.00000E+00
    0.61541E+06        -0.95382E+06         0.00000E+00
    0.00000E+00         0.00000E+00         0.00000E+00
 
    0.15466E+06         0.62906E+06         0.00000E+00
    0.62906E+06        -0.94738E+06         0.00000E+00
    0.00000E+00         0.00000E+00         0.00000E+00
 
    0.14068E+06         0.64257E+06         0.00000E+00
    0.64257E+06        -0.94081E+06         0.00000E+00
    0.00000E+00         0.00000E+00         0.00000E+00
 
    0.12654E+06         0.65594E+06         0.00000E+00
    0.65594E+06        -0.93411E+06         0.00000E+00
    0.00000E+00         0.00000E+00         0.00000E+00
 
    0.11223E+06         0.66916E+06         0.00000E+00
    0.66916E+06        -0.92729E+06         0.00000E+00
    0.00000E+00         0.00000E+00         0.00000E+00
 
    0.97762E+05         0.68225E+06         0.00000E+00
    0.68225E+06        -0.92034E+06         0.00000E+00
    0.00000E+00         0.00000E+00         0.00000E+00
 
    0.83138E+05         0.69518E+06         0.00000E+00
    0.69518E+06        -0.91327E+06         0.00000E+00
    0.00000E+00         0.00000E+00         0.00000E+00
 
    0.68359E+05         0.70797E+06         0.00000E+00
    0.70797E+06        -0.90608E+06         0.00000E+00
    0.00000E+00         0.00000E+00         0.00000E+00
 
    0.53426E+05         0.72061E+06         0.00000E+00
    0.72061E+06        -0.89877E+06         0.00000E+00
    0.00000E+00         0.00000E+00         0.00000E+00
 
    0.38341E+05         0.73311E+06         0.00000E+00
    0.73311E+06        -0.89135E+06         0.00000E+00
    0.00000E+00         0.00000E+00         0.00000E+00
 
    0.23108E+05         0.74545E+06         0.00000E+00
    0.74545E+06        -0.88380E+06         0.00000E+00
    0.00000E+00         0.00000E+00         0.00000E+00
 
    0.77268E+04         0.75764E+06         0.00000E+00
    0.75764E+06        -0.87615E+06         0.00000E+00
    0.00000E+00         0.00000E+00         0.00000E+00
 
    0.58116E+06         0.94213E+04         0.00000E+00
    0.94213E+04        -0.11462E+07         0.00000E+00
    0.00000E+00         0.00000E+00         0.00000E+00
 
    0.57463E+06         0.28065E+05         0.00000E+00
    0.28065E+05        -0.11460E+07         0.00000E+00
    0.00000E+00         0.00000E+00         0.00000E+00
 
    0.56787E+06         0.46633E+05         0.00000E+00
    0.46633E+05        -0.11456E+07         0.00000E+00
    0.00000E+00         0.00000E+00         0.00000E+00
 
    0.56086E+06         0.65124E+05         0.00000E+00
    0.65124E+05        -0.11450E+07         0.00000E+00
    0.00000E+00         0.00000E+00         0.00000E+00
 
    0.55361E+06         0.83535E+05         0.00000E+00
    0.83535E+05        -0.11442E+07         0.00000E+00
    0.00000E+00         0.00000E+00         0.00000E+00
 
    0.54613E+06         0.10186E+06         0.00000E+00
    0.10186E+06        -0.11432E+07         0.00000E+00
    0.00000E+00         0.00000E+00         0.00000E+00
 
    0.53841E+06         0.12011E+06         0.00000E+00
    0.12011E+06        -0.11420E+07         0.00000E+00
    0.00000E+00         0.00000E+00         0.00000E+00
 
    0.53045E+06         0.13826E+06         0.00000E+00
    0.13826E+06        -0.11406E+07         0.00000E+00
    0.00000E+00         0.00000E+00         0.00000E+00
 
    0.52227E+06         0.15633E+06         0.00000E+00
    0.15633E+06        -0.11390E+07         0.00000E+00
    0.00000E+00         0.00000E+00         0.00000E+00
 
    0.51385E+06         0.17431E+06         0.00000E+00
    0.17431E+06        -0.11372E+07         0.00000E+00
    0.00000E+00         0.00000E+00         0.00000E+00
 
    0.50520E+06         0.19220E+06         0.00000E+00
    0.19220E+06        -0.11352E+07         0.00000E+00
    0.00000E+00         0.00000E+00         0.00000E+00
 
    0.49633E+06         0.20998E+06         0.00000E+00
    0.20998E+06        -0.11331E+07         0.00000E+00
    0.00000E+00         0.00000E+00         0.00000E+00
 
    0.48723E+06         0.22768E+06         0.00000E+00
    0.22768E+06        -0.11307E+07         0.00000E+00
    0.00000E+00         0.00000E+00         0.00000E+00
 
    0.47791E+06         0.24527E+06         0.00000E+00
    0.24527E+06        -0.11282E+07         0.00000E+00
    0.00000E+00         0.00000E+00         0.00000E+00
 
    0.46836E+06         0.26276E+06         0.00000E+00
    0.26276E+06        -0.11255E+07         0.00000E+00
    0.00000E+00         0.00000E+00         0.00000E+00
 
    0.45859E+06         0.28015E+06         0.00000E+00
    0.28015E+06        -0.11226E+07         0.00000E+00
    0.00000E+00         0.00000E+00         0.00000E+00
 
    0.44860E+06         0.29743E+06         0.00000E+00
    0.29743E+06        -0.11195E+07         0.00000E+00
    0.00000E+00         0.00000E+00         0.00000E+00
 
    0.43840E+06         0.31461E+06         0.00000E+00
    0.31461E+06        -0.11162E+07         0.00000E+00
    0.00000E+00         0.00000E+00         0.00000E+00
 
    0.42798E+06         0.33168E+06         0.00000E+00
    0.33168E+06        -0.11128E+07         0.00000E+00
    0.00000E+00         0.00000E+00         0.00000E+00
 
    0.41734E+06         0.34863E+06         0.00000E+00
    0.34863E+06        -0.11092E+07         0.00000E+00
    0.00000E+00         0.00000E+00         0.00000E+00
 
    0.40650E+06         0.36548E+06         0.00000E+00
    0.36548E+06        -0.11054E+07         0.00000E+00
    0.00000E+00         0.00000E+00         0.00000E+00
 
    0.39544E+06         0.38221E+06         0.00000E+00
    0.38221E+06        -0.11014E+07         0.00000E+00
    0.00000E+00         0.00000E+00         0.00000E+00
 
    0.38417E+06         0.39882E+06         0.00000E+00
    0.39882E+06        -0.10973E+07         0.00000E+00
    0.00000E+00         0.00000E+00         0.00000E+00
 
    0.37270E+06         0.41531E+06         0.00000E+00
    0.41531E+06        -0.10930E+07         0.00000E+00
    0.00000E+00         0.00000E+00         0.00000E+00
 
    0.36102E+06         0.43169E+06         0.00000E+00
    0.43169E+06        -0.10885E+07         0.00000E+00
    0.00000E+00         0.00000E+00         0.00000E+00
 
    0.34914E+06         0.44794E+06         0.00000E+00
    0.44794E+06        -0.10839E+07         0.00000E+00
    0.00000E+00         0.00000E+00         0.00000E+00
 
    0.33706E+06         0.46407E+06         0.00000E+00
    0.46407E+06        -0.10791E+07         0.00000E+00
    0.00000E+00         0.00000E+00         0.00000E+00
 
    0.32478E+06         0.48007E+06         0.00000E+00
    0.48007E+06        -0.10741E+07         0.00000E+00
    0.00000E+00         0.00000E+00         0.00000E+00
 
    0.31230E+06         0.49595E+06         0.00000E+00
    0.49595E+06        -0.10690E+07         0.00000E+00
    0.00000E+00         0.00000E+00         0.00000E+00
 
    0.29962E+06         0.51169E+06         0.00000E+00
    0.51169E+06        -0.10637E+07         0.00000E+00
    0.00000E+00         0.00000E+00         0.00000E+00
 
    0.28676E+06         0.52731E+06         0.00000E+00
    0.52731E+06        -0.10583E+07         0.00000E+00
    0.00000E+00         0.00000E+00         0.00000E+00
 
    0.27370E+06         0.54280E+06         0.00000E+00
    0.54280E+06        -0.10527E+07         0.00000E+00
    0.00000E+00         0.00000E+00         0.00000E+00
 
    0.26045E+06         0.55815E+06         0.00000E+00
    0.55815E+06        -0.10470E+07         0.00000E+00
    0.00000E+00         0.00000E+00         0.00000E+00
 
    0.24701E+06         0.57336E+06         0.00000E+00
    0.57336E+06        -0.10411E+07         0.00000E+00
    0.00000E+00         0.00000E+00         0.00000E+00
 
    0.23338E+06         0.58844E+06         0.00000E+00
    0.58844E+06        -0.10350E+07         0.00000E+00
    0.00000E+00         0.00000E+00         0.00000E+00
 
    0.21958E+06         0.60338E+06         0.00000E+00
    0.60338E+06        -0.10289E+07         0.00000E+00
    0.00000E+00         0.00000E+00         0.00000E+00
 
    0.20559E+06         0.61818E+06         0.00000E+00
    0.61818E+06        -0.10225E+07         0.00000E+00
    0.00000E+00         0.00000E+00         0.00000E+00
 
    0.19142E+06         0.63284E+06         0.00000E+00
    0.63284E+06        -0.10160E+07         0.00000E+00
    0.00000E+00         0.00000E+00         0.00000E+00
 
    0.17707E+06         0.64735E+06         0.00000E+00
    0.64735E+06        -0.10094E+07         0.00000E+00
    0.00000E+00         0.00000E+00         0.00000E+00
 
    0.16255E+06         0.66172E+06         0.00000E+00
    0.66172E+06        -0.10027E+07         0.00000E+00
    0.00000E+00         0.00000E+00         0.00000E+00
 
    0.14785E+06         0.67594E+06         0.00000E+00
    0.67594E+06        -0.99577E+06         0.00000E+00
    0.00000E+00         0.00000E+00         0.00000E+00
 
    0.13298E+06         0.69002E+06         0.00000E+00
    0.69002E+06        -0.98874E+06         0.00000E+00
    0.00000E+00         0.00000E+00         0.00000E+00
 
    0.11795E+06         0.70394E+06         0.00000E+00
    0.70394E+06        -0.98158E+06         0.00000E+00
    0.00000E+00         0.00000E+00         0.00000E+00
 
    0.10274E+06         0.71772E+06         0.00000E+00
    0.71772E+06        -0.97428E+06         0.00000E+00
    0.00000E+00         0.00000E+00         0.00000E+00
 
    0.87372E+05         0.73134E+06         0.00000E+00
    0.73134E+06        -0.96685E+06         0.00000E+00
    0.00000E+00         0.00000E+00         0.00000E+00
 
    0.71839E+05         0.74481E+06         0.00000E+00
    0.74481E+06        -0.95930E+06         0.00000E+00
    0.00000E+00         0.00000E+00         0.00000E+00
 
    0.56145E+05         0.75812E+06         0.00000E+00
    0.75812E+06        -0.95162E+06         0.00000E+00
    0.00000E+00         0.00000E+00         0.00000E+00
 
    0.40293E+05         0.77128E+06         0.00000E+00
    0.77128E+06        -0.94382E+06         0.00000E+00
    0.00000E+00         0.00000E+00         0.00000E+00
 
    0.24284E+05         0.78428E+06         0.00000E+00
    0.78428E+06        -0.93590E+06         0.00000E+00
    0.00000E+00         0.00000E+00         0.00000E+00
 
    0.81201E+04         0.79711E+06         0.00000E+00
    0.79711E+06        -0.92786E+06         0.00000E+00
    0.00000E+00         0.00000E+00         0.00000E+00
 
    0.61164E+06         0.99059E+04         0.00000E+00
    0.99059E+04        -0.12115E+07         0.00000E+00
    0.00000E+00         0.00000E+00         0.00000E+00
 
    0.60474E+06         0.29509E+05         0.00000E+00
    0.29509E+05        -0.12113E+07         0.00000E+00
    0.00000E+00         0.00000E+00         0.00000E+00
 
    0.59758E+06         0.49032E+05         0.00000E+00
    0.49032E+05        -0.12109E+07         0.00000E+00
    0.00000E+00         0.00000E+00         0.00000E+00
 
    0.59017E+06         0.68474E+05         0.00000E+00
    0.68474E+05        -0.12102E+07         0.00000E+00
    0.00000E+00         0.00000E+00         0.00000E+00
 
    0.58251E+06         0.87832E+05         0.00000E+00
    0.87832E+05        -0.12094E+07         0.00000E+00
    0.00000E+00         0.00000E+00         0.00000E+00
 
    0.57460E+06         0.10710E+06         0.00000E+00
    0.10710E+06        -0.12083E+07         0.00000E+00
    0.00000E+00         0.00000E+00         0.00000E+00
 
    0.56644E+06         0.12629E+06         0.00000E+00
    0.12629E+06        -0.12071E+07         0.00000E+00
    0.00000E+00         0.00000E+00         0.00000E+00
 
    0.55804E+06         0.14538E+06         0.00000E+00
    0.14538E+06        -0.12056E+07         0.00000E+00
    0.00000E+00         0.00000E+00         0.00000E+00
 
    0.54940E+06         0.16438E+06         0.00000E+00
    0.16438E+06        -0.12039E+07         0.00000E+00
    0.00000E+00         0.00000E+00         0.00000E+00
 
    0.54052E+06         0.18328E+06         0.00000E+00
    0.18328E+06        -0.12021E+07         0.00000E+00
    0.00000E+00         0.00000E+00         0.00000E+00
 
    0.53140E+06         0.20209E+06         0.00000E+00
    0.20209E+06        -0.12000E+07         0.00000E+00
    0.00000E+00         0.00000E+00         0.00000E+00
 
    0.52203E+06         0.22079E+06         0.00000E+00
    0.22079E+06        -0.11977E+07         0.00000E+00
    0.00000E+00         0.00000E+00         0.00000E+00
 
    0.51244E+06         0.23940E+06         0.00000E+00
    0.23940E+06        -0.11953E+07         0.00000E+00
    0.00000E+00         0.00000E+00         0.00000E+00
 
    0.50261E+06         0.25790E+06         0.00000E+00
    0.25790E+06        -0.11926E+07         0.00000E+00
    0.00000E+00         0.00000E+00         0.00000E+00
 
    0.49254E+06         0.27629E+06         0.00000E+00
    0.27629E+06        -0.11898E+07         0.00000E+00
    0.00000E+00         0.00000E+00         0.00000E+00
 
    0.48225E+06         0.29458E+06         0.00000E+00
    0.29458E+06        -0.11867E+07         0.00000E+00
    0.00000E+00         0.00000E+00         0.00000E+00
 
    0.47172E+06         0.31275E+06         0.00000E+00
    0.31275E+06        -0.11835E+07         0.00000E+00
    0.00000E+00         0.00000E+00         0.00000E+00
 
    0.46097E+06         0.33082E+06         0.00000E+00
    0.33082E+06        -0.11801E+07         0.00000E+00
    0.00000E+00         0.00000E+00         0.00000E+00
 
    0.45000E+06         0.34877E+06         0.00000E+00
    0.34877E+06        -0.11765E+07         0.00000E+00
    0.00000E+00         0.00000E+00         0.00000E+00
 
    0.43880E+06         0.36660E+06         0.00000E+00
    0.36660E+06        -0.11727E+07         0.00000E+00
    0.00000E+00         0.00000E+00         0.00000E+00
 
    0.42737E+06         0.38432E+06         0.00000E+00
    0.38432E+06        -0.11687E+07         0.00000E+00
    0.00000E+00         0.00000E+00         0.00000E+00
 
    0.41573E+06         0.40191E+06         0.00000E+00
    0.40191E+06        -0.11646E+07         0.00000E+00
    0.00000E+00         0.00000E+00         0.00000E+00
 
    0.40387E+06         0.41939E+06         0.00000E+00
    0.41939E+06        -0.11602E+07         0.00000E+00
    0.00000E+00         0.00000E+00         0.00000E+00
 
    0.39180E+06         0.43673E+06         0.00000E+00
    0.43673E+06        -0.11557E+07         0.00000E+00
    0.00000E+00         0.00000E+00         0.00000E+00
 
    0.37951E+06         0.45396E+06         0.00000E+00
    0.45396E+06        -0.11510E+07         0.00000E+00
    0.00000E+00         0.00000E+00         0.00000E+00
 
    0.36701E+06         0.47105E+06         0.00000E+00
    0.47105E+06        -0.11462E+07         0.00000E+00
    0.00000E+00         0.00000E+00         0.00000E+00
 
    0.35429E+06         0.48802E+06         0.00000E+00
    0.48802E+06        -0.11411E+07         0.00000E+00
    0.00000E+00         0.00000E+00         0.00000E+00
 
    0.34137E+06         0.50486E+06         0.00000E+00
    0.50486E+06        -0.11359E+07         0.00000E+00
    0.00000E+00         0.00000E+00         0.00000E+00
 
    0.32825E+06         0.52156E+06         0.00000E+00
    0.52156E+06        -0.11306E+07         0.00000E+00
    0.00000E+00         0.00000E+00         0.00000E+00
 
    0.31491E+06         0.53813E+06         0.00000E+00
    0.53813E+06        -0.11250E+07         0.00000E+00
    0.00000E+00         0.00000E+00         0.00000E+00
 
    0.30138E+06         0.55456E+06         0.00000E+00
    0.55456E+06        -0.11193E+07         0.00000E+00
    0.00000E+00         0.00000E+00         0.00000E+00
 
    0.28765E+06         0.57085E+06         0.00000E+00
    0.57085E+06        -0.11135E+07         0.00000E+00
    0.00000E+00         0.00000E+00         0.00000E+00
 
    0.27371E+06         0.58701E+06         0.00000E+00
    0.58701E+06        -0.11075E+07         0.00000E+00
    0.00000E+00         0.00000E+00         0.00000E+00
 
    0.25959E+06         0.60302E+06         0.00000E+00
    0.60302E+06        -0.11013E+07         0.00000E+00
    0.00000E+00         0.00000E+00         0.00000E+00
 
    0.24526E+06         0.61888E+06         0.00000E+00
    0.61888E+06        -0.10949E+07         0.00000E+00
    0.00000E+00         0.00000E+00         0.00000E+00
 
    0.23075E+06         0.63461E+06         0.00000E+00
    0.63461E+06        -0.10884E+07         0.00000E+00
    0.00000E+00         0.00000E+00         0.00000E+00
 
    0.21604E+06         0.65018E+06         0.00000E+00
    0.65018E+06        -0.10818E+07         0.00000E+00
    0.00000E+00         0.00000E+00         0.00000E+00
 
    0.20115E+06         0.66561E+06         0.00000E+00
    0.66561E+06        -0.10750E+07         0.00000E+00
    0.00000E+00         0.00000E+00         0.00000E+00
 
    0.18607E+06         0.68089E+06         0.00000E+00
    0.68089E+06        -0.10680E+07         0.00000E+00
    0.00000E+00         0.00000E+00         0.00000E+00
 
    0.17080E+06         0.69602E+06         0.00000E+00
    0.69602E+06        -0.10610E+07         0.00000E+00
    0.00000E+00         0.00000E+00         0.00000E+00
 
    0.15536E+06         0.71099E+06         0.00000E+00
    0.71099E+06        -0.10537E+07         0.00000E+00
    0.00000E+00         0.00000E+00         0.00000E+00
 
    0.13973E+06         0.72581E+06         0.00000E+00
    0.72581E+06        -0.10463E+07         0.00000E+00
    0.00000E+00         0.00000E+00         0.00000E+00
 
    0.12393E+06         0.74047E+06         0.00000E+00
    0.74047E+06        -0.10388E+07         0.00000E+00
    0.00000E+00         0.00000E+00         0.00000E+00
 
    0.10796E+06         0.75497E+06         0.00000E+00
    0.75497E+06        -0.10312E+07         0.00000E+00
    0.00000E+00         0.00000E+00         0.00000E+00
 
    0.91805E+05         0.76932E+06         0.00000E+00
    0.76932E+06        -0.10234E+07         0.00000E+00
    0.00000E+00         0.00000E+00         0.00000E+00
 
    0.75483E+05         0.78350E+06         0.00000E+00
    0.78350E+06        -0.10154E+07         0.00000E+00
    0.00000E+00         0.00000E+00         0.00000E+00
 
    0.58993E+05         0.79752E+06         0.00000E+00
    0.79752E+06        -0.10074E+07         0.00000E+00
    0.00000E+00         0.00000E+00         0.00000E+00
 
    0.42336E+05         0.81138E+06         0.00000E+00
    0.81138E+06        -0.99917E+06         0.00000E+00
    0.00000E+00         0.00000E+00         0.00000E+00
 
    0.25515E+05         0.82507E+06         0.00000E+00
    0.82507E+06        -0.99085E+06         0.00000E+00
    0.00000E+00         0.00000E+00         0.00000E+00
 
    0.85318E+04         0.83860E+06         0.00000E+00
    0.83860E+06        -0.98240E+06         0.00000E+00
    0.00000E+00         0.00000E+00         0.00000E+00
 
    0.64356E+06         0.10415E+05         0.00000E+00
    0.10415E+05        -0.12803E+07         0.00000E+00
    0.00000E+00         0.00000E+00         0.00000E+00
 
    0.63626E+06         0.31024E+05         0.00000E+00
    0.31024E+05        -0.12801E+07         0.00000E+00
    0.00000E+00         0.00000E+00         0.00000E+00
 
    0.62868E+06         0.51550E+05         0.00000E+00
    0.51550E+05        -0.12796E+07         0.00000E+00
    0.00000E+00         0.00000E+00         0.00000E+00
 
    0.62085E+06         0.71990E+05         0.00000E+00
    0.71990E+05        -0.12790E+07         0.00000E+00
    0.00000E+00         0.00000E+00         0.00000E+00
 
    0.61276E+06         0.92342E+05         0.00000E+00
    0.92342E+05        -0.12781E+07         0.00000E+00
    0.00000E+00         0.00000E+00         0.00000E+00
 
    0.60440E+06         0.11260E+06         0.00000E+00
    0.11260E+06        -0.12770E+07         0.00000E+00
    0.00000E+00         0.00000E+00         0.00000E+00
 
    0.59579E+06         0.13277E+06         0.00000E+00
    0.13277E+06        -0.12757E+07         0.00000E+00
    0.00000E+00         0.00000E+00         0.00000E+00
 
    0.58692E+06         0.15284E+06         0.00000E+00
    0.15284E+06        -0.12741E+07         0.00000E+00
    0.00000E+00         0.00000E+00         0.00000E+00
 
    0.57780E+06         0.17282E+06         0.00000E+00
    0.17282E+06        -0.12724E+07         0.00000E+00
    0.00000E+00         0.00000E+00         0.00000E+00
 
    0.56843E+06         0.19269E+06         0.00000E+00
    0.19269E+06        -0.12704E+07         0.00000E+00
    0.00000E+00         0.00000E+00         0.00000E+00
 
    0.55881E+06         0.21247E+06         0.00000E+00
    0.21247E+06        -0.12683E+07         0.00000E+00
    0.00000E+00         0.00000E+00         0.00000E+00
 
    0.54894E+06         0.23213E+06         0.00000E+00
    0.23213E+06        -0.12659E+07         0.00000E+00
    0.00000E+00         0.00000E+00         0.00000E+00
 
    0.53882E+06         0.25170E+06         0.00000E+00
    0.25170E+06        -0.12633E+07         0.00000E+00
    0.00000E+00         0.00000E+00         0.00000E+00
 
    0.52845E+06         0.27115E+06         0.00000E+00
    0.27115E+06        -0.12605E+07         0.00000E+00
    0.00000E+00         0.00000E+00         0.00000E+00
 
    0.51785E+06         0.29049E+06         0.00000E+00
    0.29049E+06        -0.12575E+07         0.00000E+00
    0.00000E+00         0.00000E+00         0.00000E+00
 
    0.50700E+06         0.30972E+06         0.00000E+00
    0.30972E+06        -0.12543E+07         0.00000E+00
    0.00000E+00         0.00000E+00         0.00000E+00
 
    0.49591E+06         0.32883E+06         0.00000E+00
    0.32883E+06        -0.12509E+07         0.00000E+00
    0.00000E+00         0.00000E+00         0.00000E+00
 
    0.48459E+06         0.34782E+06         0.00000E+00
    0.34782E+06        -0.12474E+07         0.00000E+00
    0.00000E+00         0.00000E+00         0.00000E+00
 
    0.47303E+06         0.36670E+06         0.00000E+00
    0.36670E+06        -0.12436E+07         0.00000E+00
    0.00000E+00         0.00000E+00         0.00000E+00
 
    0.46124E+06         0.38545E+06         0.00000E+00
    0.38545E+06        -0.12396E+07         0.00000E+00
    0.00000E+00         0.00000E+00         0.00000E+00
 
    0.44921E+06         0.40408E+06         0.00000E+00
    0.40408E+06        -0.12354E+07         0.00000E+00
    0.00000E+00         0.00000E+00         0.00000E+00
 
    0.43696E+06         0.42259E+06         0.00000E+00
    0.42259E+06        -0.12311E+07         0.00000E+00
    0.00000E+00         0.00000E+00         0.00000E+00
 
    0.42448E+06         0.44096E+06         0.00000E+00
    0.44096E+06        -0.12265E+07         0.00000E+00
    0.00000E+00         0.00000E+00         0.00000E+00
 
    0.41177E+06         0.45921E+06         0.00000E+00
    0.45921E+06        -0.12218E+07         0.00000E+00
    0.00000E+00         0.00000E+00         0.00000E+00
 
    0.39884E+06         0.47733E+06         0.00000E+00
    0.47733E+06        -0.12169E+07         0.00000E+00
    0.00000E+00         0.00000E+00         0.00000E+00
 
    0.38569E+06         0.49531E+06         0.00000E+00
    0.49531E+06        -0.12118E+07         0.00000E+00
    0.00000E+00         0.00000E+00         0.00000E+00
 
    0.37232E+06         0.51315E+06         0.00000E+00
    0.51315E+06        -0.12065E+07         0.00000E+00
    0.00000E+00         0.00000E+00         0.00000E+00
 
    0.35873E+06         0.53086E+06         0.00000E+00
    0.53086E+06        -0.12011E+07         0.00000E+00
    0.00000E+00         0.00000E+00         0.00000E+00
 
    0.34492E+06         0.54843E+06         0.00000E+00
    0.54843E+06        -0.11955E+07         0.00000E+00
    0.00000E+00         0.00000E+00         0.00000E+00
 
    0.33091E+06         0.56586E+06         0.00000E+00
    0.56586E+06        -0.11897E+07         0.00000E+00
    0.00000E+00         0.00000E+00         0.00000E+00
 
    0.31668E+06         0.58315E+06         0.00000E+00
    0.58315E+06        -0.11837E+07         0.00000E+00
    0.00000E+00         0.00000E+00         0.00000E+00
 
    0.30224E+06         0.60029E+06         0.00000E+00
    0.60029E+06        -0.11775E+07         0.00000E+00
    0.00000E+00         0.00000E+00         0.00000E+00
 
    0.28759E+06         0.61729E+06         0.00000E+00
    0.61729E+06        -0.11712E+07         0.00000E+00
    0.00000E+00         0.00000E+00         0.00000E+00
 
    0.27274E+06         0.63414E+06         0.00000E+00
    0.63414E+06        -0.11647E+07         0.00000E+00
    0.00000E+00         0.00000E+00         0.00000E+00
 
    0.25768E+06         0.65084E+06         0.00000E+00
    0.65084E+06        -0.11581E+07         0.00000E+00
    0.00000E+00         0.00000E+00         0.00000E+00
 
    0.24243E+06         0.66738E+06         0.00000E+00
    0.66738E+06        -0.11513E+07         0.00000E+00
    0.00000E+00         0.00000E+00         0.00000E+00
 
    0.22697E+06         0.68378E+06         0.00000E+00
    0.68378E+06        -0.11443E+07         0.00000E+00
    0.00000E+00         0.00000E+00         0.00000E+00
 
    0.21132E+06         0.70001E+06         0.00000E+00
    0.70001E+06        -0.11372E+07         0.00000E+00
    0.00000E+00         0.00000E+00         0.00000E+00
 
    0.19548E+06         0.71610E+06         0.00000E+00
    0.71610E+06        -0.11299E+07         0.00000E+00
    0.00000E+00         0.00000E+00         0.00000E+00
 
    0.17944E+06         0.73202E+06         0.00000E+00
    0.73202E+06        -0.11224E+07         0.00000E+00
    0.00000E+00         0.00000E+00         0.00000E+00
 
    0.16321E+06         0.74778E+06         0.00000E+00
    0.74778E+06        -0.11148E+07         0.00000E+00
    0.00000E+00         0.00000E+00         0.00000E+00
 
    0.14679E+06         0.76338E+06         0.00000E+00
    0.76338E+06        -0.11071E+07         0.00000E+00
    0.00000E+00         0.00000E+00         0.00000E+00
 
    0.13019E+06         0.77882E+06         0.00000E+00
    0.77882E+06        -0.10992E+07         0.00000E+00
    0.00000E+00         0.00000E+00         0.00000E+00
 
    0.11341E+06         0.79409E+06         0.00000E+00
    0.79409E+06        -0.10912E+07         0.00000E+00
    0.00000E+00         0.00000E+00         0.00000E+00
 
    0.96440E+05         0.80920E+06         0.00000E+00
    0.80920E+06        -0.10830E+07         0.00000E+00
    0.00000E+00         0.00000E+00         0.00000E+00
 
    0.79293E+05         0.82414E+06         0.00000E+00
    0.82414E+06        -0.10747E+07         0.00000E+00
    0.00000E+00         0.00000E+00         0.00000E+00
 
    0.61970E+05         0.83891E+06         0.00000E+00
    0.83891E+06        -0.10662E+07         0.00000E+00
    0.00000E+00         0.00000E+00         0.00000E+00
 
    0.44473E+05         0.85350E+06         0.00000E+00
    0.85350E+06        -0.10576E+07         0.00000E+00
    0.00000E+00         0.00000E+00         0.00000E+00
 
    0.26802E+05         0.86793E+06         0.00000E+00
    0.86793E+06        -0.10488E+07         0.00000E+00
    0.00000E+00         0.00000E+00         0.00000E+00
 
    0.89623E+04         0.88218E+06         0.00000E+00
    0.88218E+06        -0.10400E+07         0.00000E+00
    0.00000E+00         0.00000E+00         0.00000E+00
 
    0.67696E+06         0.10949E+05         0.00000E+00
    0.10949E+05        -0.13528E+07         0.00000E+00
    0.00000E+00         0.00000E+00         0.00000E+00
 
    0.66924E+06         0.32615E+05         0.00000E+00
    0.32615E+05        -0.13526E+07         0.00000E+00
    0.00000E+00         0.00000E+00         0.00000E+00
 
    0.66123E+06         0.54193E+05         0.00000E+00
    0.54193E+05        -0.13521E+07         0.00000E+00
    0.00000E+00         0.00000E+00         0.00000E+00
 
    0.65296E+06         0.75680E+05         0.00000E+00
    0.75680E+05        -0.13514E+07         0.00000E+00
    0.00000E+00         0.00000E+00         0.00000E+00
 
    0.64440E+06         0.97075E+05         0.00000E+00
    0.97075E+05        -0.13505E+07         0.00000E+00
    0.00000E+00         0.00000E+00         0.00000E+00
 
    0.63558E+06         0.11837E+06         0.00000E+00
    0.11837E+06        -0.13493E+07         0.00000E+00
    0.00000E+00         0.00000E+00         0.00000E+00
 
    0.62649E+06         0.13958E+06         0.00000E+00
    0.13958E+06        -0.13479E+07         0.00000E+00
    0.00000E+00         0.00000E+00         0.00000E+00
 
    0.61713E+06         0.16068E+06         0.00000E+00
    0.16068E+06        -0.13463E+07         0.00000E+00
    0.00000E+00         0.00000E+00         0.00000E+00
 
    0.60751E+06         0.18168E+06         0.00000E+00
    0.18168E+06        -0.13445E+07         0.00000E+00
    0.00000E+00         0.00000E+00         0.00000E+00
 
    0.59762E+06         0.20257E+06         0.00000E+00
    0.20257E+06        -0.13424E+07         0.00000E+00
    0.00000E+00         0.00000E+00         0.00000E+00
 
    0.58747E+06         0.22336E+06         0.00000E+00
    0.22336E+06        -0.13402E+07         0.00000E+00
    0.00000E+00         0.00000E+00         0.00000E+00
 
    0.57707E+06         0.24403E+06         0.00000E+00
    0.24403E+06        -0.13377E+07         0.00000E+00
    0.00000E+00         0.00000E+00         0.00000E+00
 
    0.56640E+06         0.26460E+06         0.00000E+00
    0.26460E+06        -0.13350E+07         0.00000E+00
    0.00000E+00         0.00000E+00         0.00000E+00
 
    0.55548E+06         0.28505E+06         0.00000E+00
    0.28505E+06        -0.13320E+07         0.00000E+00
    0.00000E+00         0.00000E+00         0.00000E+00
 
    0.54430E+06         0.30538E+06         0.00000E+00
    0.30538E+06        -0.13289E+07         0.00000E+00
    0.00000E+00         0.00000E+00         0.00000E+00
 
    0.53288E+06         0.32559E+06         0.00000E+00
    0.32559E+06        -0.13256E+07         0.00000E+00
    0.00000E+00         0.00000E+00         0.00000E+00
 
    0.52120E+06         0.34569E+06         0.00000E+00
    0.34569E+06        -0.13220E+07         0.00000E+00
    0.00000E+00         0.00000E+00         0.00000E+00
 
    0.50928E+06         0.36566E+06         0.00000E+00
    0.36566E+06        -0.13183E+07         0.00000E+00
    0.00000E+00         0.00000E+00         0.00000E+00
 
    0.49711E+06         0.38551E+06         0.00000E+00
    0.38551E+06        -0.13143E+07         0.00000E+00
    0.00000E+00         0.00000E+00         0.00000E+00
 
    0.48470E+06         0.40522E+06         0.00000E+00
    0.40522E+06        -0.13101E+07         0.00000E+00
    0.00000E+00         0.00000E+00         0.00000E+00
 
    0.47204E+06         0.42481E+06         0.00000E+00
    0.42481E+06        -0.13058E+07         0.00000E+00
    0.00000E+00         0.00000E+00         0.00000E+00
 
    0.45915E+06         0.44427E+06         0.00000E+00
    0.44427E+06        -0.13012E+07         0.00000E+00
    0.00000E+00         0.00000E+00         0.00000E+00
 
    0.44601E+06         0.46359E+06         0.00000E+00
    0.46359E+06        -0.12965E+07         0.00000E+00
    0.00000E+00         0.00000E+00         0.00000E+00
 
    0.43265E+06         0.48278E+06         0.00000E+00
    0.48278E+06        -0.12915E+07         0.00000E+00
    0.00000E+00         0.00000E+00         0.00000E+00
 
    0.41905E+06         0.50184E+06         0.00000E+00
    0.50184E+06        -0.12863E+07         0.00000E+00
    0.00000E+00         0.00000E+00         0.00000E+00
 
    0.40521E+06         0.52075E+06         0.00000E+00
    0.52075E+06        -0.12810E+07         0.00000E+00
    0.00000E+00         0.00000E+00         0.00000E+00
 
    0.39115E+06         0.53952E+06         0.00000E+00
    0.53952E+06        -0.12755E+07         0.00000E+00
    0.00000E+00         0.00000E+00         0.00000E+00
 
    0.37686E+06         0.55814E+06         0.00000E+00
    0.55814E+06        -0.12698E+07         0.00000E+00
    0.00000E+00         0.00000E+00         0.00000E+00
 
    0.36235E+06         0.57663E+06         0.00000E+00
    0.57663E+06        -0.12639E+07         0.00000E+00
    0.00000E+00         0.00000E+00         0.00000E+00
 
    0.34761E+06         0.59496E+06         0.00000E+00
    0.59496E+06        -0.12578E+07         0.00000E+00
    0.00000E+00         0.00000E+00         0.00000E+00
 
    0.33266E+06         0.61315E+06         0.00000E+00
    0.61315E+06        -0.12515E+07         0.00000E+00
    0.00000E+00         0.00000E+00         0.00000E+00
 
    0.31748E+06         0.63118E+06         0.00000E+00
    0.63118E+06        -0.12451E+07         0.00000E+00
    0.00000E+00         0.00000E+00         0.00000E+00
 
    0.30209E+06         0.64906E+06         0.00000E+00
    0.64906E+06        -0.12384E+07         0.00000E+00
    0.00000E+00         0.00000E+00         0.00000E+00
 
    0.28648E+06         0.66679E+06         0.00000E+00
    0.66679E+06        -0.12317E+07         0.00000E+00
    0.00000E+00         0.00000E+00         0.00000E+00
 
    0.27066E+06         0.68436E+06         0.00000E+00
    0.68436E+06        -0.12247E+07         0.00000E+00
    0.00000E+00         0.00000E+00         0.00000E+00
 
    0.25463E+06         0.70177E+06         0.00000E+00
    0.70177E+06        -0.12175E+07         0.00000E+00
    0.00000E+00         0.00000E+00         0.00000E+00
 
    0.23840E+06         0.71903E+06         0.00000E+00
    0.71903E+06        -0.12102E+07         0.00000E+00
    0.00000E+00         0.00000E+00         0.00000E+00
 
    0.22195E+06         0.73612E+06         0.00000E+00
    0.73612E+06        -0.12028E+07         0.00000E+00
    0.00000E+00         0.00000E+00         0.00000E+00
 
    0.20531E+06         0.75304E+06         0.00000E+00
    0.75304E+06        -0.11951E+07         0.00000E+00
    0.00000E+00         0.00000E+00         0.00000E+00
 
    0.18846E+06         0.76980E+06         0.00000E+00
    0.76980E+06        -0.11873E+07         0.00000E+00
    0.00000E+00         0.00000E+00         0.00000E+00
 
    0.17141E+06         0.78640E+06         0.00000E+00
    0.78640E+06        -0.11793E+07         0.00000E+00
    0.00000E+00         0.00000E+00         0.00000E+00
 
    0.15417E+06         0.80282E+06         0.00000E+00
    0.80282E+06        -0.11712E+07         0.00000E+00
    0.00000E+00         0.00000E+00         0.00000E+00
 
    0.13673E+06         0.81908E+06         0.00000E+00
    0.81908E+06        -0.11629E+07         0.00000E+00
    0.00000E+00         0.00000E+00         0.00000E+00
 
    0.11910E+06         0.83516E+06         0.00000E+00
    0.83516E+06        -0.11545E+07         0.00000E+00
    0.00000E+00         0.00000E+00         0.00000E+00
 
    0.10128E+06         0.85107E+06         0.00000E+00
    0.85107E+06        -0.11459E+07         0.00000E+00
    0.00000E+00         0.00000E+00         0.00000E+00
 
    0.83274E+05         0.86680E+06         0.00000E+00
    0.86680E+06        -0.11372E+07         0.00000E+00
    0.00000E+00         0.00000E+00         0.00000E+00
 
    0.65081E+05         0.88236E+06         0.00000E+00
    0.88236E+06        -0.11283E+07         0.00000E+00
    0.00000E+00         0.00000E+00         0.00000E+00
 
    0.46704E+05         0.89774E+06         0.00000E+00
    0.89774E+06        -0.11192E+07         0.00000E+00
    0.00000E+00         0.00000E+00         0.00000E+00
 
    0.28147E+05         0.91293E+06         0.00000E+00
    0.91293E+06        -0.11101E+07         0.00000E+00
    0.00000E+00         0.00000E+00         0.00000E+00
 
    0.94120E+04         0.92795E+06         0.00000E+00
    0.92795E+06        -0.11007E+07         0.00000E+00
    0.00000E+00         0.00000E+00         0.00000E+00
 
    0.71190E+06         0.11509E+05         0.00000E+00
    0.11509E+05        -0.14292E+07         0.00000E+00
    0.00000E+00         0.00000E+00         0.00000E+00
 
    0.70373E+06         0.34283E+05         0.00000E+00
    0.34283E+05        -0.14289E+07         0.00000E+00
    0.00000E+00         0.00000E+00         0.00000E+00
 
    0.69527E+06         0.56965E+05         0.00000E+00
    0.56965E+05        -0.14284E+07         0.00000E+00
    0.00000E+00         0.00000E+00         0.00000E+00
 
    0.68653E+06         0.79551E+05         0.00000E+00
    0.79551E+05        -0.14277E+07         0.00000E+00
    0.00000E+00         0.00000E+00         0.00000E+00
 
    0.67749E+06         0.10204E+06         0.00000E+00
    0.10204E+06        -0.14267E+07         0.00000E+00
    0.00000E+00         0.00000E+00         0.00000E+00
 
    0.66818E+06         0.12443E+06         0.00000E+00
    0.12443E+06        -0.14255E+07         0.00000E+00
    0.00000E+00         0.00000E+00         0.00000E+00
 
    0.65858E+06         0.14671E+06         0.00000E+00
    0.14671E+06        -0.14241E+07         0.00000E+00
    0.00000E+00         0.00000E+00         0.00000E+00
 
    0.64871E+06         0.16889E+06         0.00000E+00
    0.16889E+06        -0.14224E+07         0.00000E+00
    0.00000E+00         0.00000E+00         0.00000E+00
 
    0.63856E+06         0.19096E+06         0.00000E+00
    0.19096E+06        -0.14204E+07         0.00000E+00
    0.00000E+00         0.00000E+00         0.00000E+00
 
    0.62813E+06         0.21292E+06         0.00000E+00
    0.21292E+06        -0.14183E+07         0.00000E+00
    0.00000E+00         0.00000E+00         0.00000E+00
 
    0.61743E+06         0.23477E+06         0.00000E+00
    0.23477E+06        -0.14159E+07         0.00000E+00
    0.00000E+00         0.00000E+00         0.00000E+00
 
    0.60646E+06         0.25651E+06         0.00000E+00
    0.25651E+06        -0.14133E+07         0.00000E+00
    0.00000E+00         0.00000E+00         0.00000E+00
 
    0.59522E+06         0.27812E+06         0.00000E+00
    0.27812E+06        -0.14105E+07         0.00000E+00
    0.00000E+00         0.00000E+00         0.00000E+00
 
    0.58371E+06         0.29962E+06         0.00000E+00
    0.29962E+06        -0.14074E+07         0.00000E+00
    0.00000E+00         0.00000E+00         0.00000E+00
 
    0.57194E+06         0.32099E+06         0.00000E+00
    0.32099E+06        -0.14041E+07         0.00000E+00
    0.00000E+00         0.00000E+00         0.00000E+00
 
    0.55991E+06         0.34224E+06         0.00000E+00
    0.34224E+06        -0.14006E+07         0.00000E+00
    0.00000E+00         0.00000E+00         0.00000E+00
 
    0.54762E+06         0.36337E+06         0.00000E+00
    0.36337E+06        -0.13969E+07         0.00000E+00
    0.00000E+00         0.00000E+00         0.00000E+00
 
    0.53506E+06         0.38436E+06         0.00000E+00
    0.38436E+06        -0.13930E+07         0.00000E+00
    0.00000E+00         0.00000E+00         0.00000E+00
 
    0.52226E+06         0.40522E+06         0.00000E+00
    0.40522E+06        -0.13888E+07         0.00000E+00
    0.00000E+00         0.00000E+00         0.00000E+00
 
    0.50919E+06         0.42595E+06         0.00000E+00
    0.42595E+06        -0.13845E+07         0.00000E+00
    0.00000E+00         0.00000E+00         0.00000E+00
 
    0.49588E+06         0.44655E+06         0.00000E+00
    0.44655E+06        -0.13799E+07         0.00000E+00
    0.00000E+00         0.00000E+00         0.00000E+00
 
    0.48231E+06         0.46701E+06         0.00000E+00
    0.46701E+06        -0.13751E+07         0.00000E+00
    0.00000E+00         0.00000E+00         0.00000E+00
 
    0.46850E+06         0.48733E+06         0.00000E+00
    0.48733E+06        -0.13701E+07         0.00000E+00
    0.00000E+00         0.00000E+00         0.00000E+00
 
    0.45444E+06         0.50750E+06         0.00000E+00
    0.50750E+06        -0.13650E+07         0.00000E+00
    0.00000E+00         0.00000E+00         0.00000E+00
 
    0.44014E+06         0.52754E+06         0.00000E+00
    0.52754E+06        -0.13596E+07         0.00000E+00
    0.00000E+00         0.00000E+00         0.00000E+00
 
    0.42560E+06         0.54742E+06         0.00000E+00
    0.54742E+06        -0.13540E+07         0.00000E+00
    0.00000E+00         0.00000E+00         0.00000E+00
 
    0.41082E+06         0.56716E+06         0.00000E+00
    0.56716E+06        -0.13482E+07         0.00000E+00
    0.00000E+00         0.00000E+00         0.00000E+00
 
    0.39580E+06         0.58675E+06         0.00000E+00
    0.58675E+06        -0.13422E+07         0.00000E+00
    0.00000E+00         0.00000E+00         0.00000E+00
 
    0.38054E+06         0.60619E+06         0.00000E+00
    0.60619E+06        -0.13360E+07         0.00000E+00
    0.00000E+00         0.00000E+00         0.00000E+00
 
    0.36506E+06         0.62547E+06         0.00000E+00
    0.62547E+06        -0.13296E+07         0.00000E+00
    0.00000E+00         0.00000E+00         0.00000E+00
 
    0.34934E+06         0.64460E+06         0.00000E+00
    0.64460E+06        -0.13231E+07         0.00000E+00
    0.00000E+00         0.00000E+00         0.00000E+00
 
    0.33339E+06         0.66358E+06         0.00000E+00
    0.66358E+06        -0.13163E+07         0.00000E+00
    0.00000E+00         0.00000E+00         0.00000E+00
 
    0.31722E+06         0.68239E+06         0.00000E+00
    0.68239E+06        -0.13094E+07         0.00000E+00
    0.00000E+00         0.00000E+00         0.00000E+00
 
    0.30082E+06         0.70104E+06         0.00000E+00
    0.70104E+06        -0.13022E+07         0.00000E+00
    0.00000E+00         0.00000E+00         0.00000E+00
 
    0.28421E+06         0.71953E+06         0.00000E+00
    0.71953E+06        -0.12949E+07         0.00000E+00
    0.00000E+00         0.00000E+00         0.00000E+00
 
    0.26737E+06         0.73785E+06         0.00000E+00
    0.73785E+06        -0.12875E+07         0.00000E+00
    0.00000E+00         0.00000E+00         0.00000E+00
 
    0.25032E+06         0.75600E+06         0.00000E+00
    0.75600E+06        -0.12798E+07         0.00000E+00
    0.00000E+00         0.00000E+00         0.00000E+00
 
    0.23305E+06         0.77399E+06         0.00000E+00
    0.77399E+06        -0.12720E+07         0.00000E+00
    0.00000E+00         0.00000E+00         0.00000E+00
 
    0.21556E+06         0.79181E+06         0.00000E+00
    0.79181E+06        -0.12639E+07         0.00000E+00
    0.00000E+00         0.00000E+00         0.00000E+00
 
    0.19787E+06         0.80945E+06         0.00000E+00
    0.80945E+06        -0.12558E+07         0.00000E+00
    0.00000E+00         0.00000E+00         0.00000E+00
 
    0.17997E+06         0.82692E+06         0.00000E+00
    0.82692E+06        -0.12474E+07         0.00000E+00
    0.00000E+00         0.00000E+00         0.00000E+00
 
    0.16187E+06         0.84421E+06         0.00000E+00
    0.84421E+06        -0.12389E+07         0.00000E+00
    0.00000E+00         0.00000E+00         0.00000E+00
 
    0.14356E+06         0.86133E+06         0.00000E+00
    0.86133E+06        -0.12302E+07         0.00000E+00
    0.00000E+00         0.00000E+00         0.00000E+00
 
    0.12504E+06         0.87826E+06         0.00000E+00
    0.87826E+06        -0.12213E+07         0.00000E+00
    0.00000E+00         0.00000E+00         0.00000E+00
 
    0.10633E+06         0.89502E+06         0.00000E+00
    0.89502E+06        -0.12123E+07         0.00000E+00
    0.00000E+00         0.00000E+00         0.00000E+00
 
    0.87427E+05         0.91159E+06         0.00000E+00
    0.91159E+06        -0.12032E+07         0.00000E+00
    0.00000E+00         0.00000E+00         0.00000E+00
 
    0.68326E+05         0.92797E+06         0.00000E+00
    0.92797E+06        -0.11938E+07         0.00000E+00
    0.00000E+00         0.00000E+00         0.00000E+00
 
    0.49033E+05         0.94417E+06         0.00000E+00
    0.94417E+06        -0.11844E+07         0.00000E+00
    0.00000E+00         0.00000E+00         0.00000E+00
 
    0.29551E+05         0.96018E+06         0.00000E+00
    0.96018E+06        -0.11747E+07         0.00000E+00
    0.00000E+00         0.00000E+00         0.00000E+00
 
    0.98813E+04         0.97601E+06         0.00000E+00
    0.97601E+06        -0.11649E+07         0.00000E+00
    0.00000E+00         0.00000E+00         0.00000E+00
 
    0.74843E+06         0.12097E+05         0.00000E+00
    0.12097E+05        -0.15096E+07         0.00000E+00
    0.00000E+00         0.00000E+00         0.00000E+00
 
    0.73979E+06         0.36033E+05         0.00000E+00
    0.36033E+05        -0.15094E+07         0.00000E+00
    0.00000E+00         0.00000E+00         0.00000E+00
 
    0.73085E+06         0.59871E+05         0.00000E+00
    0.59871E+05        -0.15089E+07         0.00000E+00
    0.00000E+00         0.00000E+00         0.00000E+00
 
    0.72161E+06         0.83608E+05         0.00000E+00
    0.83608E+05        -0.15081E+07         0.00000E+00
    0.00000E+00         0.00000E+00         0.00000E+00
 
    0.71207E+06         0.10724E+06         0.00000E+00
    0.10724E+06        -0.15071E+07         0.00000E+00
    0.00000E+00         0.00000E+00         0.00000E+00
 
    0.70224E+06         0.13077E+06         0.00000E+00
    0.13077E+06        -0.15058E+07         0.00000E+00
    0.00000E+00         0.00000E+00         0.00000E+00
 
    0.69211E+06         0.15419E+06         0.00000E+00
    0.15419E+06        -0.15043E+07         0.00000E+00
    0.00000E+00         0.00000E+00         0.00000E+00
 
    0.68169E+06         0.17750E+06         0.00000E+00
    0.17750E+06        -0.15025E+07         0.00000E+00
    0.00000E+00         0.00000E+00         0.00000E+00
 
    0.67098E+06         0.20070E+06         0.00000E+00
    0.20070E+06        -0.15005E+07         0.00000E+00
    0.00000E+00         0.00000E+00         0.00000E+00
 
    0.65999E+06         0.22378E+06         0.00000E+00
    0.22378E+06        -0.14983E+07         0.00000E+00
    0.00000E+00         0.00000E+00         0.00000E+00
 
    0.64871E+06         0.24674E+06         0.00000E+00
    0.24674E+06        -0.14958E+07         0.00000E+00
    0.00000E+00         0.00000E+00         0.00000E+00
 
    0.63715E+06         0.26958E+06         0.00000E+00
    0.26958E+06        -0.14930E+07         0.00000E+00
    0.00000E+00         0.00000E+00         0.00000E+00
 
    0.62531E+06         0.29230E+06         0.00000E+00
    0.29230E+06        -0.14901E+07         0.00000E+00
    0.00000E+00         0.00000E+00         0.00000E+00
 
    0.61319E+06         0.31489E+06         0.00000E+00
    0.31489E+06        -0.14869E+07         0.00000E+00
    0.00000E+00         0.00000E+00         0.00000E+00
 
    0.60079E+06         0.33736E+06         0.00000E+00
    0.33736E+06        -0.14834E+07         0.00000E+00
    0.00000E+00         0.00000E+00         0.00000E+00
 
    0.58813E+06         0.35969E+06         0.00000E+00
    0.35969E+06        -0.14798E+07         0.00000E+00
    0.00000E+00         0.00000E+00         0.00000E+00
 
    0.57518E+06         0.38189E+06         0.00000E+00
    0.38189E+06        -0.14759E+07         0.00000E+00
    0.00000E+00         0.00000E+00         0.00000E+00
 
    0.56197E+06         0.40396E+06         0.00000E+00
    0.40396E+06        -0.14718E+07         0.00000E+00
    0.00000E+00         0.00000E+00         0.00000E+00
 
    0.54850E+06         0.42589E+06         0.00000E+00
    0.42589E+06        -0.14674E+07         0.00000E+00
    0.00000E+00         0.00000E+00         0.00000E+00
 
    0.53476E+06         0.44768E+06         0.00000E+00
    0.44768E+06        -0.14628E+07         0.00000E+00
    0.00000E+00         0.00000E+00         0.00000E+00
 
    0.52075E+06         0.46933E+06         0.00000E+00
    0.46933E+06        -0.14581E+07         0.00000E+00
    0.00000E+00         0.00000E+00         0.00000E+00
 
    0.50648E+06         0.49084E+06         0.00000E+00
    0.49084E+06        -0.14531E+07         0.00000E+00
    0.00000E+00         0.00000E+00         0.00000E+00
 
    0.49196E+06         0.51220E+06         0.00000E+00
    0.51220E+06        -0.14478E+07         0.00000E+00
    0.00000E+00         0.00000E+00         0.00000E+00
 
    0.47718E+06         0.53341E+06         0.00000E+00
    0.53341E+06        -0.14424E+07         0.00000E+00
    0.00000E+00         0.00000E+00         0.00000E+00
 
    0.46215E+06         0.55447E+06         0.00000E+00
    0.55447E+06        -0.14368E+07         0.00000E+00
    0.00000E+00         0.00000E+00         0.00000E+00
 
    0.44686E+06         0.57538E+06         0.00000E+00
    0.57538E+06        -0.14309E+07         0.00000E+00
    0.00000E+00         0.00000E+00         0.00000E+00
 
    0.43132E+06         0.59614E+06         0.00000E+00
    0.59614E+06        -0.14248E+07         0.00000E+00
    0.00000E+00         0.00000E+00         0.00000E+00
 
    0.41554E+06         0.61674E+06         0.00000E+00
    0.61674E+06        -0.14186E+07         0.00000E+00
    0.00000E+00         0.00000E+00         0.00000E+00
 
    0.39951E+06         0.63718E+06         0.00000E+00
    0.63718E+06        -0.14121E+07         0.00000E+00
    0.00000E+00         0.00000E+00         0.00000E+00
 
    0.38324E+06         0.65746E+06         0.00000E+00
    0.65746E+06        -0.14054E+07         0.00000E+00
    0.00000E+00         0.00000E+00         0.00000E+00
 
    0.36673E+06         0.67758E+06         0.00000E+00
    0.67758E+06        -0.13985E+07         0.00000E+00
    0.00000E+00         0.00000E+00         0.00000E+00
 
    0.34998E+06         0.69754E+06         0.00000E+00
    0.69754E+06        -0.13915E+07         0.00000E+00
    0.00000E+00         0.00000E+00         0.00000E+00
 
    0.33300E+06         0.71732E+06         0.00000E+00
    0.71732E+06        -0.13842E+07         0.00000E+00
    0.00000E+00         0.00000E+00         0.00000E+00
 
    0.31578E+06         0.73694E+06         0.00000E+00
    0.73694E+06        -0.13767E+07         0.00000E+00
    0.00000E+00         0.00000E+00         0.00000E+00
 
    0.29833E+06         0.75639E+06         0.00000E+00
    0.75639E+06        -0.13691E+07         0.00000E+00
    0.00000E+00         0.00000E+00         0.00000E+00
 
    0.28065E+06         0.77567E+06         0.00000E+00
    0.77567E+06        -0.13612E+07         0.00000E+00
    0.00000E+00         0.00000E+00         0.00000E+00
 
    0.26274E+06         0.79478E+06         0.00000E+00
    0.79478E+06        -0.13532E+07         0.00000E+00
    0.00000E+00         0.00000E+00         0.00000E+00
 
    0.24461E+06         0.81371E+06         0.00000E+00
    0.81371E+06        -0.13450E+07         0.00000E+00
    0.00000E+00         0.00000E+00         0.00000E+00
 
    0.22626E+06         0.83246E+06         0.00000E+00
    0.83246E+06        -0.13366E+07         0.00000E+00
    0.00000E+00         0.00000E+00         0.00000E+00
 
    0.20768E+06         0.85103E+06         0.00000E+00
    0.85103E+06        -0.13280E+07         0.00000E+00
    0.00000E+00         0.00000E+00         0.00000E+00
 
    0.18889E+06         0.86942E+06         0.00000E+00
    0.86942E+06        -0.13193E+07         0.00000E+00
    0.00000E+00         0.00000E+00         0.00000E+00
 
    0.16989E+06         0.88762E+06         0.00000E+00
    0.88762E+06        -0.13103E+07         0.00000E+00
    0.00000E+00         0.00000E+00         0.00000E+00
 
    0.15067E+06         0.90564E+06         0.00000E+00
    0.90564E+06        -0.13012E+07         0.00000E+00
    0.00000E+00         0.00000E+00         0.00000E+00
 
    0.13124E+06         0.92348E+06         0.00000E+00
    0.92348E+06        -0.12919E+07         0.00000E+00
    0.00000E+00         0.00000E+00         0.00000E+00
 
    0.11160E+06         0.94112E+06         0.00000E+00
    0.94112E+06        -0.12825E+07         0.00000E+00
    0.00000E+00         0.00000E+00         0.00000E+00
 
    0.91757E+05         0.95858E+06         0.00000E+00
    0.95858E+06        -0.12729E+07         0.00000E+00
    0.00000E+00         0.00000E+00         0.00000E+00
 
    0.71710E+05         0.97584E+06         0.00000E+00
    0.97584E+06        -0.12631E+07         0.00000E+00
    0.00000E+00         0.00000E+00         0.00000E+00
 
    0.51461E+05         0.99290E+06         0.00000E+00
    0.99290E+06        -0.12531E+07         0.00000E+00
    0.00000E+00         0.00000E+00         0.00000E+00
 
    0.31014E+05         0.10098E+07         0.00000E+00
    0.10098E+07        -0.12430E+07         0.00000E+00
    0.00000E+00         0.00000E+00         0.00000E+00
 
    0.10371E+05         0.10264E+07         0.00000E+00
    0.10264E+07        -0.12328E+07         0.00000E+00
    0.00000E+00         0.00000E+00         0.00000E+00
 
    0.78659E+06         0.12713E+05         0.00000E+00
    0.12713E+05        -0.15944E+07         0.00000E+00
    0.00000E+00         0.00000E+00         0.00000E+00
 
    0.77745E+06         0.37867E+05         0.00000E+00
    0.37867E+05        -0.15941E+07         0.00000E+00
    0.00000E+00         0.00000E+00         0.00000E+00
 
    0.76801E+06         0.62917E+05         0.00000E+00
    0.62917E+05        -0.15936E+07         0.00000E+00
    0.00000E+00         0.00000E+00         0.00000E+00
 
    0.75824E+06         0.87861E+05         0.00000E+00
    0.87861E+05        -0.15928E+07         0.00000E+00
    0.00000E+00         0.00000E+00         0.00000E+00
 
    0.74817E+06         0.11270E+06         0.00000E+00
    0.11270E+06        -0.15917E+07         0.00000E+00
    0.00000E+00         0.00000E+00         0.00000E+00
 
    0.73779E+06         0.13742E+06         0.00000E+00
    0.13742E+06        -0.15904E+07         0.00000E+00
    0.00000E+00         0.00000E+00         0.00000E+00
 
    0.72711E+06         0.16203E+06         0.00000E+00
    0.16203E+06        -0.15888E+07         0.00000E+00
    0.00000E+00         0.00000E+00         0.00000E+00
 
    0.71612E+06         0.18652E+06         0.00000E+00
    0.18652E+06        -0.15870E+07         0.00000E+00
    0.00000E+00         0.00000E+00         0.00000E+00
 
    0.70483E+06         0.21090E+06         0.00000E+00
    0.21090E+06        -0.15849E+07         0.00000E+00
    0.00000E+00         0.00000E+00         0.00000E+00
 
    0.69324E+06         0.23515E+06         0.00000E+00
    0.23515E+06        -0.15825E+07         0.00000E+00
    0.00000E+00         0.00000E+00         0.00000E+00
 
    0.68135E+06         0.25928E+06         0.00000E+00
    0.25928E+06        -0.15799E+07         0.00000E+00
    0.00000E+00         0.00000E+00         0.00000E+00
 
    0.66917E+06         0.28328E+06         0.00000E+00
    0.28328E+06        -0.15771E+07         0.00000E+00
    0.00000E+00         0.00000E+00         0.00000E+00
 
    0.65670E+06         0.30715E+06         0.00000E+00
    0.30715E+06        -0.15740E+07         0.00000E+00
    0.00000E+00         0.00000E+00         0.00000E+00
 
    0.64394E+06         0.33089E+06         0.00000E+00
    0.33089E+06        -0.15706E+07         0.00000E+00
    0.00000E+00         0.00000E+00         0.00000E+00
 
    0.63089E+06         0.35450E+06         0.00000E+00
    0.35450E+06        -0.15670E+07         0.00000E+00
    0.00000E+00         0.00000E+00         0.00000E+00
 
    0.61755E+06         0.37797E+06         0.00000E+00
    0.37797E+06        -0.15632E+07         0.00000E+00
    0.00000E+00         0.00000E+00         0.00000E+00
 
    0.60393E+06         0.40130E+06         0.00000E+00
    0.40130E+06        -0.15591E+07         0.00000E+00
    0.00000E+00         0.00000E+00         0.00000E+00
 
    0.59003E+06         0.42449E+06         0.00000E+00
    0.42449E+06        -0.15548E+07         0.00000E+00
    0.00000E+00         0.00000E+00         0.00000E+00
 
    0.57586E+06         0.44754E+06         0.00000E+00
    0.44754E+06        -0.15503E+07         0.00000E+00
    0.00000E+00         0.00000E+00         0.00000E+00
 
    0.56140E+06         0.47044E+06         0.00000E+00
    0.47044E+06        -0.15455E+07         0.00000E+00
    0.00000E+00         0.00000E+00         0.00000E+00
 
    0.54668E+06         0.49320E+06         0.00000E+00
    0.49320E+06        -0.15405E+07         0.00000E+00
    0.00000E+00         0.00000E+00         0.00000E+00
 
    0.53168E+06         0.51580E+06         0.00000E+00
    0.51580E+06        -0.15352E+07         0.00000E+00
    0.00000E+00         0.00000E+00         0.00000E+00
 
    0.51641E+06         0.53825E+06         0.00000E+00
    0.53825E+06        -0.15298E+07         0.00000E+00
    0.00000E+00         0.00000E+00         0.00000E+00
 
    0.50087E+06         0.56055E+06         0.00000E+00
    0.56055E+06        -0.15241E+07         0.00000E+00
    0.00000E+00         0.00000E+00         0.00000E+00
 
    0.48507E+06         0.58269E+06         0.00000E+00
    0.58269E+06        -0.15182E+07         0.00000E+00
    0.00000E+00         0.00000E+00         0.00000E+00
 
    0.46901E+06         0.60467E+06         0.00000E+00
    0.60467E+06        -0.15120E+07         0.00000E+00
    0.00000E+00         0.00000E+00         0.00000E+00
 
    0.45269E+06         0.62650E+06         0.00000E+00
    0.62650E+06        -0.15057E+07         0.00000E+00
    0.00000E+00         0.00000E+00         0.00000E+00
 
    0.43611E+06         0.64816E+06         0.00000E+00
    0.64816E+06        -0.14991E+07         0.00000E+00
    0.00000E+00         0.00000E+00         0.00000E+00
 
    0.41928E+06         0.66965E+06         0.00000E+00
    0.66965E+06        -0.14924E+07         0.00000E+00
    0.00000E+00         0.00000E+00         0.00000E+00
 
    0.40219E+06         0.69098E+06         0.00000E+00
    0.69098E+06        -0.14854E+07         0.00000E+00
    0.00000E+00         0.00000E+00         0.00000E+00
 
    0.38485E+06         0.71214E+06         0.00000E+00
    0.71214E+06        -0.14782E+07         0.00000E+00
    0.00000E+00         0.00000E+00         0.00000E+00
 
    0.36726E+06         0.73312E+06         0.00000E+00
    0.73312E+06        -0.14708E+07         0.00000E+00
    0.00000E+00         0.00000E+00         0.00000E+00
 
    0.34943E+06         0.75394E+06         0.00000E+00
    0.75394E+06        -0.14632E+07         0.00000E+00
    0.00000E+00         0.00000E+00         0.00000E+00
 
    0.33135E+06         0.77458E+06         0.00000E+00
    0.77458E+06        -0.14553E+07         0.00000E+00
    0.00000E+00         0.00000E+00         0.00000E+00
 
    0.31304E+06         0.79504E+06         0.00000E+00
    0.79504E+06        -0.14473E+07         0.00000E+00
    0.00000E+00         0.00000E+00         0.00000E+00
 
    0.29448E+06         0.81532E+06         0.00000E+00
    0.81532E+06        -0.14391E+07         0.00000E+00
    0.00000E+00         0.00000E+00         0.00000E+00
 
    0.27568E+06         0.83542E+06         0.00000E+00
    0.83542E+06        -0.14307E+07         0.00000E+00
    0.00000E+00         0.00000E+00         0.00000E+00
 
    0.25665E+06         0.85534E+06         0.00000E+00
    0.85534E+06        -0.14221E+07         0.00000E+00
    0.00000E+00         0.00000E+00         0.00000E+00
 
    0.23739E+06         0.87507E+06         0.00000E+00
    0.87507E+06        -0.14133E+07         0.00000E+00
    0.00000E+00         0.00000E+00         0.00000E+00
 
    0.21790E+06         0.89462E+06         0.00000E+00
    0.89462E+06        -0.14043E+07         0.00000E+00
    0.00000E+00         0.00000E+00         0.00000E+00
 
    0.19818E+06         0.91398E+06         0.00000E+00
    0.91398E+06        -0.13951E+07         0.00000E+00
    0.00000E+00         0.00000E+00         0.00000E+00
 
    0.17824E+06         0.93314E+06         0.00000E+00
    0.93314E+06        -0.13858E+07         0.00000E+00
    0.00000E+00         0.00000E+00         0.00000E+00
 
    0.15808E+06         0.95212E+06         0.00000E+00
    0.95212E+06        -0.13762E+07         0.00000E+00
    0.00000E+00         0.00000E+00         0.00000E+00
 
    0.13769E+06         0.97090E+06         0.00000E+00
    0.97090E+06        -0.13665E+07         0.00000E+00
    0.00000E+00         0.00000E+00         0.00000E+00
 
    0.11708E+06         0.98948E+06         0.00000E+00
    0.98948E+06        -0.13566E+07         0.00000E+00
    0.00000E+00         0.00000E+00         0.00000E+00
 
    0.96265E+05         0.10079E+07         0.00000E+00
    0.10079E+07        -0.13465E+07         0.00000E+00
    0.00000E+00         0.00000E+00         0.00000E+00
 
    0.75233E+05         0.10260E+07         0.00000E+00
    0.10260E+07        -0.13363E+07         0.00000E+00
    0.00000E+00         0.00000E+00         0.00000E+00
 
    0.53989E+05         0.10440E+07         0.00000E+00
    0.10440E+07        -0.13258E+07         0.00000E+00
    0.00000E+00         0.00000E+00         0.00000E+00
 
    0.32537E+05         0.10618E+07         0.00000E+00
    0.10618E+07        -0.13152E+07         0.00000E+00
    0.00000E+00         0.00000E+00         0.00000E+00
 
    0.10880E+05         0.10794E+07         0.00000E+00
    0.10794E+07        -0.13045E+07         0.00000E+00
    0.00000E+00         0.00000E+00         0.00000E+00
 
    0.82643E+06         0.13359E+05         0.00000E+00
    0.13359E+05        -0.16838E+07         0.00000E+00
    0.00000E+00         0.00000E+00         0.00000E+00
 
    0.81677E+06         0.39787E+05         0.00000E+00
    0.39787E+05        -0.16835E+07         0.00000E+00
    0.00000E+00         0.00000E+00         0.00000E+00
 
    0.80679E+06         0.66107E+05         0.00000E+00
    0.66107E+05        -0.16829E+07         0.00000E+00
    0.00000E+00         0.00000E+00         0.00000E+00
 
    0.79648E+06         0.92314E+05         0.00000E+00
    0.92314E+05        -0.16821E+07         0.00000E+00
    0.00000E+00         0.00000E+00         0.00000E+00
 
    0.78584E+06         0.11841E+06         0.00000E+00
    0.11841E+06        -0.16810E+07         0.00000E+00
    0.00000E+00         0.00000E+00         0.00000E+00
 
    0.77489E+06         0.14438E+06         0.00000E+00
    0.14438E+06        -0.16796E+07         0.00000E+00
    0.00000E+00         0.00000E+00         0.00000E+00
 
    0.76361E+06         0.17024E+06         0.00000E+00
    0.17024E+06        -0.16779E+07         0.00000E+00
    0.00000E+00         0.00000E+00         0.00000E+00
 
    0.75202E+06         0.19597E+06         0.00000E+00
    0.19597E+06        -0.16760E+07         0.00000E+00
    0.00000E+00         0.00000E+00         0.00000E+00
 
    0.74012E+06         0.22158E+06         0.00000E+00
    0.22158E+06        -0.16738E+07         0.00000E+00
    0.00000E+00         0.00000E+00         0.00000E+00
 
    0.72790E+06         0.24706E+06         0.00000E+00
    0.24706E+06        -0.16713E+07         0.00000E+00
    0.00000E+00         0.00000E+00         0.00000E+00
 
    0.71538E+06         0.27241E+06         0.00000E+00
    0.27241E+06        -0.16686E+07         0.00000E+00
    0.00000E+00         0.00000E+00         0.00000E+00
 
    0.70255E+06         0.29762E+06         0.00000E+00
    0.29762E+06        -0.16656E+07         0.00000E+00
    0.00000E+00         0.00000E+00         0.00000E+00
 
    0.68941E+06         0.32270E+06         0.00000E+00
    0.32270E+06        -0.16624E+07         0.00000E+00
    0.00000E+00         0.00000E+00         0.00000E+00
 
    0.67598E+06         0.34764E+06         0.00000E+00
    0.34764E+06        -0.16589E+07         0.00000E+00
    0.00000E+00         0.00000E+00         0.00000E+00
 
    0.66224E+06         0.37245E+06         0.00000E+00
    0.37245E+06        -0.16551E+07         0.00000E+00
    0.00000E+00         0.00000E+00         0.00000E+00
 
    0.64821E+06         0.39711E+06         0.00000E+00
    0.39711E+06        -0.16511E+07         0.00000E+00
    0.00000E+00         0.00000E+00         0.00000E+00
 
    0.63388E+06         0.42162E+06         0.00000E+00
    0.42162E+06        -0.16468E+07         0.00000E+00
    0.00000E+00         0.00000E+00         0.00000E+00
 
    0.61926E+06         0.44599E+06         0.00000E+00
    0.44599E+06        -0.16423E+07         0.00000E+00
    0.00000E+00         0.00000E+00         0.00000E+00
 
    0.60435E+06         0.47021E+06         0.00000E+00
    0.47021E+06        -0.16376E+07         0.00000E+00
    0.00000E+00         0.00000E+00         0.00000E+00
 
    0.58915E+06         0.49427E+06         0.00000E+00
    0.49427E+06        -0.16326E+07         0.00000E+00
    0.00000E+00         0.00000E+00         0.00000E+00
 
    0.57367E+06         0.51818E+06         0.00000E+00
    0.51818E+06        -0.16274E+07         0.00000E+00
    0.00000E+00         0.00000E+00         0.00000E+00
 
    0.55791E+06         0.54194E+06         0.00000E+00
    0.54194E+06        -0.16219E+07         0.00000E+00
    0.00000E+00         0.00000E+00         0.00000E+00
 
    0.54186E+06         0.56553E+06         0.00000E+00
    0.56553E+06        -0.16162E+07         0.00000E+00
    0.00000E+00         0.00000E+00         0.00000E+00
 
    0.52554E+06         0.58897E+06         0.00000E+00
    0.58897E+06        -0.16102E+07         0.00000E+00
    0.00000E+00         0.00000E+00         0.00000E+00
 
    0.50894E+06         0.61224E+06         0.00000E+00
    0.61224E+06        -0.16040E+07         0.00000E+00
    0.00000E+00         0.00000E+00         0.00000E+00
 
    0.49207E+06         0.63535E+06         0.00000E+00
    0.63535E+06        -0.15976E+07         0.00000E+00
    0.00000E+00         0.00000E+00         0.00000E+00
 
    0.47493E+06         0.65829E+06         0.00000E+00
    0.65829E+06        -0.15910E+07         0.00000E+00
    0.00000E+00         0.00000E+00         0.00000E+00
 
    0.45752E+06         0.68106E+06         0.00000E+00
    0.68106E+06        -0.15841E+07         0.00000E+00
    0.00000E+00         0.00000E+00         0.00000E+00
 
    0.43985E+06         0.70366E+06         0.00000E+00
    0.70366E+06        -0.15770E+07         0.00000E+00
    0.00000E+00         0.00000E+00         0.00000E+00
 
    0.42191E+06         0.72608E+06         0.00000E+00
    0.72608E+06        -0.15697E+07         0.00000E+00
    0.00000E+00         0.00000E+00         0.00000E+00
 
    0.40371E+06         0.74833E+06         0.00000E+00
    0.74833E+06        -0.15622E+07         0.00000E+00
    0.00000E+00         0.00000E+00         0.00000E+00
 
    0.38525E+06         0.77040E+06         0.00000E+00
    0.77040E+06        -0.15544E+07         0.00000E+00
    0.00000E+00         0.00000E+00         0.00000E+00
 
    0.36653E+06         0.79229E+06         0.00000E+00
    0.79229E+06        -0.15465E+07         0.00000E+00
    0.00000E+00         0.00000E+00         0.00000E+00
 
    0.34756E+06         0.81399E+06         0.00000E+00
    0.81399E+06        -0.15383E+07         0.00000E+00
    0.00000E+00         0.00000E+00         0.00000E+00
 
    0.32834E+06         0.83552E+06         0.00000E+00
    0.83552E+06        -0.15299E+07         0.00000E+00
    0.00000E+00         0.00000E+00         0.00000E+00
 
    0.30886E+06         0.85685E+06         0.00000E+00
    0.85685E+06        -0.15213E+07         0.00000E+00
    0.00000E+00         0.00000E+00         0.00000E+00
 
    0.28915E+06         0.87800E+06         0.00000E+00
    0.87800E+06        -0.15125E+07         0.00000E+00
    0.00000E+00         0.00000E+00         0.00000E+00
 
    0.26918E+06         0.89896E+06         0.00000E+00
    0.89896E+06        -0.15035E+07         0.00000E+00
    0.00000E+00         0.00000E+00         0.00000E+00
 
    0.24898E+06         0.91973E+06         0.00000E+00
    0.91973E+06        -0.14943E+07         0.00000E+00
    0.00000E+00         0.00000E+00         0.00000E+00
 
    0.22853E+06         0.94030E+06         0.00000E+00
    0.94030E+06        -0.14849E+07         0.00000E+00
    0.00000E+00         0.00000E+00         0.00000E+00
 
    0.20785E+06         0.96067E+06         0.00000E+00
    0.96067E+06        -0.14753E+07         0.00000E+00
    0.00000E+00         0.00000E+00         0.00000E+00
 
    0.18693E+06         0.98085E+06         0.00000E+00
    0.98085E+06        -0.14655E+07         0.00000E+00
    0.00000E+00         0.00000E+00         0.00000E+00
 
    0.16578E+06         0.10008E+07         0.00000E+00
    0.10008E+07        -0.14555E+07         0.00000E+00
    0.00000E+00         0.00000E+00         0.00000E+00
 
    0.14440E+06         0.10206E+07         0.00000E+00
    0.10206E+07        -0.14453E+07         0.00000E+00
    0.00000E+00         0.00000E+00         0.00000E+00
 
    0.12279E+06         0.10402E+07         0.00000E+00
    0.10402E+07        -0.14349E+07         0.00000E+00
    0.00000E+00         0.00000E+00         0.00000E+00
 
    0.10095E+06         0.10595E+07         0.00000E+00
    0.10595E+07        -0.14243E+07         0.00000E+00
    0.00000E+00         0.00000E+00         0.00000E+00
 
    0.78897E+05         0.10787E+07         0.00000E+00
    0.10787E+07        -0.14136E+07         0.00000E+00
    0.00000E+00         0.00000E+00         0.00000E+00
 
    0.56618E+05         0.10976E+07         0.00000E+00
    0.10976E+07        -0.14026E+07         0.00000E+00
    0.00000E+00         0.00000E+00         0.00000E+00
 
    0.34122E+05         0.11164E+07         0.00000E+00
    0.11164E+07        -0.13915E+07         0.00000E+00
    0.00000E+00         0.00000E+00         0.00000E+00
 
    0.11410E+05         0.11349E+07         0.00000E+00
    0.11349E+07        -0.13802E+07         0.00000E+00
    0.00000E+00         0.00000E+00         0.00000E+00
 
    0.86800E+06         0.14035E+05         0.00000E+00
    0.14035E+05        -0.17779E+07         0.00000E+00
    0.00000E+00         0.00000E+00         0.00000E+00
 
    0.85779E+06         0.41798E+05         0.00000E+00
    0.41798E+05        -0.17776E+07         0.00000E+00
    0.00000E+00         0.00000E+00         0.00000E+00
 
    0.84724E+06         0.69446E+05         0.00000E+00
    0.69446E+05        -0.17771E+07         0.00000E+00
    0.00000E+00         0.00000E+00         0.00000E+00
 
    0.83635E+06         0.96975E+05         0.00000E+00
    0.96975E+05        -0.17762E+07         0.00000E+00
    0.00000E+00         0.00000E+00         0.00000E+00
 
    0.82512E+06         0.12438E+06         0.00000E+00
    0.12438E+06        -0.17750E+07         0.00000E+00
    0.00000E+00         0.00000E+00         0.00000E+00
 
    0.81355E+06         0.15167E+06         0.00000E+00
    0.15167E+06        -0.17736E+07         0.00000E+00
    0.00000E+00         0.00000E+00         0.00000E+00
 
    0.80166E+06         0.17883E+06         0.00000E+00
    0.17883E+06        -0.17718E+07         0.00000E+00
    0.00000E+00         0.00000E+00         0.00000E+00
 
    0.78944E+06         0.20586E+06         0.00000E+00
    0.20586E+06        -0.17698E+07         0.00000E+00
    0.00000E+00         0.00000E+00         0.00000E+00
 
    0.77689E+06         0.23275E+06         0.00000E+00
    0.23275E+06        -0.17675E+07         0.00000E+00
    0.00000E+00         0.00000E+00         0.00000E+00
 
    0.76401E+06         0.25952E+06         0.00000E+00
    0.25952E+06        -0.17649E+07         0.00000E+00
    0.00000E+00         0.00000E+00         0.00000E+00
 
    0.75082E+06         0.28614E+06         0.00000E+00
    0.28614E+06        -0.17621E+07         0.00000E+00
    0.00000E+00         0.00000E+00         0.00000E+00
 
    0.73731E+06         0.31263E+06         0.00000E+00
    0.31263E+06        -0.17590E+07         0.00000E+00
    0.00000E+00         0.00000E+00         0.00000E+00
 
    0.72348E+06         0.33897E+06         0.00000E+00
    0.33897E+06        -0.17556E+07         0.00000E+00
    0.00000E+00         0.00000E+00         0.00000E+00
 
    0.70933E+06         0.36517E+06         0.00000E+00
    0.36517E+06        -0.17519E+07         0.00000E+00
    0.00000E+00         0.00000E+00         0.00000E+00
 
    0.69488E+06         0.39123E+06         0.00000E+00
    0.39123E+06        -0.17480E+07         0.00000E+00
    0.00000E+00         0.00000E+00         0.00000E+00
 
    0.68012E+06         0.41713E+06         0.00000E+00
    0.41713E+06        -0.17438E+07         0.00000E+00
    0.00000E+00         0.00000E+00         0.00000E+00
 
    0.66505E+06         0.44288E+06         0.00000E+00
    0.44288E+06        -0.17394E+07         0.00000E+00
    0.00000E+00         0.00000E+00         0.00000E+00
 
    0.64967E+06         0.46848E+06         0.00000E+00
    0.46848E+06        -0.17347E+07         0.00000E+00
    0.00000E+00         0.00000E+00         0.00000E+00
 
    0.63400E+06         0.49392E+06         0.00000E+00
    0.49392E+06        -0.17297E+07         0.00000E+00
    0.00000E+00         0.00000E+00         0.00000E+00
 
    0.61803E+06         0.51921E+06         0.00000E+00
    0.51921E+06        -0.17245E+07         0.00000E+00
    0.00000E+00         0.00000E+00         0.00000E+00
 
    0.60176E+06         0.54433E+06         0.00000E+00
    0.54433E+06        -0.17190E+07         0.00000E+00
    0.00000E+00         0.00000E+00         0.00000E+00
 
    0.58519E+06         0.56929E+06         0.00000E+00
    0.56929E+06        -0.17133E+07         0.00000E+00
    0.00000E+00         0.00000E+00         0.00000E+00
 
    0.56834E+06         0.59408E+06         0.00000E+00
    0.59408E+06        -0.17073E+07         0.00000E+00
    0.00000E+00         0.00000E+00         0.00000E+00
 
    0.55119E+06         0.61871E+06         0.00000E+00
    0.61871E+06        -0.17011E+07         0.00000E+00
    0.00000E+00         0.00000E+00         0.00000E+00
 
    0.53376E+06         0.64317E+06         0.00000E+00
    0.64317E+06        -0.16946E+07         0.00000E+00
    0.00000E+00         0.00000E+00         0.00000E+00
 
    0.51605E+06         0.66745E+06         0.00000E+00
    0.66745E+06        -0.16879E+07         0.00000E+00
    0.00000E+00         0.00000E+00         0.00000E+00
 
    0.49805E+06         0.69156E+06         0.00000E+00
    0.69156E+06        -0.16810E+07         0.00000E+00
    0.00000E+00         0.00000E+00         0.00000E+00
 
    0.47978E+06         0.71549E+06         0.00000E+00
    0.71549E+06        -0.16738E+07         0.00000E+00
    0.00000E+00         0.00000E+00         0.00000E+00
 
    0.46123E+06         0.73925E+06         0.00000E+00
    0.73925E+06        -0.16664E+07         0.00000E+00
    0.00000E+00         0.00000E+00         0.00000E+00
 
    0.44240E+06         0.76282E+06         0.00000E+00
    0.76282E+06        -0.16587E+07         0.00000E+00
    0.00000E+00         0.00000E+00         0.00000E+00
 
    0.42330E+06         0.78621E+06         0.00000E+00
    0.78621E+06        -0.16509E+07         0.00000E+00
    0.00000E+00         0.00000E+00         0.00000E+00
 
    0.40393E+06         0.80942E+06         0.00000E+00
    0.80942E+06        -0.16428E+07         0.00000E+00
    0.00000E+00         0.00000E+00         0.00000E+00
 
    0.38430E+06         0.83243E+06         0.00000E+00
    0.83243E+06        -0.16344E+07         0.00000E+00
    0.00000E+00         0.00000E+00         0.00000E+00
 
    0.36440E+06         0.85526E+06         0.00000E+00
    0.85526E+06        -0.16259E+07         0.00000E+00
    0.00000E+00         0.00000E+00         0.00000E+00
 
    0.34424E+06         0.87790E+06         0.00000E+00
    0.87790E+06        -0.16171E+07         0.00000E+00
    0.00000E+00         0.00000E+00         0.00000E+00
 
    0.32381E+06         0.90035E+06         0.00000E+00
    0.90035E+06        -0.16081E+07         0.00000E+00
    0.00000E+00         0.00000E+00         0.00000E+00
 
    0.30313E+06         0.92259E+06         0.00000E+00
    0.92259E+06        -0.15989E+07         0.00000E+00
    0.00000E+00         0.00000E+00         0.00000E+00
 
    0.28220E+06         0.94464E+06         0.00000E+00
    0.94464E+06        -0.15895E+07         0.00000E+00
    0.00000E+00         0.00000E+00         0.00000E+00
 
    0.26101E+06         0.96650E+06         0.00000E+00
    0.96650E+06        -0.15798E+07         0.00000E+00
    0.00000E+00         0.00000E+00         0.00000E+00
 
    0.23957E+06         0.98814E+06         0.00000E+00
    0.98814E+06        -0.15700E+07         0.00000E+00
    0.00000E+00         0.00000E+00         0.00000E+00
 
    0.21789E+06         0.10096E+07         0.00000E+00
    0.10096E+07        -0.15599E+07         0.00000E+00
    0.00000E+00         0.00000E+00         0.00000E+00
 
    0.19596E+06         0.10308E+07         0.00000E+00
    0.10308E+07        -0.15497E+07         0.00000E+00
    0.00000E+00         0.00000E+00         0.00000E+00
 
    0.17378E+06         0.10519E+07         0.00000E+00
    0.10519E+07        -0.15392E+07         0.00000E+00
    0.00000E+00         0.00000E+00         0.00000E+00
 
    0.15137E+06         0.10727E+07         0.00000E+00
    0.10727E+07        -0.15285E+07         0.00000E+00
    0.00000E+00         0.00000E+00         0.00000E+00
 
    0.12871E+06         0.10933E+07         0.00000E+00
    0.10933E+07        -0.15177E+07         0.00000E+00
    0.00000E+00         0.00000E+00         0.00000E+00
 
    0.10583E+06         0.11137E+07         0.00000E+00
    0.11137E+07        -0.15066E+07         0.00000E+00
    0.00000E+00         0.00000E+00         0.00000E+00
 
    0.82703E+05         0.11339E+07         0.00000E+00
    0.11339E+07        -0.14953E+07         0.00000E+00
    0.00000E+00         0.00000E+00         0.00000E+00
 
    0.59349E+05         0.11538E+07         0.00000E+00
    0.11538E+07        -0.14839E+07         0.00000E+00
    0.00000E+00         0.00000E+00         0.00000E+00
 
    0.35768E+05         0.11736E+07         0.00000E+00
    0.11736E+07        -0.14722E+07         0.00000E+00
    0.00000E+00         0.00000E+00         0.00000E+00
 
    0.11960E+05         0.11931E+07         0.00000E+00
    0.11931E+07        -0.14604E+07         0.00000E+00
    0.00000E+00         0.00000E+00         0.00000E+00
 
    0.91134E+06         0.14742E+05         0.00000E+00
    0.14742E+05        -0.18772E+07         0.00000E+00
    0.00000E+00         0.00000E+00         0.00000E+00
 
    0.90054E+06         0.43901E+05         0.00000E+00
    0.43901E+05        -0.18769E+07         0.00000E+00
    0.00000E+00         0.00000E+00         0.00000E+00
 
    0.88939E+06         0.72939E+05         0.00000E+00
    0.72939E+05        -0.18763E+07         0.00000E+00
    0.00000E+00         0.00000E+00         0.00000E+00
 
    0.87788E+06         0.10185E+06         0.00000E+00
    0.10185E+06        -0.18753E+07         0.00000E+00
    0.00000E+00         0.00000E+00         0.00000E+00
 
    0.86603E+06         0.13063E+06         0.00000E+00
    0.13063E+06        -0.18741E+07         0.00000E+00
    0.00000E+00         0.00000E+00         0.00000E+00
 
    0.85382E+06         0.15929E+06         0.00000E+00
    0.15929E+06        -0.18726E+07         0.00000E+00
    0.00000E+00         0.00000E+00         0.00000E+00
 
    0.84128E+06         0.18781E+06         0.00000E+00
    0.18781E+06        -0.18708E+07         0.00000E+00
    0.00000E+00         0.00000E+00         0.00000E+00
 
    0.82839E+06         0.21619E+06         0.00000E+00
    0.21619E+06        -0.18687E+07         0.00000E+00
    0.00000E+00         0.00000E+00         0.00000E+00
 
    0.81516E+06         0.24444E+06         0.00000E+00
    0.24444E+06        -0.18663E+07         0.00000E+00
    0.00000E+00         0.00000E+00         0.00000E+00
 
    0.80160E+06         0.27255E+06         0.00000E+00
    0.27255E+06        -0.18636E+07         0.00000E+00
    0.00000E+00         0.00000E+00         0.00000E+00
 
    0.78770E+06         0.30051E+06         0.00000E+00
    0.30051E+06        -0.18606E+07         0.00000E+00
    0.00000E+00         0.00000E+00         0.00000E+00
 
    0.77347E+06         0.32832E+06         0.00000E+00
    0.32832E+06        -0.18574E+07         0.00000E+00
    0.00000E+00         0.00000E+00         0.00000E+00
 
    0.75891E+06         0.35599E+06         0.00000E+00
    0.35599E+06        -0.18538E+07         0.00000E+00
    0.00000E+00         0.00000E+00         0.00000E+00
 
    0.74403E+06         0.38350E+06         0.00000E+00
    0.38350E+06        -0.18500E+07         0.00000E+00
    0.00000E+00         0.00000E+00         0.00000E+00
 
    0.72882E+06         0.41086E+06         0.00000E+00
    0.41086E+06        -0.18459E+07         0.00000E+00
    0.00000E+00         0.00000E+00         0.00000E+00
 
    0.71329E+06         0.43807E+06         0.00000E+00
    0.43807E+06        -0.18415E+07         0.00000E+00
    0.00000E+00         0.00000E+00         0.00000E+00
 
    0.69745E+06         0.46512E+06         0.00000E+00
    0.46512E+06        -0.18369E+07         0.00000E+00
    0.00000E+00         0.00000E+00         0.00000E+00
 
    0.68129E+06         0.49200E+06         0.00000E+00
    0.49200E+06        -0.18320E+07         0.00000E+00
    0.00000E+00         0.00000E+00         0.00000E+00
 
    0.66481E+06         0.51873E+06         0.00000E+00
    0.51873E+06        -0.18268E+07         0.00000E+00
    0.00000E+00         0.00000E+00         0.00000E+00
 
    0.64803E+06         0.54528E+06         0.00000E+00
    0.54528E+06        -0.18214E+07         0.00000E+00
    0.00000E+00         0.00000E+00         0.00000E+00
 
    0.63094E+06         0.57167E+06         0.00000E+00
    0.57167E+06        -0.18156E+07         0.00000E+00
    0.00000E+00         0.00000E+00         0.00000E+00
 
    0.61354E+06         0.59789E+06         0.00000E+00
    0.59789E+06        -0.18097E+07         0.00000E+00
    0.00000E+00         0.00000E+00         0.00000E+00
 
    0.59584E+06         0.62394E+06         0.00000E+00
    0.62394E+06        -0.18034E+07         0.00000E+00
    0.00000E+00         0.00000E+00         0.00000E+00
 
    0.57784E+06         0.64981E+06         0.00000E+00
    0.64981E+06        -0.17969E+07         0.00000E+00
    0.00000E+00         0.00000E+00         0.00000E+00
 
    0.55954E+06         0.67551E+06         0.00000E+00
    0.67551E+06        -0.17902E+07         0.00000E+00
    0.00000E+00         0.00000E+00         0.00000E+00
 
    0.54095E+06         0.70102E+06         0.00000E+00
    0.70102E+06        -0.17832E+07         0.00000E+00
    0.00000E+00         0.00000E+00         0.00000E+00
 
    0.52206E+06         0.72636E+06         0.00000E+00
    0.72636E+06        -0.17759E+07         0.00000E+00
    0.00000E+00         0.00000E+00         0.00000E+00
 
    0.50289E+06         0.75151E+06         0.00000E+00
    0.75151E+06        -0.17684E+07         0.00000E+00
    0.00000E+00         0.00000E+00         0.00000E+00
 
    0.48342E+06         0.77648E+06         0.00000E+00
    0.77648E+06        -0.17607E+07         0.00000E+00
    0.00000E+00         0.00000E+00         0.00000E+00
 
    0.46368E+06         0.80125E+06         0.00000E+00
    0.80125E+06        -0.17527E+07         0.00000E+00
    0.00000E+00         0.00000E+00         0.00000E+00
 
    0.44364E+06         0.82584E+06         0.00000E+00
    0.82584E+06        -0.17445E+07         0.00000E+00
    0.00000E+00         0.00000E+00         0.00000E+00
 
    0.42333E+06         0.85024E+06         0.00000E+00
    0.85024E+06        -0.17360E+07         0.00000E+00
    0.00000E+00         0.00000E+00         0.00000E+00
 
    0.40274E+06         0.87444E+06         0.00000E+00
    0.87444E+06        -0.17273E+07         0.00000E+00
    0.00000E+00         0.00000E+00         0.00000E+00
 
    0.38188E+06         0.89845E+06         0.00000E+00
    0.89845E+06        -0.17184E+07         0.00000E+00
    0.00000E+00         0.00000E+00         0.00000E+00
 
    0.36074E+06         0.92225E+06         0.00000E+00
    0.92225E+06        -0.17092E+07         0.00000E+00
    0.00000E+00         0.00000E+00         0.00000E+00
 
    0.33933E+06         0.94586E+06         0.00000E+00
    0.94586E+06        -0.16998E+07         0.00000E+00
    0.00000E+00         0.00000E+00         0.00000E+00
 
    0.31765E+06         0.96926E+06         0.00000E+00
    0.96926E+06        -0.16902E+07         0.00000E+00
    0.00000E+00         0.00000E+00         0.00000E+00
 
    0.29571E+06         0.99246E+06         0.00000E+00
    0.99246E+06        -0.16803E+07         0.00000E+00
    0.00000E+00         0.00000E+00         0.00000E+00
 
    0.27350E+06         0.10155E+07         0.00000E+00
    0.10155E+07        -0.16702E+07         0.00000E+00
    0.00000E+00         0.00000E+00         0.00000E+00
 
    0.25103E+06         0.10382E+07         0.00000E+00
    0.10382E+07        -0.16599E+07         0.00000E+00
    0.00000E+00         0.00000E+00         0.00000E+00
 
    0.22830E+06         0.10608E+07         0.00000E+00
    0.10608E+07        -0.16494E+07         0.00000E+00
    0.00000E+00         0.00000E+00         0.00000E+00
 
    0.20532E+06         0.10832E+07         0.00000E+00
    0.10832E+07        -0.16386E+07         0.00000E+00
    0.00000E+00         0.00000E+00         0.00000E+00
 
    0.18209E+06         0.11053E+07         0.00000E+00
    0.11053E+07        -0.16277E+07         0.00000E+00
    0.00000E+00         0.00000E+00         0.00000E+00
 
    0.15860E+06         0.11272E+07         0.00000E+00
    0.11272E+07        -0.16165E+07         0.00000E+00
    0.00000E+00         0.00000E+00         0.00000E+00
 
    0.13486E+06         0.11489E+07         0.00000E+00
    0.11489E+07        -0.16052E+07         0.00000E+00
    0.00000E+00         0.00000E+00         0.00000E+00
 
    0.11088E+06         0.11704E+07         0.00000E+00
    0.11704E+07        -0.15936E+07         0.00000E+00
    0.00000E+00         0.00000E+00         0.00000E+00
 
    0.86651E+05         0.11917E+07         0.00000E+00
    0.11917E+07        -0.15818E+07         0.00000E+00
    0.00000E+00         0.00000E+00         0.00000E+00
 
    0.62183E+05         0.12127E+07         0.00000E+00
    0.12127E+07        -0.15698E+07         0.00000E+00
    0.00000E+00         0.00000E+00         0.00000E+00
 
    0.37475E+05         0.12335E+07         0.00000E+00
    0.12335E+07        -0.15576E+07         0.00000E+00
    0.00000E+00         0.00000E+00         0.00000E+00
 
    0.12531E+05         0.12541E+07         0.00000E+00
    0.12541E+07        -0.15452E+07         0.00000E+00
    0.00000E+00         0.00000E+00         0.00000E+00
 
    0.95647E+06         0.15482E+05         0.00000E+00
    0.15482E+05        -0.19818E+07         0.00000E+00
    0.00000E+00         0.00000E+00         0.00000E+00
 
    0.94506E+06         0.46100E+05         0.00000E+00
    0.46100E+05        -0.19815E+07         0.00000E+00
    0.00000E+00         0.00000E+00         0.00000E+00
 
    0.93327E+06         0.76589E+05         0.00000E+00
    0.76589E+05        -0.19808E+07         0.00000E+00
    0.00000E+00         0.00000E+00         0.00000E+00
 
    0.92112E+06         0.10695E+06         0.00000E+00
    0.10695E+06        -0.19799E+07         0.00000E+00
    0.00000E+00         0.00000E+00         0.00000E+00
 
    0.90860E+06         0.13717E+06         0.00000E+00
    0.13717E+06        -0.19786E+07         0.00000E+00
    0.00000E+00         0.00000E+00         0.00000E+00
 
    0.89572E+06         0.16725E+06         0.00000E+00
    0.16725E+06        -0.19770E+07         0.00000E+00
    0.00000E+00         0.00000E+00         0.00000E+00
 
    0.88249E+06         0.19720E+06         0.00000E+00
    0.19720E+06        -0.19751E+07         0.00000E+00
    0.00000E+00         0.00000E+00         0.00000E+00
 
    0.86890E+06         0.22700E+06         0.00000E+00
    0.22700E+06        -0.19729E+07         0.00000E+00
    0.00000E+00         0.00000E+00         0.00000E+00
 
    0.85496E+06         0.25665E+06         0.00000E+00
    0.25665E+06        -0.19704E+07         0.00000E+00
    0.00000E+00         0.00000E+00         0.00000E+00
 
    0.84067E+06         0.28616E+06         0.00000E+00
    0.28616E+06        -0.19676E+07         0.00000E+00
    0.00000E+00         0.00000E+00         0.00000E+00
 
    0.82603E+06         0.31552E+06         0.00000E+00
    0.31552E+06        -0.19645E+07         0.00000E+00
    0.00000E+00         0.00000E+00         0.00000E+00
 
    0.81105E+06         0.34472E+06         0.00000E+00
    0.34472E+06        -0.19611E+07         0.00000E+00
    0.00000E+00         0.00000E+00         0.00000E+00
 
    0.79573E+06         0.37377E+06         0.00000E+00
    0.37377E+06        -0.19574E+07         0.00000E+00
    0.00000E+00         0.00000E+00         0.00000E+00
 
    0.78007E+06         0.40265E+06         0.00000E+00
    0.40265E+06        -0.19534E+07         0.00000E+00
    0.00000E+00         0.00000E+00         0.00000E+00
 
    0.76407E+06         0.43138E+06         0.00000E+00
    0.43138E+06        -0.19492E+07         0.00000E+00
    0.00000E+00         0.00000E+00         0.00000E+00
 
    0.74775E+06         0.45995E+06         0.00000E+00
    0.45995E+06        -0.19446E+07         0.00000E+00
    0.00000E+00         0.00000E+00         0.00000E+00
 
    0.73109E+06         0.48835E+06         0.00000E+00
    0.48835E+06        -0.19398E+07         0.00000E+00
    0.00000E+00         0.00000E+00         0.00000E+00
 
    0.71411E+06         0.51658E+06         0.00000E+00
    0.51658E+06        -0.19346E+07         0.00000E+00
    0.00000E+00         0.00000E+00         0.00000E+00
 
    0.69680E+06         0.54464E+06         0.00000E+00
    0.54464E+06        -0.19292E+07         0.00000E+00
    0.00000E+00         0.00000E+00         0.00000E+00
 
    0.67917E+06         0.57253E+06         0.00000E+00
    0.57253E+06        -0.19235E+07         0.00000E+00
    0.00000E+00         0.00000E+00         0.00000E+00
 
    0.66122E+06         0.60024E+06         0.00000E+00
    0.60024E+06        -0.19176E+07         0.00000E+00
    0.00000E+00         0.00000E+00         0.00000E+00
 
    0.64295E+06         0.62778E+06         0.00000E+00
    0.62778E+06        -0.19113E+07         0.00000E+00
    0.00000E+00         0.00000E+00         0.00000E+00
 
    0.62437E+06         0.65514E+06         0.00000E+00
    0.65514E+06        -0.19048E+07         0.00000E+00
    0.00000E+00         0.00000E+00         0.00000E+00
 
    0.60548E+06         0.68232E+06         0.00000E+00
    0.68232E+06        -0.18981E+07         0.00000E+00
    0.00000E+00         0.00000E+00         0.00000E+00
 
    0.58628E+06         0.70931E+06         0.00000E+00
    0.70931E+06        -0.18910E+07         0.00000E+00
    0.00000E+00         0.00000E+00         0.00000E+00
 
    0.56677E+06         0.73611E+06         0.00000E+00
    0.73611E+06        -0.18837E+07         0.00000E+00
    0.00000E+00         0.00000E+00         0.00000E+00
 
    0.54696E+06         0.76273E+06         0.00000E+00
    0.76273E+06        -0.18761E+07         0.00000E+00
    0.00000E+00         0.00000E+00         0.00000E+00
 
    0.52685E+06         0.78916E+06         0.00000E+00
    0.78916E+06        -0.18683E+07         0.00000E+00
    0.00000E+00         0.00000E+00         0.00000E+00
 
    0.50644E+06         0.81539E+06         0.00000E+00
    0.81539E+06        -0.18602E+07         0.00000E+00
    0.00000E+00         0.00000E+00         0.00000E+00
 
    0.48573E+06         0.84143E+06         0.00000E+00
    0.84143E+06        -0.18519E+07         0.00000E+00
    0.00000E+00         0.00000E+00         0.00000E+00
 
    0.46473E+06         0.86728E+06         0.00000E+00
    0.86728E+06        -0.18433E+07         0.00000E+00
    0.00000E+00         0.00000E+00         0.00000E+00
 
    0.44344E+06         0.89292E+06         0.00000E+00
    0.89292E+06        -0.18345E+07         0.00000E+00
    0.00000E+00         0.00000E+00         0.00000E+00
 
    0.42186E+06         0.91836E+06         0.00000E+00
    0.91836E+06        -0.18254E+07         0.00000E+00
    0.00000E+00         0.00000E+00         0.00000E+00
 
    0.39999E+06         0.94360E+06         0.00000E+00
    0.94360E+06        -0.18160E+07         0.00000E+00
    0.00000E+00         0.00000E+00         0.00000E+00
 
    0.37784E+06         0.96863E+06         0.00000E+00
    0.96863E+06        -0.18064E+07         0.00000E+00
    0.00000E+00         0.00000E+00         0.00000E+00
 
    0.35540E+06         0.99346E+06         0.00000E+00
    0.99346E+06        -0.17966E+07         0.00000E+00
    0.00000E+00         0.00000E+00         0.00000E+00
 
    0.33269E+06         0.10181E+07         0.00000E+00
    0.10181E+07        -0.17866E+07         0.00000E+00
    0.00000E+00         0.00000E+00         0.00000E+00
 
    0.30970E+06         0.10425E+07         0.00000E+00
    0.10425E+07        -0.17762E+07         0.00000E+00
    0.00000E+00         0.00000E+00         0.00000E+00
 
    0.28644E+06         0.10667E+07         0.00000E+00
    0.10667E+07        -0.17657E+07         0.00000E+00
    0.00000E+00         0.00000E+00         0.00000E+00
 
    0.26290E+06         0.10906E+07         0.00000E+00
    0.10906E+07        -0.17549E+07         0.00000E+00
    0.00000E+00         0.00000E+00         0.00000E+00
 
    0.23910E+06         0.11144E+07         0.00000E+00
    0.11144E+07        -0.17439E+07         0.00000E+00
    0.00000E+00         0.00000E+00         0.00000E+00
 
    0.21503E+06         0.11379E+07         0.00000E+00
    0.11379E+07        -0.17327E+07         0.00000E+00
    0.00000E+00         0.00000E+00         0.00000E+00
 
    0.19069E+06         0.11612E+07         0.00000E+00
    0.11612E+07        -0.17213E+07         0.00000E+00
    0.00000E+00         0.00000E+00         0.00000E+00
 
    0.16609E+06         0.11843E+07         0.00000E+00
    0.11843E+07        -0.17096E+07         0.00000E+00
    0.00000E+00         0.00000E+00         0.00000E+00
 
    0.14123E+06         0.12072E+07         0.00000E+00
    0.12072E+07        -0.16977E+07         0.00000E+00
    0.00000E+00         0.00000E+00         0.00000E+00
 
    0.11611E+06         0.12298E+07         0.00000E+00
    0.12298E+07        -0.16856E+07         0.00000E+00
    0.00000E+00         0.00000E+00         0.00000E+00
 
    0.90742E+05         0.12522E+07         0.00000E+00
    0.12522E+07        -0.16732E+07         0.00000E+00
    0.00000E+00         0.00000E+00         0.00000E+00
 
    0.65118E+05         0.12743E+07         0.00000E+00
    0.12743E+07        -0.16607E+07         0.00000E+00
    0.00000E+00         0.00000E+00         0.00000E+00
 
    0.39244E+05         0.12963E+07         0.00000E+00
    0.12963E+07        -0.16479E+07         0.00000E+00
    0.00000E+00         0.00000E+00         0.00000E+00
 
    0.13123E+05         0.13180E+07         0.00000E+00
    0.13180E+07        -0.16349E+07         0.00000E+00
    0.00000E+00         0.00000E+00         0.00000E+00
 
    0.10034E+07         0.16254E+05         0.00000E+00
    0.16254E+05        -0.20920E+07         0.00000E+00
    0.00000E+00         0.00000E+00         0.00000E+00
 
    0.99136E+06         0.48396E+05         0.00000E+00
    0.48396E+05        -0.20917E+07         0.00000E+00
    0.00000E+00         0.00000E+00         0.00000E+00
 
    0.97891E+06         0.80401E+05         0.00000E+00
    0.80401E+05        -0.20910E+07         0.00000E+00
    0.00000E+00         0.00000E+00         0.00000E+00
 
    0.96607E+06         0.11227E+06         0.00000E+00
    0.11227E+06        -0.20900E+07         0.00000E+00
    0.00000E+00         0.00000E+00         0.00000E+00
 
    0.95285E+06         0.14399E+06         0.00000E+00
    0.14399E+06        -0.20887E+07         0.00000E+00
    0.00000E+00         0.00000E+00         0.00000E+00
 
    0.93926E+06         0.17557E+06         0.00000E+00
    0.17557E+06        -0.20871E+07         0.00000E+00
    0.00000E+00         0.00000E+00         0.00000E+00
 
    0.92530E+06         0.20700E+06         0.00000E+00
    0.20700E+06        -0.20851E+07         0.00000E+00
    0.00000E+00         0.00000E+00         0.00000E+00
 
    0.91098E+06         0.23828E+06         0.00000E+00
    0.23828E+06        -0.20828E+07         0.00000E+00
    0.00000E+00         0.00000E+00         0.00000E+00
 
    0.89629E+06         0.26940E+06         0.00000E+00
    0.26940E+06        -0.20802E+07         0.00000E+00
    0.00000E+00         0.00000E+00         0.00000E+00
 
    0.88123E+06         0.30037E+06         0.00000E+00
    0.30037E+06        -0.20773E+07         0.00000E+00
    0.00000E+00         0.00000E+00         0.00000E+00
 
    0.86582E+06         0.33119E+06         0.00000E+00
    0.33119E+06        -0.20740E+07         0.00000E+00
    0.00000E+00         0.00000E+00         0.00000E+00
 
    0.85005E+06         0.36184E+06         0.00000E+00
    0.36184E+06        -0.20705E+07         0.00000E+00
    0.00000E+00         0.00000E+00         0.00000E+00
 
    0.83393E+06         0.39233E+06         0.00000E+00
    0.39233E+06        -0.20666E+07         0.00000E+00
    0.00000E+00         0.00000E+00         0.00000E+00
 
    0.81746E+06         0.42265E+06         0.00000E+00
    0.42265E+06        -0.20625E+07         0.00000E+00
    0.00000E+00         0.00000E+00         0.00000E+00
 
    0.80064E+06         0.45280E+06         0.00000E+00
    0.45280E+06        -0.20580E+07         0.00000E+00
    0.00000E+00         0.00000E+00         0.00000E+00
 
    0.78348E+06         0.48279E+06         0.00000E+00
    0.48279E+06        -0.20533E+07         0.00000E+00
    0.00000E+00         0.00000E+00         0.00000E+00
 
    0.76598E+06         0.51260E+06         0.00000E+00
    0.51260E+06        -0.20482E+07         0.00000E+00
    0.00000E+00         0.00000E+00         0.00000E+00
 
    0.74813E+06         0.54224E+06         0.00000E+00
    0.54224E+06        -0.20429E+07         0.00000E+00
    0.00000E+00         0.00000E+00         0.00000E+00
 
    0.72996E+06         0.57170E+06         0.00000E+00
    0.57170E+06        -0.20372E+07         0.00000E+00
    0.00000E+00         0.00000E+00         0.00000E+00
 
    0.71144E+06         0.60098E+06         0.00000E+00
    0.60098E+06        -0.20313E+07         0.00000E+00
    0.00000E+00         0.00000E+00         0.00000E+00
 
    0.69260E+06         0.63008E+06         0.00000E+00
    0.63008E+06        -0.20251E+07         0.00000E+00
    0.00000E+00         0.00000E+00         0.00000E+00
 
    0.67343E+06         0.65899E+06         0.00000E+00
    0.65899E+06        -0.20186E+07         0.00000E+00
    0.00000E+00         0.00000E+00         0.00000E+00
 
    0.65393E+06         0.68772E+06         0.00000E+00
    0.68772E+06        -0.20118E+07         0.00000E+00
    0.00000E+00         0.00000E+00         0.00000E+00
 
    0.63411E+06         0.71626E+06         0.00000E+00
    0.71626E+06        -0.20048E+07         0.00000E+00
    0.00000E+00         0.00000E+00         0.00000E+00
 
    0.61397E+06         0.74461E+06         0.00000E+00
    0.74461E+06        -0.19974E+07         0.00000E+00
    0.00000E+00         0.00000E+00         0.00000E+00
 
    0.59352E+06         0.77276E+06         0.00000E+00
    0.77276E+06        -0.19898E+07         0.00000E+00
    0.00000E+00         0.00000E+00         0.00000E+00
 
    0.57275E+06         0.80072E+06         0.00000E+00
    0.80072E+06        -0.19819E+07         0.00000E+00
    0.00000E+00         0.00000E+00         0.00000E+00
 
    0.55166E+06         0.82848E+06         0.00000E+00
    0.82848E+06        -0.19737E+07         0.00000E+00
    0.00000E+00         0.00000E+00         0.00000E+00
 
    0.53027E+06         0.85605E+06         0.00000E+00
    0.85605E+06        -0.19653E+07         0.00000E+00
    0.00000E+00         0.00000E+00         0.00000E+00
 
    0.50857E+06         0.88341E+06         0.00000E+00
    0.88341E+06        -0.19566E+07         0.00000E+00
    0.00000E+00         0.00000E+00         0.00000E+00
 
    0.48656E+06         0.91056E+06         0.00000E+00
    0.91056E+06        -0.19476E+07         0.00000E+00
    0.00000E+00         0.00000E+00         0.00000E+00
 
    0.46425E+06         0.93751E+06         0.00000E+00
    0.93751E+06        -0.19384E+07         0.00000E+00
    0.00000E+00         0.00000E+00         0.00000E+00
 
    0.44164E+06         0.96426E+06         0.00000E+00
    0.96426E+06        -0.19289E+07         0.00000E+00
    0.00000E+00         0.00000E+00         0.00000E+00
 
    0.41874E+06         0.99079E+06         0.00000E+00
    0.99079E+06        -0.19192E+07         0.00000E+00
    0.00000E+00         0.00000E+00         0.00000E+00
 
    0.39553E+06         0.10171E+07         0.00000E+00
    0.10171E+07        -0.19092E+07         0.00000E+00
    0.00000E+00         0.00000E+00         0.00000E+00
 
    0.37204E+06         0.10432E+07         0.00000E+00
    0.10432E+07        -0.18989E+07         0.00000E+00
    0.00000E+00         0.00000E+00         0.00000E+00
 
    0.34825E+06         0.10691E+07         0.00000E+00
    0.10691E+07        -0.18884E+07         0.00000E+00
    0.00000E+00         0.00000E+00         0.00000E+00
 
    0.32418E+06         0.10948E+07         0.00000E+00
    0.10948E+07        -0.18776E+07         0.00000E+00
    0.00000E+00         0.00000E+00         0.00000E+00
 
    0.29982E+06         0.11202E+07         0.00000E+00
    0.11202E+07        -0.18666E+07         0.00000E+00
    0.00000E+00         0.00000E+00         0.00000E+00
 
    0.27518E+06         0.11454E+07         0.00000E+00
    0.11454E+07        -0.18554E+07         0.00000E+00
    0.00000E+00         0.00000E+00         0.00000E+00
 
    0.25026E+06         0.11704E+07         0.00000E+00
    0.11704E+07        -0.18439E+07         0.00000E+00
    0.00000E+00         0.00000E+00         0.00000E+00
 
    0.22506E+06         0.11952E+07         0.00000E+00
    0.11952E+07        -0.18322E+07         0.00000E+00
    0.00000E+00         0.00000E+00         0.00000E+00
 
    0.19959E+06         0.12197E+07         0.00000E+00
    0.12197E+07        -0.18202E+07         0.00000E+00
    0.00000E+00         0.00000E+00         0.00000E+00
 
    0.17384E+06         0.12440E+07         0.00000E+00
    0.12440E+07        -0.18080E+07         0.00000E+00
    0.00000E+00         0.00000E+00         0.00000E+00
 
    0.14782E+06         0.12681E+07         0.00000E+00
    0.12681E+07        -0.17955E+07         0.00000E+00
    0.00000E+00         0.00000E+00         0.00000E+00
 
    0.12153E+06         0.12919E+07         0.00000E+00
    0.12919E+07        -0.17829E+07         0.00000E+00
    0.00000E+00         0.00000E+00         0.00000E+00
 
    0.94974E+05         0.13155E+07         0.00000E+00
    0.13155E+07        -0.17700E+07         0.00000E+00
    0.00000E+00         0.00000E+00         0.00000E+00
 
    0.68155E+05         0.13389E+07         0.00000E+00
    0.13389E+07        -0.17568E+07         0.00000E+00
    0.00000E+00         0.00000E+00         0.00000E+00
 
    0.41074E+05         0.13620E+07         0.00000E+00
    0.13620E+07        -0.17435E+07         0.00000E+00
    0.00000E+00         0.00000E+00         0.00000E+00
 
    0.13734E+05         0.13848E+07         0.00000E+00
    0.13848E+07        -0.17299E+07         0.00000E+00
    0.00000E+00         0.00000E+00         0.00000E+00
 
    0.10523E+07         0.17060E+05         0.00000E+00
    0.17060E+05        -0.22082E+07         0.00000E+00
    0.00000E+00         0.00000E+00         0.00000E+00
 
    0.10395E+07         0.50792E+05         0.00000E+00
    0.50792E+05        -0.22079E+07         0.00000E+00
    0.00000E+00         0.00000E+00         0.00000E+00
 
    0.10263E+07         0.84379E+05         0.00000E+00
    0.84379E+05        -0.22072E+07         0.00000E+00
    0.00000E+00         0.00000E+00         0.00000E+00
 
    0.10127E+07         0.11782E+06         0.00000E+00
    0.11782E+06        -0.22061E+07         0.00000E+00
    0.00000E+00         0.00000E+00         0.00000E+00
 
    0.99880E+06         0.15111E+06         0.00000E+00
    0.15111E+06        -0.22048E+07         0.00000E+00
    0.00000E+00         0.00000E+00         0.00000E+00
 
    0.98446E+06         0.18424E+06         0.00000E+00
    0.18424E+06        -0.22031E+07         0.00000E+00
    0.00000E+00         0.00000E+00         0.00000E+00
 
    0.96974E+06         0.21722E+06         0.00000E+00
    0.21722E+06        -0.22010E+07         0.00000E+00
    0.00000E+00         0.00000E+00         0.00000E+00
 
    0.95463E+06         0.25004E+06         0.00000E+00
    0.25004E+06        -0.21986E+07         0.00000E+00
    0.00000E+00         0.00000E+00         0.00000E+00
 
    0.93915E+06         0.28270E+06         0.00000E+00
    0.28270E+06        -0.21959E+07         0.00000E+00
    0.00000E+00         0.00000E+00         0.00000E+00
 
    0.92330E+06         0.31520E+06         0.00000E+00
    0.31520E+06        -0.21929E+07         0.00000E+00
    0.00000E+00         0.00000E+00         0.00000E+00
 
    0.90707E+06         0.34753E+06         0.00000E+00
    0.34753E+06        -0.21895E+07         0.00000E+00
    0.00000E+00         0.00000E+00         0.00000E+00
 
    0.89048E+06         0.37969E+06         0.00000E+00
    0.37969E+06        -0.21858E+07         0.00000E+00
    0.00000E+00         0.00000E+00         0.00000E+00
 
    0.87352E+06         0.41169E+06         0.00000E+00
    0.41169E+06        -0.21818E+07         0.00000E+00
    0.00000E+00         0.00000E+00         0.00000E+00
 
    0.85620E+06         0.44351E+06         0.00000E+00
    0.44351E+06        -0.21775E+07         0.00000E+00
    0.00000E+00         0.00000E+00         0.00000E+00
 
    0.83852E+06         0.47515E+06         0.00000E+00
    0.47515E+06        -0.21728E+07         0.00000E+00
    0.00000E+00         0.00000E+00         0.00000E+00
 
    0.82049E+06         0.50662E+06         0.00000E+00
    0.50662E+06        -0.21679E+07         0.00000E+00
    0.00000E+00         0.00000E+00         0.00000E+00
 
    0.80210E+06         0.53790E+06         0.00000E+00
    0.53790E+06        -0.21626E+07         0.00000E+00
    0.00000E+00         0.00000E+00         0.00000E+00
 
    0.78336E+06         0.56901E+06         0.00000E+00
    0.56901E+06        -0.21571E+07         0.00000E+00
    0.00000E+00         0.00000E+00         0.00000E+00
 
    0.76427E+06         0.59993E+06         0.00000E+00
    0.59993E+06        -0.21512E+07         0.00000E+00
    0.00000E+00         0.00000E+00         0.00000E+00
 
    0.74484E+06         0.63066E+06         0.00000E+00
    0.63066E+06        -0.21450E+07         0.00000E+00
    0.00000E+00         0.00000E+00         0.00000E+00
 
    0.72507E+06         0.66120E+06         0.00000E+00
    0.66120E+06        -0.21385E+07         0.00000E+00
    0.00000E+00         0.00000E+00         0.00000E+00
 
    0.70496E+06         0.69155E+06         0.00000E+00
    0.69155E+06        -0.21318E+07         0.00000E+00
    0.00000E+00         0.00000E+00         0.00000E+00
 
    0.68451E+06         0.72171E+06         0.00000E+00
    0.72171E+06        -0.21247E+07         0.00000E+00
    0.00000E+00         0.00000E+00         0.00000E+00
 
    0.66373E+06         0.75168E+06         0.00000E+00
    0.75168E+06        -0.21174E+07         0.00000E+00
    0.00000E+00         0.00000E+00         0.00000E+00
 
    0.64261E+06         0.78144E+06         0.00000E+00
    0.78144E+06        -0.21097E+07         0.00000E+00
    0.00000E+00         0.00000E+00         0.00000E+00
 
    0.62117E+06         0.81101E+06         0.00000E+00
    0.81101E+06        -0.21018E+07         0.00000E+00
    0.00000E+00         0.00000E+00         0.00000E+00
 
    0.59940E+06         0.84037E+06         0.00000E+00
    0.84037E+06        -0.20935E+07         0.00000E+00
    0.00000E+00         0.00000E+00         0.00000E+00
 
    0.57731E+06         0.86953E+06         0.00000E+00
    0.86953E+06        -0.20850E+07         0.00000E+00
    0.00000E+00         0.00000E+00         0.00000E+00
 
    0.55490E+06         0.89848E+06         0.00000E+00
    0.89848E+06        -0.20762E+07         0.00000E+00
    0.00000E+00         0.00000E+00         0.00000E+00
 
    0.53217E+06         0.92722E+06         0.00000E+00
    0.92722E+06        -0.20672E+07         0.00000E+00
    0.00000E+00         0.00000E+00         0.00000E+00
 
    0.50912E+06         0.95575E+06         0.00000E+00
    0.95575E+06        -0.20578E+07         0.00000E+00
    0.00000E+00         0.00000E+00         0.00000E+00
 
    0.48576E+06         0.98407E+06         0.00000E+00
    0.98407E+06        -0.20482E+07         0.00000E+00
    0.00000E+00         0.00000E+00         0.00000E+00
 
    0.46208E+06         0.10122E+07         0.00000E+00
    0.10122E+07        -0.20383E+07         0.00000E+00
    0.00000E+00         0.00000E+00         0.00000E+00
 
    0.43810E+06         0.10401E+07         0.00000E+00
    0.10401E+07        -0.20281E+07         0.00000E+00
    0.00000E+00         0.00000E+00         0.00000E+00
 
    0.41382E+06         0.10677E+07         0.00000E+00
    0.10677E+07        -0.20177E+07         0.00000E+00
    0.00000E+00         0.00000E+00         0.00000E+00
 
    0.38922E+06         0.10952E+07         0.00000E+00
    0.10952E+07        -0.20070E+07         0.00000E+00
    0.00000E+00         0.00000E+00         0.00000E+00
 
    0.36433E+06         0.11224E+07         0.00000E+00
    0.11224E+07        -0.19961E+07         0.00000E+00
    0.00000E+00         0.00000E+00         0.00000E+00
 
    0.33914E+06         0.11494E+07         0.00000E+00
    0.11494E+07        -0.19848E+07         0.00000E+00
    0.00000E+00         0.00000E+00         0.00000E+00
 
    0.31365E+06         0.11761E+07         0.00000E+00
    0.11761E+07        -0.19733E+07         0.00000E+00
    0.00000E+00         0.00000E+00         0.00000E+00
 
    0.28787E+06         0.12027E+07         0.00000E+00
    0.12027E+07        -0.19616E+07         0.00000E+00
    0.00000E+00         0.00000E+00         0.00000E+00
 
    0.26179E+06         0.12290E+07         0.00000E+00
    0.12290E+07        -0.19496E+07         0.00000E+00
    0.00000E+00         0.00000E+00         0.00000E+00
 
    0.23543E+06         0.12550E+07         0.00000E+00
    0.12550E+07        -0.19373E+07         0.00000E+00
    0.00000E+00         0.00000E+00         0.00000E+00
 
    0.20878E+06         0.12809E+07         0.00000E+00
    0.12809E+07        -0.19248E+07         0.00000E+00
    0.00000E+00         0.00000E+00         0.00000E+00
 
    0.18184E+06         0.13064E+07         0.00000E+00
    0.13064E+07        -0.19121E+07         0.00000E+00
    0.00000E+00         0.00000E+00         0.00000E+00
 
    0.15462E+06         0.13318E+07         0.00000E+00
    0.13318E+07        -0.18991E+07         0.00000E+00
    0.00000E+00         0.00000E+00         0.00000E+00
 
    0.12712E+06         0.13569E+07         0.00000E+00
    0.13569E+07        -0.18858E+07         0.00000E+00
    0.00000E+00         0.00000E+00         0.00000E+00
 
    0.99344E+05         0.13817E+07         0.00000E+00
    0.13817E+07        -0.18724E+07         0.00000E+00
    0.00000E+00         0.00000E+00         0.00000E+00
 
    0.71291E+05         0.14063E+07         0.00000E+00
    0.14063E+07        -0.18586E+07         0.00000E+00
    0.00000E+00         0.00000E+00         0.00000E+00
 
    0.42964E+05         0.14307E+07         0.00000E+00
    0.14307E+07        -0.18447E+07         0.00000E+00
    0.00000E+00         0.00000E+00         0.00000E+00
 
    0.14366E+05         0.14548E+07         0.00000E+00
    0.14548E+07        -0.18305E+07         0.00000E+00
    0.00000E+00         0.00000E+00         0.00000E+00
 
    0.11029E+07         0.17901E+05         0.00000E+00
    0.17901E+05        -0.23307E+07         0.00000E+00
    0.00000E+00         0.00000E+00         0.00000E+00
 
    0.10894E+07         0.53290E+05         0.00000E+00
    0.53290E+05        -0.23304E+07         0.00000E+00
    0.00000E+00         0.00000E+00         0.00000E+00
 
    0.10755E+07         0.88525E+05         0.00000E+00
    0.88525E+05        -0.23296E+07         0.00000E+00
    0.00000E+00         0.00000E+00         0.00000E+00
 
    0.10612E+07         0.12360E+06         0.00000E+00
    0.12360E+06        -0.23285E+07         0.00000E+00
    0.00000E+00         0.00000E+00         0.00000E+00
 
    0.10464E+07         0.15852E+06         0.00000E+00
    0.15852E+06        -0.23271E+07         0.00000E+00
    0.00000E+00         0.00000E+00         0.00000E+00
 
    0.10313E+07         0.19328E+06         0.00000E+00
    0.19328E+06        -0.23253E+07         0.00000E+00
    0.00000E+00         0.00000E+00         0.00000E+00
 
    0.10158E+07         0.22788E+06         0.00000E+00
    0.22788E+06        -0.23232E+07         0.00000E+00
    0.00000E+00         0.00000E+00         0.00000E+00
 
    0.99986E+06         0.26230E+06         0.00000E+00
    0.26230E+06        -0.23207E+07         0.00000E+00
    0.00000E+00         0.00000E+00         0.00000E+00
 
    0.98355E+06         0.29656E+06         0.00000E+00
    0.29656E+06        -0.23179E+07         0.00000E+00
    0.00000E+00         0.00000E+00         0.00000E+00
 
    0.96685E+06         0.33065E+06         0.00000E+00
    0.33065E+06        -0.23147E+07         0.00000E+00
    0.00000E+00         0.00000E+00         0.00000E+00
 
    0.94977E+06         0.36456E+06         0.00000E+00
    0.36456E+06        -0.23112E+07         0.00000E+00
    0.00000E+00         0.00000E+00         0.00000E+00
 
    0.93232E+06         0.39830E+06         0.00000E+00
    0.39830E+06        -0.23074E+07         0.00000E+00
    0.00000E+00         0.00000E+00         0.00000E+00
 
    0.91448E+06         0.43186E+06         0.00000E+00
    0.43186E+06        -0.23032E+07         0.00000E+00
    0.00000E+00         0.00000E+00         0.00000E+00
 
    0.89628E+06         0.46524E+06         0.00000E+00
    0.46524E+06        -0.22987E+07         0.00000E+00
    0.00000E+00         0.00000E+00         0.00000E+00
 
    0.87770E+06         0.49844E+06         0.00000E+00
    0.49844E+06        -0.22939E+07         0.00000E+00
    0.00000E+00         0.00000E+00         0.00000E+00
 
    0.85875E+06         0.53145E+06         0.00000E+00
    0.53145E+06        -0.22888E+07         0.00000E+00
    0.00000E+00         0.00000E+00         0.00000E+00
 
    0.83944E+06         0.56427E+06         0.00000E+00
    0.56427E+06        -0.22833E+07         0.00000E+00
    0.00000E+00         0.00000E+00         0.00000E+00
 
    0.81977E+06         0.59690E+06         0.00000E+00
    0.59690E+06        -0.22775E+07         0.00000E+00
    0.00000E+00         0.00000E+00         0.00000E+00
 
    0.79974E+06         0.62934E+06         0.00000E+00
    0.62934E+06        -0.22714E+07         0.00000E+00
    0.00000E+00         0.00000E+00         0.00000E+00
 
    0.77935E+06         0.66159E+06         0.00000E+00
    0.66159E+06        -0.22650E+07         0.00000E+00
    0.00000E+00         0.00000E+00         0.00000E+00
 
    0.75861E+06         0.69364E+06         0.00000E+00
    0.69364E+06        -0.22582E+07         0.00000E+00
    0.00000E+00         0.00000E+00         0.00000E+00
 
    0.73752E+06         0.72549E+06         0.00000E+00
    0.72549E+06        -0.22512E+07         0.00000E+00
    0.00000E+00         0.00000E+00         0.00000E+00
 
    0.71609E+06         0.75715E+06         0.00000E+00
    0.75715E+06        -0.22438E+07         0.00000E+00
    0.00000E+00         0.00000E+00         0.00000E+00
 
    0.69430E+06         0.78860E+06         0.00000E+00
    0.78860E+06        -0.22362E+07         0.00000E+00
    0.00000E+00         0.00000E+00         0.00000E+00
 
    0.67218E+06         0.81984E+06         0.00000E+00
    0.81984E+06        -0.22282E+07         0.00000E+00
    0.00000E+00         0.00000E+00         0.00000E+00
 
    0.64972E+06         0.85088E+06         0.00000E+00
    0.85088E+06        -0.22200E+07         0.00000E+00
    0.00000E+00         0.00000E+00         0.00000E+00
 
    0.62691E+06         0.88171E+06         0.00000E+00
    0.88171E+06        -0.22114E+07         0.00000E+00
    0.00000E+00         0.00000E+00         0.00000E+00
 
    0.60378E+06         0.91232E+06         0.00000E+00
    0.91232E+06        -0.22025E+07         0.00000E+00
    0.00000E+00         0.00000E+00         0.00000E+00
 
    0.58031E+06         0.94273E+06         0.00000E+00
    0.94273E+06        -0.21934E+07         0.00000E+00
    0.00000E+00         0.00000E+00         0.00000E+00
 
    0.55651E+06         0.97291E+06         0.00000E+00
    0.97291E+06        -0.21839E+07         0.00000E+00
    0.00000E+00         0.00000E+00         0.00000E+00
 
    0.53239E+06         0.10029E+07         0.00000E+00
    0.10029E+07        -0.21742E+07         0.00000E+00
    0.00000E+00         0.00000E+00         0.00000E+00
 
    0.50794E+06         0.10326E+07         0.00000E+00
    0.10326E+07        -0.21642E+07         0.00000E+00
    0.00000E+00         0.00000E+00         0.00000E+00
 
    0.48317E+06         0.10622E+07         0.00000E+00
    0.10622E+07        -0.21539E+07         0.00000E+00
    0.00000E+00         0.00000E+00         0.00000E+00
 
    0.45808E+06         0.10915E+07         0.00000E+00
    0.10915E+07        -0.21433E+07         0.00000E+00
    0.00000E+00         0.00000E+00         0.00000E+00
 
    0.43267E+06         0.11205E+07         0.00000E+00
    0.11205E+07        -0.21324E+07         0.00000E+00
    0.00000E+00         0.00000E+00         0.00000E+00
 
    0.40694E+06         0.11494E+07         0.00000E+00
    0.11494E+07        -0.21213E+07         0.00000E+00
    0.00000E+00         0.00000E+00         0.00000E+00
 
    0.38091E+06         0.11780E+07         0.00000E+00
    0.11780E+07        -0.21098E+07         0.00000E+00
    0.00000E+00         0.00000E+00         0.00000E+00
 
    0.35456E+06         0.12064E+07         0.00000E+00
    0.12064E+07        -0.20981E+07         0.00000E+00
    0.00000E+00         0.00000E+00         0.00000E+00
 
    0.32791E+06         0.12345E+07         0.00000E+00
    0.12345E+07        -0.20862E+07         0.00000E+00
    0.00000E+00         0.00000E+00         0.00000E+00
 
    0.30094E+06         0.12624E+07         0.00000E+00
    0.12624E+07        -0.20739E+07         0.00000E+00
    0.00000E+00         0.00000E+00         0.00000E+00
 
    0.27368E+06         0.12901E+07         0.00000E+00
    0.12901E+07        -0.20614E+07         0.00000E+00
    0.00000E+00         0.00000E+00         0.00000E+00
 
    0.24612E+06         0.13175E+07         0.00000E+00
    0.13175E+07        -0.20486E+07         0.00000E+00
    0.00000E+00         0.00000E+00         0.00000E+00
 
    0.21825E+06         0.13447E+07         0.00000E+00
    0.13447E+07        -0.20356E+07         0.00000E+00
    0.00000E+00         0.00000E+00         0.00000E+00
 
    0.19009E+06         0.13717E+07         0.00000E+00
    0.13717E+07        -0.20223E+07         0.00000E+00
    0.00000E+00         0.00000E+00         0.00000E+00
 
    0.16163E+06         0.13983E+07         0.00000E+00
    0.13983E+07        -0.20087E+07         0.00000E+00
    0.00000E+00         0.00000E+00         0.00000E+00
 
    0.13289E+06         0.14248E+07         0.00000E+00
    0.14248E+07        -0.19949E+07         0.00000E+00
    0.00000E+00         0.00000E+00         0.00000E+00
 
    0.10385E+06         0.14510E+07         0.00000E+00
    0.14510E+07        -0.19808E+07         0.00000E+00
    0.00000E+00         0.00000E+00         0.00000E+00
 
    0.74523E+05         0.14769E+07         0.00000E+00
    0.14769E+07        -0.19664E+07         0.00000E+00
    0.00000E+00         0.00000E+00         0.00000E+00
 
    0.44912E+05         0.15025E+07         0.00000E+00
    0.15025E+07        -0.19518E+07         0.00000E+00
    0.00000E+00         0.00000E+00         0.00000E+00
 
    0.15018E+05         0.15279E+07         0.00000E+00
    0.15279E+07        -0.19370E+07         0.00000E+00
    0.00000E+00         0.00000E+00         0.00000E+00
 
    0.11555E+07         0.18776E+05         0.00000E+00
    0.18776E+05        -0.24598E+07         0.00000E+00
    0.00000E+00         0.00000E+00         0.00000E+00
 
    0.11412E+07         0.55890E+05         0.00000E+00
    0.55890E+05        -0.24594E+07         0.00000E+00
    0.00000E+00         0.00000E+00         0.00000E+00
 
    0.11264E+07         0.92841E+05         0.00000E+00
    0.92841E+05        -0.24587E+07         0.00000E+00
    0.00000E+00         0.00000E+00         0.00000E+00
 
    0.11113E+07         0.12963E+06         0.00000E+00
    0.12963E+06        -0.24576E+07         0.00000E+00
    0.00000E+00         0.00000E+00         0.00000E+00
 
    0.10957E+07         0.16624E+06         0.00000E+00
    0.16624E+06        -0.24561E+07         0.00000E+00
    0.00000E+00         0.00000E+00         0.00000E+00
 
    0.10798E+07         0.20269E+06         0.00000E+00
    0.20269E+06        -0.24542E+07         0.00000E+00
    0.00000E+00         0.00000E+00         0.00000E+00
 
    0.10634E+07         0.23897E+06         0.00000E+00
    0.23897E+06        -0.24520E+07         0.00000E+00
    0.00000E+00         0.00000E+00         0.00000E+00
 
    0.10466E+07         0.27507E+06         0.00000E+00
    0.27507E+06        -0.24494E+07         0.00000E+00
    0.00000E+00         0.00000E+00         0.00000E+00
 
    0.10295E+07         0.31099E+06         0.00000E+00
    0.31099E+06        -0.24465E+07         0.00000E+00
    0.00000E+00         0.00000E+00         0.00000E+00
 
    0.10119E+07         0.34673E+06         0.00000E+00
    0.34673E+06        -0.24432E+07         0.00000E+00
    0.00000E+00         0.00000E+00         0.00000E+00
 
    0.99390E+06         0.38229E+06         0.00000E+00
    0.38229E+06        -0.24396E+07         0.00000E+00
    0.00000E+00         0.00000E+00         0.00000E+00
 
    0.97554E+06         0.41767E+06         0.00000E+00
    0.41767E+06        -0.24356E+07         0.00000E+00
    0.00000E+00         0.00000E+00         0.00000E+00
 
    0.95679E+06         0.45286E+06         0.00000E+00
    0.45286E+06        -0.24313E+07         0.00000E+00
    0.00000E+00         0.00000E+00         0.00000E+00
 
    0.93766E+06         0.48786E+06         0.00000E+00
    0.48786E+06        -0.24266E+07         0.00000E+00
    0.00000E+00         0.00000E+00         0.00000E+00
 
    0.91814E+06         0.52268E+06         0.00000E+00
    0.52268E+06        -0.24216E+07         0.00000E+00
    0.00000E+00         0.00000E+00         0.00000E+00
 
    0.89824E+06         0.55729E+06         0.00000E+00
    0.55729E+06        -0.24162E+07         0.00000E+00
    0.00000E+00         0.00000E+00         0.00000E+00
 
    0.87797E+06         0.59172E+06         0.00000E+00
    0.59172E+06        -0.24106E+07         0.00000E+00
    0.00000E+00         0.00000E+00         0.00000E+00
 
    0.85733E+06         0.62594E+06         0.00000E+00
    0.62594E+06        -0.24045E+07         0.00000E+00
    0.00000E+00         0.00000E+00         0.00000E+00
 
    0.83632E+06         0.65997E+06         0.00000E+00
    0.65997E+06        -0.23982E+07         0.00000E+00
    0.00000E+00         0.00000E+00         0.00000E+00
 
    0.81494E+06         0.69380E+06         0.00000E+00
    0.69380E+06        -0.23915E+07         0.00000E+00
    0.00000E+00         0.00000E+00         0.00000E+00
 
    0.79320E+06         0.72742E+06         0.00000E+00
    0.72742E+06        -0.23845E+07         0.00000E+00
    0.00000E+00         0.00000E+00         0.00000E+00
 
    0.77109E+06         0.76084E+06         0.00000E+00
    0.76084E+06        -0.23772E+07         0.00000E+00
    0.00000E+00         0.00000E+00         0.00000E+00
 
    0.74863E+06         0.79405E+06         0.00000E+00
    0.79405E+06        -0.23696E+07         0.00000E+00
    0.00000E+00         0.00000E+00         0.00000E+00
 
    0.72581E+06         0.82705E+06         0.00000E+00
    0.82705E+06        -0.23616E+07         0.00000E+00
    0.00000E+00         0.00000E+00         0.00000E+00
 
    0.70264E+06         0.85984E+06         0.00000E+00
    0.85984E+06        -0.23533E+07         0.00000E+00
    0.00000E+00         0.00000E+00         0.00000E+00
 
    0.67912E+06         0.89241E+06         0.00000E+00
    0.89241E+06        -0.23447E+07         0.00000E+00
    0.00000E+00         0.00000E+00         0.00000E+00
 
    0.65525E+06         0.92477E+06         0.00000E+00
    0.92477E+06        -0.23358E+07         0.00000E+00
    0.00000E+00         0.00000E+00         0.00000E+00
 
    0.63104E+06         0.95691E+06         0.00000E+00
    0.95691E+06        -0.23266E+07         0.00000E+00
    0.00000E+00         0.00000E+00         0.00000E+00
 
    0.60648E+06         0.98883E+06         0.00000E+00
    0.98883E+06        -0.23171E+07         0.00000E+00
    0.00000E+00         0.00000E+00         0.00000E+00
 
    0.58158E+06         0.10205E+07         0.00000E+00
    0.10205E+07        -0.23073E+07         0.00000E+00
    0.00000E+00         0.00000E+00         0.00000E+00
 
    0.55634E+06         0.10520E+07         0.00000E+00
    0.10520E+07        -0.22972E+07         0.00000E+00
    0.00000E+00         0.00000E+00         0.00000E+00
 
    0.53077E+06         0.10832E+07         0.00000E+00
    0.10832E+07        -0.22867E+07         0.00000E+00
    0.00000E+00         0.00000E+00         0.00000E+00
 
    0.50487E+06         0.11143E+07         0.00000E+00
    0.11143E+07        -0.22760E+07         0.00000E+00
    0.00000E+00         0.00000E+00         0.00000E+00
 
    0.47863E+06         0.11451E+07         0.00000E+00
    0.11451E+07        -0.22650E+07         0.00000E+00
    0.00000E+00         0.00000E+00         0.00000E+00
 
    0.45207E+06         0.11756E+07         0.00000E+00
    0.11756E+07        -0.22537E+07         0.00000E+00
    0.00000E+00         0.00000E+00         0.00000E+00
 
    0.42518E+06         0.12059E+07         0.00000E+00
    0.12059E+07        -0.22420E+07         0.00000E+00
    0.00000E+00         0.00000E+00         0.00000E+00
 
    0.39796E+06         0.12360E+07         0.00000E+00
    0.12360E+07        -0.22301E+07         0.00000E+00
    0.00000E+00         0.00000E+00         0.00000E+00
 
    0.37043E+06         0.12658E+07         0.00000E+00
    0.12658E+07        -0.22179E+07         0.00000E+00
    0.00000E+00         0.00000E+00         0.00000E+00
 
    0.34257E+06         0.12954E+07         0.00000E+00
    0.12954E+07        -0.22055E+07         0.00000E+00
    0.00000E+00         0.00000E+00         0.00000E+00
 
    0.31440E+06         0.13248E+07         0.00000E+00
    0.13248E+07        -0.21927E+07         0.00000E+00
    0.00000E+00         0.00000E+00         0.00000E+00
 
    0.28591E+06         0.13539E+07         0.00000E+00
    0.13539E+07        -0.21797E+07         0.00000E+00
    0.00000E+00         0.00000E+00         0.00000E+00
 
    0.25711E+06         0.13828E+07         0.00000E+00
    0.13828E+07        -0.21663E+07         0.00000E+00
    0.00000E+00         0.00000E+00         0.00000E+00
 
    0.22800E+06         0.14114E+07         0.00000E+00
    0.14114E+07        -0.21527E+07         0.00000E+00
    0.00000E+00         0.00000E+00         0.00000E+00
 
    0.19857E+06         0.14397E+07         0.00000E+00
    0.14397E+07        -0.21389E+07         0.00000E+00
    0.00000E+00         0.00000E+00         0.00000E+00
 
    0.16885E+06         0.14678E+07         0.00000E+00
    0.14678E+07        -0.21247E+07         0.00000E+00
    0.00000E+00         0.00000E+00         0.00000E+00
 
    0.13882E+06         0.14957E+07         0.00000E+00
    0.14957E+07        -0.21103E+07         0.00000E+00
    0.00000E+00         0.00000E+00         0.00000E+00
 
    0.10848E+06         0.15232E+07         0.00000E+00
    0.15232E+07        -0.20956E+07         0.00000E+00
    0.00000E+00         0.00000E+00         0.00000E+00
 
    0.77848E+05         0.15506E+07         0.00000E+00
    0.15506E+07        -0.20806E+07         0.00000E+00
    0.00000E+00         0.00000E+00         0.00000E+00
 
    0.46916E+05         0.15776E+07         0.00000E+00
    0.15776E+07        -0.20654E+07         0.00000E+00
    0.00000E+00         0.00000E+00         0.00000E+00
 
    0.15688E+05         0.16044E+07         0.00000E+00
    0.16044E+07        -0.20499E+07         0.00000E+00
    0.00000E+00         0.00000E+00         0.00000E+00
 
    0.12098E+07         0.19687E+05         0.00000E+00
    0.19687E+05        -0.25959E+07         0.00000E+00
    0.00000E+00         0.00000E+00         0.00000E+00
 
    0.11947E+07         0.58595E+05         0.00000E+00
    0.58595E+05        -0.25955E+07         0.00000E+00
    0.00000E+00         0.00000E+00         0.00000E+00
 
    0.11791E+07         0.97330E+05         0.00000E+00
    0.97330E+05        -0.25947E+07         0.00000E+00
    0.00000E+00         0.00000E+00         0.00000E+00
 
    0.11631E+07         0.13589E+06         0.00000E+00
    0.13589E+06        -0.25936E+07         0.00000E+00
    0.00000E+00         0.00000E+00         0.00000E+00
 
    0.11467E+07         0.17427E+06         0.00000E+00
    0.17427E+06        -0.25920E+07         0.00000E+00
    0.00000E+00         0.00000E+00         0.00000E+00
 
    0.11299E+07         0.21248E+06         0.00000E+00
    0.21248E+06        -0.25901E+07         0.00000E+00
    0.00000E+00         0.00000E+00         0.00000E+00
 
    0.11126E+07         0.25050E+06         0.00000E+00
    0.25050E+06        -0.25878E+07         0.00000E+00
    0.00000E+00         0.00000E+00         0.00000E+00
 
    0.10949E+07         0.28834E+06         0.00000E+00
    0.28834E+06        -0.25851E+07         0.00000E+00
    0.00000E+00         0.00000E+00         0.00000E+00
 
    0.10768E+07         0.32599E+06         0.00000E+00
    0.32599E+06        -0.25821E+07         0.00000E+00
    0.00000E+00         0.00000E+00         0.00000E+00
 
    0.10583E+07         0.36346E+06         0.00000E+00
    0.36346E+06        -0.25787E+07         0.00000E+00
    0.00000E+00         0.00000E+00         0.00000E+00
 
    0.10394E+07         0.40073E+06         0.00000E+00
    0.40073E+06        -0.25749E+07         0.00000E+00
    0.00000E+00         0.00000E+00         0.00000E+00
 
    0.10201E+07         0.43781E+06         0.00000E+00
    0.43781E+06        -0.25708E+07         0.00000E+00
    0.00000E+00         0.00000E+00         0.00000E+00
 
    0.10004E+07         0.47470E+06         0.00000E+00
    0.47470E+06        -0.25663E+07         0.00000E+00
    0.00000E+00         0.00000E+00         0.00000E+00
 
    0.98030E+06         0.51139E+06         0.00000E+00
    0.51139E+06        -0.25615E+07         0.00000E+00
    0.00000E+00         0.00000E+00         0.00000E+00
 
    0.95981E+06         0.54788E+06         0.00000E+00
    0.54788E+06        -0.25563E+07         0.00000E+00
    0.00000E+00         0.00000E+00         0.00000E+00
 
    0.93893E+06         0.58417E+06         0.00000E+00
    0.58417E+06        -0.25507E+07         0.00000E+00
    0.00000E+00         0.00000E+00         0.00000E+00
 
    0.91766E+06         0.62026E+06         0.00000E+00
    0.62026E+06        -0.25448E+07         0.00000E+00
    0.00000E+00         0.00000E+00         0.00000E+00
 
    0.89600E+06         0.65615E+06         0.00000E+00
    0.65615E+06        -0.25386E+07         0.00000E+00
    0.00000E+00         0.00000E+00         0.00000E+00
 
    0.87397E+06         0.69182E+06         0.00000E+00
    0.69182E+06        -0.25320E+07         0.00000E+00
    0.00000E+00         0.00000E+00         0.00000E+00
 
    0.85156E+06         0.72729E+06         0.00000E+00
    0.72729E+06        -0.25251E+07         0.00000E+00
    0.00000E+00         0.00000E+00         0.00000E+00
 
    0.82878E+06         0.76255E+06         0.00000E+00
    0.76255E+06        -0.25178E+07         0.00000E+00
    0.00000E+00         0.00000E+00         0.00000E+00
 
    0.80563E+06         0.79760E+06         0.00000E+00
    0.79760E+06        -0.25102E+07         0.00000E+00
    0.00000E+00         0.00000E+00         0.00000E+00
 
    0.78210E+06         0.83243E+06         0.00000E+00
    0.83243E+06        -0.25023E+07         0.00000E+00
    0.00000E+00         0.00000E+00         0.00000E+00
 
    0.75821E+06         0.86705E+06         0.00000E+00
    0.86705E+06        -0.24940E+07         0.00000E+00
    0.00000E+00         0.00000E+00         0.00000E+00
 
    0.73396E+06         0.90145E+06         0.00000E+00
    0.90145E+06        -0.24854E+07         0.00000E+00
    0.00000E+00         0.00000E+00         0.00000E+00
 
    0.70935E+06         0.93562E+06         0.00000E+00
    0.93562E+06        -0.24765E+07         0.00000E+00
    0.00000E+00         0.00000E+00         0.00000E+00
 
    0.68437E+06         0.96958E+06         0.00000E+00
    0.96958E+06        -0.24672E+07         0.00000E+00
    0.00000E+00         0.00000E+00         0.00000E+00
 
    0.65905E+06         0.10033E+07         0.00000E+00
    0.10033E+07        -0.24577E+07         0.00000E+00
    0.00000E+00         0.00000E+00         0.00000E+00
 
    0.63337E+06         0.10368E+07         0.00000E+00
    0.10368E+07        -0.24478E+07         0.00000E+00
    0.00000E+00         0.00000E+00         0.00000E+00
 
    0.60733E+06         0.10701E+07         0.00000E+00
    0.10701E+07        -0.24376E+07         0.00000E+00
    0.00000E+00         0.00000E+00         0.00000E+00
 
    0.58095E+06         0.11031E+07         0.00000E+00
    0.11031E+07        -0.24271E+07         0.00000E+00
    0.00000E+00         0.00000E+00         0.00000E+00
 
    0.55422E+06         0.11359E+07         0.00000E+00
    0.11359E+07        -0.24162E+07         0.00000E+00
    0.00000E+00         0.00000E+00         0.00000E+00
 
    0.52715E+06         0.11685E+07         0.00000E+00
    0.11685E+07        -0.24051E+07         0.00000E+00
    0.00000E+00         0.00000E+00         0.00000E+00
 
    0.49974E+06         0.12009E+07         0.00000E+00
    0.12009E+07        -0.23936E+07         0.00000E+00
    0.00000E+00         0.00000E+00         0.00000E+00
 
    0.47199E+06         0.12330E+07         0.00000E+00
    0.12330E+07        -0.23818E+07         0.00000E+00
    0.00000E+00         0.00000E+00         0.00000E+00
 
    0.44390E+06         0.12648E+07         0.00000E+00
    0.12648E+07        -0.23697E+07         0.00000E+00
    0.00000E+00         0.00000E+00         0.00000E+00
 
    0.41547E+06         0.12964E+07         0.00000E+00
    0.12964E+07        -0.23574E+07         0.00000E+00
    0.00000E+00         0.00000E+00         0.00000E+00
 
    0.38671E+06         0.13278E+07         0.00000E+00
    0.13278E+07        -0.23447E+07         0.00000E+00
    0.00000E+00         0.00000E+00         0.00000E+00
 
    0.35762E+06         0.13589E+07         0.00000E+00
    0.13589E+07        -0.23317E+07         0.00000E+00
    0.00000E+00         0.00000E+00         0.00000E+00
 
    0.32821E+06         0.13898E+07         0.00000E+00
    0.13898E+07        -0.23184E+07         0.00000E+00
    0.00000E+00         0.00000E+00         0.00000E+00
 
    0.29846E+06         0.14204E+07         0.00000E+00
    0.14204E+07        -0.23048E+07         0.00000E+00
    0.00000E+00         0.00000E+00         0.00000E+00
 
    0.26839E+06         0.14508E+07         0.00000E+00
    0.14508E+07        -0.22909E+07         0.00000E+00
    0.00000E+00         0.00000E+00         0.00000E+00
 
    0.23800E+06         0.14809E+07         0.00000E+00
    0.14809E+07        -0.22768E+07         0.00000E+00
    0.00000E+00         0.00000E+00         0.00000E+00
 
    0.20728E+06         0.15107E+07         0.00000E+00
    0.15107E+07        -0.22623E+07         0.00000E+00
    0.00000E+00         0.00000E+00         0.00000E+00
 
    0.17625E+06         0.15403E+07         0.00000E+00
    0.15403E+07        -0.22476E+07         0.00000E+00
    0.00000E+00         0.00000E+00         0.00000E+00
 
    0.14490E+06         0.15696E+07         0.00000E+00
    0.15696E+07        -0.22325E+07         0.00000E+00
    0.00000E+00         0.00000E+00         0.00000E+00
 
    0.11324E+06         0.15987E+07         0.00000E+00
    0.15987E+07        -0.22172E+07         0.00000E+00
    0.00000E+00         0.00000E+00         0.00000E+00
 
    0.81260E+05         0.16275E+07         0.00000E+00
    0.16275E+07        -0.22016E+07         0.00000E+00
    0.00000E+00         0.00000E+00         0.00000E+00
 
    0.48972E+05         0.16560E+07         0.00000E+00
    0.16560E+07        -0.21857E+07         0.00000E+00
    0.00000E+00         0.00000E+00         0.00000E+00
 
    0.16375E+05         0.16842E+07         0.00000E+00
    0.16842E+07        -0.21695E+07         0.00000E+00
    0.00000E+00         0.00000E+00         0.00000E+00
 
    0.12660E+07         0.20632E+05         0.00000E+00
    0.20632E+05        -0.27394E+07         0.00000E+00
    0.00000E+00         0.00000E+00         0.00000E+00
 
    0.12500E+07         0.61403E+05         0.00000E+00
    0.61403E+05        -0.27390E+07         0.00000E+00
    0.00000E+00         0.00000E+00         0.00000E+00
 
    0.12335E+07         0.10199E+06         0.00000E+00
    0.10199E+06        -0.27382E+07         0.00000E+00
    0.00000E+00         0.00000E+00         0.00000E+00
 
    0.12166E+07         0.14239E+06         0.00000E+00
    0.14239E+06        -0.27370E+07         0.00000E+00
    0.00000E+00         0.00000E+00         0.00000E+00
 
    0.11993E+07         0.18261E+06         0.00000E+00
    0.18261E+06        -0.27354E+07         0.00000E+00
    0.00000E+00         0.00000E+00         0.00000E+00
 
    0.11815E+07         0.22264E+06         0.00000E+00
    0.22264E+06        -0.27334E+07         0.00000E+00
    0.00000E+00         0.00000E+00         0.00000E+00
 
    0.11633E+07         0.26248E+06         0.00000E+00
    0.26248E+06        -0.27310E+07         0.00000E+00
    0.00000E+00         0.00000E+00         0.00000E+00
 
    0.11447E+07         0.30212E+06         0.00000E+00
    0.30212E+06        -0.27282E+07         0.00000E+00
    0.00000E+00         0.00000E+00         0.00000E+00
 
    0.11256E+07         0.34157E+06         0.00000E+00
    0.34157E+06        -0.27251E+07         0.00000E+00
    0.00000E+00         0.00000E+00         0.00000E+00
 
    0.11062E+07         0.38082E+06         0.00000E+00
    0.38082E+06        -0.27215E+07         0.00000E+00
    0.00000E+00         0.00000E+00         0.00000E+00
 
    0.10863E+07         0.41987E+06         0.00000E+00
    0.41987E+06        -0.27176E+07         0.00000E+00
    0.00000E+00         0.00000E+00         0.00000E+00
 
    0.10660E+07         0.45872E+06         0.00000E+00
    0.45872E+06        -0.27134E+07         0.00000E+00
    0.00000E+00         0.00000E+00         0.00000E+00
 
    0.10453E+07         0.49737E+06         0.00000E+00
    0.49737E+06        -0.27087E+07         0.00000E+00
    0.00000E+00         0.00000E+00         0.00000E+00
 
    0.10242E+07         0.53582E+06         0.00000E+00
    0.53582E+06        -0.27037E+07         0.00000E+00
    0.00000E+00         0.00000E+00         0.00000E+00
 
    0.10026E+07         0.57406E+06         0.00000E+00
    0.57406E+06        -0.26983E+07         0.00000E+00
    0.00000E+00         0.00000E+00         0.00000E+00
 
    0.98074E+06         0.61209E+06         0.00000E+00
    0.61209E+06        -0.26926E+07         0.00000E+00
    0.00000E+00         0.00000E+00         0.00000E+00
 
    0.95843E+06         0.64991E+06         0.00000E+00
    0.64991E+06        -0.26864E+07         0.00000E+00
    0.00000E+00         0.00000E+00         0.00000E+00
 
    0.93573E+06         0.68752E+06         0.00000E+00
    0.68752E+06        -0.26800E+07         0.00000E+00
    0.00000E+00         0.00000E+00         0.00000E+00
 
    0.91264E+06         0.72491E+06         0.00000E+00
    0.72491E+06        -0.26732E+07         0.00000E+00
    0.00000E+00         0.00000E+00         0.00000E+00
 
    0.88917E+06         0.76209E+06         0.00000E+00
    0.76209E+06        -0.26660E+07         0.00000E+00
    0.00000E+00         0.00000E+00         0.00000E+00
 
    0.86531E+06         0.79905E+06         0.00000E+00
    0.79905E+06        -0.26585E+07         0.00000E+00
    0.00000E+00         0.00000E+00         0.00000E+00
 
    0.84107E+06         0.83580E+06         0.00000E+00
    0.83580E+06        -0.26506E+07         0.00000E+00
    0.00000E+00         0.00000E+00         0.00000E+00
 
    0.81645E+06         0.87232E+06         0.00000E+00
    0.87232E+06        -0.26423E+07         0.00000E+00
    0.00000E+00         0.00000E+00         0.00000E+00
 
    0.79145E+06         0.90862E+06         0.00000E+00
    0.90862E+06        -0.26338E+07         0.00000E+00
    0.00000E+00         0.00000E+00         0.00000E+00
 
    0.76608E+06         0.94469E+06         0.00000E+00
    0.94469E+06        -0.26249E+07         0.00000E+00
    0.00000E+00         0.00000E+00         0.00000E+00
 
    0.74034E+06         0.98054E+06         0.00000E+00
    0.98054E+06        -0.26156E+07         0.00000E+00
    0.00000E+00         0.00000E+00         0.00000E+00
 
    0.71423E+06         0.10162E+07         0.00000E+00
    0.10162E+07        -0.26060E+07         0.00000E+00
    0.00000E+00         0.00000E+00         0.00000E+00
 
    0.68776E+06         0.10515E+07         0.00000E+00
    0.10515E+07        -0.25961E+07         0.00000E+00
    0.00000E+00         0.00000E+00         0.00000E+00
 
    0.66092E+06         0.10867E+07         0.00000E+00
    0.10867E+07        -0.25858E+07         0.00000E+00
    0.00000E+00         0.00000E+00         0.00000E+00
 
    0.63372E+06         0.11216E+07         0.00000E+00
    0.11216E+07        -0.25752E+07         0.00000E+00
    0.00000E+00         0.00000E+00         0.00000E+00
 
    0.60617E+06         0.11563E+07         0.00000E+00
    0.11563E+07        -0.25643E+07         0.00000E+00
    0.00000E+00         0.00000E+00         0.00000E+00
 
    0.57825E+06         0.11908E+07         0.00000E+00
    0.11908E+07        -0.25531E+07         0.00000E+00
    0.00000E+00         0.00000E+00         0.00000E+00
 
    0.54998E+06         0.12250E+07         0.00000E+00
    0.12250E+07        -0.25415E+07         0.00000E+00
    0.00000E+00         0.00000E+00         0.00000E+00
 
    0.52136E+06         0.12589E+07         0.00000E+00
    0.12589E+07        -0.25296E+07         0.00000E+00
    0.00000E+00         0.00000E+00         0.00000E+00
 
    0.49239E+06         0.12926E+07         0.00000E+00
    0.12926E+07        -0.25174E+07         0.00000E+00
    0.00000E+00         0.00000E+00         0.00000E+00
 
    0.46307E+06         0.13261E+07         0.00000E+00
    0.13261E+07        -0.25048E+07         0.00000E+00
    0.00000E+00         0.00000E+00         0.00000E+00
 
    0.43340E+06         0.13593E+07         0.00000E+00
    0.13593E+07        -0.24919E+07         0.00000E+00
    0.00000E+00         0.00000E+00         0.00000E+00
 
    0.40339E+06         0.13923E+07         0.00000E+00
    0.13923E+07        -0.24787E+07         0.00000E+00
    0.00000E+00         0.00000E+00         0.00000E+00
 
    0.37304E+06         0.14250E+07         0.00000E+00
    0.14250E+07        -0.24652E+07         0.00000E+00
    0.00000E+00         0.00000E+00         0.00000E+00
 
    0.34234E+06         0.14575E+07         0.00000E+00
    0.14575E+07        -0.24514E+07         0.00000E+00
    0.00000E+00         0.00000E+00         0.00000E+00
 
    0.31131E+06         0.14897E+07         0.00000E+00
    0.14897E+07        -0.24373E+07         0.00000E+00
    0.00000E+00         0.00000E+00         0.00000E+00
 
    0.27994E+06         0.15216E+07         0.00000E+00
    0.15216E+07        -0.24229E+07         0.00000E+00
    0.00000E+00         0.00000E+00         0.00000E+00
 
    0.24824E+06         0.15533E+07         0.00000E+00
    0.15533E+07        -0.24081E+07         0.00000E+00
    0.00000E+00         0.00000E+00         0.00000E+00
 
    0.21620E+06         0.15847E+07         0.00000E+00
    0.15847E+07        -0.23930E+07         0.00000E+00
    0.00000E+00         0.00000E+00         0.00000E+00
 
    0.18383E+06         0.16159E+07         0.00000E+00
    0.16159E+07        -0.23777E+07         0.00000E+00
    0.00000E+00         0.00000E+00         0.00000E+00
 
    0.15113E+06         0.16467E+07         0.00000E+00
    0.16467E+07        -0.23620E+07         0.00000E+00
    0.00000E+00         0.00000E+00         0.00000E+00
 
    0.11811E+06         0.16773E+07         0.00000E+00
    0.16773E+07        -0.23460E+07         0.00000E+00
    0.00000E+00         0.00000E+00         0.00000E+00
 
    0.84754E+05         0.17076E+07         0.00000E+00
    0.17076E+07        -0.23298E+07         0.00000E+00
    0.00000E+00         0.00000E+00         0.00000E+00
 
    0.51078E+05         0.17377E+07         0.00000E+00
    0.17377E+07        -0.23132E+07         0.00000E+00
    0.00000E+00         0.00000E+00         0.00000E+00
 
    0.17079E+05         0.17675E+07         0.00000E+00
    0.17675E+07        -0.22963E+07         0.00000E+00
    0.00000E+00         0.00000E+00         0.00000E+00
 
    0.13239E+07         0.21614E+05         0.00000E+00
    0.21614E+05        -0.28906E+07         0.00000E+00
    0.00000E+00         0.00000E+00         0.00000E+00
 
    0.13069E+07         0.64316E+05         0.00000E+00
    0.64316E+05        -0.28902E+07         0.00000E+00
    0.00000E+00         0.00000E+00         0.00000E+00
 
    0.12895E+07         0.10683E+06         0.00000E+00
    0.10683E+06        -0.28894E+07         0.00000E+00
    0.00000E+00         0.00000E+00         0.00000E+00
 
    0.12717E+07         0.14914E+06         0.00000E+00
    0.14914E+06        -0.28881E+07         0.00000E+00
    0.00000E+00         0.00000E+00         0.00000E+00
 
    0.12534E+07         0.19126E+06         0.00000E+00
    0.19126E+06        -0.28864E+07         0.00000E+00
    0.00000E+00         0.00000E+00         0.00000E+00
 
    0.12346E+07         0.23317E+06         0.00000E+00
    0.23317E+06        -0.28844E+07         0.00000E+00
    0.00000E+00         0.00000E+00         0.00000E+00
 
    0.12154E+07         0.27489E+06         0.00000E+00
    0.27489E+06        -0.28819E+07         0.00000E+00
    0.00000E+00         0.00000E+00         0.00000E+00
 
    0.11958E+07         0.31641E+06         0.00000E+00
    0.31641E+06        -0.28791E+07         0.00000E+00
    0.00000E+00         0.00000E+00         0.00000E+00
 
    0.11758E+07         0.35772E+06         0.00000E+00
    0.35772E+06        -0.28758E+07         0.00000E+00
    0.00000E+00         0.00000E+00         0.00000E+00
 
    0.11553E+07         0.39882E+06         0.00000E+00
    0.39882E+06        -0.28722E+07         0.00000E+00
    0.00000E+00         0.00000E+00         0.00000E+00
 
    0.11344E+07         0.43972E+06         0.00000E+00
    0.43972E+06        -0.28681E+07         0.00000E+00
    0.00000E+00         0.00000E+00         0.00000E+00
 
    0.11131E+07         0.48041E+06         0.00000E+00
    0.48041E+06        -0.28637E+07         0.00000E+00
    0.00000E+00         0.00000E+00         0.00000E+00
 
    0.10913E+07         0.52089E+06         0.00000E+00
    0.52089E+06        -0.28589E+07         0.00000E+00
    0.00000E+00         0.00000E+00         0.00000E+00
 
    0.10692E+07         0.56115E+06         0.00000E+00
    0.56115E+06        -0.28537E+07         0.00000E+00
    0.00000E+00         0.00000E+00         0.00000E+00
 
    0.10466E+07         0.60120E+06         0.00000E+00
    0.60120E+06        -0.28481E+07         0.00000E+00
    0.00000E+00         0.00000E+00         0.00000E+00
 
    0.10236E+07         0.64104E+06         0.00000E+00
    0.64104E+06        -0.28422E+07         0.00000E+00
    0.00000E+00         0.00000E+00         0.00000E+00
 
    0.10002E+07         0.68066E+06         0.00000E+00
    0.68066E+06        -0.28359E+07         0.00000E+00
    0.00000E+00         0.00000E+00         0.00000E+00
 
    0.97643E+06         0.72005E+06         0.00000E+00
    0.72005E+06        -0.28292E+07         0.00000E+00
    0.00000E+00         0.00000E+00         0.00000E+00
 
    0.95225E+06         0.75923E+06         0.00000E+00
    0.75923E+06        -0.28221E+07         0.00000E+00
    0.00000E+00         0.00000E+00         0.00000E+00
 
    0.92767E+06         0.79819E+06         0.00000E+00
    0.79819E+06        -0.28147E+07         0.00000E+00
    0.00000E+00         0.00000E+00         0.00000E+00
 
    0.90270E+06         0.83692E+06         0.00000E+00
    0.83692E+06        -0.28069E+07         0.00000E+00
    0.00000E+00         0.00000E+00         0.00000E+00
 
    0.87734E+06         0.87543E+06         0.00000E+00
    0.87543E+06        -0.27988E+07         0.00000E+00
    0.00000E+00         0.00000E+00         0.00000E+00
 
    0.85159E+06         0.91371E+06         0.00000E+00
    0.91371E+06        -0.27902E+07         0.00000E+00
    0.00000E+00         0.00000E+00         0.00000E+00
 
    0.82545E+06         0.95176E+06         0.00000E+00
    0.95176E+06        -0.27814E+07         0.00000E+00
    0.00000E+00         0.00000E+00         0.00000E+00
 
    0.79894E+06         0.98957E+06         0.00000E+00
    0.98957E+06        -0.27721E+07         0.00000E+00
    0.00000E+00         0.00000E+00         0.00000E+00
 
    0.77204E+06         0.10272E+07         0.00000E+00
    0.10272E+07        -0.27626E+07         0.00000E+00
    0.00000E+00         0.00000E+00         0.00000E+00
 
    0.74477E+06         0.10645E+07         0.00000E+00
    0.10645E+07        -0.27526E+07         0.00000E+00
    0.00000E+00         0.00000E+00         0.00000E+00
 
    0.71711E+06         0.11016E+07         0.00000E+00
    0.11016E+07        -0.27423E+07         0.00000E+00
    0.00000E+00         0.00000E+00         0.00000E+00
 
    0.68909E+06         0.11385E+07         0.00000E+00
    0.11385E+07        -0.27317E+07         0.00000E+00
    0.00000E+00         0.00000E+00         0.00000E+00
 
    0.66070E+06         0.11751E+07         0.00000E+00
    0.11751E+07        -0.27207E+07         0.00000E+00
    0.00000E+00         0.00000E+00         0.00000E+00
 
    0.63193E+06         0.12115E+07         0.00000E+00
    0.12115E+07        -0.27094E+07         0.00000E+00
    0.00000E+00         0.00000E+00         0.00000E+00
 
    0.60280E+06         0.12477E+07         0.00000E+00
    0.12477E+07        -0.26977E+07         0.00000E+00
    0.00000E+00         0.00000E+00         0.00000E+00
 
    0.57330E+06         0.12836E+07         0.00000E+00
    0.12836E+07        -0.26857E+07         0.00000E+00
    0.00000E+00         0.00000E+00         0.00000E+00
 
    0.54345E+06         0.13193E+07         0.00000E+00
    0.13193E+07        -0.26734E+07         0.00000E+00
    0.00000E+00         0.00000E+00         0.00000E+00
 
    0.51323E+06         0.13547E+07         0.00000E+00
    0.13547E+07        -0.26607E+07         0.00000E+00
    0.00000E+00         0.00000E+00         0.00000E+00
 
    0.48265E+06         0.13898E+07         0.00000E+00
    0.13898E+07        -0.26477E+07         0.00000E+00
    0.00000E+00         0.00000E+00         0.00000E+00
 
    0.45171E+06         0.14247E+07         0.00000E+00
    0.14247E+07        -0.26343E+07         0.00000E+00
    0.00000E+00         0.00000E+00         0.00000E+00
 
    0.42042E+06         0.14594E+07         0.00000E+00
    0.14594E+07        -0.26206E+07         0.00000E+00
    0.00000E+00         0.00000E+00         0.00000E+00
 
    0.38877E+06         0.14938E+07         0.00000E+00
    0.14938E+07        -0.26066E+07         0.00000E+00
    0.00000E+00         0.00000E+00         0.00000E+00
 
    0.35678E+06         0.15279E+07         0.00000E+00
    0.15279E+07        -0.25922E+07         0.00000E+00
    0.00000E+00         0.00000E+00         0.00000E+00
 
    0.32443E+06         0.15618E+07         0.00000E+00
    0.15618E+07        -0.25776E+07         0.00000E+00
    0.00000E+00         0.00000E+00         0.00000E+00
 
    0.29173E+06         0.15953E+07         0.00000E+00
    0.15953E+07        -0.25625E+07         0.00000E+00
    0.00000E+00         0.00000E+00         0.00000E+00
 
    0.25869E+06         0.16287E+07         0.00000E+00
    0.16287E+07        -0.25472E+07         0.00000E+00
    0.00000E+00         0.00000E+00         0.00000E+00
 
    0.22530E+06         0.16617E+07         0.00000E+00
    0.16617E+07        -0.25315E+07         0.00000E+00
    0.00000E+00         0.00000E+00         0.00000E+00
 
    0.19157E+06         0.16945E+07         0.00000E+00
    0.16945E+07        -0.25156E+07         0.00000E+00
    0.00000E+00         0.00000E+00         0.00000E+00
 
    0.15749E+06         0.17270E+07         0.00000E+00
    0.17270E+07        -0.24993E+07         0.00000E+00
    0.00000E+00         0.00000E+00         0.00000E+00
 
    0.12307E+06         0.17593E+07         0.00000E+00
    0.17593E+07        -0.24826E+07         0.00000E+00
    0.00000E+00         0.00000E+00         0.00000E+00
 
    0.88320E+05         0.17912E+07         0.00000E+00
    0.17912E+07        -0.24657E+07         0.00000E+00
    0.00000E+00         0.00000E+00         0.00000E+00
 
    0.53227E+05         0.18229E+07         0.00000E+00
    0.18229E+07        -0.24485E+07         0.00000E+00
    0.00000E+00         0.00000E+00         0.00000E+00
 
    0.17798E+05         0.18542E+07         0.00000E+00
    0.18542E+07        -0.24309E+07         0.00000E+00
    0.00000E+00         0.00000E+00         0.00000E+00
 
    0.13834E+07         0.22630E+05         0.00000E+00
    0.22630E+05        -0.30500E+07         0.00000E+00
    0.00000E+00         0.00000E+00         0.00000E+00
 
    0.13655E+07         0.67332E+05         0.00000E+00
    0.67332E+05        -0.30496E+07         0.00000E+00
    0.00000E+00         0.00000E+00         0.00000E+00
 
    0.13471E+07         0.11183E+06         0.00000E+00
    0.11183E+06        -0.30487E+07         0.00000E+00
    0.00000E+00         0.00000E+00         0.00000E+00
 
    0.13282E+07         0.15612E+06         0.00000E+00
    0.15612E+06        -0.30475E+07         0.00000E+00
    0.00000E+00         0.00000E+00         0.00000E+00
 
    0.13089E+07         0.20021E+06         0.00000E+00
    0.20021E+06        -0.30457E+07         0.00000E+00
    0.00000E+00         0.00000E+00         0.00000E+00
 
    0.12892E+07         0.24408E+06         0.00000E+00
    0.24408E+06        -0.30436E+07         0.00000E+00
    0.00000E+00         0.00000E+00         0.00000E+00
 
    0.12689E+07         0.28775E+06         0.00000E+00
    0.28775E+06        -0.30411E+07         0.00000E+00
    0.00000E+00         0.00000E+00         0.00000E+00
 
    0.12483E+07         0.33120E+06         0.00000E+00
    0.33120E+06        -0.30381E+07         0.00000E+00
    0.00000E+00         0.00000E+00         0.00000E+00
 
    0.12272E+07         0.37444E+06         0.00000E+00
    0.37444E+06        -0.30348E+07         0.00000E+00
    0.00000E+00         0.00000E+00         0.00000E+00
 
    0.12056E+07         0.41746E+06         0.00000E+00
    0.41746E+06        -0.30310E+07         0.00000E+00
    0.00000E+00         0.00000E+00         0.00000E+00
 
    0.11837E+07         0.46027E+06         0.00000E+00
    0.46027E+06        -0.30268E+07         0.00000E+00
    0.00000E+00         0.00000E+00         0.00000E+00
 
    0.11613E+07         0.50286E+06         0.00000E+00
    0.50286E+06        -0.30223E+07         0.00000E+00
    0.00000E+00         0.00000E+00         0.00000E+00
 
    0.11384E+07         0.54523E+06         0.00000E+00
    0.54523E+06        -0.30173E+07         0.00000E+00
    0.00000E+00         0.00000E+00         0.00000E+00
 
    0.11152E+07         0.58739E+06         0.00000E+00
    0.58739E+06        -0.30120E+07         0.00000E+00
    0.00000E+00         0.00000E+00         0.00000E+00
 
    0.10915E+07         0.62931E+06         0.00000E+00
    0.62931E+06        -0.30062E+07         0.00000E+00
    0.00000E+00         0.00000E+00         0.00000E+00
 
    0.10674E+07         0.67102E+06         0.00000E+00
    0.67102E+06        -0.30001E+07         0.00000E+00
    0.00000E+00         0.00000E+00         0.00000E+00
 
    0.10429E+07         0.71250E+06         0.00000E+00
    0.71250E+06        -0.29935E+07         0.00000E+00
    0.00000E+00         0.00000E+00         0.00000E+00
 
    0.10180E+07         0.75376E+06         0.00000E+00
    0.75376E+06        -0.29866E+07         0.00000E+00
    0.00000E+00         0.00000E+00         0.00000E+00
 
    0.99271E+06         0.79479E+06         0.00000E+00
    0.79479E+06        -0.29793E+07         0.00000E+00
    0.00000E+00         0.00000E+00         0.00000E+00
 
    0.96699E+06         0.83558E+06         0.00000E+00
    0.83558E+06        -0.29717E+07         0.00000E+00
    0.00000E+00         0.00000E+00         0.00000E+00
 
    0.94087E+06         0.87615E+06         0.00000E+00
    0.87615E+06        -0.29636E+07         0.00000E+00
    0.00000E+00         0.00000E+00         0.00000E+00
 
    0.91436E+06         0.91649E+06         0.00000E+00
    0.91649E+06        -0.29552E+07         0.00000E+00
    0.00000E+00         0.00000E+00         0.00000E+00
 
    0.88745E+06         0.95660E+06         0.00000E+00
    0.95660E+06        -0.29464E+07         0.00000E+00
    0.00000E+00         0.00000E+00         0.00000E+00
 
    0.86014E+06         0.99646E+06         0.00000E+00
    0.99646E+06        -0.29372E+07         0.00000E+00
    0.00000E+00         0.00000E+00         0.00000E+00
 
    0.83244E+06         0.10361E+07         0.00000E+00
    0.10361E+07        -0.29277E+07         0.00000E+00
    0.00000E+00         0.00000E+00         0.00000E+00
 
    0.80436E+06         0.10755E+07         0.00000E+00
    0.10755E+07        -0.29178E+07         0.00000E+00
    0.00000E+00         0.00000E+00         0.00000E+00
 
    0.77589E+06         0.11146E+07         0.00000E+00
    0.11146E+07        -0.29075E+07         0.00000E+00
    0.00000E+00         0.00000E+00         0.00000E+00
 
    0.74703E+06         0.11536E+07         0.00000E+00
    0.11536E+07        -0.28969E+07         0.00000E+00
    0.00000E+00         0.00000E+00         0.00000E+00
 
    0.71779E+06         0.11922E+07         0.00000E+00
    0.11922E+07        -0.28859E+07         0.00000E+00
    0.00000E+00         0.00000E+00         0.00000E+00
 
    0.68817E+06         0.12307E+07         0.00000E+00
    0.12307E+07        -0.28745E+07         0.00000E+00
    0.00000E+00         0.00000E+00         0.00000E+00
 
    0.65818E+06         0.12688E+07         0.00000E+00
    0.12688E+07        -0.28628E+07         0.00000E+00
    0.00000E+00         0.00000E+00         0.00000E+00
 
    0.62780E+06         0.13068E+07         0.00000E+00
    0.13068E+07        -0.28507E+07         0.00000E+00
    0.00000E+00         0.00000E+00         0.00000E+00
 
    0.59705E+06         0.13445E+07         0.00000E+00
    0.13445E+07        -0.28382E+07         0.00000E+00
    0.00000E+00         0.00000E+00         0.00000E+00
 
    0.56593E+06         0.13819E+07         0.00000E+00
    0.13819E+07        -0.28255E+07         0.00000E+00
    0.00000E+00         0.00000E+00         0.00000E+00
 
    0.53444E+06         0.14191E+07         0.00000E+00
    0.14191E+07        -0.28123E+07         0.00000E+00
    0.00000E+00         0.00000E+00         0.00000E+00
 
    0.50258E+06         0.14560E+07         0.00000E+00
    0.14560E+07        -0.27988E+07         0.00000E+00
    0.00000E+00         0.00000E+00         0.00000E+00
 
    0.47035E+06         0.14926E+07         0.00000E+00
    0.14926E+07        -0.27850E+07         0.00000E+00
    0.00000E+00         0.00000E+00         0.00000E+00
 
    0.43775E+06         0.15290E+07         0.00000E+00
    0.15290E+07        -0.27708E+07         0.00000E+00
    0.00000E+00         0.00000E+00         0.00000E+00
 
    0.40479E+06         0.15652E+07         0.00000E+00
    0.15652E+07        -0.27562E+07         0.00000E+00
    0.00000E+00         0.00000E+00         0.00000E+00
 
    0.37146E+06         0.16011E+07         0.00000E+00
    0.16011E+07        -0.27413E+07         0.00000E+00
    0.00000E+00         0.00000E+00         0.00000E+00
 
    0.33778E+06         0.16367E+07         0.00000E+00
    0.16367E+07        -0.27261E+07         0.00000E+00
    0.00000E+00         0.00000E+00         0.00000E+00
 
    0.30373E+06         0.16720E+07         0.00000E+00
    0.16720E+07        -0.27105E+07         0.00000E+00
    0.00000E+00         0.00000E+00         0.00000E+00
 
    0.26932E+06         0.17071E+07         0.00000E+00
    0.17071E+07        -0.26946E+07         0.00000E+00
    0.00000E+00         0.00000E+00         0.00000E+00
 
    0.23456E+06         0.17418E+07         0.00000E+00
    0.17418E+07        -0.26783E+07         0.00000E+00
    0.00000E+00         0.00000E+00         0.00000E+00
 
    0.19944E+06         0.17764E+07         0.00000E+00
    0.17764E+07        -0.26617E+07         0.00000E+00
    0.00000E+00         0.00000E+00         0.00000E+00
 
    0.16396E+06         0.18106E+07         0.00000E+00
    0.18106E+07        -0.26448E+07         0.00000E+00
    0.00000E+00         0.00000E+00         0.00000E+00
 
    0.12813E+06         0.18445E+07         0.00000E+00
    0.18445E+07        -0.26275E+07         0.00000E+00
    0.00000E+00         0.00000E+00         0.00000E+00
 
    0.91949E+05         0.18782E+07         0.00000E+00
    0.18782E+07        -0.26099E+07         0.00000E+00
    0.00000E+00         0.00000E+00         0.00000E+00
 
    0.55414E+05         0.19116E+07         0.00000E+00
    0.19116E+07        -0.25919E+07         0.00000E+00
    0.00000E+00         0.00000E+00         0.00000E+00
 
    0.18530E+05         0.19446E+07         0.00000E+00
    0.19446E+07        -0.25736E+07         0.00000E+00
    0.00000E+00         0.00000E+00         0.00000E+00
 
    0.14446E+07         0.23680E+05         0.00000E+00
    0.23680E+05        -0.32181E+07         0.00000E+00
    0.00000E+00         0.00000E+00         0.00000E+00
 
    0.14256E+07         0.70450E+05         0.00000E+00
    0.70450E+05        -0.32177E+07         0.00000E+00
    0.00000E+00         0.00000E+00         0.00000E+00
 
    0.14061E+07         0.11700E+06         0.00000E+00
    0.11700E+06        -0.32168E+07         0.00000E+00
    0.00000E+00         0.00000E+00         0.00000E+00
 
    0.13862E+07         0.16334E+06         0.00000E+00
    0.16334E+06        -0.32155E+07         0.00000E+00
    0.00000E+00         0.00000E+00         0.00000E+00
 
    0.13658E+07         0.20946E+06         0.00000E+00
    0.20946E+06        -0.32137E+07         0.00000E+00
    0.00000E+00         0.00000E+00         0.00000E+00
 
    0.13450E+07         0.25536E+06         0.00000E+00
    0.25536E+06        -0.32115E+07         0.00000E+00
    0.00000E+00         0.00000E+00         0.00000E+00
 
    0.13237E+07         0.30103E+06         0.00000E+00
    0.30103E+06        -0.32089E+07         0.00000E+00
    0.00000E+00         0.00000E+00         0.00000E+00
 
    0.13019E+07         0.34649E+06         0.00000E+00
    0.34649E+06        -0.32059E+07         0.00000E+00
    0.00000E+00         0.00000E+00         0.00000E+00
 
    0.12797E+07         0.39172E+06         0.00000E+00
    0.39172E+06        -0.32024E+07         0.00000E+00
    0.00000E+00         0.00000E+00         0.00000E+00
 
    0.12571E+07         0.43673E+06         0.00000E+00
    0.43673E+06        -0.31985E+07         0.00000E+00
    0.00000E+00         0.00000E+00         0.00000E+00
 
    0.12340E+07         0.48151E+06         0.00000E+00
    0.48151E+06        -0.31942E+07         0.00000E+00
    0.00000E+00         0.00000E+00         0.00000E+00
 
    0.12104E+07         0.52607E+06         0.00000E+00
    0.52607E+06        -0.31895E+07         0.00000E+00
    0.00000E+00         0.00000E+00         0.00000E+00
 
    0.11865E+07         0.57040E+06         0.00000E+00
    0.57040E+06        -0.31844E+07         0.00000E+00
    0.00000E+00         0.00000E+00         0.00000E+00
 
    0.11621E+07         0.61451E+06         0.00000E+00
    0.61451E+06        -0.31789E+07         0.00000E+00
    0.00000E+00         0.00000E+00         0.00000E+00
 
    0.11373E+07         0.65838E+06         0.00000E+00
    0.65838E+06        -0.31730E+07         0.00000E+00
    0.00000E+00         0.00000E+00         0.00000E+00
 
    0.11121E+07         0.70202E+06         0.00000E+00
    0.70202E+06        -0.31666E+07         0.00000E+00
    0.00000E+00         0.00000E+00         0.00000E+00
 
    0.10864E+07         0.74543E+06         0.00000E+00
    0.74543E+06        -0.31599E+07         0.00000E+00
    0.00000E+00         0.00000E+00         0.00000E+00
 
    0.10604E+07         0.78861E+06         0.00000E+00
    0.78861E+06        -0.31528E+07         0.00000E+00
    0.00000E+00         0.00000E+00         0.00000E+00
 
    0.10339E+07         0.83156E+06         0.00000E+00
    0.83156E+06        -0.31453E+07         0.00000E+00
    0.00000E+00         0.00000E+00         0.00000E+00
 
    0.10070E+07         0.87427E+06         0.00000E+00
    0.87427E+06        -0.31374E+07         0.00000E+00
    0.00000E+00         0.00000E+00         0.00000E+00
 
    0.97971E+06         0.91674E+06         0.00000E+00
    0.91674E+06        -0.31291E+07         0.00000E+00
    0.00000E+00         0.00000E+00         0.00000E+00
 
    0.95201E+06         0.95898E+06         0.00000E+00
    0.95898E+06        -0.31204E+07         0.00000E+00
    0.00000E+00         0.00000E+00         0.00000E+00
 
    0.92390E+06         0.10010E+07         0.00000E+00
    0.10010E+07        -0.31113E+07         0.00000E+00
    0.00000E+00         0.00000E+00         0.00000E+00
 
    0.89540E+06         0.10427E+07         0.00000E+00
    0.10427E+07        -0.31018E+07         0.00000E+00
    0.00000E+00         0.00000E+00         0.00000E+00
 
    0.86649E+06         0.10842E+07         0.00000E+00
    0.10842E+07        -0.30920E+07         0.00000E+00
    0.00000E+00         0.00000E+00         0.00000E+00
 
    0.83719E+06         0.11255E+07         0.00000E+00
    0.11255E+07        -0.30817E+07         0.00000E+00
    0.00000E+00         0.00000E+00         0.00000E+00
 
    0.80750E+06         0.11666E+07         0.00000E+00
    0.11666E+07        -0.30711E+07         0.00000E+00
    0.00000E+00         0.00000E+00         0.00000E+00
 
    0.77741E+06         0.12073E+07         0.00000E+00
    0.12073E+07        -0.30601E+07         0.00000E+00
    0.00000E+00         0.00000E+00         0.00000E+00
 
    0.74693E+06         0.12479E+07         0.00000E+00
    0.12479E+07        -0.30488E+07         0.00000E+00
    0.00000E+00         0.00000E+00         0.00000E+00
 
    0.71607E+06         0.12882E+07         0.00000E+00
    0.12882E+07        -0.30370E+07         0.00000E+00
    0.00000E+00         0.00000E+00         0.00000E+00
 
    0.68481E+06         0.13282E+07         0.00000E+00
    0.13282E+07        -0.30249E+07         0.00000E+00
    0.00000E+00         0.00000E+00         0.00000E+00
 
    0.65317E+06         0.13680E+07         0.00000E+00
    0.13680E+07        -0.30124E+07         0.00000E+00
    0.00000E+00         0.00000E+00         0.00000E+00
 
    0.62115E+06         0.14075E+07         0.00000E+00
    0.14075E+07        -0.29996E+07         0.00000E+00
    0.00000E+00         0.00000E+00         0.00000E+00
 
    0.58874E+06         0.14468E+07         0.00000E+00
    0.14468E+07        -0.29863E+07         0.00000E+00
    0.00000E+00         0.00000E+00         0.00000E+00
 
    0.55596E+06         0.14858E+07         0.00000E+00
    0.14858E+07        -0.29727E+07         0.00000E+00
    0.00000E+00         0.00000E+00         0.00000E+00
 
    0.52279E+06         0.15246E+07         0.00000E+00
    0.15246E+07        -0.29588E+07         0.00000E+00
    0.00000E+00         0.00000E+00         0.00000E+00
 
    0.48925E+06         0.15631E+07         0.00000E+00
    0.15631E+07        -0.29444E+07         0.00000E+00
    0.00000E+00         0.00000E+00         0.00000E+00
 
    0.45533E+06         0.16013E+07         0.00000E+00
    0.16013E+07        -0.29297E+07         0.00000E+00
    0.00000E+00         0.00000E+00         0.00000E+00
 
    0.42103E+06         0.16393E+07         0.00000E+00
    0.16393E+07        -0.29146E+07         0.00000E+00
    0.00000E+00         0.00000E+00         0.00000E+00
 
    0.38636E+06         0.16770E+07         0.00000E+00
    0.16770E+07        -0.28992E+07         0.00000E+00
    0.00000E+00         0.00000E+00         0.00000E+00
 
    0.35131E+06         0.17144E+07         0.00000E+00
    0.17144E+07        -0.28834E+07         0.00000E+00
    0.00000E+00         0.00000E+00         0.00000E+00
 
    0.31589E+06         0.17516E+07         0.00000E+00
    0.17516E+07        -0.28673E+07         0.00000E+00
    0.00000E+00         0.00000E+00         0.00000E+00
 
    0.28011E+06         0.17885E+07         0.00000E+00
    0.17885E+07        -0.28508E+07         0.00000E+00
    0.00000E+00         0.00000E+00         0.00000E+00
 
    0.24395E+06         0.18251E+07         0.00000E+00
    0.18251E+07        -0.28339E+07         0.00000E+00
    0.00000E+00         0.00000E+00         0.00000E+00
 
    0.20742E+06         0.18614E+07         0.00000E+00
    0.18614E+07        -0.28166E+07         0.00000E+00
    0.00000E+00         0.00000E+00         0.00000E+00
 
    0.17052E+06         0.18974E+07         0.00000E+00
    0.18974E+07        -0.27991E+07         0.00000E+00
    0.00000E+00         0.00000E+00         0.00000E+00
 
    0.13326E+06         0.19332E+07         0.00000E+00
    0.19332E+07        -0.27811E+07         0.00000E+00
    0.00000E+00         0.00000E+00         0.00000E+00
 
    0.95628E+05         0.19686E+07         0.00000E+00
    0.19686E+07        -0.27628E+07         0.00000E+00
    0.00000E+00         0.00000E+00         0.00000E+00
 
    0.57632E+05         0.20038E+07         0.00000E+00
    0.20038E+07        -0.27441E+07         0.00000E+00
    0.00000E+00         0.00000E+00         0.00000E+00
 
    0.19271E+05         0.20387E+07         0.00000E+00
    0.20387E+07        -0.27251E+07         0.00000E+00
    0.00000E+00         0.00000E+00         0.00000E+00
 
    0.15071E+07         0.24764E+05         0.00000E+00
    0.24764E+05        -0.33953E+07         0.00000E+00
    0.00000E+00         0.00000E+00         0.00000E+00
 
    0.14870E+07         0.73666E+05         0.00000E+00
    0.73666E+05        -0.33948E+07         0.00000E+00
    0.00000E+00         0.00000E+00         0.00000E+00
 
    0.14664E+07         0.12234E+06         0.00000E+00
    0.12234E+06        -0.33939E+07         0.00000E+00
    0.00000E+00         0.00000E+00         0.00000E+00
 
    0.14454E+07         0.17079E+06         0.00000E+00
    0.17079E+06        -0.33926E+07         0.00000E+00
    0.00000E+00         0.00000E+00         0.00000E+00
 
    0.14239E+07         0.21900E+06         0.00000E+00
    0.21900E+06        -0.33908E+07         0.00000E+00
    0.00000E+00         0.00000E+00         0.00000E+00
 
    0.14019E+07         0.26699E+06         0.00000E+00
    0.26699E+06        -0.33885E+07         0.00000E+00
    0.00000E+00         0.00000E+00         0.00000E+00
 
    0.13795E+07         0.31474E+06         0.00000E+00
    0.31474E+06        -0.33858E+07         0.00000E+00
    0.00000E+00         0.00000E+00         0.00000E+00
 
    0.13566E+07         0.36226E+06         0.00000E+00
    0.36226E+06        -0.33827E+07         0.00000E+00
    0.00000E+00         0.00000E+00         0.00000E+00
 
    0.13332E+07         0.40955E+06         0.00000E+00
    0.40955E+06        -0.33792E+07         0.00000E+00
    0.00000E+00         0.00000E+00         0.00000E+00
 
    0.13094E+07         0.45661E+06         0.00000E+00
    0.45661E+06        -0.33752E+07         0.00000E+00
    0.00000E+00         0.00000E+00         0.00000E+00
 
    0.12852E+07         0.50343E+06         0.00000E+00
    0.50343E+06        -0.33708E+07         0.00000E+00
    0.00000E+00         0.00000E+00         0.00000E+00
 
    0.12605E+07         0.55002E+06         0.00000E+00
    0.55002E+06        -0.33659E+07         0.00000E+00
    0.00000E+00         0.00000E+00         0.00000E+00
 
    0.12354E+07         0.59637E+06         0.00000E+00
    0.59637E+06        -0.33607E+07         0.00000E+00
    0.00000E+00         0.00000E+00         0.00000E+00
 
    0.12098E+07         0.64249E+06         0.00000E+00
    0.64249E+06        -0.33550E+07         0.00000E+00
    0.00000E+00         0.00000E+00         0.00000E+00
 
    0.11838E+07         0.68837E+06         0.00000E+00
    0.68837E+06        -0.33489E+07         0.00000E+00
    0.00000E+00         0.00000E+00         0.00000E+00
 
    0.11574E+07         0.73402E+06         0.00000E+00
    0.73402E+06        -0.33424E+07         0.00000E+00
    0.00000E+00         0.00000E+00         0.00000E+00
 
    0.11306E+07         0.77942E+06         0.00000E+00
    0.77942E+06        -0.33355E+07         0.00000E+00
    0.00000E+00         0.00000E+00         0.00000E+00
 
    0.11033E+07         0.82459E+06         0.00000E+00
    0.82459E+06        -0.33281E+07         0.00000E+00
    0.00000E+00         0.00000E+00         0.00000E+00
 
    0.10757E+07         0.86952E+06         0.00000E+00
    0.86952E+06        -0.33204E+07         0.00000E+00
    0.00000E+00         0.00000E+00         0.00000E+00
 
    0.10476E+07         0.91421E+06         0.00000E+00
    0.91421E+06        -0.33123E+07         0.00000E+00
    0.00000E+00         0.00000E+00         0.00000E+00
 
    0.10191E+07         0.95865E+06         0.00000E+00
    0.95865E+06        -0.33037E+07         0.00000E+00
    0.00000E+00         0.00000E+00         0.00000E+00
 
    0.99016E+06         0.10029E+07         0.00000E+00
    0.10029E+07        -0.32948E+07         0.00000E+00
    0.00000E+00         0.00000E+00         0.00000E+00
 
    0.96083E+06         0.10468E+07         0.00000E+00
    0.10468E+07        -0.32854E+07         0.00000E+00
    0.00000E+00         0.00000E+00         0.00000E+00
 
    0.93110E+06         0.10905E+07         0.00000E+00
    0.10905E+07        -0.32757E+07         0.00000E+00
    0.00000E+00         0.00000E+00         0.00000E+00
 
    0.90096E+06         0.11340E+07         0.00000E+00
    0.11340E+07        -0.32655E+07         0.00000E+00
    0.00000E+00         0.00000E+00         0.00000E+00
 
    0.87042E+06         0.11772E+07         0.00000E+00
    0.11772E+07        -0.32550E+07         0.00000E+00
    0.00000E+00         0.00000E+00         0.00000E+00
 
    0.83948E+06         0.12202E+07         0.00000E+00
    0.12202E+07        -0.32440E+07         0.00000E+00
    0.00000E+00         0.00000E+00         0.00000E+00
 
    0.80814E+06         0.12629E+07         0.00000E+00
    0.12629E+07        -0.32327E+07         0.00000E+00
    0.00000E+00         0.00000E+00         0.00000E+00
 
    0.77640E+06         0.13054E+07         0.00000E+00
    0.13054E+07        -0.32210E+07         0.00000E+00
    0.00000E+00         0.00000E+00         0.00000E+00
 
    0.74427E+06         0.13476E+07         0.00000E+00
    0.13476E+07        -0.32089E+07         0.00000E+00
    0.00000E+00         0.00000E+00         0.00000E+00
 
    0.71174E+06         0.13896E+07         0.00000E+00
    0.13896E+07        -0.31964E+07         0.00000E+00
    0.00000E+00         0.00000E+00         0.00000E+00
 
    0.67882E+06         0.14313E+07         0.00000E+00
    0.14313E+07        -0.31835E+07         0.00000E+00
    0.00000E+00         0.00000E+00         0.00000E+00
 
    0.64550E+06         0.14728E+07         0.00000E+00
    0.14728E+07        -0.31702E+07         0.00000E+00
    0.00000E+00         0.00000E+00         0.00000E+00
 
    0.61179E+06         0.15140E+07         0.00000E+00
    0.15140E+07        -0.31565E+07         0.00000E+00
    0.00000E+00         0.00000E+00         0.00000E+00
 
    0.57770E+06         0.15549E+07         0.00000E+00
    0.15549E+07        -0.31425E+07         0.00000E+00
    0.00000E+00         0.00000E+00         0.00000E+00
 
    0.54321E+06         0.15956E+07         0.00000E+00
    0.15956E+07        -0.31281E+07         0.00000E+00
    0.00000E+00         0.00000E+00         0.00000E+00
 
    0.50834E+06         0.16360E+07         0.00000E+00
    0.16360E+07        -0.31132E+07         0.00000E+00
    0.00000E+00         0.00000E+00         0.00000E+00
 
    0.47308E+06         0.16762E+07         0.00000E+00
    0.16762E+07        -0.30980E+07         0.00000E+00
    0.00000E+00         0.00000E+00         0.00000E+00
 
    0.43743E+06         0.17161E+07         0.00000E+00
    0.17161E+07        -0.30824E+07         0.00000E+00
    0.00000E+00         0.00000E+00         0.00000E+00
 
    0.40139E+06         0.17557E+07         0.00000E+00
    0.17557E+07        -0.30665E+07         0.00000E+00
    0.00000E+00         0.00000E+00         0.00000E+00
 
    0.36498E+06         0.17950E+07         0.00000E+00
    0.17950E+07        -0.30501E+07         0.00000E+00
    0.00000E+00         0.00000E+00         0.00000E+00
 
    0.32818E+06         0.18341E+07         0.00000E+00
    0.18341E+07        -0.30334E+07         0.00000E+00
    0.00000E+00         0.00000E+00         0.00000E+00
 
    0.29099E+06         0.18729E+07         0.00000E+00
    0.18729E+07        -0.30163E+07         0.00000E+00
    0.00000E+00         0.00000E+00         0.00000E+00
 
    0.25342E+06         0.19114E+07         0.00000E+00
    0.19114E+07        -0.29988E+07         0.00000E+00
    0.00000E+00         0.00000E+00         0.00000E+00
 
    0.21548E+06         0.19496E+07         0.00000E+00
    0.19496E+07        -0.29810E+07         0.00000E+00
    0.00000E+00         0.00000E+00         0.00000E+00
 
    0.17715E+06         0.19876E+07         0.00000E+00
    0.19876E+07        -0.29627E+07         0.00000E+00
    0.00000E+00         0.00000E+00         0.00000E+00
 
    0.13843E+06         0.20252E+07         0.00000E+00
    0.20252E+07        -0.29441E+07         0.00000E+00
    0.00000E+00         0.00000E+00         0.00000E+00
 
    0.99342E+05         0.20626E+07         0.00000E+00
    0.20626E+07        -0.29251E+07         0.00000E+00
    0.00000E+00         0.00000E+00         0.00000E+00
 
    0.59871E+05         0.20997E+07         0.00000E+00
    0.20997E+07        -0.29057E+07         0.00000E+00
    0.00000E+00         0.00000E+00         0.00000E+00
 
    0.20020E+05         0.21364E+07         0.00000E+00
    0.21364E+07        -0.28860E+07         0.00000E+00
    0.00000E+00         0.00000E+00         0.00000E+00
 
    0.15709E+07         0.25879E+05         0.00000E+00
    0.25879E+05        -0.35821E+07         0.00000E+00
    0.00000E+00         0.00000E+00         0.00000E+00
 
    0.15496E+07         0.76977E+05         0.00000E+00
    0.76977E+05        -0.35816E+07         0.00000E+00
    0.00000E+00         0.00000E+00         0.00000E+00
 
    0.15279E+07         0.12783E+06         0.00000E+00
    0.12783E+06        -0.35807E+07         0.00000E+00
    0.00000E+00         0.00000E+00         0.00000E+00
 
    0.15056E+07         0.17845E+06         0.00000E+00
    0.17845E+06        -0.35793E+07         0.00000E+00
    0.00000E+00         0.00000E+00         0.00000E+00
 
    0.14829E+07         0.22882E+06         0.00000E+00
    0.22882E+06        -0.35775E+07         0.00000E+00
    0.00000E+00         0.00000E+00         0.00000E+00
 
    0.14598E+07         0.27896E+06         0.00000E+00
    0.27896E+06        -0.35752E+07         0.00000E+00
    0.00000E+00         0.00000E+00         0.00000E+00
 
    0.14361E+07         0.32885E+06         0.00000E+00
    0.32885E+06        -0.35724E+07         0.00000E+00
    0.00000E+00         0.00000E+00         0.00000E+00
 
    0.14121E+07         0.37850E+06         0.00000E+00
    0.37850E+06        -0.35692E+07         0.00000E+00
    0.00000E+00         0.00000E+00         0.00000E+00
 
    0.13875E+07         0.42791E+06         0.00000E+00
    0.42791E+06        -0.35656E+07         0.00000E+00
    0.00000E+00         0.00000E+00         0.00000E+00
 
    0.13625E+07         0.47707E+06         0.00000E+00
    0.47707E+06        -0.35615E+07         0.00000E+00
    0.00000E+00         0.00000E+00         0.00000E+00
 
    0.13371E+07         0.52600E+06         0.00000E+00
    0.52600E+06        -0.35570E+07         0.00000E+00
    0.00000E+00         0.00000E+00         0.00000E+00
 
    0.13112E+07         0.57468E+06         0.00000E+00
    0.57468E+06        -0.35520E+07         0.00000E+00
    0.00000E+00         0.00000E+00         0.00000E+00
 
    0.12849E+07         0.62312E+06         0.00000E+00
    0.62312E+06        -0.35466E+07         0.00000E+00
    0.00000E+00         0.00000E+00         0.00000E+00
 
    0.12581E+07         0.67132E+06         0.00000E+00
    0.67132E+06        -0.35408E+07         0.00000E+00
    0.00000E+00         0.00000E+00         0.00000E+00
 
    0.12309E+07         0.71927E+06         0.00000E+00
    0.71927E+06        -0.35345E+07         0.00000E+00
    0.00000E+00         0.00000E+00         0.00000E+00
 
    0.12033E+07         0.76698E+06         0.00000E+00
    0.76698E+06        -0.35278E+07         0.00000E+00
    0.00000E+00         0.00000E+00         0.00000E+00
 
    0.11752E+07         0.81444E+06         0.00000E+00
    0.81444E+06        -0.35207E+07         0.00000E+00
    0.00000E+00         0.00000E+00         0.00000E+00
 
    0.11468E+07         0.86166E+06         0.00000E+00
    0.86166E+06        -0.35132E+07         0.00000E+00
    0.00000E+00         0.00000E+00         0.00000E+00
 
    0.11179E+07         0.90864E+06         0.00000E+00
    0.90864E+06        -0.35053E+07         0.00000E+00
    0.00000E+00         0.00000E+00         0.00000E+00
 
    0.10885E+07         0.95537E+06         0.00000E+00
    0.95537E+06        -0.34969E+07         0.00000E+00
    0.00000E+00         0.00000E+00         0.00000E+00
 
    0.10588E+07         0.10019E+07         0.00000E+00
    0.10019E+07        -0.34881E+07         0.00000E+00
    0.00000E+00         0.00000E+00         0.00000E+00
 
    0.10286E+07         0.10481E+07         0.00000E+00
    0.10481E+07        -0.34789E+07         0.00000E+00
    0.00000E+00         0.00000E+00         0.00000E+00
 
    0.99807E+06         0.10941E+07         0.00000E+00
    0.10941E+07        -0.34693E+07         0.00000E+00
    0.00000E+00         0.00000E+00         0.00000E+00
 
    0.96709E+06         0.11398E+07         0.00000E+00
    0.11398E+07        -0.34593E+07         0.00000E+00
    0.00000E+00         0.00000E+00         0.00000E+00
 
    0.93570E+06         0.11853E+07         0.00000E+00
    0.11853E+07        -0.34489E+07         0.00000E+00
    0.00000E+00         0.00000E+00         0.00000E+00
 
    0.90391E+06         0.12306E+07         0.00000E+00
    0.12306E+07        -0.34380E+07         0.00000E+00
    0.00000E+00         0.00000E+00         0.00000E+00
 
    0.87170E+06         0.12756E+07         0.00000E+00
    0.12756E+07        -0.34268E+07         0.00000E+00
    0.00000E+00         0.00000E+00         0.00000E+00
 
    0.83909E+06         0.13203E+07         0.00000E+00
    0.13203E+07        -0.34151E+07         0.00000E+00
    0.00000E+00         0.00000E+00         0.00000E+00
 
    0.80607E+06         0.13648E+07         0.00000E+00
    0.13648E+07        -0.34031E+07         0.00000E+00
    0.00000E+00         0.00000E+00         0.00000E+00
 
    0.77266E+06         0.14090E+07         0.00000E+00
    0.14090E+07        -0.33906E+07         0.00000E+00
    0.00000E+00         0.00000E+00         0.00000E+00
 
    0.73884E+06         0.14530E+07         0.00000E+00
    0.14530E+07        -0.33777E+07         0.00000E+00
    0.00000E+00         0.00000E+00         0.00000E+00
 
    0.70461E+06         0.14968E+07         0.00000E+00
    0.14968E+07        -0.33644E+07         0.00000E+00
    0.00000E+00         0.00000E+00         0.00000E+00
 
    0.66999E+06         0.15402E+07         0.00000E+00
    0.15402E+07        -0.33508E+07         0.00000E+00
    0.00000E+00         0.00000E+00         0.00000E+00
 
    0.63497E+06         0.15834E+07         0.00000E+00
    0.15834E+07        -0.33367E+07         0.00000E+00
    0.00000E+00         0.00000E+00         0.00000E+00
 
    0.59956E+06         0.16264E+07         0.00000E+00
    0.16264E+07        -0.33222E+07         0.00000E+00
    0.00000E+00         0.00000E+00         0.00000E+00
 
    0.56374E+06         0.16691E+07         0.00000E+00
    0.16691E+07        -0.33073E+07         0.00000E+00
    0.00000E+00         0.00000E+00         0.00000E+00
 
    0.52753E+06         0.17115E+07         0.00000E+00
    0.17115E+07        -0.32920E+07         0.00000E+00
    0.00000E+00         0.00000E+00         0.00000E+00
 
    0.49092E+06         0.17537E+07         0.00000E+00
    0.17537E+07        -0.32763E+07         0.00000E+00
    0.00000E+00         0.00000E+00         0.00000E+00
 
    0.45391E+06         0.17955E+07         0.00000E+00
    0.17955E+07        -0.32602E+07         0.00000E+00
    0.00000E+00         0.00000E+00         0.00000E+00
 
    0.41651E+06         0.18372E+07         0.00000E+00
    0.18372E+07        -0.32437E+07         0.00000E+00
    0.00000E+00         0.00000E+00         0.00000E+00
 
    0.37871E+06         0.18785E+07         0.00000E+00
    0.18785E+07        -0.32268E+07         0.00000E+00
    0.00000E+00         0.00000E+00         0.00000E+00
 
    0.34052E+06         0.19196E+07         0.00000E+00
    0.19196E+07        -0.32095E+07         0.00000E+00
    0.00000E+00         0.00000E+00         0.00000E+00
 
    0.30193E+06         0.19604E+07         0.00000E+00
    0.19604E+07        -0.31918E+07         0.00000E+00
    0.00000E+00         0.00000E+00         0.00000E+00
 
    0.26295E+06         0.20009E+07         0.00000E+00
    0.20009E+07        -0.31737E+07         0.00000E+00
    0.00000E+00         0.00000E+00         0.00000E+00
 
    0.22357E+06         0.20411E+07         0.00000E+00
    0.20411E+07        -0.31552E+07         0.00000E+00
    0.00000E+00         0.00000E+00         0.00000E+00
 
    0.18380E+06         0.20810E+07         0.00000E+00
    0.20810E+07        -0.31364E+07         0.00000E+00
    0.00000E+00         0.00000E+00         0.00000E+00
 
    0.14364E+06         0.21207E+07         0.00000E+00
    0.21207E+07        -0.31171E+07         0.00000E+00
    0.00000E+00         0.00000E+00         0.00000E+00
 
    0.10308E+06         0.21601E+07         0.00000E+00
    0.21601E+07        -0.30974E+07         0.00000E+00
    0.00000E+00         0.00000E+00         0.00000E+00
 
    0.62121E+05         0.21991E+07         0.00000E+00
    0.21991E+07        -0.30773E+07         0.00000E+00
    0.00000E+00         0.00000E+00         0.00000E+00
 
    0.20773E+05         0.22379E+07         0.00000E+00
    0.22379E+07        -0.30568E+07         0.00000E+00
    0.00000E+00         0.00000E+00         0.00000E+00
 
    0.16357E+07         0.27025E+05         0.00000E+00
    0.27025E+05        -0.37791E+07         0.00000E+00
    0.00000E+00         0.00000E+00         0.00000E+00
 
    0.16132E+07         0.80377E+05         0.00000E+00
    0.80377E+05        -0.37786E+07         0.00000E+00
    0.00000E+00         0.00000E+00         0.00000E+00
 
    0.15902E+07         0.13348E+06         0.00000E+00
    0.13348E+06        -0.37776E+07         0.00000E+00
    0.00000E+00         0.00000E+00         0.00000E+00
 
    0.15667E+07         0.18632E+06         0.00000E+00
    0.18632E+06        -0.37762E+07         0.00000E+00
    0.00000E+00         0.00000E+00         0.00000E+00
 
    0.15428E+07         0.23891E+06         0.00000E+00
    0.23891E+06        -0.37743E+07         0.00000E+00
    0.00000E+00         0.00000E+00         0.00000E+00
 
    0.15184E+07         0.29125E+06         0.00000E+00
    0.29125E+06        -0.37720E+07         0.00000E+00
    0.00000E+00         0.00000E+00         0.00000E+00
 
    0.14935E+07         0.34334E+06         0.00000E+00
    0.34334E+06        -0.37691E+07         0.00000E+00
    0.00000E+00         0.00000E+00         0.00000E+00
 
    0.14682E+07         0.39518E+06         0.00000E+00
    0.39518E+06        -0.37659E+07         0.00000E+00
    0.00000E+00         0.00000E+00         0.00000E+00
 
    0.14424E+07         0.44677E+06         0.00000E+00
    0.44677E+06        -0.37621E+07         0.00000E+00
    0.00000E+00         0.00000E+00         0.00000E+00
 
    0.14161E+07         0.49810E+06         0.00000E+00
    0.49810E+06        -0.37580E+07         0.00000E+00
    0.00000E+00         0.00000E+00         0.00000E+00
 
    0.13895E+07         0.54919E+06         0.00000E+00
    0.54919E+06        -0.37533E+07         0.00000E+00
    0.00000E+00         0.00000E+00         0.00000E+00
 
    0.13623E+07         0.60002E+06         0.00000E+00
    0.60002E+06        -0.37483E+07         0.00000E+00
    0.00000E+00         0.00000E+00         0.00000E+00
 
    0.13348E+07         0.65060E+06         0.00000E+00
    0.65060E+06        -0.37427E+07         0.00000E+00
    0.00000E+00         0.00000E+00         0.00000E+00
 
    0.13068E+07         0.70094E+06         0.00000E+00
    0.70094E+06        -0.37368E+07         0.00000E+00
    0.00000E+00         0.00000E+00         0.00000E+00
 
    0.12783E+07         0.75103E+06         0.00000E+00
    0.75103E+06        -0.37304E+07         0.00000E+00
    0.00000E+00         0.00000E+00         0.00000E+00
 
    0.12494E+07         0.80086E+06         0.00000E+00
    0.80086E+06        -0.37236E+07         0.00000E+00
    0.00000E+00         0.00000E+00         0.00000E+00
 
    0.12201E+07         0.85045E+06         0.00000E+00
    0.85045E+06        -0.37163E+07         0.00000E+00
    0.00000E+00         0.00000E+00         0.00000E+00
 
    0.11904E+07         0.89979E+06         0.00000E+00
    0.89979E+06        -0.37086E+07         0.00000E+00
    0.00000E+00         0.00000E+00         0.00000E+00
 
    0.11603E+07         0.94888E+06         0.00000E+00
    0.94888E+06        -0.37004E+07         0.00000E+00
    0.00000E+00         0.00000E+00         0.00000E+00
 
    0.11297E+07         0.99772E+06         0.00000E+00
    0.99772E+06        -0.36919E+07         0.00000E+00
    0.00000E+00         0.00000E+00         0.00000E+00
 
    0.10987E+07         0.10463E+07         0.00000E+00
    0.10463E+07        -0.36829E+07         0.00000E+00
    0.00000E+00         0.00000E+00         0.00000E+00
 
    0.10673E+07         0.10946E+07         0.00000E+00
    0.10946E+07        -0.36735E+07         0.00000E+00
    0.00000E+00         0.00000E+00         0.00000E+00
 
    0.10354E+07         0.11427E+07         0.00000E+00
    0.11427E+07        -0.36636E+07         0.00000E+00
    0.00000E+00         0.00000E+00         0.00000E+00
 
    0.10032E+07         0.11906E+07         0.00000E+00
    0.11906E+07        -0.36533E+07         0.00000E+00
    0.00000E+00         0.00000E+00         0.00000E+00
 
    0.97054E+06         0.12382E+07         0.00000E+00
    0.12382E+07        -0.36426E+07         0.00000E+00
    0.00000E+00         0.00000E+00         0.00000E+00
 
    0.93746E+06         0.12855E+07         0.00000E+00
    0.12855E+07        -0.36315E+07         0.00000E+00
    0.00000E+00         0.00000E+00         0.00000E+00
 
    0.90398E+06         0.13326E+07         0.00000E+00
    0.13326E+07        -0.36199E+07         0.00000E+00
    0.00000E+00         0.00000E+00         0.00000E+00
 
    0.87009E+06         0.13794E+07         0.00000E+00
    0.13794E+07        -0.36080E+07         0.00000E+00
    0.00000E+00         0.00000E+00         0.00000E+00
 
    0.83579E+06         0.14260E+07         0.00000E+00
    0.14260E+07        -0.35956E+07         0.00000E+00
    0.00000E+00         0.00000E+00         0.00000E+00
 
    0.80107E+06         0.14723E+07         0.00000E+00
    0.14723E+07        -0.35828E+07         0.00000E+00
    0.00000E+00         0.00000E+00         0.00000E+00
 
    0.76596E+06         0.15184E+07         0.00000E+00
    0.15184E+07        -0.35695E+07         0.00000E+00
    0.00000E+00         0.00000E+00         0.00000E+00
 
    0.73043E+06         0.15642E+07         0.00000E+00
    0.15642E+07        -0.35559E+07         0.00000E+00
    0.00000E+00         0.00000E+00         0.00000E+00
 
    0.69450E+06         0.16098E+07         0.00000E+00
    0.16098E+07        -0.35418E+07         0.00000E+00
    0.00000E+00         0.00000E+00         0.00000E+00
 
    0.65816E+06         0.16551E+07         0.00000E+00
    0.16551E+07        -0.35273E+07         0.00000E+00
    0.00000E+00         0.00000E+00         0.00000E+00
 
    0.62142E+06         0.17001E+07         0.00000E+00
    0.17001E+07        -0.35124E+07         0.00000E+00
    0.00000E+00         0.00000E+00         0.00000E+00
 
    0.58427E+06         0.17449E+07         0.00000E+00
    0.17449E+07        -0.34971E+07         0.00000E+00
    0.00000E+00         0.00000E+00         0.00000E+00
 
    0.54671E+06         0.17894E+07         0.00000E+00
    0.17894E+07        -0.34813E+07         0.00000E+00
    0.00000E+00         0.00000E+00         0.00000E+00
 
    0.50875E+06         0.18337E+07         0.00000E+00
    0.18337E+07        -0.34651E+07         0.00000E+00
    0.00000E+00         0.00000E+00         0.00000E+00
 
    0.47039E+06         0.18776E+07         0.00000E+00
    0.18776E+07        -0.34485E+07         0.00000E+00
    0.00000E+00         0.00000E+00         0.00000E+00
 
    0.43161E+06         0.19213E+07         0.00000E+00
    0.19213E+07        -0.34315E+07         0.00000E+00
    0.00000E+00         0.00000E+00         0.00000E+00
 
    0.39244E+06         0.19648E+07         0.00000E+00
    0.19648E+07        -0.34141E+07         0.00000E+00
    0.00000E+00         0.00000E+00         0.00000E+00
 
    0.35285E+06         0.20080E+07         0.00000E+00
    0.20080E+07        -0.33962E+07         0.00000E+00
    0.00000E+00         0.00000E+00         0.00000E+00
 
    0.31286E+06         0.20508E+07         0.00000E+00
    0.20508E+07        -0.33780E+07         0.00000E+00
    0.00000E+00         0.00000E+00         0.00000E+00
 
    0.27247E+06         0.20935E+07         0.00000E+00
    0.20935E+07        -0.33593E+07         0.00000E+00
    0.00000E+00         0.00000E+00         0.00000E+00
 
    0.23166E+06         0.21358E+07         0.00000E+00
    0.21358E+07        -0.33402E+07         0.00000E+00
    0.00000E+00         0.00000E+00         0.00000E+00
 
    0.19045E+06         0.21778E+07         0.00000E+00
    0.21778E+07        -0.33207E+07         0.00000E+00
    0.00000E+00         0.00000E+00         0.00000E+00
 
    0.14883E+06         0.22196E+07         0.00000E+00
    0.22196E+07        -0.33007E+07         0.00000E+00
    0.00000E+00         0.00000E+00         0.00000E+00
 
    0.10681E+06         0.22611E+07         0.00000E+00
    0.22611E+07        -0.32803E+07         0.00000E+00
    0.00000E+00         0.00000E+00         0.00000E+00
 
    0.64371E+05         0.23022E+07         0.00000E+00
    0.23022E+07        -0.32596E+07         0.00000E+00
    0.00000E+00         0.00000E+00         0.00000E+00
 
    0.21525E+05         0.23431E+07         0.00000E+00
    0.23431E+07        -0.32384E+07         0.00000E+00
    0.00000E+00         0.00000E+00         0.00000E+00
 
    0.17012E+07         0.28199E+05         0.00000E+00
    0.28199E+05        -0.39867E+07         0.00000E+00
    0.00000E+00         0.00000E+00         0.00000E+00
 
    0.16774E+07         0.83861E+05         0.00000E+00
    0.83861E+05        -0.39862E+07         0.00000E+00
    0.00000E+00         0.00000E+00         0.00000E+00
 
    0.16531E+07         0.13926E+06         0.00000E+00
    0.13926E+06        -0.39852E+07         0.00000E+00
    0.00000E+00         0.00000E+00         0.00000E+00
 
    0.16283E+07         0.19439E+06         0.00000E+00
    0.19439E+06        -0.39838E+07         0.00000E+00
    0.00000E+00         0.00000E+00         0.00000E+00
 
    0.16031E+07         0.24925E+06         0.00000E+00
    0.24925E+06        -0.39819E+07         0.00000E+00
    0.00000E+00         0.00000E+00         0.00000E+00
 
    0.15774E+07         0.30385E+06         0.00000E+00
    0.30385E+06        -0.39795E+07         0.00000E+00
    0.00000E+00         0.00000E+00         0.00000E+00
 
    0.15513E+07         0.35819E+06         0.00000E+00
    0.35819E+06        -0.39766E+07         0.00000E+00
    0.00000E+00         0.00000E+00         0.00000E+00
 
    0.15246E+07         0.41227E+06         0.00000E+00
    0.41227E+06        -0.39733E+07         0.00000E+00
    0.00000E+00         0.00000E+00         0.00000E+00
 
    0.14976E+07         0.46609E+06         0.00000E+00
    0.46609E+06        -0.39695E+07         0.00000E+00
    0.00000E+00         0.00000E+00         0.00000E+00
 
    0.14700E+07         0.51965E+06         0.00000E+00
    0.51965E+06        -0.39652E+07         0.00000E+00
    0.00000E+00         0.00000E+00         0.00000E+00
 
    0.14421E+07         0.57295E+06         0.00000E+00
    0.57295E+06        -0.39605E+07         0.00000E+00
    0.00000E+00         0.00000E+00         0.00000E+00
 
    0.14137E+07         0.62600E+06         0.00000E+00
    0.62600E+06        -0.39553E+07         0.00000E+00
    0.00000E+00         0.00000E+00         0.00000E+00
 
    0.13848E+07         0.67878E+06         0.00000E+00
    0.67878E+06        -0.39497E+07         0.00000E+00
    0.00000E+00         0.00000E+00         0.00000E+00
 
    0.13555E+07         0.73131E+06         0.00000E+00
    0.73131E+06        -0.39436E+07         0.00000E+00
    0.00000E+00         0.00000E+00         0.00000E+00
 
    0.13258E+07         0.78359E+06         0.00000E+00
    0.78359E+06        -0.39371E+07         0.00000E+00
    0.00000E+00         0.00000E+00         0.00000E+00
 
    0.12957E+07         0.83561E+06         0.00000E+00
    0.83561E+06        -0.39301E+07         0.00000E+00
    0.00000E+00         0.00000E+00         0.00000E+00
 
    0.12651E+07         0.88738E+06         0.00000E+00
    0.88738E+06        -0.39227E+07         0.00000E+00
    0.00000E+00         0.00000E+00         0.00000E+00
 
    0.12341E+07         0.93890E+06         0.00000E+00
    0.93890E+06        -0.39148E+07         0.00000E+00
    0.00000E+00         0.00000E+00         0.00000E+00
 
    0.12026E+07         0.99016E+06         0.00000E+00
    0.99016E+06        -0.39065E+07         0.00000E+00
    0.00000E+00         0.00000E+00         0.00000E+00
 
    0.11708E+07         0.10412E+07         0.00000E+00
    0.10412E+07        -0.38977E+07         0.00000E+00
    0.00000E+00         0.00000E+00         0.00000E+00
 
    0.11385E+07         0.10919E+07         0.00000E+00
    0.10919E+07        -0.38885E+07         0.00000E+00
    0.00000E+00         0.00000E+00         0.00000E+00
 
    0.11058E+07         0.11424E+07         0.00000E+00
    0.11424E+07        -0.38789E+07         0.00000E+00
    0.00000E+00         0.00000E+00         0.00000E+00
 
    0.10727E+07         0.11927E+07         0.00000E+00
    0.11927E+07        -0.38688E+07         0.00000E+00
    0.00000E+00         0.00000E+00         0.00000E+00
 
    0.10392E+07         0.12427E+07         0.00000E+00
    0.12427E+07        -0.38583E+07         0.00000E+00
    0.00000E+00         0.00000E+00         0.00000E+00
 
    0.10053E+07         0.12925E+07         0.00000E+00
    0.12925E+07        -0.38474E+07         0.00000E+00
    0.00000E+00         0.00000E+00         0.00000E+00
 
    0.97090E+06         0.13420E+07         0.00000E+00
    0.13420E+07        -0.38360E+07         0.00000E+00
    0.00000E+00         0.00000E+00         0.00000E+00
 
    0.93613E+06         0.13912E+07         0.00000E+00
    0.13912E+07        -0.38241E+07         0.00000E+00
    0.00000E+00         0.00000E+00         0.00000E+00
 
    0.90095E+06         0.14402E+07         0.00000E+00
    0.14402E+07        -0.38119E+07         0.00000E+00
    0.00000E+00         0.00000E+00         0.00000E+00
 
    0.86536E+06         0.14890E+07         0.00000E+00
    0.14890E+07        -0.37992E+07         0.00000E+00
    0.00000E+00         0.00000E+00         0.00000E+00
 
    0.82935E+06         0.15374E+07         0.00000E+00
    0.15374E+07        -0.37860E+07         0.00000E+00
    0.00000E+00         0.00000E+00         0.00000E+00
 
    0.79293E+06         0.15857E+07         0.00000E+00
    0.15857E+07        -0.37725E+07         0.00000E+00
    0.00000E+00         0.00000E+00         0.00000E+00
 
    0.75610E+06         0.16337E+07         0.00000E+00
    0.16337E+07        -0.37584E+07         0.00000E+00
    0.00000E+00         0.00000E+00         0.00000E+00
 
    0.71886E+06         0.16814E+07         0.00000E+00
    0.16814E+07        -0.37440E+07         0.00000E+00
    0.00000E+00         0.00000E+00         0.00000E+00
 
    0.68121E+06         0.17289E+07         0.00000E+00
    0.17289E+07        -0.37291E+07         0.00000E+00
    0.00000E+00         0.00000E+00         0.00000E+00
 
    0.64314E+06         0.17761E+07         0.00000E+00
    0.17761E+07        -0.37138E+07         0.00000E+00
    0.00000E+00         0.00000E+00         0.00000E+00
 
    0.60467E+06         0.18230E+07         0.00000E+00
    0.18230E+07        -0.36980E+07         0.00000E+00
    0.00000E+00         0.00000E+00         0.00000E+00
 
    0.56577E+06         0.18697E+07         0.00000E+00
    0.18697E+07        -0.36818E+07         0.00000E+00
    0.00000E+00         0.00000E+00         0.00000E+00
 
    0.52647E+06         0.19161E+07         0.00000E+00
    0.19161E+07        -0.36652E+07         0.00000E+00
    0.00000E+00         0.00000E+00         0.00000E+00
 
    0.48675E+06         0.19623E+07         0.00000E+00
    0.19623E+07        -0.36481E+07         0.00000E+00
    0.00000E+00         0.00000E+00         0.00000E+00
 
    0.44662E+06         0.20082E+07         0.00000E+00
    0.20082E+07        -0.36306E+07         0.00000E+00
    0.00000E+00         0.00000E+00         0.00000E+00
 
    0.40607E+06         0.20538E+07         0.00000E+00
    0.20538E+07        -0.36127E+07         0.00000E+00
    0.00000E+00         0.00000E+00         0.00000E+00
 
    0.36510E+06         0.20992E+07         0.00000E+00
    0.20992E+07        -0.35943E+07         0.00000E+00
    0.00000E+00         0.00000E+00         0.00000E+00
 
    0.32372E+06         0.21443E+07         0.00000E+00
    0.21443E+07        -0.35755E+07         0.00000E+00
    0.00000E+00         0.00000E+00         0.00000E+00
 
    0.28192E+06         0.21891E+07         0.00000E+00
    0.21891E+07        -0.35562E+07         0.00000E+00
    0.00000E+00         0.00000E+00         0.00000E+00
 
    0.23970E+06         0.22336E+07         0.00000E+00
    0.22336E+07        -0.35365E+07         0.00000E+00
    0.00000E+00         0.00000E+00         0.00000E+00
 
    0.19706E+06         0.22779E+07         0.00000E+00
    0.22779E+07        -0.35163E+07         0.00000E+00
    0.00000E+00         0.00000E+00         0.00000E+00
 
    0.15400E+06         0.23218E+07         0.00000E+00
    0.23218E+07        -0.34957E+07         0.00000E+00
    0.00000E+00         0.00000E+00         0.00000E+00
 
    0.11051E+06         0.23655E+07         0.00000E+00
    0.23655E+07        -0.34747E+07         0.00000E+00
    0.00000E+00         0.00000E+00         0.00000E+00
 
    0.66605E+05         0.24089E+07         0.00000E+00
    0.24089E+07        -0.34532E+07         0.00000E+00
    0.00000E+00         0.00000E+00         0.00000E+00
 
    0.22273E+05         0.24520E+07         0.00000E+00
    0.24520E+07        -0.34312E+07         0.00000E+00
    0.00000E+00         0.00000E+00         0.00000E+00
 
    0.17672E+07         0.29399E+05         0.00000E+00
    0.29399E+05        -0.42056E+07         0.00000E+00
    0.00000E+00         0.00000E+00         0.00000E+00
 
    0.17420E+07         0.87420E+05         0.00000E+00
    0.87420E+05        -0.42051E+07         0.00000E+00
    0.00000E+00         0.00000E+00         0.00000E+00
 
    0.17164E+07         0.14516E+06         0.00000E+00
    0.14516E+06        -0.42041E+07         0.00000E+00
    0.00000E+00         0.00000E+00         0.00000E+00
 
    0.16902E+07         0.20263E+06         0.00000E+00
    0.20263E+06        -0.42027E+07         0.00000E+00
    0.00000E+00         0.00000E+00         0.00000E+00
 
    0.16636E+07         0.25981E+06         0.00000E+00
    0.25981E+06        -0.42007E+07         0.00000E+00
    0.00000E+00         0.00000E+00         0.00000E+00
 
    0.16366E+07         0.31673E+06         0.00000E+00
    0.31673E+06        -0.41983E+07         0.00000E+00
    0.00000E+00         0.00000E+00         0.00000E+00
 
    0.16091E+07         0.37337E+06         0.00000E+00
    0.37337E+06        -0.41953E+07         0.00000E+00
    0.00000E+00         0.00000E+00         0.00000E+00
 
    0.15811E+07         0.42974E+06         0.00000E+00
    0.42974E+06        -0.41920E+07         0.00000E+00
    0.00000E+00         0.00000E+00         0.00000E+00
 
    0.15527E+07         0.48584E+06         0.00000E+00
    0.48584E+06        -0.41881E+07         0.00000E+00
    0.00000E+00         0.00000E+00         0.00000E+00
 
    0.15239E+07         0.54168E+06         0.00000E+00
    0.54168E+06        -0.41838E+07         0.00000E+00
    0.00000E+00         0.00000E+00         0.00000E+00
 
    0.14946E+07         0.59725E+06         0.00000E+00
    0.59725E+06        -0.41790E+07         0.00000E+00
    0.00000E+00         0.00000E+00         0.00000E+00
 
    0.14649E+07         0.65255E+06         0.00000E+00
    0.65255E+06        -0.41737E+07         0.00000E+00
    0.00000E+00         0.00000E+00         0.00000E+00
 
    0.14347E+07         0.70760E+06         0.00000E+00
    0.70760E+06        -0.41680E+07         0.00000E+00
    0.00000E+00         0.00000E+00         0.00000E+00
 
    0.14041E+07         0.76238E+06         0.00000E+00
    0.76238E+06        -0.41618E+07         0.00000E+00
    0.00000E+00         0.00000E+00         0.00000E+00
 
    0.13731E+07         0.81690E+06         0.00000E+00
    0.81690E+06        -0.41552E+07         0.00000E+00
    0.00000E+00         0.00000E+00         0.00000E+00
 
    0.13416E+07         0.87117E+06         0.00000E+00
    0.87117E+06        -0.41481E+07         0.00000E+00
    0.00000E+00         0.00000E+00         0.00000E+00
 
    0.13097E+07         0.92517E+06         0.00000E+00
    0.92517E+06        -0.41405E+07         0.00000E+00
    0.00000E+00         0.00000E+00         0.00000E+00
 
    0.12774E+07         0.97893E+06         0.00000E+00
    0.97893E+06        -0.41325E+07         0.00000E+00
    0.00000E+00         0.00000E+00         0.00000E+00
 
    0.12447E+07         0.10324E+07         0.00000E+00
    0.10324E+07        -0.41240E+07         0.00000E+00
    0.00000E+00         0.00000E+00         0.00000E+00
 
    0.12116E+07         0.10857E+07         0.00000E+00
    0.10857E+07        -0.41151E+07         0.00000E+00
    0.00000E+00         0.00000E+00         0.00000E+00
 
    0.11780E+07         0.11387E+07         0.00000E+00
    0.11387E+07        -0.41057E+07         0.00000E+00
    0.00000E+00         0.00000E+00         0.00000E+00
 
    0.11440E+07         0.11914E+07         0.00000E+00
    0.11914E+07        -0.40959E+07         0.00000E+00
    0.00000E+00         0.00000E+00         0.00000E+00
 
    0.11097E+07         0.12439E+07         0.00000E+00
    0.12439E+07        -0.40856E+07         0.00000E+00
    0.00000E+00         0.00000E+00         0.00000E+00
 
    0.10748E+07         0.12961E+07         0.00000E+00
    0.12961E+07        -0.40749E+07         0.00000E+00
    0.00000E+00         0.00000E+00         0.00000E+00
 
    0.10396E+07         0.13481E+07         0.00000E+00
    0.13481E+07        -0.40637E+07         0.00000E+00
    0.00000E+00         0.00000E+00         0.00000E+00
 
    0.10040E+07         0.13998E+07         0.00000E+00
    0.13998E+07        -0.40521E+07         0.00000E+00
    0.00000E+00         0.00000E+00         0.00000E+00
 
    0.96793E+06         0.14513E+07         0.00000E+00
    0.14513E+07        -0.40400E+07         0.00000E+00
    0.00000E+00         0.00000E+00         0.00000E+00
 
    0.93146E+06         0.15026E+07         0.00000E+00
    0.15026E+07        -0.40275E+07         0.00000E+00
    0.00000E+00         0.00000E+00         0.00000E+00
 
    0.89458E+06         0.15535E+07         0.00000E+00
    0.15535E+07        -0.40145E+07         0.00000E+00
    0.00000E+00         0.00000E+00         0.00000E+00
 
    0.85729E+06         0.16043E+07         0.00000E+00
    0.16043E+07        -0.40010E+07         0.00000E+00
    0.00000E+00         0.00000E+00         0.00000E+00
 
    0.81958E+06         0.16548E+07         0.00000E+00
    0.16548E+07        -0.39872E+07         0.00000E+00
    0.00000E+00         0.00000E+00         0.00000E+00
 
    0.78145E+06         0.17050E+07         0.00000E+00
    0.17050E+07        -0.39728E+07         0.00000E+00
    0.00000E+00         0.00000E+00         0.00000E+00
 
    0.74291E+06         0.17550E+07         0.00000E+00
    0.17550E+07        -0.39580E+07         0.00000E+00
    0.00000E+00         0.00000E+00         0.00000E+00
 
    0.70395E+06         0.18047E+07         0.00000E+00
    0.18047E+07        -0.39428E+07         0.00000E+00
    0.00000E+00         0.00000E+00         0.00000E+00
 
    0.66458E+06         0.18542E+07         0.00000E+00
    0.18542E+07        -0.39271E+07         0.00000E+00
    0.00000E+00         0.00000E+00         0.00000E+00
 
    0.62478E+06         0.19034E+07         0.00000E+00
    0.19034E+07        -0.39109E+07         0.00000E+00
    0.00000E+00         0.00000E+00         0.00000E+00
 
    0.58457E+06         0.19523E+07         0.00000E+00
    0.19523E+07        -0.38943E+07         0.00000E+00
    0.00000E+00         0.00000E+00         0.00000E+00
 
    0.54394E+06         0.20010E+07         0.00000E+00
    0.20010E+07        -0.38772E+07         0.00000E+00
    0.00000E+00         0.00000E+00         0.00000E+00
 
    0.50288E+06         0.20495E+07         0.00000E+00
    0.20495E+07        -0.38597E+07         0.00000E+00
    0.00000E+00         0.00000E+00         0.00000E+00
 
    0.46141E+06         0.20977E+07         0.00000E+00
    0.20977E+07        -0.38417E+07         0.00000E+00
    0.00000E+00         0.00000E+00         0.00000E+00
 
    0.41950E+06         0.21456E+07         0.00000E+00
    0.21456E+07        -0.38233E+07         0.00000E+00
    0.00000E+00         0.00000E+00         0.00000E+00
 
    0.37718E+06         0.21932E+07         0.00000E+00
    0.21932E+07        -0.38043E+07         0.00000E+00
    0.00000E+00         0.00000E+00         0.00000E+00
 
    0.33442E+06         0.22406E+07         0.00000E+00
    0.22406E+07        -0.37850E+07         0.00000E+00
    0.00000E+00         0.00000E+00         0.00000E+00
 
    0.29123E+06         0.22877E+07         0.00000E+00
    0.22877E+07        -0.37651E+07         0.00000E+00
    0.00000E+00         0.00000E+00         0.00000E+00
 
    0.24762E+06         0.23346E+07         0.00000E+00
    0.23346E+07        -0.37448E+07         0.00000E+00
    0.00000E+00         0.00000E+00         0.00000E+00
 
    0.20357E+06         0.23811E+07         0.00000E+00
    0.23811E+07        -0.37241E+07         0.00000E+00
    0.00000E+00         0.00000E+00         0.00000E+00
 
    0.15909E+06         0.24274E+07         0.00000E+00
    0.24274E+07        -0.37028E+07         0.00000E+00
    0.00000E+00         0.00000E+00         0.00000E+00
 
    0.11417E+06         0.24734E+07         0.00000E+00
    0.24734E+07        -0.36811E+07         0.00000E+00
    0.00000E+00         0.00000E+00         0.00000E+00
 
    0.68808E+05         0.25192E+07         0.00000E+00
    0.25192E+07        -0.36589E+07         0.00000E+00
    0.00000E+00         0.00000E+00         0.00000E+00
 
    0.23010E+05         0.25646E+07         0.00000E+00
    0.25646E+07        -0.36363E+07         0.00000E+00
    0.00000E+00         0.00000E+00         0.00000E+00
 
    0.18332E+07         0.30620E+05         0.00000E+00
    0.30620E+05        -0.44364E+07         0.00000E+00
    0.00000E+00         0.00000E+00         0.00000E+00
 
    0.18066E+07         0.91044E+05         0.00000E+00
    0.91044E+05        -0.44359E+07         0.00000E+00
    0.00000E+00         0.00000E+00         0.00000E+00
 
    0.17795E+07         0.15118E+06         0.00000E+00
    0.15118E+06        -0.44349E+07         0.00000E+00
    0.00000E+00         0.00000E+00         0.00000E+00
 
    0.17520E+07         0.21102E+06         0.00000E+00
    0.21102E+06        -0.44334E+07         0.00000E+00
    0.00000E+00         0.00000E+00         0.00000E+00
 
    0.17240E+07         0.27057E+06         0.00000E+00
    0.27057E+06        -0.44314E+07         0.00000E+00
    0.00000E+00         0.00000E+00         0.00000E+00
 
    0.16956E+07         0.32984E+06         0.00000E+00
    0.32984E+06        -0.44290E+07         0.00000E+00
    0.00000E+00         0.00000E+00         0.00000E+00
 
    0.16667E+07         0.38883E+06         0.00000E+00
    0.38883E+06        -0.44260E+07         0.00000E+00
    0.00000E+00         0.00000E+00         0.00000E+00
 
    0.16373E+07         0.44754E+06         0.00000E+00
    0.44754E+06        -0.44226E+07         0.00000E+00
    0.00000E+00         0.00000E+00         0.00000E+00
 
    0.16075E+07         0.50597E+06         0.00000E+00
    0.50597E+06        -0.44187E+07         0.00000E+00
    0.00000E+00         0.00000E+00         0.00000E+00
 
    0.15773E+07         0.56412E+06         0.00000E+00
    0.56412E+06        -0.44143E+07         0.00000E+00
    0.00000E+00         0.00000E+00         0.00000E+00
 
    0.15467E+07         0.62201E+06         0.00000E+00
    0.62201E+06        -0.44094E+07         0.00000E+00
    0.00000E+00         0.00000E+00         0.00000E+00
 
    0.15156E+07         0.67962E+06         0.00000E+00
    0.67962E+06        -0.44041E+07         0.00000E+00
    0.00000E+00         0.00000E+00         0.00000E+00
 
    0.14841E+07         0.73697E+06         0.00000E+00
    0.73697E+06        -0.43983E+07         0.00000E+00
    0.00000E+00         0.00000E+00         0.00000E+00
 
    0.14521E+07         0.79406E+06         0.00000E+00
    0.79406E+06        -0.43920E+07         0.00000E+00
    0.00000E+00         0.00000E+00         0.00000E+00
 
    0.14198E+07         0.85088E+06         0.00000E+00
    0.85088E+06        -0.43853E+07         0.00000E+00
    0.00000E+00         0.00000E+00         0.00000E+00
 
    0.13870E+07         0.90744E+06         0.00000E+00
    0.90744E+06        -0.43781E+07         0.00000E+00
    0.00000E+00         0.00000E+00         0.00000E+00
 
    0.13538E+07         0.96374E+06         0.00000E+00
    0.96374E+06        -0.43704E+07         0.00000E+00
    0.00000E+00         0.00000E+00         0.00000E+00
 
    0.13202E+07         0.10198E+07         0.00000E+00
    0.10198E+07        -0.43623E+07         0.00000E+00
    0.00000E+00         0.00000E+00         0.00000E+00
 
    0.12862E+07         0.10756E+07         0.00000E+00
    0.10756E+07        -0.43537E+07         0.00000E+00
    0.00000E+00         0.00000E+00         0.00000E+00
 
    0.12518E+07         0.11311E+07         0.00000E+00
    0.11311E+07        -0.43446E+07         0.00000E+00
    0.00000E+00         0.00000E+00         0.00000E+00
 
    0.12169E+07         0.11864E+07         0.00000E+00
    0.11864E+07        -0.43351E+07         0.00000E+00
    0.00000E+00         0.00000E+00         0.00000E+00
 
    0.11816E+07         0.12414E+07         0.00000E+00
    0.12414E+07        -0.43251E+07         0.00000E+00
    0.00000E+00         0.00000E+00         0.00000E+00
 
    0.11460E+07         0.12962E+07         0.00000E+00
    0.12962E+07        -0.43147E+07         0.00000E+00
    0.00000E+00         0.00000E+00         0.00000E+00
 
    0.11099E+07         0.13507E+07         0.00000E+00
    0.13507E+07        -0.43037E+07         0.00000E+00
    0.00000E+00         0.00000E+00         0.00000E+00
 
    0.10734E+07         0.14050E+07         0.00000E+00
    0.14050E+07        -0.42924E+07         0.00000E+00
    0.00000E+00         0.00000E+00         0.00000E+00
 
    0.10364E+07         0.14590E+07         0.00000E+00
    0.14590E+07        -0.42805E+07         0.00000E+00
    0.00000E+00         0.00000E+00         0.00000E+00
 
    0.99912E+06         0.15128E+07         0.00000E+00
    0.15128E+07        -0.42682E+07         0.00000E+00
    0.00000E+00         0.00000E+00         0.00000E+00
 
    0.96138E+06         0.15664E+07         0.00000E+00
    0.15664E+07        -0.42554E+07         0.00000E+00
    0.00000E+00         0.00000E+00         0.00000E+00
 
    0.92322E+06         0.16197E+07         0.00000E+00
    0.16197E+07        -0.42422E+07         0.00000E+00
    0.00000E+00         0.00000E+00         0.00000E+00
 
    0.88465E+06         0.16727E+07         0.00000E+00
    0.16727E+07        -0.42285E+07         0.00000E+00
    0.00000E+00         0.00000E+00         0.00000E+00
 
    0.84566E+06         0.17255E+07         0.00000E+00
    0.17255E+07        -0.42143E+07         0.00000E+00
    0.00000E+00         0.00000E+00         0.00000E+00
 
    0.80626E+06         0.17781E+07         0.00000E+00
    0.17781E+07        -0.41997E+07         0.00000E+00
    0.00000E+00         0.00000E+00         0.00000E+00
 
    0.76644E+06         0.18304E+07         0.00000E+00
    0.18304E+07        -0.41846E+07         0.00000E+00
    0.00000E+00         0.00000E+00         0.00000E+00
 
    0.72620E+06         0.18824E+07         0.00000E+00
    0.18824E+07        -0.41690E+07         0.00000E+00
    0.00000E+00         0.00000E+00         0.00000E+00
 
    0.68554E+06         0.19343E+07         0.00000E+00
    0.19343E+07        -0.41529E+07         0.00000E+00
    0.00000E+00         0.00000E+00         0.00000E+00
 
    0.64446E+06         0.19858E+07         0.00000E+00
    0.19858E+07        -0.41364E+07         0.00000E+00
    0.00000E+00         0.00000E+00         0.00000E+00
 
    0.60295E+06         0.20371E+07         0.00000E+00
    0.20371E+07        -0.41194E+07         0.00000E+00
    0.00000E+00         0.00000E+00         0.00000E+00
 
    0.56101E+06         0.20882E+07         0.00000E+00
    0.20882E+07        -0.41019E+07         0.00000E+00
    0.00000E+00         0.00000E+00         0.00000E+00
 
    0.51865E+06         0.21390E+07         0.00000E+00
    0.21390E+07        -0.40840E+07         0.00000E+00
    0.00000E+00         0.00000E+00         0.00000E+00
 
    0.47586E+06         0.21896E+07         0.00000E+00
    0.21896E+07        -0.40655E+07         0.00000E+00
    0.00000E+00         0.00000E+00         0.00000E+00
 
    0.43263E+06         0.22399E+07         0.00000E+00
    0.22399E+07        -0.40466E+07         0.00000E+00
    0.00000E+00         0.00000E+00         0.00000E+00
 
    0.38897E+06         0.22899E+07         0.00000E+00
    0.22899E+07        -0.40272E+07         0.00000E+00
    0.00000E+00         0.00000E+00         0.00000E+00
 
    0.34487E+06         0.23397E+07         0.00000E+00
    0.23397E+07        -0.40073E+07         0.00000E+00
    0.00000E+00         0.00000E+00         0.00000E+00
 
    0.30033E+06         0.23893E+07         0.00000E+00
    0.23893E+07        -0.39869E+07         0.00000E+00
    0.00000E+00         0.00000E+00         0.00000E+00
 
    0.25535E+06         0.24385E+07         0.00000E+00
    0.24385E+07        -0.39661E+07         0.00000E+00
    0.00000E+00         0.00000E+00         0.00000E+00
 
    0.20993E+06         0.24875E+07         0.00000E+00
    0.24875E+07        -0.39447E+07         0.00000E+00
    0.00000E+00         0.00000E+00         0.00000E+00
 
    0.16406E+06         0.25362E+07         0.00000E+00
    0.25362E+07        -0.39229E+07         0.00000E+00
    0.00000E+00         0.00000E+00         0.00000E+00
 
    0.11774E+06         0.25847E+07         0.00000E+00
    0.25847E+07        -0.39005E+07         0.00000E+00
    0.00000E+00         0.00000E+00         0.00000E+00
 
    0.70961E+05         0.26329E+07         0.00000E+00
    0.26329E+07        -0.38777E+07         0.00000E+00
    0.00000E+00         0.00000E+00         0.00000E+00
 
    0.23730E+05         0.26808E+07         0.00000E+00
    0.26808E+07        -0.38543E+07         0.00000E+00
    0.00000E+00         0.00000E+00         0.00000E+00
 
    0.18989E+07         0.31859E+05         0.00000E+00
    0.31859E+05        -0.46797E+07         0.00000E+00
    0.00000E+00         0.00000E+00         0.00000E+00
 
    0.18708E+07         0.94723E+05         0.00000E+00
    0.94723E+05        -0.46792E+07         0.00000E+00
    0.00000E+00         0.00000E+00         0.00000E+00
 
    0.18422E+07         0.15728E+06         0.00000E+00
    0.15728E+06        -0.46782E+07         0.00000E+00
    0.00000E+00         0.00000E+00         0.00000E+00
 
    0.18132E+07         0.21954E+06         0.00000E+00
    0.21954E+06        -0.46767E+07         0.00000E+00
    0.00000E+00         0.00000E+00         0.00000E+00
 
    0.17838E+07         0.28149E+06         0.00000E+00
    0.28149E+06        -0.46747E+07         0.00000E+00
    0.00000E+00         0.00000E+00         0.00000E+00
 
    0.17539E+07         0.34315E+06         0.00000E+00
    0.34315E+06        -0.46722E+07         0.00000E+00
    0.00000E+00         0.00000E+00         0.00000E+00
 
    0.17235E+07         0.40453E+06         0.00000E+00
    0.40453E+06        -0.46692E+07         0.00000E+00
    0.00000E+00         0.00000E+00         0.00000E+00
 
    0.16927E+07         0.46561E+06         0.00000E+00
    0.46561E+06        -0.46658E+07         0.00000E+00
    0.00000E+00         0.00000E+00         0.00000E+00
 
    0.16615E+07         0.52641E+06         0.00000E+00
    0.52641E+06        -0.46618E+07         0.00000E+00
    0.00000E+00         0.00000E+00         0.00000E+00
 
    0.16299E+07         0.58693E+06         0.00000E+00
    0.58693E+06        -0.46574E+07         0.00000E+00
    0.00000E+00         0.00000E+00         0.00000E+00
 
    0.15979E+07         0.64717E+06         0.00000E+00
    0.64717E+06        -0.46525E+07         0.00000E+00
    0.00000E+00         0.00000E+00         0.00000E+00
 
    0.15654E+07         0.70714E+06         0.00000E+00
    0.70714E+06        -0.46471E+07         0.00000E+00
    0.00000E+00         0.00000E+00         0.00000E+00
 
    0.15326E+07         0.76683E+06         0.00000E+00
    0.76683E+06        -0.46413E+07         0.00000E+00
    0.00000E+00         0.00000E+00         0.00000E+00
 
    0.14993E+07         0.82626E+06         0.00000E+00
    0.82626E+06        -0.46349E+07         0.00000E+00
    0.00000E+00         0.00000E+00         0.00000E+00
 
    0.14656E+07         0.88542E+06         0.00000E+00
    0.88542E+06        -0.46281E+07         0.00000E+00
    0.00000E+00         0.00000E+00         0.00000E+00
 
    0.14315E+07         0.94432E+06         0.00000E+00
    0.94432E+06        -0.46208E+07         0.00000E+00
    0.00000E+00         0.00000E+00         0.00000E+00
 
    0.13969E+07         0.10030E+07         0.00000E+00
    0.10030E+07        -0.46131E+07         0.00000E+00
    0.00000E+00         0.00000E+00         0.00000E+00
 
    0.13620E+07         0.10613E+07         0.00000E+00
    0.10613E+07        -0.46049E+07         0.00000E+00
    0.00000E+00         0.00000E+00         0.00000E+00
 
    0.13267E+07         0.11195E+07         0.00000E+00
    0.11195E+07        -0.45962E+07         0.00000E+00
    0.00000E+00         0.00000E+00         0.00000E+00
 
    0.12909E+07         0.11774E+07         0.00000E+00
    0.11774E+07        -0.45870E+07         0.00000E+00
    0.00000E+00         0.00000E+00         0.00000E+00
 
    0.12548E+07         0.12350E+07         0.00000E+00
    0.12350E+07        -0.45773E+07         0.00000E+00
    0.00000E+00         0.00000E+00         0.00000E+00
 
    0.12183E+07         0.12924E+07         0.00000E+00
    0.12924E+07        -0.45672E+07         0.00000E+00
    0.00000E+00         0.00000E+00         0.00000E+00
 
    0.11813E+07         0.13495E+07         0.00000E+00
    0.13495E+07        -0.45566E+07         0.00000E+00
    0.00000E+00         0.00000E+00         0.00000E+00
 
    0.11439E+07         0.14064E+07         0.00000E+00
    0.14064E+07        -0.45456E+07         0.00000E+00
    0.00000E+00         0.00000E+00         0.00000E+00
 
    0.11062E+07         0.14630E+07         0.00000E+00
    0.14630E+07        -0.45340E+07         0.00000E+00
    0.00000E+00         0.00000E+00         0.00000E+00
 
    0.10680E+07         0.15194E+07         0.00000E+00
    0.15194E+07        -0.45220E+07         0.00000E+00
    0.00000E+00         0.00000E+00         0.00000E+00
 
    0.10294E+07         0.15756E+07         0.00000E+00
    0.15756E+07        -0.45095E+07         0.00000E+00
    0.00000E+00         0.00000E+00         0.00000E+00
 
    0.99040E+06         0.16315E+07         0.00000E+00
    0.16315E+07        -0.44965E+07         0.00000E+00
    0.00000E+00         0.00000E+00         0.00000E+00
 
    0.95100E+06         0.16872E+07         0.00000E+00
    0.16872E+07        -0.44831E+07         0.00000E+00
    0.00000E+00         0.00000E+00         0.00000E+00
 
    0.91118E+06         0.17426E+07         0.00000E+00
    0.17426E+07        -0.44691E+07         0.00000E+00
    0.00000E+00         0.00000E+00         0.00000E+00
 
    0.87094E+06         0.17978E+07         0.00000E+00
    0.17978E+07        -0.44547E+07         0.00000E+00
    0.00000E+00         0.00000E+00         0.00000E+00
 
    0.83029E+06         0.18528E+07         0.00000E+00
    0.18528E+07        -0.44398E+07         0.00000E+00
    0.00000E+00         0.00000E+00         0.00000E+00
 
    0.78922E+06         0.19075E+07         0.00000E+00
    0.19075E+07        -0.44244E+07         0.00000E+00
    0.00000E+00         0.00000E+00         0.00000E+00
 
    0.74773E+06         0.19620E+07         0.00000E+00
    0.19620E+07        -0.44086E+07         0.00000E+00
    0.00000E+00         0.00000E+00         0.00000E+00
 
    0.70582E+06         0.20162E+07         0.00000E+00
    0.20162E+07        -0.43922E+07         0.00000E+00
    0.00000E+00         0.00000E+00         0.00000E+00
 
    0.66348E+06         0.20702E+07         0.00000E+00
    0.20702E+07        -0.43753E+07         0.00000E+00
    0.00000E+00         0.00000E+00         0.00000E+00
 
    0.62072E+06         0.21240E+07         0.00000E+00
    0.21240E+07        -0.43580E+07         0.00000E+00
    0.00000E+00         0.00000E+00         0.00000E+00
 
    0.57752E+06         0.21775E+07         0.00000E+00
    0.21775E+07        -0.43401E+07         0.00000E+00
    0.00000E+00         0.00000E+00         0.00000E+00
 
    0.53389E+06         0.22308E+07         0.00000E+00
    0.22308E+07        -0.43218E+07         0.00000E+00
    0.00000E+00         0.00000E+00         0.00000E+00
 
    0.48982E+06         0.22838E+07         0.00000E+00
    0.22838E+07        -0.43029E+07         0.00000E+00
    0.00000E+00         0.00000E+00         0.00000E+00
 
    0.44532E+06         0.23366E+07         0.00000E+00
    0.23366E+07        -0.42835E+07         0.00000E+00
    0.00000E+00         0.00000E+00         0.00000E+00
 
    0.40037E+06         0.23892E+07         0.00000E+00
    0.23892E+07        -0.42637E+07         0.00000E+00
    0.00000E+00         0.00000E+00         0.00000E+00
 
    0.35497E+06         0.24415E+07         0.00000E+00
    0.24415E+07        -0.42433E+07         0.00000E+00
    0.00000E+00         0.00000E+00         0.00000E+00
 
    0.30913E+06         0.24936E+07         0.00000E+00
    0.24936E+07        -0.42224E+07         0.00000E+00
    0.00000E+00         0.00000E+00         0.00000E+00
 
    0.26283E+06         0.25453E+07         0.00000E+00
    0.25453E+07        -0.42010E+07         0.00000E+00
    0.00000E+00         0.00000E+00         0.00000E+00
 
    0.21608E+06         0.25969E+07         0.00000E+00
    0.25969E+07        -0.41791E+07         0.00000E+00
    0.00000E+00         0.00000E+00         0.00000E+00
 
    0.16886E+06         0.26482E+07         0.00000E+00
    0.26482E+07        -0.41567E+07         0.00000E+00
    0.00000E+00         0.00000E+00         0.00000E+00
 
    0.12119E+06         0.26992E+07         0.00000E+00
    0.26992E+07        -0.41337E+07         0.00000E+00
    0.00000E+00         0.00000E+00         0.00000E+00
 
    0.73042E+05         0.27500E+07         0.00000E+00
    0.27500E+07        -0.41102E+07         0.00000E+00
    0.00000E+00         0.00000E+00         0.00000E+00
 
    0.24426E+05         0.28004E+07         0.00000E+00
    0.28004E+07        -0.40862E+07         0.00000E+00
    0.00000E+00         0.00000E+00         0.00000E+00
 
    0.19638E+07         0.33112E+05         0.00000E+00
    0.33112E+05        -0.49361E+07         0.00000E+00
    0.00000E+00         0.00000E+00         0.00000E+00
 
    0.19341E+07         0.98441E+05         0.00000E+00
    0.98441E+05        -0.49356E+07         0.00000E+00
    0.00000E+00         0.00000E+00         0.00000E+00
 
    0.19039E+07         0.16345E+06         0.00000E+00
    0.16345E+06        -0.49346E+07         0.00000E+00
    0.00000E+00         0.00000E+00         0.00000E+00
 
    0.18734E+07         0.22815E+06         0.00000E+00
    0.22815E+06        -0.49331E+07         0.00000E+00
    0.00000E+00         0.00000E+00         0.00000E+00
 
    0.18424E+07         0.29254E+06         0.00000E+00
    0.29254E+06        -0.49311E+07         0.00000E+00
    0.00000E+00         0.00000E+00         0.00000E+00
 
    0.18110E+07         0.35662E+06         0.00000E+00
    0.35662E+06        -0.49286E+07         0.00000E+00
    0.00000E+00         0.00000E+00         0.00000E+00
 
    0.17792E+07         0.42040E+06         0.00000E+00
    0.42040E+06        -0.49256E+07         0.00000E+00
    0.00000E+00         0.00000E+00         0.00000E+00
 
    0.17469E+07         0.48389E+06         0.00000E+00
    0.48389E+06        -0.49222E+07         0.00000E+00
    0.00000E+00         0.00000E+00         0.00000E+00
 
    0.17143E+07         0.54709E+06         0.00000E+00
    0.54709E+06        -0.49182E+07         0.00000E+00
    0.00000E+00         0.00000E+00         0.00000E+00
 
    0.16812E+07         0.61001E+06         0.00000E+00
    0.61001E+06        -0.49138E+07         0.00000E+00
    0.00000E+00         0.00000E+00         0.00000E+00
 
    0.16478E+07         0.67264E+06         0.00000E+00
    0.67264E+06        -0.49089E+07         0.00000E+00
    0.00000E+00         0.00000E+00         0.00000E+00
 
    0.16139E+07         0.73499E+06         0.00000E+00
    0.73499E+06        -0.49034E+07         0.00000E+00
    0.00000E+00         0.00000E+00         0.00000E+00
 
    0.15797E+07         0.79707E+06         0.00000E+00
    0.79707E+06        -0.48976E+07         0.00000E+00
    0.00000E+00         0.00000E+00         0.00000E+00
 
    0.15450E+07         0.85888E+06         0.00000E+00
    0.85888E+06        -0.48912E+07         0.00000E+00
    0.00000E+00         0.00000E+00         0.00000E+00
 
    0.15099E+07         0.92043E+06         0.00000E+00
    0.92043E+06        -0.48843E+07         0.00000E+00
    0.00000E+00         0.00000E+00         0.00000E+00
 
    0.14745E+07         0.98171E+06         0.00000E+00
    0.98171E+06        -0.48770E+07         0.00000E+00
    0.00000E+00         0.00000E+00         0.00000E+00
 
    0.14386E+07         0.10427E+07         0.00000E+00
    0.10427E+07        -0.48692E+07         0.00000E+00
    0.00000E+00         0.00000E+00         0.00000E+00
 
    0.14024E+07         0.11035E+07         0.00000E+00
    0.11035E+07        -0.48609E+07         0.00000E+00
    0.00000E+00         0.00000E+00         0.00000E+00
 
    0.13658E+07         0.11640E+07         0.00000E+00
    0.11640E+07        -0.48522E+07         0.00000E+00
    0.00000E+00         0.00000E+00         0.00000E+00
 
    0.13287E+07         0.12243E+07         0.00000E+00
    0.12243E+07        -0.48429E+07         0.00000E+00
    0.00000E+00         0.00000E+00         0.00000E+00
 
    0.12913E+07         0.12843E+07         0.00000E+00
    0.12843E+07        -0.48332E+07         0.00000E+00
    0.00000E+00         0.00000E+00         0.00000E+00
 
    0.12535E+07         0.13441E+07         0.00000E+00
    0.13441E+07        -0.48230E+07         0.00000E+00
    0.00000E+00         0.00000E+00         0.00000E+00
 
    0.12153E+07         0.14036E+07         0.00000E+00
    0.14036E+07        -0.48123E+07         0.00000E+00
    0.00000E+00         0.00000E+00         0.00000E+00
 
    0.11767E+07         0.14629E+07         0.00000E+00
    0.14629E+07        -0.48011E+07         0.00000E+00
    0.00000E+00         0.00000E+00         0.00000E+00
 
    0.11377E+07         0.15220E+07         0.00000E+00
    0.15220E+07        -0.47894E+07         0.00000E+00
    0.00000E+00         0.00000E+00         0.00000E+00
 
    0.10983E+07         0.15808E+07         0.00000E+00
    0.15808E+07        -0.47773E+07         0.00000E+00
    0.00000E+00         0.00000E+00         0.00000E+00
 
    0.10584E+07         0.16394E+07         0.00000E+00
    0.16394E+07        -0.47646E+07         0.00000E+00
    0.00000E+00         0.00000E+00         0.00000E+00
 
    0.10182E+07         0.16978E+07         0.00000E+00
    0.16978E+07        -0.47515E+07         0.00000E+00
    0.00000E+00         0.00000E+00         0.00000E+00
 
    0.97760E+06         0.17559E+07         0.00000E+00
    0.17559E+07        -0.47379E+07         0.00000E+00
    0.00000E+00         0.00000E+00         0.00000E+00
 
    0.93657E+06         0.18138E+07         0.00000E+00
    0.18138E+07        -0.47238E+07         0.00000E+00
    0.00000E+00         0.00000E+00         0.00000E+00
 
    0.89512E+06         0.18715E+07         0.00000E+00
    0.18715E+07        -0.47091E+07         0.00000E+00
    0.00000E+00         0.00000E+00         0.00000E+00
 
    0.85327E+06         0.19289E+07         0.00000E+00
    0.19289E+07        -0.46940E+07         0.00000E+00
    0.00000E+00         0.00000E+00         0.00000E+00
 
    0.81100E+06         0.19861E+07         0.00000E+00
    0.19861E+07        -0.46784E+07         0.00000E+00
    0.00000E+00         0.00000E+00         0.00000E+00
 
    0.76830E+06         0.20431E+07         0.00000E+00
    0.20431E+07        -0.46622E+07         0.00000E+00
    0.00000E+00         0.00000E+00         0.00000E+00
 
    0.72519E+06         0.20999E+07         0.00000E+00
    0.20999E+07        -0.46456E+07         0.00000E+00
    0.00000E+00         0.00000E+00         0.00000E+00
 
    0.68165E+06         0.21564E+07         0.00000E+00
    0.21564E+07        -0.46285E+07         0.00000E+00
    0.00000E+00         0.00000E+00         0.00000E+00
 
    0.63767E+06         0.22127E+07         0.00000E+00
    0.22127E+07        -0.46108E+07         0.00000E+00
    0.00000E+00         0.00000E+00         0.00000E+00
 
    0.59327E+06         0.22688E+07         0.00000E+00
    0.22688E+07        -0.45926E+07         0.00000E+00
    0.00000E+00         0.00000E+00         0.00000E+00
 
    0.54843E+06         0.23247E+07         0.00000E+00
    0.23247E+07        -0.45739E+07         0.00000E+00
    0.00000E+00         0.00000E+00         0.00000E+00
 
    0.50314E+06         0.23803E+07         0.00000E+00
    0.23803E+07        -0.45547E+07         0.00000E+00
    0.00000E+00         0.00000E+00         0.00000E+00
 
    0.45741E+06         0.24357E+07         0.00000E+00
    0.24357E+07        -0.45349E+07         0.00000E+00
    0.00000E+00         0.00000E+00         0.00000E+00
 
    0.41124E+06         0.24908E+07         0.00000E+00
    0.24908E+07        -0.45146E+07         0.00000E+00
    0.00000E+00         0.00000E+00         0.00000E+00
 
    0.36460E+06         0.25458E+07         0.00000E+00
    0.25458E+07        -0.44938E+07         0.00000E+00
    0.00000E+00         0.00000E+00         0.00000E+00
 
    0.31751E+06         0.26005E+07         0.00000E+00
    0.26005E+07        -0.44725E+07         0.00000E+00
    0.00000E+00         0.00000E+00         0.00000E+00
 
    0.26996E+06         0.26549E+07         0.00000E+00
    0.26549E+07        -0.44506E+07         0.00000E+00
    0.00000E+00         0.00000E+00         0.00000E+00
 
    0.22194E+06         0.27091E+07         0.00000E+00
    0.27091E+07        -0.44281E+07         0.00000E+00
    0.00000E+00         0.00000E+00         0.00000E+00
 
    0.17345E+06         0.27631E+07         0.00000E+00
    0.27631E+07        -0.44051E+07         0.00000E+00
    0.00000E+00         0.00000E+00         0.00000E+00
 
    0.12448E+06         0.28168E+07         0.00000E+00
    0.28168E+07        -0.43816E+07         0.00000E+00
    0.00000E+00         0.00000E+00         0.00000E+00
 
    0.75027E+05         0.28703E+07         0.00000E+00
    0.28703E+07        -0.43575E+07         0.00000E+00
    0.00000E+00         0.00000E+00         0.00000E+00
 
    0.25090E+05         0.29235E+07         0.00000E+00
    0.29235E+07        -0.43329E+07         0.00000E+00
    0.00000E+00         0.00000E+00         0.00000E+00
 
    0.20272E+07         0.34372E+05         0.00000E+00
    0.34372E+05        -0.52065E+07         0.00000E+00
    0.00000E+00         0.00000E+00         0.00000E+00
 
    0.19958E+07         0.10218E+06         0.00000E+00
    0.10218E+06        -0.52059E+07         0.00000E+00
    0.00000E+00         0.00000E+00         0.00000E+00
 
    0.19641E+07         0.16966E+06         0.00000E+00
    0.16966E+06        -0.52049E+07         0.00000E+00
    0.00000E+00         0.00000E+00         0.00000E+00
 
    0.19319E+07         0.23682E+06         0.00000E+00
    0.23682E+06        -0.52034E+07         0.00000E+00
    0.00000E+00         0.00000E+00         0.00000E+00
 
    0.18994E+07         0.30366E+06         0.00000E+00
    0.30366E+06        -0.52014E+07         0.00000E+00
    0.00000E+00         0.00000E+00         0.00000E+00
 
    0.18664E+07         0.37018E+06         0.00000E+00
    0.37018E+06        -0.51990E+07         0.00000E+00
    0.00000E+00         0.00000E+00         0.00000E+00
 
    0.18331E+07         0.43640E+06         0.00000E+00
    0.43640E+06        -0.51960E+07         0.00000E+00
    0.00000E+00         0.00000E+00         0.00000E+00
 
    0.17993E+07         0.50232E+06         0.00000E+00
    0.50232E+06        -0.51925E+07         0.00000E+00
    0.00000E+00         0.00000E+00         0.00000E+00
 
    0.17652E+07         0.56794E+06         0.00000E+00
    0.56794E+06        -0.51886E+07         0.00000E+00
    0.00000E+00         0.00000E+00         0.00000E+00
 
    0.17307E+07         0.63327E+06         0.00000E+00
    0.63327E+06        -0.51841E+07         0.00000E+00
    0.00000E+00         0.00000E+00         0.00000E+00
 
    0.16958E+07         0.69832E+06         0.00000E+00
    0.69832E+06        -0.51792E+07         0.00000E+00
    0.00000E+00         0.00000E+00         0.00000E+00
 
    0.16605E+07         0.76309E+06         0.00000E+00
    0.76309E+06        -0.51738E+07         0.00000E+00
    0.00000E+00         0.00000E+00         0.00000E+00
 
    0.16249E+07         0.82758E+06         0.00000E+00
    0.82758E+06        -0.51679E+07         0.00000E+00
    0.00000E+00         0.00000E+00         0.00000E+00
 
    0.15888E+07         0.89180E+06         0.00000E+00
    0.89180E+06        -0.51615E+07         0.00000E+00
    0.00000E+00         0.00000E+00         0.00000E+00
 
    0.15524E+07         0.95576E+06         0.00000E+00
    0.95576E+06        -0.51547E+07         0.00000E+00
    0.00000E+00         0.00000E+00         0.00000E+00
 
    0.15156E+07         0.10195E+07         0.00000E+00
    0.10195E+07        -0.51473E+07         0.00000E+00
    0.00000E+00         0.00000E+00         0.00000E+00
 
    0.14785E+07         0.10829E+07         0.00000E+00
    0.10829E+07        -0.51395E+07         0.00000E+00
    0.00000E+00         0.00000E+00         0.00000E+00
 
    0.14409E+07         0.11461E+07         0.00000E+00
    0.11461E+07        -0.51312E+07         0.00000E+00
    0.00000E+00         0.00000E+00         0.00000E+00
 
    0.14030E+07         0.12090E+07         0.00000E+00
    0.12090E+07        -0.51224E+07         0.00000E+00
    0.00000E+00         0.00000E+00         0.00000E+00
 
    0.13647E+07         0.12717E+07         0.00000E+00
    0.12717E+07        -0.51131E+07         0.00000E+00
    0.00000E+00         0.00000E+00         0.00000E+00
 
    0.13260E+07         0.13342E+07         0.00000E+00
    0.13342E+07        -0.51034E+07         0.00000E+00
    0.00000E+00         0.00000E+00         0.00000E+00
 
    0.12870E+07         0.13964E+07         0.00000E+00
    0.13964E+07        -0.50931E+07         0.00000E+00
    0.00000E+00         0.00000E+00         0.00000E+00
 
    0.12475E+07         0.14584E+07         0.00000E+00
    0.14584E+07        -0.50824E+07         0.00000E+00
    0.00000E+00         0.00000E+00         0.00000E+00
 
    0.12077E+07         0.15202E+07         0.00000E+00
    0.15202E+07        -0.50711E+07         0.00000E+00
    0.00000E+00         0.00000E+00         0.00000E+00
 
    0.11675E+07         0.15817E+07         0.00000E+00
    0.15817E+07        -0.50594E+07         0.00000E+00
    0.00000E+00         0.00000E+00         0.00000E+00
 
    0.11269E+07         0.16430E+07         0.00000E+00
    0.16430E+07        -0.50471E+07         0.00000E+00
    0.00000E+00         0.00000E+00         0.00000E+00
 
    0.10859E+07         0.17041E+07         0.00000E+00
    0.17041E+07        -0.50344E+07         0.00000E+00
    0.00000E+00         0.00000E+00         0.00000E+00
 
    0.10445E+07         0.17650E+07         0.00000E+00
    0.17650E+07        -0.50211E+07         0.00000E+00
    0.00000E+00         0.00000E+00         0.00000E+00
 
    0.10027E+07         0.18256E+07         0.00000E+00
    0.18256E+07        -0.50074E+07         0.00000E+00
    0.00000E+00         0.00000E+00         0.00000E+00
 
    0.96049E+06         0.18861E+07         0.00000E+00
    0.18861E+07        -0.49931E+07         0.00000E+00
    0.00000E+00         0.00000E+00         0.00000E+00
 
    0.91789E+06         0.19463E+07         0.00000E+00
    0.19463E+07        -0.49783E+07         0.00000E+00
    0.00000E+00         0.00000E+00         0.00000E+00
 
    0.87489E+06         0.20063E+07         0.00000E+00
    0.20063E+07        -0.49630E+07         0.00000E+00
    0.00000E+00         0.00000E+00         0.00000E+00
 
    0.83147E+06         0.20661E+07         0.00000E+00
    0.20661E+07        -0.49472E+07         0.00000E+00
    0.00000E+00         0.00000E+00         0.00000E+00
 
    0.78763E+06         0.21256E+07         0.00000E+00
    0.21256E+07        -0.49309E+07         0.00000E+00
    0.00000E+00         0.00000E+00         0.00000E+00
 
    0.74338E+06         0.21850E+07         0.00000E+00
    0.21850E+07        -0.49140E+07         0.00000E+00
    0.00000E+00         0.00000E+00         0.00000E+00
 
    0.69870E+06         0.22442E+07         0.00000E+00
    0.22442E+07        -0.48967E+07         0.00000E+00
    0.00000E+00         0.00000E+00         0.00000E+00
 
    0.65359E+06         0.23031E+07         0.00000E+00
    0.23031E+07        -0.48787E+07         0.00000E+00
    0.00000E+00         0.00000E+00         0.00000E+00
 
    0.60805E+06         0.23618E+07         0.00000E+00
    0.23618E+07        -0.48603E+07         0.00000E+00
    0.00000E+00         0.00000E+00         0.00000E+00
 
    0.56206E+06         0.24204E+07         0.00000E+00
    0.24204E+07        -0.48413E+07         0.00000E+00
    0.00000E+00         0.00000E+00         0.00000E+00
 
    0.51563E+06         0.24787E+07         0.00000E+00
    0.24787E+07        -0.48217E+07         0.00000E+00
    0.00000E+00         0.00000E+00         0.00000E+00
 
    0.46876E+06         0.25368E+07         0.00000E+00
    0.25368E+07        -0.48016E+07         0.00000E+00
    0.00000E+00         0.00000E+00         0.00000E+00
 
    0.42142E+06         0.25946E+07         0.00000E+00
    0.25946E+07        -0.47810E+07         0.00000E+00
    0.00000E+00         0.00000E+00         0.00000E+00
 
    0.37363E+06         0.26523E+07         0.00000E+00
    0.26523E+07        -0.47597E+07         0.00000E+00
    0.00000E+00         0.00000E+00         0.00000E+00
 
    0.32537E+06         0.27097E+07         0.00000E+00
    0.27097E+07        -0.47380E+07         0.00000E+00
    0.00000E+00         0.00000E+00         0.00000E+00
 
    0.27664E+06         0.27670E+07         0.00000E+00
    0.27670E+07        -0.47156E+07         0.00000E+00
    0.00000E+00         0.00000E+00         0.00000E+00
 
    0.22743E+06         0.28240E+07         0.00000E+00
    0.28240E+07        -0.46927E+07         0.00000E+00
    0.00000E+00         0.00000E+00         0.00000E+00
 
    0.17774E+06         0.28807E+07         0.00000E+00
    0.28807E+07        -0.46692E+07         0.00000E+00
    0.00000E+00         0.00000E+00         0.00000E+00
 
    0.12756E+06         0.29373E+07         0.00000E+00
    0.29373E+07        -0.46451E+07         0.00000E+00
    0.00000E+00         0.00000E+00         0.00000E+00
 
    0.76889E+05         0.29936E+07         0.00000E+00
    0.29936E+07        -0.46205E+07         0.00000E+00
    0.00000E+00         0.00000E+00         0.00000E+00
 
    0.25714E+05         0.30497E+07         0.00000E+00
    0.30497E+07        -0.45952E+07         0.00000E+00
    0.00000E+00         0.00000E+00         0.00000E+00
 
    0.20884E+07         0.35634E+05         0.00000E+00
    0.35634E+05        -0.54913E+07         0.00000E+00
    0.00000E+00         0.00000E+00         0.00000E+00
 
    0.20554E+07         0.10593E+06         0.00000E+00
    0.10593E+06        -0.54908E+07         0.00000E+00
    0.00000E+00         0.00000E+00         0.00000E+00
 
    0.20220E+07         0.17589E+06         0.00000E+00
    0.17589E+06        -0.54898E+07         0.00000E+00
    0.00000E+00         0.00000E+00         0.00000E+00
 
    0.19882E+07         0.24551E+06         0.00000E+00
    0.24551E+06        -0.54884E+07         0.00000E+00
    0.00000E+00         0.00000E+00         0.00000E+00
 
    0.19540E+07         0.31480E+06         0.00000E+00
    0.31480E+06        -0.54864E+07         0.00000E+00
    0.00000E+00         0.00000E+00         0.00000E+00
 
    0.19195E+07         0.38378E+06         0.00000E+00
    0.38378E+06        -0.54839E+07         0.00000E+00
    0.00000E+00         0.00000E+00         0.00000E+00
 
    0.18846E+07         0.45244E+06         0.00000E+00
    0.45244E+06        -0.54810E+07         0.00000E+00
    0.00000E+00         0.00000E+00         0.00000E+00
 
    0.18493E+07         0.52080E+06         0.00000E+00
    0.52080E+06        -0.54775E+07         0.00000E+00
    0.00000E+00         0.00000E+00         0.00000E+00
 
    0.18137E+07         0.58885E+06         0.00000E+00
    0.58885E+06        -0.54736E+07         0.00000E+00
    0.00000E+00         0.00000E+00         0.00000E+00
 
    0.17777E+07         0.65662E+06         0.00000E+00
    0.65662E+06        -0.54692E+07         0.00000E+00
    0.00000E+00         0.00000E+00         0.00000E+00
 
    0.17413E+07         0.72409E+06         0.00000E+00
    0.72409E+06        -0.54643E+07         0.00000E+00
    0.00000E+00         0.00000E+00         0.00000E+00
 
    0.17046E+07         0.79129E+06         0.00000E+00
    0.79129E+06        -0.54589E+07         0.00000E+00
    0.00000E+00         0.00000E+00         0.00000E+00
 
    0.16676E+07         0.85822E+06         0.00000E+00
    0.85822E+06        -0.54531E+07         0.00000E+00
    0.00000E+00         0.00000E+00         0.00000E+00
 
    0.16302E+07         0.92488E+06         0.00000E+00
    0.92488E+06        -0.54467E+07         0.00000E+00
    0.00000E+00         0.00000E+00         0.00000E+00
 
    0.15924E+07         0.99127E+06         0.00000E+00
    0.99127E+06        -0.54399E+07         0.00000E+00
    0.00000E+00         0.00000E+00         0.00000E+00
 
    0.15543E+07         0.10574E+07         0.00000E+00
    0.10574E+07        -0.54326E+07         0.00000E+00
    0.00000E+00         0.00000E+00         0.00000E+00
 
    0.15158E+07         0.11233E+07         0.00000E+00
    0.11233E+07        -0.54248E+07         0.00000E+00
    0.00000E+00         0.00000E+00         0.00000E+00
 
    0.14770E+07         0.11890E+07         0.00000E+00
    0.11890E+07        -0.54165E+07         0.00000E+00
    0.00000E+00         0.00000E+00         0.00000E+00
 
    0.14378E+07         0.12544E+07         0.00000E+00
    0.12544E+07        -0.54077E+07         0.00000E+00
    0.00000E+00         0.00000E+00         0.00000E+00
 
    0.13983E+07         0.13195E+07         0.00000E+00
    0.13195E+07        -0.53985E+07         0.00000E+00
    0.00000E+00         0.00000E+00         0.00000E+00
 
    0.13584E+07         0.13845E+07         0.00000E+00
    0.13845E+07        -0.53887E+07         0.00000E+00
    0.00000E+00         0.00000E+00         0.00000E+00
 
    0.13181E+07         0.14492E+07         0.00000E+00
    0.14492E+07        -0.53784E+07         0.00000E+00
    0.00000E+00         0.00000E+00         0.00000E+00
 
    0.12775E+07         0.15137E+07         0.00000E+00
    0.15137E+07        -0.53677E+07         0.00000E+00
    0.00000E+00         0.00000E+00         0.00000E+00
 
    0.12365E+07         0.15779E+07         0.00000E+00
    0.15779E+07        -0.53564E+07         0.00000E+00
    0.00000E+00         0.00000E+00         0.00000E+00
 
    0.11951E+07         0.16420E+07         0.00000E+00
    0.16420E+07        -0.53446E+07         0.00000E+00
    0.00000E+00         0.00000E+00         0.00000E+00
 
    0.11534E+07         0.17058E+07         0.00000E+00
    0.17058E+07        -0.53324E+07         0.00000E+00
    0.00000E+00         0.00000E+00         0.00000E+00
 
    0.11112E+07         0.17695E+07         0.00000E+00
    0.17695E+07        -0.53196E+07         0.00000E+00
    0.00000E+00         0.00000E+00         0.00000E+00
 
    0.10687E+07         0.18329E+07         0.00000E+00
    0.18329E+07        -0.53063E+07         0.00000E+00
    0.00000E+00         0.00000E+00         0.00000E+00
 
    0.10258E+07         0.18961E+07         0.00000E+00
    0.18961E+07        -0.52924E+07         0.00000E+00
    0.00000E+00         0.00000E+00         0.00000E+00
 
    0.98256E+06         0.19592E+07         0.00000E+00
    0.19592E+07        -0.52781E+07         0.00000E+00
    0.00000E+00         0.00000E+00         0.00000E+00
 
    0.93888E+06         0.20220E+07         0.00000E+00
    0.20220E+07        -0.52632E+07         0.00000E+00
    0.00000E+00         0.00000E+00         0.00000E+00
 
    0.89480E+06         0.20846E+07         0.00000E+00
    0.20846E+07        -0.52478E+07         0.00000E+00
    0.00000E+00         0.00000E+00         0.00000E+00
 
    0.85031E+06         0.21471E+07         0.00000E+00
    0.21471E+07        -0.52319E+07         0.00000E+00
    0.00000E+00         0.00000E+00         0.00000E+00
 
    0.80541E+06         0.22093E+07         0.00000E+00
    0.22093E+07        -0.52154E+07         0.00000E+00
    0.00000E+00         0.00000E+00         0.00000E+00
 
    0.76010E+06         0.22714E+07         0.00000E+00
    0.22714E+07        -0.51984E+07         0.00000E+00
    0.00000E+00         0.00000E+00         0.00000E+00
 
    0.71436E+06         0.23332E+07         0.00000E+00
    0.23332E+07        -0.51808E+07         0.00000E+00
    0.00000E+00         0.00000E+00         0.00000E+00
 
    0.66820E+06         0.23949E+07         0.00000E+00
    0.23949E+07        -0.51627E+07         0.00000E+00
    0.00000E+00         0.00000E+00         0.00000E+00
 
    0.62161E+06         0.24564E+07         0.00000E+00
    0.24564E+07        -0.51440E+07         0.00000E+00
    0.00000E+00         0.00000E+00         0.00000E+00
 
    0.57457E+06         0.25177E+07         0.00000E+00
    0.25177E+07        -0.51248E+07         0.00000E+00
    0.00000E+00         0.00000E+00         0.00000E+00
 
    0.52709E+06         0.25787E+07         0.00000E+00
    0.25787E+07        -0.51050E+07         0.00000E+00
    0.00000E+00         0.00000E+00         0.00000E+00
 
    0.47916E+06         0.26396E+07         0.00000E+00
    0.26396E+07        -0.50846E+07         0.00000E+00
    0.00000E+00         0.00000E+00         0.00000E+00
 
    0.43076E+06         0.27004E+07         0.00000E+00
    0.27004E+07        -0.50636E+07         0.00000E+00
    0.00000E+00         0.00000E+00         0.00000E+00
 
    0.38191E+06         0.27609E+07         0.00000E+00
    0.27609E+07        -0.50421E+07         0.00000E+00
    0.00000E+00         0.00000E+00         0.00000E+00
 
    0.33258E+06         0.28212E+07         0.00000E+00
    0.28212E+07        -0.50199E+07         0.00000E+00
    0.00000E+00         0.00000E+00         0.00000E+00
 
    0.28277E+06         0.28813E+07         0.00000E+00
    0.28813E+07        -0.49972E+07         0.00000E+00
    0.00000E+00         0.00000E+00         0.00000E+00
 
    0.23247E+06         0.29412E+07         0.00000E+00
    0.29412E+07        -0.49739E+07         0.00000E+00
    0.00000E+00         0.00000E+00         0.00000E+00
 
    0.18168E+06         0.30009E+07         0.00000E+00
    0.30009E+07        -0.49499E+07         0.00000E+00
    0.00000E+00         0.00000E+00         0.00000E+00
 
    0.13040E+06         0.30604E+07         0.00000E+00
    0.30604E+07        -0.49254E+07         0.00000E+00
    0.00000E+00         0.00000E+00         0.00000E+00
 
    0.78598E+05         0.31197E+07         0.00000E+00
    0.31197E+07        -0.49002E+07         0.00000E+00
    0.00000E+00         0.00000E+00         0.00000E+00
 
    0.26286E+05         0.31788E+07         0.00000E+00
    0.31788E+07        -0.48744E+07         0.00000E+00
    0.00000E+00         0.00000E+00         0.00000E+00
 
    0.21469E+07         0.36890E+05         0.00000E+00
    0.36890E+05        -0.57915E+07         0.00000E+00
    0.00000E+00         0.00000E+00         0.00000E+00
 
    0.21121E+07         0.10967E+06         0.00000E+00
    0.10967E+06        -0.57910E+07         0.00000E+00
    0.00000E+00         0.00000E+00         0.00000E+00
 
    0.20769E+07         0.18209E+06         0.00000E+00
    0.18209E+06        -0.57901E+07         0.00000E+00
    0.00000E+00         0.00000E+00         0.00000E+00
 
    0.20414E+07         0.25417E+06         0.00000E+00
    0.25417E+06        -0.57886E+07         0.00000E+00
    0.00000E+00         0.00000E+00         0.00000E+00
 
    0.20056E+07         0.32592E+06         0.00000E+00
    0.32592E+06        -0.57867E+07         0.00000E+00
    0.00000E+00         0.00000E+00         0.00000E+00
 
    0.19694E+07         0.39733E+06         0.00000E+00
    0.39733E+06        -0.57842E+07         0.00000E+00
    0.00000E+00         0.00000E+00         0.00000E+00
 
    0.19329E+07         0.46844E+06         0.00000E+00
    0.46844E+06        -0.57813E+07         0.00000E+00
    0.00000E+00         0.00000E+00         0.00000E+00
 
    0.18961E+07         0.53923E+06         0.00000E+00
    0.53923E+06        -0.57779E+07         0.00000E+00
    0.00000E+00         0.00000E+00         0.00000E+00
 
    0.18590E+07         0.60972E+06         0.00000E+00
    0.60972E+06        -0.57741E+07         0.00000E+00
    0.00000E+00         0.00000E+00         0.00000E+00
 
    0.18215E+07         0.67992E+06         0.00000E+00
    0.67992E+06        -0.57697E+07         0.00000E+00
    0.00000E+00         0.00000E+00         0.00000E+00
 
    0.17837E+07         0.74983E+06         0.00000E+00
    0.74983E+06        -0.57649E+07         0.00000E+00
    0.00000E+00         0.00000E+00         0.00000E+00
 
    0.17456E+07         0.81947E+06         0.00000E+00
    0.81947E+06        -0.57596E+07         0.00000E+00
    0.00000E+00         0.00000E+00         0.00000E+00
 
    0.17071E+07         0.88884E+06         0.00000E+00
    0.88884E+06        -0.57538E+07         0.00000E+00
    0.00000E+00         0.00000E+00         0.00000E+00
 
    0.16684E+07         0.95794E+06         0.00000E+00
    0.95794E+06        -0.57475E+07         0.00000E+00
    0.00000E+00         0.00000E+00         0.00000E+00
 
    0.16293E+07         0.10268E+07         0.00000E+00
    0.10268E+07        -0.57408E+07         0.00000E+00
    0.00000E+00         0.00000E+00         0.00000E+00
 
    0.15899E+07         0.10954E+07         0.00000E+00
    0.10954E+07        -0.57335E+07         0.00000E+00
    0.00000E+00         0.00000E+00         0.00000E+00
 
    0.15501E+07         0.11637E+07         0.00000E+00
    0.11637E+07        -0.57258E+07         0.00000E+00
    0.00000E+00         0.00000E+00         0.00000E+00
 
    0.15101E+07         0.12319E+07         0.00000E+00
    0.12319E+07        -0.57176E+07         0.00000E+00
    0.00000E+00         0.00000E+00         0.00000E+00
 
    0.14697E+07         0.12998E+07         0.00000E+00
    0.12998E+07        -0.57089E+07         0.00000E+00
    0.00000E+00         0.00000E+00         0.00000E+00
 
    0.14289E+07         0.13674E+07         0.00000E+00
    0.13674E+07        -0.56997E+07         0.00000E+00
    0.00000E+00         0.00000E+00         0.00000E+00
 
    0.13879E+07         0.14349E+07         0.00000E+00
    0.14349E+07        -0.56899E+07         0.00000E+00
    0.00000E+00         0.00000E+00         0.00000E+00
 
    0.13464E+07         0.15021E+07         0.00000E+00
    0.15021E+07        -0.56797E+07         0.00000E+00
    0.00000E+00         0.00000E+00         0.00000E+00
 
    0.13047E+07         0.15691E+07         0.00000E+00
    0.15691E+07        -0.56690E+07         0.00000E+00
    0.00000E+00         0.00000E+00         0.00000E+00
 
    0.12626E+07         0.16360E+07         0.00000E+00
    0.16360E+07        -0.56578E+07         0.00000E+00
    0.00000E+00         0.00000E+00         0.00000E+00
 
    0.12201E+07         0.17026E+07         0.00000E+00
    0.17026E+07        -0.56461E+07         0.00000E+00
    0.00000E+00         0.00000E+00         0.00000E+00
 
    0.11773E+07         0.17690E+07         0.00000E+00
    0.17690E+07        -0.56338E+07         0.00000E+00
    0.00000E+00         0.00000E+00         0.00000E+00
 
    0.11341E+07         0.18352E+07         0.00000E+00
    0.18352E+07        -0.56211E+07         0.00000E+00
    0.00000E+00         0.00000E+00         0.00000E+00
 
    0.10906E+07         0.19013E+07         0.00000E+00
    0.19013E+07        -0.56078E+07         0.00000E+00
    0.00000E+00         0.00000E+00         0.00000E+00
 
    0.10467E+07         0.19672E+07         0.00000E+00
    0.19672E+07        -0.55939E+07         0.00000E+00
    0.00000E+00         0.00000E+00         0.00000E+00
 
    0.10024E+07         0.20328E+07         0.00000E+00
    0.20328E+07        -0.55796E+07         0.00000E+00
    0.00000E+00         0.00000E+00         0.00000E+00
 
    0.95768E+06         0.20984E+07         0.00000E+00
    0.20984E+07        -0.55647E+07         0.00000E+00
    0.00000E+00         0.00000E+00         0.00000E+00
 
    0.91262E+06         0.21637E+07         0.00000E+00
    0.21637E+07        -0.55492E+07         0.00000E+00
    0.00000E+00         0.00000E+00         0.00000E+00
 
    0.86715E+06         0.22288E+07         0.00000E+00
    0.22288E+07        -0.55332E+07         0.00000E+00
    0.00000E+00         0.00000E+00         0.00000E+00
 
    0.82129E+06         0.22938E+07         0.00000E+00
    0.22938E+07        -0.55167E+07         0.00000E+00
    0.00000E+00         0.00000E+00         0.00000E+00
 
    0.77502E+06         0.23587E+07         0.00000E+00
    0.23587E+07        -0.54996E+07         0.00000E+00
    0.00000E+00         0.00000E+00         0.00000E+00
 
    0.72833E+06         0.24233E+07         0.00000E+00
    0.24233E+07        -0.54819E+07         0.00000E+00
    0.00000E+00         0.00000E+00         0.00000E+00
 
    0.68122E+06         0.24878E+07         0.00000E+00
    0.24878E+07        -0.54636E+07         0.00000E+00
    0.00000E+00         0.00000E+00         0.00000E+00
 
    0.63368E+06         0.25521E+07         0.00000E+00
    0.25521E+07        -0.54448E+07         0.00000E+00
    0.00000E+00         0.00000E+00         0.00000E+00
 
    0.58570E+06         0.26162E+07         0.00000E+00
    0.26162E+07        -0.54254E+07         0.00000E+00
    0.00000E+00         0.00000E+00         0.00000E+00
 
    0.53728E+06         0.26802E+07         0.00000E+00
    0.26802E+07        -0.54054E+07         0.00000E+00
    0.00000E+00         0.00000E+00         0.00000E+00
 
    0.48841E+06         0.27440E+07         0.00000E+00
    0.27440E+07        -0.53848E+07         0.00000E+00
    0.00000E+00         0.00000E+00         0.00000E+00
 
    0.43907E+06         0.28077E+07         0.00000E+00
    0.28077E+07        -0.53636E+07         0.00000E+00
    0.00000E+00         0.00000E+00         0.00000E+00
 
    0.38927E+06         0.28711E+07         0.00000E+00
    0.28711E+07        -0.53418E+07         0.00000E+00
    0.00000E+00         0.00000E+00         0.00000E+00
 
    0.33898E+06         0.29345E+07         0.00000E+00
    0.29345E+07        -0.53193E+07         0.00000E+00
    0.00000E+00         0.00000E+00         0.00000E+00
 
    0.28822E+06         0.29976E+07         0.00000E+00
    0.29976E+07        -0.52963E+07         0.00000E+00
    0.00000E+00         0.00000E+00         0.00000E+00
 
    0.23695E+06         0.30605E+07         0.00000E+00
    0.30605E+07        -0.52726E+07         0.00000E+00
    0.00000E+00         0.00000E+00         0.00000E+00
 
    0.18519E+06         0.31233E+07         0.00000E+00
    0.31233E+07        -0.52483E+07         0.00000E+00
    0.00000E+00         0.00000E+00         0.00000E+00
 
    0.13292E+06         0.31859E+07         0.00000E+00
    0.31859E+07        -0.52233E+07         0.00000E+00
    0.00000E+00         0.00000E+00         0.00000E+00
 
    0.80120E+05         0.32483E+07         0.00000E+00
    0.32483E+07        -0.51977E+07         0.00000E+00
    0.00000E+00         0.00000E+00         0.00000E+00
 
    0.26795E+05         0.33106E+07         0.00000E+00
    0.33106E+07        -0.51715E+07         0.00000E+00
    0.00000E+00         0.00000E+00         0.00000E+00
 
    0.22016E+07         0.38132E+05         0.00000E+00
    0.38132E+05        -0.61078E+07         0.00000E+00
    0.00000E+00         0.00000E+00         0.00000E+00
 
    0.21649E+07         0.11336E+06         0.00000E+00
    0.11336E+06        -0.61073E+07         0.00000E+00
    0.00000E+00         0.00000E+00         0.00000E+00
 
    0.21280E+07         0.18823E+06         0.00000E+00
    0.18823E+06        -0.61064E+07         0.00000E+00
    0.00000E+00         0.00000E+00         0.00000E+00
 
    0.20908E+07         0.26275E+06         0.00000E+00
    0.26275E+06        -0.61049E+07         0.00000E+00
    0.00000E+00         0.00000E+00         0.00000E+00
 
    0.20533E+07         0.33692E+06         0.00000E+00
    0.33692E+06        -0.61030E+07         0.00000E+00
    0.00000E+00         0.00000E+00         0.00000E+00
 
    0.20155E+07         0.41077E+06         0.00000E+00
    0.41077E+06        -0.61007E+07         0.00000E+00
    0.00000E+00         0.00000E+00         0.00000E+00
 
    0.19774E+07         0.48429E+06         0.00000E+00
    0.48429E+06        -0.60978E+07         0.00000E+00
    0.00000E+00         0.00000E+00         0.00000E+00
 
    0.19390E+07         0.55751E+06         0.00000E+00
    0.55751E+06        -0.60945E+07         0.00000E+00
    0.00000E+00         0.00000E+00         0.00000E+00
 
    0.19003E+07         0.63042E+06         0.00000E+00
    0.63042E+06        -0.60907E+07         0.00000E+00
    0.00000E+00         0.00000E+00         0.00000E+00
 
    0.18614E+07         0.70304E+06         0.00000E+00
    0.70304E+06        -0.60865E+07         0.00000E+00
    0.00000E+00         0.00000E+00         0.00000E+00
 
    0.18221E+07         0.77538E+06         0.00000E+00
    0.77538E+06        -0.60817E+07         0.00000E+00
    0.00000E+00         0.00000E+00         0.00000E+00
 
    0.17826E+07         0.84745E+06         0.00000E+00
    0.84745E+06        -0.60765E+07         0.00000E+00
    0.00000E+00         0.00000E+00         0.00000E+00
 
    0.17428E+07         0.91926E+06         0.00000E+00
    0.91926E+06        -0.60709E+07         0.00000E+00
    0.00000E+00         0.00000E+00         0.00000E+00
 
    0.17027E+07         0.99081E+06         0.00000E+00
    0.99081E+06        -0.60647E+07         0.00000E+00
    0.00000E+00         0.00000E+00         0.00000E+00
 
    0.16623E+07         0.10621E+07         0.00000E+00
    0.10621E+07        -0.60581E+07         0.00000E+00
    0.00000E+00         0.00000E+00         0.00000E+00
 
    0.16217E+07         0.11332E+07         0.00000E+00
    0.11332E+07        -0.60509E+07         0.00000E+00
    0.00000E+00         0.00000E+00         0.00000E+00
 
    0.15807E+07         0.12040E+07         0.00000E+00
    0.12040E+07        -0.60433E+07         0.00000E+00
    0.00000E+00         0.00000E+00         0.00000E+00
 
    0.15394E+07         0.12746E+07         0.00000E+00
    0.12746E+07        -0.60352E+07         0.00000E+00
    0.00000E+00         0.00000E+00         0.00000E+00
 
    0.14979E+07         0.13450E+07         0.00000E+00
    0.13450E+07        -0.60267E+07         0.00000E+00
    0.00000E+00         0.00000E+00         0.00000E+00
 
    0.14560E+07         0.14152E+07         0.00000E+00
    0.14152E+07        -0.60176E+07         0.00000E+00
    0.00000E+00         0.00000E+00         0.00000E+00
 
    0.14138E+07         0.14852E+07         0.00000E+00
    0.14852E+07        -0.60080E+07         0.00000E+00
    0.00000E+00         0.00000E+00         0.00000E+00
 
    0.13713E+07         0.15549E+07         0.00000E+00
    0.15549E+07        -0.59979E+07         0.00000E+00
    0.00000E+00         0.00000E+00         0.00000E+00
 
    0.13285E+07         0.16245E+07         0.00000E+00
    0.16245E+07        -0.59873E+07         0.00000E+00
    0.00000E+00         0.00000E+00         0.00000E+00
 
    0.12853E+07         0.16939E+07         0.00000E+00
    0.16939E+07        -0.59762E+07         0.00000E+00
    0.00000E+00         0.00000E+00         0.00000E+00
 
    0.12419E+07         0.17632E+07         0.00000E+00
    0.17632E+07        -0.59646E+07         0.00000E+00
    0.00000E+00         0.00000E+00         0.00000E+00
 
    0.11981E+07         0.18322E+07         0.00000E+00
    0.18322E+07        -0.59524E+07         0.00000E+00
    0.00000E+00         0.00000E+00         0.00000E+00
 
    0.11539E+07         0.19011E+07         0.00000E+00
    0.19011E+07        -0.59397E+07         0.00000E+00
    0.00000E+00         0.00000E+00         0.00000E+00
 
    0.11095E+07         0.19698E+07         0.00000E+00
    0.19698E+07        -0.59265E+07         0.00000E+00
    0.00000E+00         0.00000E+00         0.00000E+00
 
    0.10646E+07         0.20384E+07         0.00000E+00
    0.20384E+07        -0.59128E+07         0.00000E+00
    0.00000E+00         0.00000E+00         0.00000E+00
 
    0.10194E+07         0.21068E+07         0.00000E+00
    0.21068E+07        -0.58985E+07         0.00000E+00
    0.00000E+00         0.00000E+00         0.00000E+00
 
    0.97386E+06         0.21750E+07         0.00000E+00
    0.21750E+07        -0.58836E+07         0.00000E+00
    0.00000E+00         0.00000E+00         0.00000E+00
 
    0.92792E+06         0.22431E+07         0.00000E+00
    0.22431E+07        -0.58682E+07         0.00000E+00
    0.00000E+00         0.00000E+00         0.00000E+00
 
    0.88160E+06         0.23110E+07         0.00000E+00
    0.23110E+07        -0.58522E+07         0.00000E+00
    0.00000E+00         0.00000E+00         0.00000E+00
 
    0.83489E+06         0.23788E+07         0.00000E+00
    0.23788E+07        -0.58357E+07         0.00000E+00
    0.00000E+00         0.00000E+00         0.00000E+00
 
    0.78778E+06         0.24465E+07         0.00000E+00
    0.24465E+07        -0.58185E+07         0.00000E+00
    0.00000E+00         0.00000E+00         0.00000E+00
 
    0.74026E+06         0.25140E+07         0.00000E+00
    0.25140E+07        -0.58008E+07         0.00000E+00
    0.00000E+00         0.00000E+00         0.00000E+00
 
    0.69233E+06         0.25814E+07         0.00000E+00
    0.25814E+07        -0.57825E+07         0.00000E+00
    0.00000E+00         0.00000E+00         0.00000E+00
 
    0.64398E+06         0.26486E+07         0.00000E+00
    0.26486E+07        -0.57636E+07         0.00000E+00
    0.00000E+00         0.00000E+00         0.00000E+00
 
    0.59519E+06         0.27157E+07         0.00000E+00
    0.27157E+07        -0.57441E+07         0.00000E+00
    0.00000E+00         0.00000E+00         0.00000E+00
 
    0.54596E+06         0.27827E+07         0.00000E+00
    0.27827E+07        -0.57240E+07         0.00000E+00
    0.00000E+00         0.00000E+00         0.00000E+00
 
    0.49628E+06         0.28495E+07         0.00000E+00
    0.28495E+07        -0.57033E+07         0.00000E+00
    0.00000E+00         0.00000E+00         0.00000E+00
 
    0.44614E+06         0.29162E+07         0.00000E+00
    0.29162E+07        -0.56819E+07         0.00000E+00
    0.00000E+00         0.00000E+00         0.00000E+00
 
    0.39552E+06         0.29828E+07         0.00000E+00
    0.29828E+07        -0.56599E+07         0.00000E+00
    0.00000E+00         0.00000E+00         0.00000E+00
 
    0.34443E+06         0.30492E+07         0.00000E+00
    0.30492E+07        -0.56373E+07         0.00000E+00
    0.00000E+00         0.00000E+00         0.00000E+00
 
    0.29285E+06         0.31155E+07         0.00000E+00
    0.31155E+07        -0.56140E+07         0.00000E+00
    0.00000E+00         0.00000E+00         0.00000E+00
 
    0.24077E+06         0.31816E+07         0.00000E+00
    0.31816E+07        -0.55900E+07         0.00000E+00
    0.00000E+00         0.00000E+00         0.00000E+00
 
    0.18817E+06         0.32476E+07         0.00000E+00
    0.32476E+07        -0.55654E+07         0.00000E+00
    0.00000E+00         0.00000E+00         0.00000E+00
 
    0.13506E+06         0.33134E+07         0.00000E+00
    0.33134E+07        -0.55401E+07         0.00000E+00
    0.00000E+00         0.00000E+00         0.00000E+00
 
    0.81416E+05         0.33791E+07         0.00000E+00
    0.33791E+07        -0.55141E+07         0.00000E+00
    0.00000E+00         0.00000E+00         0.00000E+00
 
    0.27230E+05         0.34447E+07         0.00000E+00
    0.34447E+07        -0.54875E+07         0.00000E+00
    0.00000E+00         0.00000E+00         0.00000E+00
 
    0.22516E+07         0.39351E+05         0.00000E+00
    0.39351E+05        -0.64409E+07         0.00000E+00
    0.00000E+00         0.00000E+00         0.00000E+00
 
    0.22131E+07         0.11699E+06         0.00000E+00
    0.11699E+06        -0.64405E+07         0.00000E+00
    0.00000E+00         0.00000E+00         0.00000E+00
 
    0.21744E+07         0.19426E+06         0.00000E+00
    0.19426E+06        -0.64395E+07         0.00000E+00
    0.00000E+00         0.00000E+00         0.00000E+00
 
    0.21354E+07         0.27118E+06         0.00000E+00
    0.27118E+06        -0.64382E+07         0.00000E+00
    0.00000E+00         0.00000E+00         0.00000E+00
 
    0.20962E+07         0.34774E+06         0.00000E+00
    0.34774E+06        -0.64363E+07         0.00000E+00
    0.00000E+00         0.00000E+00         0.00000E+00
 
    0.20567E+07         0.42398E+06         0.00000E+00
    0.42398E+06        -0.64340E+07         0.00000E+00
    0.00000E+00         0.00000E+00         0.00000E+00
 
    0.20170E+07         0.49990E+06         0.00000E+00
    0.49990E+06        -0.64313E+07         0.00000E+00
    0.00000E+00         0.00000E+00         0.00000E+00
 
    0.19771E+07         0.57550E+06         0.00000E+00
    0.57550E+06        -0.64281E+07         0.00000E+00
    0.00000E+00         0.00000E+00         0.00000E+00
 
    0.19369E+07         0.65081E+06         0.00000E+00
    0.65081E+06        -0.64244E+07         0.00000E+00
    0.00000E+00         0.00000E+00         0.00000E+00
 
    0.18965E+07         0.72583E+06         0.00000E+00
    0.72583E+06        -0.64203E+07         0.00000E+00
    0.00000E+00         0.00000E+00         0.00000E+00
 
    0.18558E+07         0.80058E+06         0.00000E+00
    0.80058E+06        -0.64157E+07         0.00000E+00
    0.00000E+00         0.00000E+00         0.00000E+00
 
    0.18149E+07         0.87506E+06         0.00000E+00
    0.87506E+06        -0.64106E+07         0.00000E+00
    0.00000E+00         0.00000E+00         0.00000E+00
 
    0.17738E+07         0.94928E+06         0.00000E+00
    0.94928E+06        -0.64051E+07         0.00000E+00
    0.00000E+00         0.00000E+00         0.00000E+00
 
    0.17324E+07         0.10233E+07         0.00000E+00
    0.10233E+07        -0.63991E+07         0.00000E+00
    0.00000E+00         0.00000E+00         0.00000E+00
 
    0.16907E+07         0.10970E+07         0.00000E+00
    0.10970E+07        -0.63927E+07         0.00000E+00
    0.00000E+00         0.00000E+00         0.00000E+00
 
    0.16489E+07         0.11705E+07         0.00000E+00
    0.11705E+07        -0.63857E+07         0.00000E+00
    0.00000E+00         0.00000E+00         0.00000E+00
 
    0.16067E+07         0.12438E+07         0.00000E+00
    0.12438E+07        -0.63783E+07         0.00000E+00
    0.00000E+00         0.00000E+00         0.00000E+00
 
    0.15643E+07         0.13169E+07         0.00000E+00
    0.13169E+07        -0.63704E+07         0.00000E+00
    0.00000E+00         0.00000E+00         0.00000E+00
 
    0.15217E+07         0.13898E+07         0.00000E+00
    0.13898E+07        -0.63620E+07         0.00000E+00
    0.00000E+00         0.00000E+00         0.00000E+00
 
    0.14787E+07         0.14625E+07         0.00000E+00
    0.14625E+07        -0.63531E+07         0.00000E+00
    0.00000E+00         0.00000E+00         0.00000E+00
 
    0.14355E+07         0.15350E+07         0.00000E+00
    0.15350E+07        -0.63437E+07         0.00000E+00
    0.00000E+00         0.00000E+00         0.00000E+00
 
    0.13920E+07         0.16074E+07         0.00000E+00
    0.16074E+07        -0.63338E+07         0.00000E+00
    0.00000E+00         0.00000E+00         0.00000E+00
 
    0.13482E+07         0.16795E+07         0.00000E+00
    0.16795E+07        -0.63234E+07         0.00000E+00
    0.00000E+00         0.00000E+00         0.00000E+00
 
    0.13042E+07         0.17516E+07         0.00000E+00
    0.17516E+07        -0.63124E+07         0.00000E+00
    0.00000E+00         0.00000E+00         0.00000E+00
 
    0.12598E+07         0.18234E+07         0.00000E+00
    0.18234E+07        -0.63010E+07         0.00000E+00
    0.00000E+00         0.00000E+00         0.00000E+00
 
    0.12151E+07         0.18951E+07         0.00000E+00
    0.18951E+07        -0.62890E+07         0.00000E+00
    0.00000E+00         0.00000E+00         0.00000E+00
 
    0.11702E+07         0.19667E+07         0.00000E+00
    0.19667E+07        -0.62765E+07         0.00000E+00
    0.00000E+00         0.00000E+00         0.00000E+00
 
    0.11249E+07         0.20381E+07         0.00000E+00
    0.20381E+07        -0.62634E+07         0.00000E+00
    0.00000E+00         0.00000E+00         0.00000E+00
 
    0.10792E+07         0.21094E+07         0.00000E+00
    0.21094E+07        -0.62498E+07         0.00000E+00
    0.00000E+00         0.00000E+00         0.00000E+00
 
    0.10332E+07         0.21805E+07         0.00000E+00
    0.21805E+07        -0.62357E+07         0.00000E+00
    0.00000E+00         0.00000E+00         0.00000E+00
 
    0.98691E+06         0.22516E+07         0.00000E+00
    0.22516E+07        -0.62210E+07         0.00000E+00
    0.00000E+00         0.00000E+00         0.00000E+00
 
    0.94023E+06         0.23225E+07         0.00000E+00
    0.23225E+07        -0.62057E+07         0.00000E+00
    0.00000E+00         0.00000E+00         0.00000E+00
 
    0.89319E+06         0.23933E+07         0.00000E+00
    0.23933E+07        -0.61898E+07         0.00000E+00
    0.00000E+00         0.00000E+00         0.00000E+00
 
    0.84577E+06         0.24640E+07         0.00000E+00
    0.24640E+07        -0.61734E+07         0.00000E+00
    0.00000E+00         0.00000E+00         0.00000E+00
 
    0.79797E+06         0.25345E+07         0.00000E+00
    0.25345E+07        -0.61563E+07         0.00000E+00
    0.00000E+00         0.00000E+00         0.00000E+00
 
    0.74977E+06         0.26050E+07         0.00000E+00
    0.26050E+07        -0.61387E+07         0.00000E+00
    0.00000E+00         0.00000E+00         0.00000E+00
 
    0.70117E+06         0.26754E+07         0.00000E+00
    0.26754E+07        -0.61204E+07         0.00000E+00
    0.00000E+00         0.00000E+00         0.00000E+00
 
    0.65216E+06         0.27456E+07         0.00000E+00
    0.27456E+07        -0.61015E+07         0.00000E+00
    0.00000E+00         0.00000E+00         0.00000E+00
 
    0.60272E+06         0.28158E+07         0.00000E+00
    0.28158E+07        -0.60820E+07         0.00000E+00
    0.00000E+00         0.00000E+00         0.00000E+00
 
    0.55284E+06         0.28858E+07         0.00000E+00
    0.28858E+07        -0.60619E+07         0.00000E+00
    0.00000E+00         0.00000E+00         0.00000E+00
 
    0.50251E+06         0.29558E+07         0.00000E+00
    0.29558E+07        -0.60411E+07         0.00000E+00
    0.00000E+00         0.00000E+00         0.00000E+00
 
    0.45173E+06         0.30256E+07         0.00000E+00
    0.30256E+07        -0.60197E+07         0.00000E+00
    0.00000E+00         0.00000E+00         0.00000E+00
 
    0.40048E+06         0.30954E+07         0.00000E+00
    0.30954E+07        -0.59976E+07         0.00000E+00
    0.00000E+00         0.00000E+00         0.00000E+00
 
    0.34875E+06         0.31650E+07         0.00000E+00
    0.31650E+07        -0.59748E+07         0.00000E+00
    0.00000E+00         0.00000E+00         0.00000E+00
 
    0.29652E+06         0.32346E+07         0.00000E+00
    0.32346E+07        -0.59514E+07         0.00000E+00
    0.00000E+00         0.00000E+00         0.00000E+00
 
    0.24379E+06         0.33040E+07         0.00000E+00
    0.33040E+07        -0.59273E+07         0.00000E+00
    0.00000E+00         0.00000E+00         0.00000E+00
 
    0.19054E+06         0.33733E+07         0.00000E+00
    0.33733E+07        -0.59024E+07         0.00000E+00
    0.00000E+00         0.00000E+00         0.00000E+00
 
    0.13676E+06         0.34425E+07         0.00000E+00
    0.34425E+07        -0.58769E+07         0.00000E+00
    0.00000E+00         0.00000E+00         0.00000E+00
 
    0.82446E+05         0.35116E+07         0.00000E+00
    0.35116E+07        -0.58507E+07         0.00000E+00
    0.00000E+00         0.00000E+00         0.00000E+00
 
    0.27575E+05         0.35806E+07         0.00000E+00
    0.35806E+07        -0.58237E+07         0.00000E+00
    0.00000E+00         0.00000E+00         0.00000E+00
 
    0.22959E+07         0.40537E+05         0.00000E+00
    0.40537E+05        -0.67917E+07         0.00000E+00
    0.00000E+00         0.00000E+00         0.00000E+00
 
    0.22555E+07         0.12052E+06         0.00000E+00
    0.12052E+06        -0.67913E+07         0.00000E+00
    0.00000E+00         0.00000E+00         0.00000E+00
 
    0.22149E+07         0.20014E+06         0.00000E+00
    0.20014E+06        -0.67904E+07         0.00000E+00
    0.00000E+00         0.00000E+00         0.00000E+00
 
    0.21742E+07         0.27939E+06         0.00000E+00
    0.27939E+06        -0.67891E+07         0.00000E+00
    0.00000E+00         0.00000E+00         0.00000E+00
 
    0.21332E+07         0.35830E+06         0.00000E+00
    0.35830E+06        -0.67873E+07         0.00000E+00
    0.00000E+00         0.00000E+00         0.00000E+00
 
    0.20921E+07         0.43687E+06         0.00000E+00
    0.43687E+06        -0.67851E+07         0.00000E+00
    0.00000E+00         0.00000E+00         0.00000E+00
 
    0.20508E+07         0.51512E+06         0.00000E+00
    0.51512E+06        -0.67825E+07         0.00000E+00
    0.00000E+00         0.00000E+00         0.00000E+00
 
    0.20093E+07         0.59307E+06         0.00000E+00
    0.59307E+06        -0.67794E+07         0.00000E+00
    0.00000E+00         0.00000E+00         0.00000E+00
 
    0.19676E+07         0.67073E+06         0.00000E+00
    0.67073E+06        -0.67759E+07         0.00000E+00
    0.00000E+00         0.00000E+00         0.00000E+00
 
    0.19258E+07         0.74811E+06         0.00000E+00
    0.74811E+06        -0.67720E+07         0.00000E+00
    0.00000E+00         0.00000E+00         0.00000E+00
 
    0.18837E+07         0.82522E+06         0.00000E+00
    0.82522E+06        -0.67676E+07         0.00000E+00
    0.00000E+00         0.00000E+00         0.00000E+00
 
    0.18415E+07         0.90207E+06         0.00000E+00
    0.90207E+06        -0.67627E+07         0.00000E+00
    0.00000E+00         0.00000E+00         0.00000E+00
 
    0.17991E+07         0.97869E+06         0.00000E+00
    0.97869E+06        -0.67574E+07         0.00000E+00
    0.00000E+00         0.00000E+00         0.00000E+00
 
    0.17564E+07         0.10551E+07         0.00000E+00
    0.10551E+07        -0.67516E+07         0.00000E+00
    0.00000E+00         0.00000E+00         0.00000E+00
 
    0.17136E+07         0.11312E+07         0.00000E+00
    0.11312E+07        -0.67454E+07         0.00000E+00
    0.00000E+00         0.00000E+00         0.00000E+00
 
    0.16706E+07         0.12072E+07         0.00000E+00
    0.12072E+07        -0.67387E+07         0.00000E+00
    0.00000E+00         0.00000E+00         0.00000E+00
 
    0.16274E+07         0.12829E+07         0.00000E+00
    0.12829E+07        -0.67315E+07         0.00000E+00
    0.00000E+00         0.00000E+00         0.00000E+00
 
    0.15839E+07         0.13585E+07         0.00000E+00
    0.13585E+07        -0.67238E+07         0.00000E+00
    0.00000E+00         0.00000E+00         0.00000E+00
 
    0.15403E+07         0.14339E+07         0.00000E+00
    0.14339E+07        -0.67157E+07         0.00000E+00
    0.00000E+00         0.00000E+00         0.00000E+00
 
    0.14964E+07         0.15091E+07         0.00000E+00
    0.15091E+07        -0.67070E+07         0.00000E+00
    0.00000E+00         0.00000E+00         0.00000E+00
 
    0.14522E+07         0.15842E+07         0.00000E+00
    0.15842E+07        -0.66979E+07         0.00000E+00
    0.00000E+00         0.00000E+00         0.00000E+00
 
    0.14079E+07         0.16591E+07         0.00000E+00
    0.16591E+07        -0.66883E+07         0.00000E+00
    0.00000E+00         0.00000E+00         0.00000E+00
 
    0.13632E+07         0.17338E+07         0.00000E+00
    0.17338E+07        -0.66781E+07         0.00000E+00
    0.00000E+00         0.00000E+00         0.00000E+00
 
    0.13184E+07         0.18084E+07         0.00000E+00
    0.18084E+07        -0.66675E+07         0.00000E+00
    0.00000E+00         0.00000E+00         0.00000E+00
 
    0.12732E+07         0.18829E+07         0.00000E+00
    0.18829E+07        -0.66563E+07         0.00000E+00
    0.00000E+00         0.00000E+00         0.00000E+00
 
    0.12278E+07         0.19573E+07         0.00000E+00
    0.19573E+07        -0.66446E+07         0.00000E+00
    0.00000E+00         0.00000E+00         0.00000E+00
 
    0.11821E+07         0.20316E+07         0.00000E+00
    0.20316E+07        -0.66323E+07         0.00000E+00
    0.00000E+00         0.00000E+00         0.00000E+00
 
    0.11361E+07         0.21057E+07         0.00000E+00
    0.21057E+07        -0.66195E+07         0.00000E+00
    0.00000E+00         0.00000E+00         0.00000E+00
 
    0.10898E+07         0.21798E+07         0.00000E+00
    0.21798E+07        -0.66062E+07         0.00000E+00
    0.00000E+00         0.00000E+00         0.00000E+00
 
    0.10432E+07         0.22538E+07         0.00000E+00
    0.22538E+07        -0.65922E+07         0.00000E+00
    0.00000E+00         0.00000E+00         0.00000E+00
 
    0.99630E+06         0.23276E+07         0.00000E+00
    0.23276E+07        -0.65778E+07         0.00000E+00
    0.00000E+00         0.00000E+00         0.00000E+00
 
    0.94904E+06         0.24014E+07         0.00000E+00
    0.24014E+07        -0.65627E+07         0.00000E+00
    0.00000E+00         0.00000E+00         0.00000E+00
 
    0.90144E+06         0.24751E+07         0.00000E+00
    0.24751E+07        -0.65470E+07         0.00000E+00
    0.00000E+00         0.00000E+00         0.00000E+00
 
    0.85348E+06         0.25487E+07         0.00000E+00
    0.25487E+07        -0.65308E+07         0.00000E+00
    0.00000E+00         0.00000E+00         0.00000E+00
 
    0.80516E+06         0.26223E+07         0.00000E+00
    0.26223E+07        -0.65139E+07         0.00000E+00
    0.00000E+00         0.00000E+00         0.00000E+00
 
    0.75645E+06         0.26958E+07         0.00000E+00
    0.26958E+07        -0.64964E+07         0.00000E+00
    0.00000E+00         0.00000E+00         0.00000E+00
 
    0.70736E+06         0.27692E+07         0.00000E+00
    0.27692E+07        -0.64783E+07         0.00000E+00
    0.00000E+00         0.00000E+00         0.00000E+00
 
    0.65787E+06         0.28426E+07         0.00000E+00
    0.28426E+07        -0.64596E+07         0.00000E+00
    0.00000E+00         0.00000E+00         0.00000E+00
 
    0.60796E+06         0.29158E+07         0.00000E+00
    0.29158E+07        -0.64402E+07         0.00000E+00
    0.00000E+00         0.00000E+00         0.00000E+00
 
    0.55762E+06         0.29891E+07         0.00000E+00
    0.29891E+07        -0.64201E+07         0.00000E+00
    0.00000E+00         0.00000E+00         0.00000E+00
 
    0.50684E+06         0.30622E+07         0.00000E+00
    0.30622E+07        -0.63994E+07         0.00000E+00
    0.00000E+00         0.00000E+00         0.00000E+00
 
    0.45561E+06         0.31354E+07         0.00000E+00
    0.31354E+07        -0.63780E+07         0.00000E+00
    0.00000E+00         0.00000E+00         0.00000E+00
 
    0.40391E+06         0.32084E+07         0.00000E+00
    0.32084E+07        -0.63559E+07         0.00000E+00
    0.00000E+00         0.00000E+00         0.00000E+00
 
    0.35173E+06         0.32814E+07         0.00000E+00
    0.32814E+07        -0.63332E+07         0.00000E+00
    0.00000E+00         0.00000E+00         0.00000E+00
 
    0.29906E+06         0.33543E+07         0.00000E+00
    0.33543E+07        -0.63097E+07         0.00000E+00
    0.00000E+00         0.00000E+00         0.00000E+00
 
    0.24588E+06         0.34272E+07         0.00000E+00
    0.34272E+07        -0.62855E+07         0.00000E+00
    0.00000E+00         0.00000E+00         0.00000E+00
 
    0.19218E+06         0.35000E+07         0.00000E+00
    0.35000E+07        -0.62606E+07         0.00000E+00
    0.00000E+00         0.00000E+00         0.00000E+00
 
    0.13795E+06         0.35727E+07         0.00000E+00
    0.35727E+07        -0.62349E+07         0.00000E+00
    0.00000E+00         0.00000E+00         0.00000E+00
 
    0.83164E+05         0.36454E+07         0.00000E+00
    0.36454E+07        -0.62085E+07         0.00000E+00
    0.00000E+00         0.00000E+00         0.00000E+00
 
    0.27816E+05         0.37180E+07         0.00000E+00
    0.37180E+07        -0.61813E+07         0.00000E+00
    0.00000E+00         0.00000E+00         0.00000E+00
 
    0.23333E+07         0.41677E+05         0.00000E+00
    0.41677E+05        -0.71610E+07         0.00000E+00
    0.00000E+00         0.00000E+00         0.00000E+00
 
    0.22910E+07         0.12393E+06         0.00000E+00
    0.12393E+06        -0.71606E+07         0.00000E+00
    0.00000E+00         0.00000E+00         0.00000E+00
 
    0.22485E+07         0.20580E+06         0.00000E+00
    0.20580E+06        -0.71597E+07         0.00000E+00
    0.00000E+00         0.00000E+00         0.00000E+00
 
    0.22060E+07         0.28731E+06         0.00000E+00
    0.28731E+06        -0.71585E+07         0.00000E+00
    0.00000E+00         0.00000E+00         0.00000E+00
 
    0.21633E+07         0.36848E+06         0.00000E+00
    0.36848E+06        -0.71569E+07         0.00000E+00
    0.00000E+00         0.00000E+00         0.00000E+00
 
    0.21205E+07         0.44932E+06         0.00000E+00
    0.44932E+06        -0.71548E+07         0.00000E+00
    0.00000E+00         0.00000E+00         0.00000E+00
 
    0.20776E+07         0.52984E+06         0.00000E+00
    0.52984E+06        -0.71523E+07         0.00000E+00
    0.00000E+00         0.00000E+00         0.00000E+00
 
    0.20346E+07         0.61006E+06         0.00000E+00
    0.61006E+06        -0.71494E+07         0.00000E+00
    0.00000E+00         0.00000E+00         0.00000E+00
 
    0.19915E+07         0.69000E+06         0.00000E+00
    0.69000E+06        -0.71461E+07         0.00000E+00
    0.00000E+00         0.00000E+00         0.00000E+00
 
    0.19482E+07         0.76968E+06         0.00000E+00
    0.76968E+06        -0.71424E+07         0.00000E+00
    0.00000E+00         0.00000E+00         0.00000E+00
 
    0.19049E+07         0.84909E+06         0.00000E+00
    0.84909E+06        -0.71382E+07         0.00000E+00
    0.00000E+00         0.00000E+00         0.00000E+00
 
    0.18614E+07         0.92827E+06         0.00000E+00
    0.92827E+06        -0.71336E+07         0.00000E+00
    0.00000E+00         0.00000E+00         0.00000E+00
 
    0.18177E+07         0.10072E+07         0.00000E+00
    0.10072E+07        -0.71285E+07         0.00000E+00
    0.00000E+00         0.00000E+00         0.00000E+00
 
    0.17739E+07         0.10860E+07         0.00000E+00
    0.10860E+07        -0.71230E+07         0.00000E+00
    0.00000E+00         0.00000E+00         0.00000E+00
 
    0.17300E+07         0.11645E+07         0.00000E+00
    0.11645E+07        -0.71171E+07         0.00000E+00
    0.00000E+00         0.00000E+00         0.00000E+00
 
    0.16860E+07         0.12428E+07         0.00000E+00
    0.12428E+07        -0.71107E+07         0.00000E+00
    0.00000E+00         0.00000E+00         0.00000E+00
 
    0.16417E+07         0.13210E+07         0.00000E+00
    0.13210E+07        -0.71038E+07         0.00000E+00
    0.00000E+00         0.00000E+00         0.00000E+00
 
    0.15973E+07         0.13990E+07         0.00000E+00
    0.13990E+07        -0.70965E+07         0.00000E+00
    0.00000E+00         0.00000E+00         0.00000E+00
 
    0.15528E+07         0.14769E+07         0.00000E+00
    0.14769E+07        -0.70886E+07         0.00000E+00
    0.00000E+00         0.00000E+00         0.00000E+00
 
    0.15080E+07         0.15546E+07         0.00000E+00
    0.15546E+07        -0.70804E+07         0.00000E+00
    0.00000E+00         0.00000E+00         0.00000E+00
 
    0.14631E+07         0.16322E+07         0.00000E+00
    0.16322E+07        -0.70716E+07         0.00000E+00
    0.00000E+00         0.00000E+00         0.00000E+00
 
    0.14180E+07         0.17096E+07         0.00000E+00
    0.17096E+07        -0.70623E+07         0.00000E+00
    0.00000E+00         0.00000E+00         0.00000E+00
 
    0.13727E+07         0.17870E+07         0.00000E+00
    0.17870E+07        -0.70525E+07         0.00000E+00
    0.00000E+00         0.00000E+00         0.00000E+00
 
    0.13271E+07         0.18642E+07         0.00000E+00
    0.18642E+07        -0.70422E+07         0.00000E+00
    0.00000E+00         0.00000E+00         0.00000E+00
 
    0.12814E+07         0.19413E+07         0.00000E+00
    0.19413E+07        -0.70314E+07         0.00000E+00
    0.00000E+00         0.00000E+00         0.00000E+00
 
    0.12354E+07         0.20184E+07         0.00000E+00
    0.20184E+07        -0.70200E+07         0.00000E+00
    0.00000E+00         0.00000E+00         0.00000E+00
 
    0.11891E+07         0.20954E+07         0.00000E+00
    0.20954E+07        -0.70081E+07         0.00000E+00
    0.00000E+00         0.00000E+00         0.00000E+00
 
    0.11426E+07         0.21723E+07         0.00000E+00
    0.21723E+07        -0.69957E+07         0.00000E+00
    0.00000E+00         0.00000E+00         0.00000E+00
 
    0.10958E+07         0.22491E+07         0.00000E+00
    0.22491E+07        -0.69827E+07         0.00000E+00
    0.00000E+00         0.00000E+00         0.00000E+00
 
    0.10488E+07         0.23259E+07         0.00000E+00
    0.23259E+07        -0.69691E+07         0.00000E+00
    0.00000E+00         0.00000E+00         0.00000E+00
 
    0.10014E+07         0.24027E+07         0.00000E+00
    0.24027E+07        -0.69550E+07         0.00000E+00
    0.00000E+00         0.00000E+00         0.00000E+00
 
    0.95379E+06         0.24794E+07         0.00000E+00
    0.24794E+07        -0.69402E+07         0.00000E+00
    0.00000E+00         0.00000E+00         0.00000E+00
 
    0.90581E+06         0.25560E+07         0.00000E+00
    0.25560E+07        -0.69249E+07         0.00000E+00
    0.00000E+00         0.00000E+00         0.00000E+00
 
    0.85751E+06         0.26327E+07         0.00000E+00
    0.26327E+07        -0.69089E+07         0.00000E+00
    0.00000E+00         0.00000E+00         0.00000E+00
 
    0.80886E+06         0.27093E+07         0.00000E+00
    0.27093E+07        -0.68924E+07         0.00000E+00
    0.00000E+00         0.00000E+00         0.00000E+00
 
    0.75986E+06         0.27858E+07         0.00000E+00
    0.27858E+07        -0.68752E+07         0.00000E+00
    0.00000E+00         0.00000E+00         0.00000E+00
 
    0.71048E+06         0.28624E+07         0.00000E+00
    0.28624E+07        -0.68573E+07         0.00000E+00
    0.00000E+00         0.00000E+00         0.00000E+00
 
    0.66071E+06         0.29389E+07         0.00000E+00
    0.29389E+07        -0.68388E+07         0.00000E+00
    0.00000E+00         0.00000E+00         0.00000E+00
 
    0.61054E+06         0.30154E+07         0.00000E+00
    0.30154E+07        -0.68197E+07         0.00000E+00
    0.00000E+00         0.00000E+00         0.00000E+00
 
    0.55996E+06         0.30919E+07         0.00000E+00
    0.30919E+07        -0.67998E+07         0.00000E+00
    0.00000E+00         0.00000E+00         0.00000E+00
 
    0.50895E+06         0.31684E+07         0.00000E+00
    0.31684E+07        -0.67793E+07         0.00000E+00
    0.00000E+00         0.00000E+00         0.00000E+00
 
    0.45749E+06         0.32449E+07         0.00000E+00
    0.32449E+07        -0.67581E+07         0.00000E+00
    0.00000E+00         0.00000E+00         0.00000E+00
 
    0.40558E+06         0.33213E+07         0.00000E+00
    0.33213E+07        -0.67361E+07         0.00000E+00
    0.00000E+00         0.00000E+00         0.00000E+00
 
    0.35318E+06         0.33978E+07         0.00000E+00
    0.33978E+07        -0.67135E+07         0.00000E+00
    0.00000E+00         0.00000E+00         0.00000E+00
 
    0.30030E+06         0.34742E+07         0.00000E+00
    0.34742E+07        -0.66901E+07         0.00000E+00
    0.00000E+00         0.00000E+00         0.00000E+00
 
    0.24690E+06         0.35507E+07         0.00000E+00
    0.35507E+07        -0.66659E+07         0.00000E+00
    0.00000E+00         0.00000E+00         0.00000E+00
 
    0.19299E+06         0.36271E+07         0.00000E+00
    0.36271E+07        -0.66410E+07         0.00000E+00
    0.00000E+00         0.00000E+00         0.00000E+00
 
    0.13853E+06         0.37035E+07         0.00000E+00
    0.37035E+07        -0.66153E+07         0.00000E+00
    0.00000E+00         0.00000E+00         0.00000E+00
 
    0.83521E+05         0.37799E+07         0.00000E+00
    0.37799E+07        -0.65888E+07         0.00000E+00
    0.00000E+00         0.00000E+00         0.00000E+00
 
    0.27937E+05         0.38562E+07         0.00000E+00
    0.38562E+07        -0.65616E+07         0.00000E+00
    0.00000E+00         0.00000E+00         0.00000E+00
 
    0.23624E+07         0.42759E+05         0.00000E+00
    0.42759E+05        -0.75495E+07         0.00000E+00
    0.00000E+00         0.00000E+00         0.00000E+00
 
    0.23182E+07         0.12716E+06         0.00000E+00
    0.12716E+06        -0.75492E+07         0.00000E+00
    0.00000E+00         0.00000E+00         0.00000E+00
 
    0.22739E+07         0.21119E+06         0.00000E+00
    0.21119E+06        -0.75484E+07         0.00000E+00
    0.00000E+00         0.00000E+00         0.00000E+00
 
    0.22295E+07         0.29486E+06         0.00000E+00
    0.29486E+06        -0.75473E+07         0.00000E+00
    0.00000E+00         0.00000E+00         0.00000E+00
 
    0.21851E+07         0.37818E+06         0.00000E+00
    0.37818E+06        -0.75458E+07         0.00000E+00
    0.00000E+00         0.00000E+00         0.00000E+00
 
    0.21407E+07         0.46118E+06         0.00000E+00
    0.46118E+06        -0.75438E+07         0.00000E+00
    0.00000E+00         0.00000E+00         0.00000E+00
 
    0.20963E+07         0.54388E+06         0.00000E+00
    0.54388E+06        -0.75415E+07         0.00000E+00
    0.00000E+00         0.00000E+00         0.00000E+00
 
    0.20518E+07         0.62629E+06         0.00000E+00
    0.62629E+06        -0.75389E+07         0.00000E+00
    0.00000E+00         0.00000E+00         0.00000E+00
 
    0.20073E+07         0.70843E+06         0.00000E+00
    0.70843E+06        -0.75358E+07         0.00000E+00
    0.00000E+00         0.00000E+00         0.00000E+00
 
    0.19627E+07         0.79031E+06         0.00000E+00
    0.79031E+06        -0.75323E+07         0.00000E+00
    0.00000E+00         0.00000E+00         0.00000E+00
 
    0.19181E+07         0.87196E+06         0.00000E+00
    0.87196E+06        -0.75284E+07         0.00000E+00
    0.00000E+00         0.00000E+00         0.00000E+00
 
    0.18734E+07         0.95338E+06         0.00000E+00
    0.95338E+06        -0.75241E+07         0.00000E+00
    0.00000E+00         0.00000E+00         0.00000E+00
 
    0.18286E+07         0.10346E+07         0.00000E+00
    0.10346E+07        -0.75194E+07         0.00000E+00
    0.00000E+00         0.00000E+00         0.00000E+00
 
    0.17838E+07         0.11156E+07         0.00000E+00
    0.11156E+07        -0.75142E+07         0.00000E+00
    0.00000E+00         0.00000E+00         0.00000E+00
 
    0.17389E+07         0.11965E+07         0.00000E+00
    0.11965E+07        -0.75086E+07         0.00000E+00
    0.00000E+00         0.00000E+00         0.00000E+00
 
    0.16939E+07         0.12772E+07         0.00000E+00
    0.12772E+07        -0.75026E+07         0.00000E+00
    0.00000E+00         0.00000E+00         0.00000E+00
 
    0.16488E+07         0.13577E+07         0.00000E+00
    0.13577E+07        -0.74961E+07         0.00000E+00
    0.00000E+00         0.00000E+00         0.00000E+00
 
    0.16036E+07         0.14381E+07         0.00000E+00
    0.14381E+07        -0.74892E+07         0.00000E+00
    0.00000E+00         0.00000E+00         0.00000E+00
 
    0.15583E+07         0.15184E+07         0.00000E+00
    0.15184E+07        -0.74818E+07         0.00000E+00
    0.00000E+00         0.00000E+00         0.00000E+00
 
    0.15128E+07         0.15985E+07         0.00000E+00
    0.15985E+07        -0.74740E+07         0.00000E+00
    0.00000E+00         0.00000E+00         0.00000E+00
 
    0.14673E+07         0.16786E+07         0.00000E+00
    0.16786E+07        -0.74656E+07         0.00000E+00
    0.00000E+00         0.00000E+00         0.00000E+00
 
    0.14215E+07         0.17586E+07         0.00000E+00
    0.17586E+07        -0.74568E+07         0.00000E+00
    0.00000E+00         0.00000E+00         0.00000E+00
 
    0.13757E+07         0.18385E+07         0.00000E+00
    0.18385E+07        -0.74475E+07         0.00000E+00
    0.00000E+00         0.00000E+00         0.00000E+00
 
    0.13296E+07         0.19183E+07         0.00000E+00
    0.19183E+07        -0.74376E+07         0.00000E+00
    0.00000E+00         0.00000E+00         0.00000E+00
 
    0.12834E+07         0.19981E+07         0.00000E+00
    0.19981E+07        -0.74273E+07         0.00000E+00
    0.00000E+00         0.00000E+00         0.00000E+00
 
    0.12370E+07         0.20779E+07         0.00000E+00
    0.20779E+07        -0.74164E+07         0.00000E+00
    0.00000E+00         0.00000E+00         0.00000E+00
 
    0.11904E+07         0.21576E+07         0.00000E+00
    0.21576E+07        -0.74050E+07         0.00000E+00
    0.00000E+00         0.00000E+00         0.00000E+00
 
    0.11436E+07         0.22372E+07         0.00000E+00
    0.22372E+07        -0.73930E+07         0.00000E+00
    0.00000E+00         0.00000E+00         0.00000E+00
 
    0.10965E+07         0.23169E+07         0.00000E+00
    0.23169E+07        -0.73805E+07         0.00000E+00
    0.00000E+00         0.00000E+00         0.00000E+00
 
    0.10492E+07         0.23966E+07         0.00000E+00
    0.23966E+07        -0.73673E+07         0.00000E+00
    0.00000E+00         0.00000E+00         0.00000E+00
 
    0.10017E+07         0.24762E+07         0.00000E+00
    0.24762E+07        -0.73537E+07         0.00000E+00
    0.00000E+00         0.00000E+00         0.00000E+00
 
    0.95385E+06         0.25558E+07         0.00000E+00
    0.25558E+07        -0.73394E+07         0.00000E+00
    0.00000E+00         0.00000E+00         0.00000E+00
 
    0.90573E+06         0.26355E+07         0.00000E+00
    0.26355E+07        -0.73245E+07         0.00000E+00
    0.00000E+00         0.00000E+00         0.00000E+00
 
    0.85730E+06         0.27152E+07         0.00000E+00
    0.27152E+07        -0.73090E+07         0.00000E+00
    0.00000E+00         0.00000E+00         0.00000E+00
 
    0.80856E+06         0.27948E+07         0.00000E+00
    0.27948E+07        -0.72928E+07         0.00000E+00
    0.00000E+00         0.00000E+00         0.00000E+00
 
    0.75949E+06         0.28745E+07         0.00000E+00
    0.28745E+07        -0.72760E+07         0.00000E+00
    0.00000E+00         0.00000E+00         0.00000E+00
 
    0.71006E+06         0.29543E+07         0.00000E+00
    0.29543E+07        -0.72586E+07         0.00000E+00
    0.00000E+00         0.00000E+00         0.00000E+00
 
    0.66027E+06         0.30341E+07         0.00000E+00
    0.30341E+07        -0.72404E+07         0.00000E+00
    0.00000E+00         0.00000E+00         0.00000E+00
 
    0.61009E+06         0.31139E+07         0.00000E+00
    0.31139E+07        -0.72216E+07         0.00000E+00
    0.00000E+00         0.00000E+00         0.00000E+00
 
    0.55951E+06         0.31937E+07         0.00000E+00
    0.31937E+07        -0.72021E+07         0.00000E+00
    0.00000E+00         0.00000E+00         0.00000E+00
 
    0.50852E+06         0.32736E+07         0.00000E+00
    0.32736E+07        -0.71819E+07         0.00000E+00
    0.00000E+00         0.00000E+00         0.00000E+00
 
    0.45709E+06         0.33535E+07         0.00000E+00
    0.33535E+07        -0.71610E+07         0.00000E+00
    0.00000E+00         0.00000E+00         0.00000E+00
 
    0.40522E+06         0.34335E+07         0.00000E+00
    0.34335E+07        -0.71393E+07         0.00000E+00
    0.00000E+00         0.00000E+00         0.00000E+00
 
    0.35287E+06         0.35135E+07         0.00000E+00
    0.35135E+07        -0.71169E+07         0.00000E+00
    0.00000E+00         0.00000E+00         0.00000E+00
 
    0.30003E+06         0.35936E+07         0.00000E+00
    0.35936E+07        -0.70937E+07         0.00000E+00
    0.00000E+00         0.00000E+00         0.00000E+00
 
    0.24669E+06         0.36737E+07         0.00000E+00
    0.36737E+07        -0.70698E+07         0.00000E+00
    0.00000E+00         0.00000E+00         0.00000E+00
 
    0.19283E+06         0.37539E+07         0.00000E+00
    0.37539E+07        -0.70450E+07         0.00000E+00
    0.00000E+00         0.00000E+00         0.00000E+00
 
    0.13843E+06         0.38341E+07         0.00000E+00
    0.38341E+07        -0.70195E+07         0.00000E+00
    0.00000E+00         0.00000E+00         0.00000E+00
 
    0.83462E+05         0.39144E+07         0.00000E+00
    0.39144E+07        -0.69931E+07         0.00000E+00
    0.00000E+00         0.00000E+00         0.00000E+00
 
    0.27919E+05         0.39946E+07         0.00000E+00
    0.39946E+07        -0.69659E+07         0.00000E+00
    0.00000E+00         0.00000E+00         0.00000E+00
 
    0.23819E+07         0.43767E+05         0.00000E+00
    0.43767E+05        -0.79582E+07         0.00000E+00
    0.00000E+00         0.00000E+00         0.00000E+00
 
    0.23357E+07         0.13019E+06         0.00000E+00
    0.13019E+06        -0.79579E+07         0.00000E+00
    0.00000E+00         0.00000E+00         0.00000E+00
 
    0.22895E+07         0.21623E+06         0.00000E+00
    0.21623E+06        -0.79572E+07         0.00000E+00
    0.00000E+00         0.00000E+00         0.00000E+00
 
    0.22434E+07         0.30192E+06         0.00000E+00
    0.30192E+06        -0.79562E+07         0.00000E+00
    0.00000E+00         0.00000E+00         0.00000E+00
 
    0.21974E+07         0.38728E+06         0.00000E+00
    0.38728E+06        -0.79548E+07         0.00000E+00
    0.00000E+00         0.00000E+00         0.00000E+00
 
    0.21514E+07         0.47233E+06         0.00000E+00
    0.47233E+06        -0.79531E+07         0.00000E+00
    0.00000E+00         0.00000E+00         0.00000E+00
 
    0.21054E+07         0.55708E+06         0.00000E+00
    0.55708E+06        -0.79510E+07         0.00000E+00
    0.00000E+00         0.00000E+00         0.00000E+00
 
    0.20595E+07         0.64156E+06         0.00000E+00
    0.64156E+06        -0.79486E+07         0.00000E+00
    0.00000E+00         0.00000E+00         0.00000E+00
 
    0.20137E+07         0.72578E+06         0.00000E+00
    0.72578E+06        -0.79458E+07         0.00000E+00
    0.00000E+00         0.00000E+00         0.00000E+00
 
    0.19679E+07         0.80977E+06         0.00000E+00
    0.80977E+06        -0.79426E+07         0.00000E+00
    0.00000E+00         0.00000E+00         0.00000E+00
 
    0.19221E+07         0.89354E+06         0.00000E+00
    0.89354E+06        -0.79391E+07         0.00000E+00
    0.00000E+00         0.00000E+00         0.00000E+00
 
    0.18763E+07         0.97712E+06         0.00000E+00
    0.97712E+06        -0.79351E+07         0.00000E+00
    0.00000E+00         0.00000E+00         0.00000E+00
 
    0.18305E+07         0.10605E+07         0.00000E+00
    0.10605E+07        -0.79308E+07         0.00000E+00
    0.00000E+00         0.00000E+00         0.00000E+00
 
    0.17847E+07         0.11437E+07         0.00000E+00
    0.11437E+07        -0.79261E+07         0.00000E+00
    0.00000E+00         0.00000E+00         0.00000E+00
 
    0.17390E+07         0.12268E+07         0.00000E+00
    0.12268E+07        -0.79209E+07         0.00000E+00
    0.00000E+00         0.00000E+00         0.00000E+00
 
    0.16932E+07         0.13098E+07         0.00000E+00
    0.13098E+07        -0.79154E+07         0.00000E+00
    0.00000E+00         0.00000E+00         0.00000E+00
 
    0.16474E+07         0.13926E+07         0.00000E+00
    0.13926E+07        -0.79094E+07         0.00000E+00
    0.00000E+00         0.00000E+00         0.00000E+00
 
    0.16015E+07         0.14753E+07         0.00000E+00
    0.14753E+07        -0.79030E+07         0.00000E+00
    0.00000E+00         0.00000E+00         0.00000E+00
 
    0.15556E+07         0.15580E+07         0.00000E+00
    0.15580E+07        -0.78961E+07         0.00000E+00
    0.00000E+00         0.00000E+00         0.00000E+00
 
    0.15097E+07         0.16405E+07         0.00000E+00
    0.16405E+07        -0.78888E+07         0.00000E+00
    0.00000E+00         0.00000E+00         0.00000E+00
 
    0.14636E+07         0.17231E+07         0.00000E+00
    0.17231E+07        -0.78810E+07         0.00000E+00
    0.00000E+00         0.00000E+00         0.00000E+00
 
    0.14175E+07         0.18055E+07         0.00000E+00
    0.18055E+07        -0.78727E+07         0.00000E+00
    0.00000E+00         0.00000E+00         0.00000E+00
 
    0.13713E+07         0.18880E+07         0.00000E+00
    0.18880E+07        -0.78639E+07         0.00000E+00
    0.00000E+00         0.00000E+00         0.00000E+00
 
    0.13250E+07         0.19704E+07         0.00000E+00
    0.19704E+07        -0.78547E+07         0.00000E+00
    0.00000E+00         0.00000E+00         0.00000E+00
 
    0.12785E+07         0.20528E+07         0.00000E+00
    0.20528E+07        -0.78449E+07         0.00000E+00
    0.00000E+00         0.00000E+00         0.00000E+00
 
    0.12319E+07         0.21352E+07         0.00000E+00
    0.21352E+07        -0.78346E+07         0.00000E+00
    0.00000E+00         0.00000E+00         0.00000E+00
 
    0.11852E+07         0.22176E+07         0.00000E+00
    0.22176E+07        -0.78238E+07         0.00000E+00
    0.00000E+00         0.00000E+00         0.00000E+00
 
    0.11383E+07         0.23000E+07         0.00000E+00
    0.23000E+07        -0.78124E+07         0.00000E+00
    0.00000E+00         0.00000E+00         0.00000E+00
 
    0.10912E+07         0.23825E+07         0.00000E+00
    0.23825E+07        -0.78005E+07         0.00000E+00
    0.00000E+00         0.00000E+00         0.00000E+00
 
    0.10438E+07         0.24650E+07         0.00000E+00
    0.24650E+07        -0.77879E+07         0.00000E+00
    0.00000E+00         0.00000E+00         0.00000E+00
 
    0.99632E+06         0.25475E+07         0.00000E+00
    0.25475E+07        -0.77748E+07         0.00000E+00
    0.00000E+00         0.00000E+00         0.00000E+00
 
    0.94856E+06         0.26301E+07         0.00000E+00
    0.26301E+07        -0.77611E+07         0.00000E+00
    0.00000E+00         0.00000E+00         0.00000E+00
 
    0.90055E+06         0.27128E+07         0.00000E+00
    0.27128E+07        -0.77468E+07         0.00000E+00
    0.00000E+00         0.00000E+00         0.00000E+00
 
    0.85227E+06         0.27956E+07         0.00000E+00
    0.27956E+07        -0.77319E+07         0.00000E+00
    0.00000E+00         0.00000E+00         0.00000E+00
 
    0.80369E+06         0.28784E+07         0.00000E+00
    0.28784E+07        -0.77163E+07         0.00000E+00
    0.00000E+00         0.00000E+00         0.00000E+00
 
    0.75482E+06         0.29613E+07         0.00000E+00
    0.29613E+07        -0.77001E+07         0.00000E+00
    0.00000E+00         0.00000E+00         0.00000E+00
 
    0.70562E+06         0.30443E+07         0.00000E+00
    0.30443E+07        -0.76831E+07         0.00000E+00
    0.00000E+00         0.00000E+00         0.00000E+00
 
    0.65607E+06         0.31273E+07         0.00000E+00
    0.31273E+07        -0.76655E+07         0.00000E+00
    0.00000E+00         0.00000E+00         0.00000E+00
 
    0.60617E+06         0.32105E+07         0.00000E+00
    0.32105E+07        -0.76473E+07         0.00000E+00
    0.00000E+00         0.00000E+00         0.00000E+00
 
    0.55588E+06         0.32938E+07         0.00000E+00
    0.32938E+07        -0.76282E+07         0.00000E+00
    0.00000E+00         0.00000E+00         0.00000E+00
 
    0.50520E+06         0.33772E+07         0.00000E+00
    0.33772E+07        -0.76085E+07         0.00000E+00
    0.00000E+00         0.00000E+00         0.00000E+00
 
    0.45409E+06         0.34607E+07         0.00000E+00
    0.34607E+07        -0.75880E+07         0.00000E+00
    0.00000E+00         0.00000E+00         0.00000E+00
 
    0.40255E+06         0.35443E+07         0.00000E+00
    0.35443E+07        -0.75668E+07         0.00000E+00
    0.00000E+00         0.00000E+00         0.00000E+00
 
    0.35055E+06         0.36280E+07         0.00000E+00
    0.36280E+07        -0.75448E+07         0.00000E+00
    0.00000E+00         0.00000E+00         0.00000E+00
 
    0.29807E+06         0.37118E+07         0.00000E+00
    0.37118E+07        -0.75220E+07         0.00000E+00
    0.00000E+00         0.00000E+00         0.00000E+00
 
    0.24508E+06         0.37957E+07         0.00000E+00
    0.37957E+07        -0.74983E+07         0.00000E+00
    0.00000E+00         0.00000E+00         0.00000E+00
 
    0.19158E+06         0.38797E+07         0.00000E+00
    0.38797E+07        -0.74739E+07         0.00000E+00
    0.00000E+00         0.00000E+00         0.00000E+00
 
    0.13754E+06         0.39639E+07         0.00000E+00
    0.39639E+07        -0.74486E+07         0.00000E+00
    0.00000E+00         0.00000E+00         0.00000E+00
 
    0.82932E+05         0.40481E+07         0.00000E+00
    0.40481E+07        -0.74225E+07         0.00000E+00
    0.00000E+00         0.00000E+00         0.00000E+00
 
    0.27743E+05         0.41325E+07         0.00000E+00
    0.41325E+07        -0.73955E+07         0.00000E+00
    0.00000E+00         0.00000E+00         0.00000E+00
 
    0.23901E+07         0.44687E+05         0.00000E+00
    0.44687E+05        -0.83878E+07         0.00000E+00
    0.00000E+00         0.00000E+00         0.00000E+00
 
    0.23420E+07         0.13296E+06         0.00000E+00
    0.13296E+06        -0.83876E+07         0.00000E+00
    0.00000E+00         0.00000E+00         0.00000E+00
 
    0.22940E+07         0.22085E+06         0.00000E+00
    0.22085E+06        -0.83870E+07         0.00000E+00
    0.00000E+00         0.00000E+00         0.00000E+00
 
    0.22461E+07         0.30841E+06         0.00000E+00
    0.30841E+06        -0.83861E+07         0.00000E+00
    0.00000E+00         0.00000E+00         0.00000E+00
 
    0.21985E+07         0.39564E+06         0.00000E+00
    0.39564E+06        -0.83849E+07         0.00000E+00
    0.00000E+00         0.00000E+00         0.00000E+00
 
    0.21510E+07         0.48258E+06         0.00000E+00
    0.48258E+06        -0.83834E+07         0.00000E+00
    0.00000E+00         0.00000E+00         0.00000E+00
 
    0.21036E+07         0.56924E+06         0.00000E+00
    0.56924E+06        -0.83816E+07         0.00000E+00
    0.00000E+00         0.00000E+00         0.00000E+00
 
    0.20564E+07         0.65564E+06         0.00000E+00
    0.65564E+06        -0.83795E+07         0.00000E+00
    0.00000E+00         0.00000E+00         0.00000E+00
 
    0.20093E+07         0.74181E+06         0.00000E+00
    0.74181E+06        -0.83770E+07         0.00000E+00
    0.00000E+00         0.00000E+00         0.00000E+00
 
    0.19623E+07         0.82778E+06         0.00000E+00
    0.82778E+06        -0.83742E+07         0.00000E+00
    0.00000E+00         0.00000E+00         0.00000E+00
 
    0.19155E+07         0.91355E+06         0.00000E+00
    0.91355E+06        -0.83711E+07         0.00000E+00
    0.00000E+00         0.00000E+00         0.00000E+00
 
    0.18687E+07         0.99915E+06         0.00000E+00
    0.99915E+06        -0.83676E+07         0.00000E+00
    0.00000E+00         0.00000E+00         0.00000E+00
 
    0.18221E+07         0.10846E+07         0.00000E+00
    0.10846E+07        -0.83637E+07         0.00000E+00
    0.00000E+00         0.00000E+00         0.00000E+00
 
    0.17756E+07         0.11699E+07         0.00000E+00
    0.11699E+07        -0.83595E+07         0.00000E+00
    0.00000E+00         0.00000E+00         0.00000E+00
 
    0.17291E+07         0.12551E+07         0.00000E+00
    0.12551E+07        -0.83548E+07         0.00000E+00
    0.00000E+00         0.00000E+00         0.00000E+00
 
    0.16827E+07         0.13402E+07         0.00000E+00
    0.13402E+07        -0.83498E+07         0.00000E+00
    0.00000E+00         0.00000E+00         0.00000E+00
 
    0.16363E+07         0.14253E+07         0.00000E+00
    0.14253E+07        -0.83444E+07         0.00000E+00
    0.00000E+00         0.00000E+00         0.00000E+00
 
    0.15900E+07         0.15102E+07         0.00000E+00
    0.15102E+07        -0.83386E+07         0.00000E+00
    0.00000E+00         0.00000E+00         0.00000E+00
 
    0.15437E+07         0.15952E+07         0.00000E+00
    0.15952E+07        -0.83324E+07         0.00000E+00
    0.00000E+00         0.00000E+00         0.00000E+00
 
    0.14974E+07         0.16801E+07         0.00000E+00
    0.16801E+07        -0.83257E+07         0.00000E+00
    0.00000E+00         0.00000E+00         0.00000E+00
 
    0.14511E+07         0.17650E+07         0.00000E+00
    0.17650E+07        -0.83185E+07         0.00000E+00
    0.00000E+00         0.00000E+00         0.00000E+00
 
    0.14048E+07         0.18498E+07         0.00000E+00
    0.18498E+07        -0.83109E+07         0.00000E+00
    0.00000E+00         0.00000E+00         0.00000E+00
 
    0.13585E+07         0.19348E+07         0.00000E+00
    0.19348E+07        -0.83029E+07         0.00000E+00
    0.00000E+00         0.00000E+00         0.00000E+00
 
    0.13121E+07         0.20197E+07         0.00000E+00
    0.20197E+07        -0.82943E+07         0.00000E+00
    0.00000E+00         0.00000E+00         0.00000E+00
 
    0.12657E+07         0.21047E+07         0.00000E+00
    0.21047E+07        -0.82852E+07         0.00000E+00
    0.00000E+00         0.00000E+00         0.00000E+00
 
    0.12191E+07         0.21897E+07         0.00000E+00
    0.21897E+07        -0.82757E+07         0.00000E+00
    0.00000E+00         0.00000E+00         0.00000E+00
 
    0.11725E+07         0.22748E+07         0.00000E+00
    0.22748E+07        -0.82656E+07         0.00000E+00
    0.00000E+00         0.00000E+00         0.00000E+00
 
    0.11258E+07         0.23599E+07         0.00000E+00
    0.23599E+07        -0.82549E+07         0.00000E+00
    0.00000E+00         0.00000E+00         0.00000E+00
 
    0.10789E+07         0.24452E+07         0.00000E+00
    0.24452E+07        -0.82437E+07         0.00000E+00
    0.00000E+00         0.00000E+00         0.00000E+00
 
    0.10318E+07         0.25306E+07         0.00000E+00
    0.25306E+07        -0.82319E+07         0.00000E+00
    0.00000E+00         0.00000E+00         0.00000E+00
 
    0.98463E+06         0.26160E+07         0.00000E+00
    0.26160E+07        -0.82196E+07         0.00000E+00
    0.00000E+00         0.00000E+00         0.00000E+00
 
    0.93723E+06         0.27016E+07         0.00000E+00
    0.27016E+07        -0.82066E+07         0.00000E+00
    0.00000E+00         0.00000E+00         0.00000E+00
 
    0.88961E+06         0.27873E+07         0.00000E+00
    0.27873E+07        -0.81930E+07         0.00000E+00
    0.00000E+00         0.00000E+00         0.00000E+00
 
    0.84176E+06         0.28732E+07         0.00000E+00
    0.28732E+07        -0.81788E+07         0.00000E+00
    0.00000E+00         0.00000E+00         0.00000E+00
 
    0.79366E+06         0.29591E+07         0.00000E+00
    0.29591E+07        -0.81640E+07         0.00000E+00
    0.00000E+00         0.00000E+00         0.00000E+00
 
    0.74529E+06         0.30453E+07         0.00000E+00
    0.30453E+07        -0.81484E+07         0.00000E+00
    0.00000E+00         0.00000E+00         0.00000E+00
 
    0.69662E+06         0.31316E+07         0.00000E+00
    0.31316E+07        -0.81322E+07         0.00000E+00
    0.00000E+00         0.00000E+00         0.00000E+00
 
    0.64764E+06         0.32180E+07         0.00000E+00
    0.32180E+07        -0.81153E+07         0.00000E+00
    0.00000E+00         0.00000E+00         0.00000E+00
 
    0.59833E+06         0.33046E+07         0.00000E+00
    0.33046E+07        -0.80977E+07         0.00000E+00
    0.00000E+00         0.00000E+00         0.00000E+00
 
    0.54866E+06         0.33914E+07         0.00000E+00
    0.33914E+07        -0.80793E+07         0.00000E+00
    0.00000E+00         0.00000E+00         0.00000E+00
 
    0.49861E+06         0.34783E+07         0.00000E+00
    0.34783E+07        -0.80602E+07         0.00000E+00
    0.00000E+00         0.00000E+00         0.00000E+00
 
    0.44816E+06         0.35654E+07         0.00000E+00
    0.35654E+07        -0.80404E+07         0.00000E+00
    0.00000E+00         0.00000E+00         0.00000E+00
 
    0.39728E+06         0.36527E+07         0.00000E+00
    0.36527E+07        -0.80197E+07         0.00000E+00
    0.00000E+00         0.00000E+00         0.00000E+00
 
    0.34596E+06         0.37402E+07         0.00000E+00
    0.37402E+07        -0.79983E+07         0.00000E+00
    0.00000E+00         0.00000E+00         0.00000E+00
 
    0.29417E+06         0.38279E+07         0.00000E+00
    0.38279E+07        -0.79760E+07         0.00000E+00
    0.00000E+00         0.00000E+00         0.00000E+00
 
    0.24189E+06         0.39157E+07         0.00000E+00
    0.39157E+07        -0.79529E+07         0.00000E+00
    0.00000E+00         0.00000E+00         0.00000E+00
 
    0.18910E+06         0.40038E+07         0.00000E+00
    0.40038E+07        -0.79290E+07         0.00000E+00
    0.00000E+00         0.00000E+00         0.00000E+00
 
    0.13576E+06         0.40920E+07         0.00000E+00
    0.40920E+07        -0.79042E+07         0.00000E+00
    0.00000E+00         0.00000E+00         0.00000E+00
 
    0.81868E+05         0.41804E+07         0.00000E+00
    0.41804E+07        -0.78785E+07         0.00000E+00
    0.00000E+00         0.00000E+00         0.00000E+00
 
    0.27389E+05         0.42690E+07         0.00000E+00
    0.42690E+07        -0.78519E+07         0.00000E+00
    0.00000E+00         0.00000E+00         0.00000E+00
 
    0.23853E+07         0.45499E+05         0.00000E+00
    0.45499E+05        -0.88392E+07         0.00000E+00
    0.00000E+00         0.00000E+00         0.00000E+00
 
    0.23352E+07         0.13541E+06         0.00000E+00
    0.13541E+06        -0.88390E+07         0.00000E+00
    0.00000E+00         0.00000E+00         0.00000E+00
 
    0.22855E+07         0.22497E+06         0.00000E+00
    0.22497E+06        -0.88385E+07         0.00000E+00
    0.00000E+00         0.00000E+00         0.00000E+00
 
    0.22360E+07         0.31419E+06         0.00000E+00
    0.31419E+06        -0.88378E+07         0.00000E+00
    0.00000E+00         0.00000E+00         0.00000E+00
 
    0.21868E+07         0.40311E+06         0.00000E+00
    0.40311E+06        -0.88368E+07         0.00000E+00
    0.00000E+00         0.00000E+00         0.00000E+00
 
    0.21378E+07         0.49175E+06         0.00000E+00
    0.49175E+06        -0.88356E+07         0.00000E+00
    0.00000E+00         0.00000E+00         0.00000E+00
 
    0.20892E+07         0.58014E+06         0.00000E+00
    0.58014E+06        -0.88341E+07         0.00000E+00
    0.00000E+00         0.00000E+00         0.00000E+00
 
    0.20407E+07         0.66830E+06         0.00000E+00
    0.66830E+06        -0.88323E+07         0.00000E+00
    0.00000E+00         0.00000E+00         0.00000E+00
 
    0.19925E+07         0.75625E+06         0.00000E+00
    0.75625E+06        -0.88302E+07         0.00000E+00
    0.00000E+00         0.00000E+00         0.00000E+00
 
    0.19446E+07         0.84402E+06         0.00000E+00
    0.84402E+06        -0.88278E+07         0.00000E+00
    0.00000E+00         0.00000E+00         0.00000E+00
 
    0.18968E+07         0.93164E+06         0.00000E+00
    0.93164E+06        -0.88252E+07         0.00000E+00
    0.00000E+00         0.00000E+00         0.00000E+00
 
    0.18493E+07         0.10191E+07         0.00000E+00
    0.10191E+07        -0.88222E+07         0.00000E+00
    0.00000E+00         0.00000E+00         0.00000E+00
 
    0.18020E+07         0.11065E+07         0.00000E+00
    0.11065E+07        -0.88189E+07         0.00000E+00
    0.00000E+00         0.00000E+00         0.00000E+00
 
    0.17548E+07         0.11938E+07         0.00000E+00
    0.11938E+07        -0.88152E+07         0.00000E+00
    0.00000E+00         0.00000E+00         0.00000E+00
 
    0.17078E+07         0.12810E+07         0.00000E+00
    0.12810E+07        -0.88113E+07         0.00000E+00
    0.00000E+00         0.00000E+00         0.00000E+00
 
    0.16610E+07         0.13681E+07         0.00000E+00
    0.13681E+07        -0.88069E+07         0.00000E+00
    0.00000E+00         0.00000E+00         0.00000E+00
 
    0.16143E+07         0.14552E+07         0.00000E+00
    0.14552E+07        -0.88022E+07         0.00000E+00
    0.00000E+00         0.00000E+00         0.00000E+00
 
    0.15678E+07         0.15423E+07         0.00000E+00
    0.15423E+07        -0.87971E+07         0.00000E+00
    0.00000E+00         0.00000E+00         0.00000E+00
 
    0.15213E+07         0.16294E+07         0.00000E+00
    0.16294E+07        -0.87915E+07         0.00000E+00
    0.00000E+00         0.00000E+00         0.00000E+00
 
    0.14749E+07         0.17166E+07         0.00000E+00
    0.17166E+07        -0.87856E+07         0.00000E+00
    0.00000E+00         0.00000E+00         0.00000E+00
 
    0.14286E+07         0.18037E+07         0.00000E+00
    0.18037E+07        -0.87793E+07         0.00000E+00
    0.00000E+00         0.00000E+00         0.00000E+00
 
    0.13824E+07         0.18910E+07         0.00000E+00
    0.18910E+07        -0.87725E+07         0.00000E+00
    0.00000E+00         0.00000E+00         0.00000E+00
 
    0.13362E+07         0.19783E+07         0.00000E+00
    0.19783E+07        -0.87652E+07         0.00000E+00
    0.00000E+00         0.00000E+00         0.00000E+00
 
    0.12901E+07         0.20657E+07         0.00000E+00
    0.20657E+07        -0.87575E+07         0.00000E+00
    0.00000E+00         0.00000E+00         0.00000E+00
 
    0.12439E+07         0.21531E+07         0.00000E+00
    0.21531E+07        -0.87493E+07         0.00000E+00
    0.00000E+00         0.00000E+00         0.00000E+00
 
    0.11977E+07         0.22407E+07         0.00000E+00
    0.22407E+07        -0.87406E+07         0.00000E+00
    0.00000E+00         0.00000E+00         0.00000E+00
 
    0.11515E+07         0.23285E+07         0.00000E+00
    0.23285E+07        -0.87314E+07         0.00000E+00
    0.00000E+00         0.00000E+00         0.00000E+00
 
    0.11052E+07         0.24163E+07         0.00000E+00
    0.24163E+07        -0.87216E+07         0.00000E+00
    0.00000E+00         0.00000E+00         0.00000E+00
 
    0.10588E+07         0.25044E+07         0.00000E+00
    0.25044E+07        -0.87113E+07         0.00000E+00
    0.00000E+00         0.00000E+00         0.00000E+00
 
    0.10124E+07         0.25926E+07         0.00000E+00
    0.25926E+07        -0.87004E+07         0.00000E+00
    0.00000E+00         0.00000E+00         0.00000E+00
 
    0.96580E+06         0.26809E+07         0.00000E+00
    0.26809E+07        -0.86889E+07         0.00000E+00
    0.00000E+00         0.00000E+00         0.00000E+00
 
    0.91908E+06         0.27695E+07         0.00000E+00
    0.27695E+07        -0.86769E+07         0.00000E+00
    0.00000E+00         0.00000E+00         0.00000E+00
 
    0.87219E+06         0.28582E+07         0.00000E+00
    0.28582E+07        -0.86642E+07         0.00000E+00
    0.00000E+00         0.00000E+00         0.00000E+00
 
    0.82511E+06         0.29472E+07         0.00000E+00
    0.29472E+07        -0.86509E+07         0.00000E+00
    0.00000E+00         0.00000E+00         0.00000E+00
 
    0.77782E+06         0.30363E+07         0.00000E+00
    0.30363E+07        -0.86369E+07         0.00000E+00
    0.00000E+00         0.00000E+00         0.00000E+00
 
    0.73030E+06         0.31257E+07         0.00000E+00
    0.31257E+07        -0.86222E+07         0.00000E+00
    0.00000E+00         0.00000E+00         0.00000E+00
 
    0.68252E+06         0.32153E+07         0.00000E+00
    0.32153E+07        -0.86069E+07         0.00000E+00
    0.00000E+00         0.00000E+00         0.00000E+00
 
    0.63446E+06         0.33052E+07         0.00000E+00
    0.33052E+07        -0.85909E+07         0.00000E+00
    0.00000E+00         0.00000E+00         0.00000E+00
 
    0.58609E+06         0.33952E+07         0.00000E+00
    0.33952E+07        -0.85741E+07         0.00000E+00
    0.00000E+00         0.00000E+00         0.00000E+00
 
    0.53740E+06         0.34856E+07         0.00000E+00
    0.34856E+07        -0.85566E+07         0.00000E+00
    0.00000E+00         0.00000E+00         0.00000E+00
 
    0.48835E+06         0.35761E+07         0.00000E+00
    0.35761E+07        -0.85383E+07         0.00000E+00
    0.00000E+00         0.00000E+00         0.00000E+00
 
    0.43892E+06         0.36670E+07         0.00000E+00
    0.36670E+07        -0.85192E+07         0.00000E+00
    0.00000E+00         0.00000E+00         0.00000E+00
 
    0.38909E+06         0.37581E+07         0.00000E+00
    0.37581E+07        -0.84994E+07         0.00000E+00
    0.00000E+00         0.00000E+00         0.00000E+00
 
    0.33883E+06         0.38494E+07         0.00000E+00
    0.38494E+07        -0.84787E+07         0.00000E+00
    0.00000E+00         0.00000E+00         0.00000E+00
 
    0.28812E+06         0.39410E+07         0.00000E+00
    0.39410E+07        -0.84572E+07         0.00000E+00
    0.00000E+00         0.00000E+00         0.00000E+00
 
    0.23692E+06         0.40329E+07         0.00000E+00
    0.40329E+07        -0.84348E+07         0.00000E+00
    0.00000E+00         0.00000E+00         0.00000E+00
 
    0.18522E+06         0.41250E+07         0.00000E+00
    0.41250E+07        -0.84115E+07         0.00000E+00
    0.00000E+00         0.00000E+00         0.00000E+00
 
    0.13299E+06         0.42175E+07         0.00000E+00
    0.42175E+07        -0.83874E+07         0.00000E+00
    0.00000E+00         0.00000E+00         0.00000E+00
 
    0.80207E+05         0.43101E+07         0.00000E+00
    0.43101E+07        -0.83623E+07         0.00000E+00
    0.00000E+00         0.00000E+00         0.00000E+00
 
    0.26835E+05         0.44031E+07         0.00000E+00
    0.44031E+07        -0.83363E+07         0.00000E+00
    0.00000E+00         0.00000E+00         0.00000E+00
 
    0.23656E+07         0.46183E+05         0.00000E+00
    0.46183E+05        -0.93131E+07         0.00000E+00
    0.00000E+00         0.00000E+00         0.00000E+00
 
    0.23137E+07         0.13750E+06         0.00000E+00
    0.13750E+06        -0.93129E+07         0.00000E+00
    0.00000E+00         0.00000E+00         0.00000E+00
 
    0.22622E+07         0.22847E+06         0.00000E+00
    0.22847E+06        -0.93126E+07         0.00000E+00
    0.00000E+00         0.00000E+00         0.00000E+00
 
    0.22112E+07         0.31913E+06         0.00000E+00
    0.31913E+06        -0.93120E+07         0.00000E+00
    0.00000E+00         0.00000E+00         0.00000E+00
 
    0.21605E+07         0.40951E+06         0.00000E+00
    0.40951E+06        -0.93113E+07         0.00000E+00
    0.00000E+00         0.00000E+00         0.00000E+00
 
    0.21103E+07         0.49964E+06         0.00000E+00
    0.49964E+06        -0.93104E+07         0.00000E+00
    0.00000E+00         0.00000E+00         0.00000E+00
 
    0.20604E+07         0.58954E+06         0.00000E+00
    0.58954E+06        -0.93092E+07         0.00000E+00
    0.00000E+00         0.00000E+00         0.00000E+00
 
    0.20109E+07         0.67925E+06         0.00000E+00
    0.67925E+06        -0.93078E+07         0.00000E+00
    0.00000E+00         0.00000E+00         0.00000E+00
 
    0.19618E+07         0.76878E+06         0.00000E+00
    0.76878E+06        -0.93062E+07         0.00000E+00
    0.00000E+00         0.00000E+00         0.00000E+00
 
    0.19130E+07         0.85817E+06         0.00000E+00
    0.85817E+06        -0.93044E+07         0.00000E+00
    0.00000E+00         0.00000E+00         0.00000E+00
 
    0.18645E+07         0.94744E+06         0.00000E+00
    0.94744E+06        -0.93023E+07         0.00000E+00
    0.00000E+00         0.00000E+00         0.00000E+00
 
    0.18164E+07         0.10366E+07         0.00000E+00
    0.10366E+07        -0.92999E+07         0.00000E+00
    0.00000E+00         0.00000E+00         0.00000E+00
 
    0.17686E+07         0.11257E+07         0.00000E+00
    0.11257E+07        -0.92972E+07         0.00000E+00
    0.00000E+00         0.00000E+00         0.00000E+00
 
    0.17210E+07         0.12148E+07         0.00000E+00
    0.12148E+07        -0.92943E+07         0.00000E+00
    0.00000E+00         0.00000E+00         0.00000E+00
 
    0.16737E+07         0.13038E+07         0.00000E+00
    0.13038E+07        -0.92910E+07         0.00000E+00
    0.00000E+00         0.00000E+00         0.00000E+00
 
    0.16267E+07         0.13929E+07         0.00000E+00
    0.13929E+07        -0.92874E+07         0.00000E+00
    0.00000E+00         0.00000E+00         0.00000E+00
 
    0.15800E+07         0.14819E+07         0.00000E+00
    0.14819E+07        -0.92835E+07         0.00000E+00
    0.00000E+00         0.00000E+00         0.00000E+00
 
    0.15334E+07         0.15710E+07         0.00000E+00
    0.15710E+07        -0.92792E+07         0.00000E+00
    0.00000E+00         0.00000E+00         0.00000E+00
 
    0.14871E+07         0.16602E+07         0.00000E+00
    0.16602E+07        -0.92745E+07         0.00000E+00
    0.00000E+00         0.00000E+00         0.00000E+00
 
    0.14409E+07         0.17494E+07         0.00000E+00
    0.17494E+07        -0.92695E+07         0.00000E+00
    0.00000E+00         0.00000E+00         0.00000E+00
 
    0.13949E+07         0.18388E+07         0.00000E+00
    0.18388E+07        -0.92641E+07         0.00000E+00
    0.00000E+00         0.00000E+00         0.00000E+00
 
    0.13490E+07         0.19282E+07         0.00000E+00
    0.19282E+07        -0.92582E+07         0.00000E+00
    0.00000E+00         0.00000E+00         0.00000E+00
 
    0.13033E+07         0.20178E+07         0.00000E+00
    0.20178E+07        -0.92519E+07         0.00000E+00
    0.00000E+00         0.00000E+00         0.00000E+00
 
    0.12576E+07         0.21076E+07         0.00000E+00
    0.21076E+07        -0.92452E+07         0.00000E+00
    0.00000E+00         0.00000E+00         0.00000E+00
 
    0.12121E+07         0.21975E+07         0.00000E+00
    0.21975E+07        -0.92380E+07         0.00000E+00
    0.00000E+00         0.00000E+00         0.00000E+00
 
    0.11666E+07         0.22876E+07         0.00000E+00
    0.22876E+07        -0.92303E+07         0.00000E+00
    0.00000E+00         0.00000E+00         0.00000E+00
 
    0.11211E+07         0.23779E+07         0.00000E+00
    0.23779E+07        -0.92221E+07         0.00000E+00
    0.00000E+00         0.00000E+00         0.00000E+00
 
    0.10756E+07         0.24684E+07         0.00000E+00
    0.24684E+07        -0.92134E+07         0.00000E+00
    0.00000E+00         0.00000E+00         0.00000E+00
 
    0.10301E+07         0.25592E+07         0.00000E+00
    0.25592E+07        -0.92041E+07         0.00000E+00
    0.00000E+00         0.00000E+00         0.00000E+00
 
    0.98459E+06         0.26501E+07         0.00000E+00
    0.26501E+07        -0.91943E+07         0.00000E+00
    0.00000E+00         0.00000E+00         0.00000E+00
 
    0.93900E+06         0.27414E+07         0.00000E+00
    0.27414E+07        -0.91839E+07         0.00000E+00
    0.00000E+00         0.00000E+00         0.00000E+00
 
    0.89332E+06         0.28329E+07         0.00000E+00
    0.28329E+07        -0.91729E+07         0.00000E+00
    0.00000E+00         0.00000E+00         0.00000E+00
 
    0.84753E+06         0.29246E+07         0.00000E+00
    0.29246E+07        -0.91613E+07         0.00000E+00
    0.00000E+00         0.00000E+00         0.00000E+00
 
    0.80160E+06         0.30167E+07         0.00000E+00
    0.30167E+07        -0.91491E+07         0.00000E+00
    0.00000E+00         0.00000E+00         0.00000E+00
 
    0.75551E+06         0.31090E+07         0.00000E+00
    0.31090E+07        -0.91362E+07         0.00000E+00
    0.00000E+00         0.00000E+00         0.00000E+00
 
    0.70922E+06         0.32017E+07         0.00000E+00
    0.32017E+07        -0.91226E+07         0.00000E+00
    0.00000E+00         0.00000E+00         0.00000E+00
 
    0.66272E+06         0.32946E+07         0.00000E+00
    0.32946E+07        -0.91084E+07         0.00000E+00
    0.00000E+00         0.00000E+00         0.00000E+00
 
    0.61597E+06         0.33879E+07         0.00000E+00
    0.33879E+07        -0.90934E+07         0.00000E+00
    0.00000E+00         0.00000E+00         0.00000E+00
 
    0.56896E+06         0.34815E+07         0.00000E+00
    0.34815E+07        -0.90777E+07         0.00000E+00
    0.00000E+00         0.00000E+00         0.00000E+00
 
    0.52164E+06         0.35754E+07         0.00000E+00
    0.35754E+07        -0.90612E+07         0.00000E+00
    0.00000E+00         0.00000E+00         0.00000E+00
 
    0.47401E+06         0.36697E+07         0.00000E+00
    0.36697E+07        -0.90440E+07         0.00000E+00
    0.00000E+00         0.00000E+00         0.00000E+00
 
    0.42602E+06         0.37643E+07         0.00000E+00
    0.37643E+07        -0.90259E+07         0.00000E+00
    0.00000E+00         0.00000E+00         0.00000E+00
 
    0.37765E+06         0.38592E+07         0.00000E+00
    0.38592E+07        -0.90070E+07         0.00000E+00
    0.00000E+00         0.00000E+00         0.00000E+00
 
    0.32887E+06         0.39545E+07         0.00000E+00
    0.39545E+07        -0.89873E+07         0.00000E+00
    0.00000E+00         0.00000E+00         0.00000E+00
 
    0.27966E+06         0.40502E+07         0.00000E+00
    0.40502E+07        -0.89668E+07         0.00000E+00
    0.00000E+00         0.00000E+00         0.00000E+00
 
    0.22998E+06         0.41462E+07         0.00000E+00
    0.41462E+07        -0.89453E+07         0.00000E+00
    0.00000E+00         0.00000E+00         0.00000E+00
 
    0.17981E+06         0.42426E+07         0.00000E+00
    0.42426E+07        -0.89229E+07         0.00000E+00
    0.00000E+00         0.00000E+00         0.00000E+00
 
    0.12912E+06         0.43393E+07         0.00000E+00
    0.43393E+07        -0.88997E+07         0.00000E+00
    0.00000E+00         0.00000E+00         0.00000E+00
 
    0.77881E+05         0.44364E+07         0.00000E+00
    0.44364E+07        -0.88754E+07         0.00000E+00
    0.00000E+00         0.00000E+00         0.00000E+00
 
    0.26059E+05         0.45338E+07         0.00000E+00
    0.45338E+07        -0.88502E+07         0.00000E+00
    0.00000E+00         0.00000E+00         0.00000E+00
 
    0.23288E+07         0.46717E+05         0.00000E+00
    0.46717E+05        -0.98102E+07         0.00000E+00
    0.00000E+00         0.00000E+00         0.00000E+00
 
    0.22752E+07         0.13915E+06         0.00000E+00
    0.13915E+06        -0.98102E+07         0.00000E+00
    0.00000E+00         0.00000E+00         0.00000E+00
 
    0.22221E+07         0.23126E+06         0.00000E+00
    0.23126E+06        -0.98099E+07         0.00000E+00
    0.00000E+00         0.00000E+00         0.00000E+00
 
    0.21696E+07         0.32309E+06         0.00000E+00
    0.32309E+06        -0.98096E+07         0.00000E+00
    0.00000E+00         0.00000E+00         0.00000E+00
 
    0.21177E+07         0.41467E+06         0.00000E+00
    0.41467E+06        -0.98092E+07         0.00000E+00
    0.00000E+00         0.00000E+00         0.00000E+00
 
    0.20663E+07         0.50602E+06         0.00000E+00
    0.50602E+06        -0.98086E+07         0.00000E+00
    0.00000E+00         0.00000E+00         0.00000E+00
 
    0.20154E+07         0.59719E+06         0.00000E+00
    0.59719E+06        -0.98078E+07         0.00000E+00
    0.00000E+00         0.00000E+00         0.00000E+00
 
    0.19650E+07         0.68819E+06         0.00000E+00
    0.68819E+06        -0.98069E+07         0.00000E+00
    0.00000E+00         0.00000E+00         0.00000E+00
 
    0.19151E+07         0.77907E+06         0.00000E+00
    0.77907E+06        -0.98059E+07         0.00000E+00
    0.00000E+00         0.00000E+00         0.00000E+00
 
    0.18657E+07         0.86984E+06         0.00000E+00
    0.86984E+06        -0.98046E+07         0.00000E+00
    0.00000E+00         0.00000E+00         0.00000E+00
 
    0.18168E+07         0.96055E+06         0.00000E+00
    0.96055E+06        -0.98031E+07         0.00000E+00
    0.00000E+00         0.00000E+00         0.00000E+00
 
    0.17683E+07         0.10512E+07         0.00000E+00
    0.10512E+07        -0.98014E+07         0.00000E+00
    0.00000E+00         0.00000E+00         0.00000E+00
 
    0.17202E+07         0.11418E+07         0.00000E+00
    0.11418E+07        -0.97995E+07         0.00000E+00
    0.00000E+00         0.00000E+00         0.00000E+00
 
    0.16725E+07         0.12325E+07         0.00000E+00
    0.12325E+07        -0.97973E+07         0.00000E+00
    0.00000E+00         0.00000E+00         0.00000E+00
 
    0.16252E+07         0.13232E+07         0.00000E+00
    0.13232E+07        -0.97949E+07         0.00000E+00
    0.00000E+00         0.00000E+00         0.00000E+00
 
    0.15783E+07         0.14139E+07         0.00000E+00
    0.14139E+07        -0.97922E+07         0.00000E+00
    0.00000E+00         0.00000E+00         0.00000E+00
 
    0.15318E+07         0.15047E+07         0.00000E+00
    0.15047E+07        -0.97892E+07         0.00000E+00
    0.00000E+00         0.00000E+00         0.00000E+00
 
    0.14855E+07         0.15957E+07         0.00000E+00
    0.15957E+07        -0.97859E+07         0.00000E+00
    0.00000E+00         0.00000E+00         0.00000E+00
 
    0.14396E+07         0.16867E+07         0.00000E+00
    0.16867E+07        -0.97822E+07         0.00000E+00
    0.00000E+00         0.00000E+00         0.00000E+00
 
    0.13939E+07         0.17779E+07         0.00000E+00
    0.17779E+07        -0.97782E+07         0.00000E+00
    0.00000E+00         0.00000E+00         0.00000E+00
 
    0.13485E+07         0.18693E+07         0.00000E+00
    0.18693E+07        -0.97738E+07         0.00000E+00
    0.00000E+00         0.00000E+00         0.00000E+00
 
    0.13034E+07         0.19609E+07         0.00000E+00
    0.19609E+07        -0.97691E+07         0.00000E+00
    0.00000E+00         0.00000E+00         0.00000E+00
 
    0.12584E+07         0.20527E+07         0.00000E+00
    0.20527E+07        -0.97639E+07         0.00000E+00
    0.00000E+00         0.00000E+00         0.00000E+00
 
    0.12137E+07         0.21447E+07         0.00000E+00
    0.21447E+07        -0.97583E+07         0.00000E+00
    0.00000E+00         0.00000E+00         0.00000E+00
 
    0.11691E+07         0.22369E+07         0.00000E+00
    0.22369E+07        -0.97523E+07         0.00000E+00
    0.00000E+00         0.00000E+00         0.00000E+00
 
    0.11246E+07         0.23294E+07         0.00000E+00
    0.23294E+07        -0.97458E+07         0.00000E+00
    0.00000E+00         0.00000E+00         0.00000E+00
 
    0.10802E+07         0.24222E+07         0.00000E+00
    0.24222E+07        -0.97388E+07         0.00000E+00
    0.00000E+00         0.00000E+00         0.00000E+00
 
    0.10360E+07         0.25153E+07         0.00000E+00
    0.25153E+07        -0.97313E+07         0.00000E+00
    0.00000E+00         0.00000E+00         0.00000E+00
 
    0.99173E+06         0.26087E+07         0.00000E+00
    0.26087E+07        -0.97233E+07         0.00000E+00
    0.00000E+00         0.00000E+00         0.00000E+00
 
    0.94753E+06         0.27024E+07         0.00000E+00
    0.27024E+07        -0.97147E+07         0.00000E+00
    0.00000E+00         0.00000E+00         0.00000E+00
 
    0.90334E+06         0.27965E+07         0.00000E+00
    0.27965E+07        -0.97056E+07         0.00000E+00
    0.00000E+00         0.00000E+00         0.00000E+00
 
    0.85912E+06         0.28909E+07         0.00000E+00
    0.28909E+07        -0.96959E+07         0.00000E+00
    0.00000E+00         0.00000E+00         0.00000E+00
 
    0.81484E+06         0.29856E+07         0.00000E+00
    0.29856E+07        -0.96856E+07         0.00000E+00
    0.00000E+00         0.00000E+00         0.00000E+00
 
    0.77048E+06         0.30808E+07         0.00000E+00
    0.30808E+07        -0.96746E+07         0.00000E+00
    0.00000E+00         0.00000E+00         0.00000E+00
 
    0.72601E+06         0.31763E+07         0.00000E+00
    0.31763E+07        -0.96630E+07         0.00000E+00
    0.00000E+00         0.00000E+00         0.00000E+00
 
    0.68139E+06         0.32722E+07         0.00000E+00
    0.32722E+07        -0.96507E+07         0.00000E+00
    0.00000E+00         0.00000E+00         0.00000E+00
 
    0.63660E+06         0.33685E+07         0.00000E+00
    0.33685E+07        -0.96377E+07         0.00000E+00
    0.00000E+00         0.00000E+00         0.00000E+00
 
    0.59162E+06         0.34652E+07         0.00000E+00
    0.34652E+07        -0.96240E+07         0.00000E+00
    0.00000E+00         0.00000E+00         0.00000E+00
 
    0.54640E+06         0.35623E+07         0.00000E+00
    0.35623E+07        -0.96096E+07         0.00000E+00
    0.00000E+00         0.00000E+00         0.00000E+00
 
    0.50092E+06         0.36599E+07         0.00000E+00
    0.36599E+07        -0.95944E+07         0.00000E+00
    0.00000E+00         0.00000E+00         0.00000E+00
 
    0.45515E+06         0.37579E+07         0.00000E+00
    0.37579E+07        -0.95784E+07         0.00000E+00
    0.00000E+00         0.00000E+00         0.00000E+00
 
    0.40906E+06         0.38563E+07         0.00000E+00
    0.38563E+07        -0.95615E+07         0.00000E+00
    0.00000E+00         0.00000E+00         0.00000E+00
 
    0.36261E+06         0.39552E+07         0.00000E+00
    0.39552E+07        -0.95439E+07         0.00000E+00
    0.00000E+00         0.00000E+00         0.00000E+00
 
    0.31579E+06         0.40545E+07         0.00000E+00
    0.40545E+07        -0.95254E+07         0.00000E+00
    0.00000E+00         0.00000E+00         0.00000E+00
 
    0.26855E+06         0.41543E+07         0.00000E+00
    0.41543E+07        -0.95060E+07         0.00000E+00
    0.00000E+00         0.00000E+00         0.00000E+00
 
    0.22086E+06         0.42545E+07         0.00000E+00
    0.42545E+07        -0.94857E+07         0.00000E+00
    0.00000E+00         0.00000E+00         0.00000E+00
 
    0.17270E+06         0.43552E+07         0.00000E+00
    0.43552E+07        -0.94645E+07         0.00000E+00
    0.00000E+00         0.00000E+00         0.00000E+00
 
    0.12403E+06         0.44563E+07         0.00000E+00
    0.44563E+07        -0.94423E+07         0.00000E+00
    0.00000E+00         0.00000E+00         0.00000E+00
 
    0.74820E+05         0.45579E+07         0.00000E+00
    0.45579E+07        -0.94192E+07         0.00000E+00
    0.00000E+00         0.00000E+00         0.00000E+00
 
    0.25038E+05         0.46600E+07         0.00000E+00
    0.46600E+07        -0.93950E+07         0.00000E+00
    0.00000E+00         0.00000E+00         0.00000E+00
 
    0.22728E+07         0.47076E+05         0.00000E+00
    0.47076E+05        -0.10331E+08         0.00000E+00
    0.00000E+00         0.00000E+00         0.00000E+00
 
    0.22176E+07         0.14029E+06         0.00000E+00
    0.14029E+06        -0.10331E+08         0.00000E+00
    0.00000E+00         0.00000E+00         0.00000E+00
 
    0.21631E+07         0.23322E+06         0.00000E+00
    0.23322E+06        -0.10331E+08         0.00000E+00
    0.00000E+00         0.00000E+00         0.00000E+00
 
    0.21093E+07         0.32590E+06         0.00000E+00
    0.32590E+06        -0.10331E+08         0.00000E+00
    0.00000E+00         0.00000E+00         0.00000E+00
 
    0.20562E+07         0.41836E+06         0.00000E+00
    0.41836E+06        -0.10331E+08         0.00000E+00
    0.00000E+00         0.00000E+00         0.00000E+00
 
    0.20038E+07         0.51063E+06         0.00000E+00
    0.51063E+06        -0.10331E+08         0.00000E+00
    0.00000E+00         0.00000E+00         0.00000E+00
 
    0.19521E+07         0.60277E+06         0.00000E+00
    0.60277E+06        -0.10331E+08         0.00000E+00
    0.00000E+00         0.00000E+00         0.00000E+00
 
    0.19011E+07         0.69479E+06         0.00000E+00
    0.69479E+06        -0.10330E+08         0.00000E+00
    0.00000E+00         0.00000E+00         0.00000E+00
 
    0.18507E+07         0.78673E+06         0.00000E+00
    0.78673E+06        -0.10330E+08         0.00000E+00
    0.00000E+00         0.00000E+00         0.00000E+00
 
    0.18009E+07         0.87862E+06         0.00000E+00
    0.87862E+06        -0.10329E+08         0.00000E+00
    0.00000E+00         0.00000E+00         0.00000E+00
 
    0.17517E+07         0.97049E+06         0.00000E+00
    0.97049E+06        -0.10328E+08         0.00000E+00
    0.00000E+00         0.00000E+00         0.00000E+00
 
    0.17031E+07         0.10624E+07         0.00000E+00
    0.10624E+07        -0.10328E+08         0.00000E+00
    0.00000E+00         0.00000E+00         0.00000E+00
 
    0.16551E+07         0.11543E+07         0.00000E+00
    0.11543E+07        -0.10327E+08         0.00000E+00
    0.00000E+00         0.00000E+00         0.00000E+00
 
    0.16076E+07         0.12463E+07         0.00000E+00
    0.12463E+07        -0.10325E+08         0.00000E+00
    0.00000E+00         0.00000E+00         0.00000E+00
 
    0.15606E+07         0.13384E+07         0.00000E+00
    0.13384E+07        -0.10324E+08         0.00000E+00
    0.00000E+00         0.00000E+00         0.00000E+00
 
    0.15141E+07         0.14307E+07         0.00000E+00
    0.14307E+07        -0.10322E+08         0.00000E+00
    0.00000E+00         0.00000E+00         0.00000E+00
 
    0.14681E+07         0.15231E+07         0.00000E+00
    0.15231E+07        -0.10320E+08         0.00000E+00
    0.00000E+00         0.00000E+00         0.00000E+00
 
    0.14225E+07         0.16156E+07         0.00000E+00
    0.16156E+07        -0.10318E+08         0.00000E+00
    0.00000E+00         0.00000E+00         0.00000E+00
 
    0.13773E+07         0.17084E+07         0.00000E+00
    0.17084E+07        -0.10315E+08         0.00000E+00
    0.00000E+00         0.00000E+00         0.00000E+00
 
    0.13326E+07         0.18014E+07         0.00000E+00
    0.18014E+07        -0.10313E+08         0.00000E+00
    0.00000E+00         0.00000E+00         0.00000E+00
 
    0.12882E+07         0.18946E+07         0.00000E+00
    0.18946E+07        -0.10309E+08         0.00000E+00
    0.00000E+00         0.00000E+00         0.00000E+00
 
    0.12441E+07         0.19881E+07         0.00000E+00
    0.19881E+07        -0.10306E+08         0.00000E+00
    0.00000E+00         0.00000E+00         0.00000E+00
 
    0.12003E+07         0.20819E+07         0.00000E+00
    0.20819E+07        -0.10302E+08         0.00000E+00
    0.00000E+00         0.00000E+00         0.00000E+00
 
    0.11569E+07         0.21761E+07         0.00000E+00
    0.21761E+07        -0.10298E+08         0.00000E+00
    0.00000E+00         0.00000E+00         0.00000E+00
 
    0.11136E+07         0.22705E+07         0.00000E+00
    0.22705E+07        -0.10293E+08         0.00000E+00
    0.00000E+00         0.00000E+00         0.00000E+00
 
    0.10706E+07         0.23653E+07         0.00000E+00
    0.23653E+07        -0.10288E+08         0.00000E+00
    0.00000E+00         0.00000E+00         0.00000E+00
 
    0.10278E+07         0.24605E+07         0.00000E+00
    0.24605E+07        -0.10282E+08         0.00000E+00
    0.00000E+00         0.00000E+00         0.00000E+00
 
    0.98517E+06         0.25560E+07         0.00000E+00
    0.25560E+07        -0.10276E+08         0.00000E+00
    0.00000E+00         0.00000E+00         0.00000E+00
 
    0.94265E+06         0.26520E+07         0.00000E+00
    0.26520E+07        -0.10270E+08         0.00000E+00
    0.00000E+00         0.00000E+00         0.00000E+00
 
    0.90024E+06         0.27484E+07         0.00000E+00
    0.27484E+07        -0.10263E+08         0.00000E+00
    0.00000E+00         0.00000E+00         0.00000E+00
 
    0.85789E+06         0.28452E+07         0.00000E+00
    0.28452E+07        -0.10255E+08         0.00000E+00
    0.00000E+00         0.00000E+00         0.00000E+00
 
    0.81559E+06         0.29424E+07         0.00000E+00
    0.29424E+07        -0.10247E+08         0.00000E+00
    0.00000E+00         0.00000E+00         0.00000E+00
 
    0.77329E+06         0.30401E+07         0.00000E+00
    0.30401E+07        -0.10238E+08         0.00000E+00
    0.00000E+00         0.00000E+00         0.00000E+00
 
    0.73097E+06         0.31383E+07         0.00000E+00
    0.31383E+07        -0.10228E+08         0.00000E+00
    0.00000E+00         0.00000E+00         0.00000E+00
 
    0.68859E+06         0.32370E+07         0.00000E+00
    0.32370E+07        -0.10218E+08         0.00000E+00
    0.00000E+00         0.00000E+00         0.00000E+00
 
    0.64613E+06         0.33361E+07         0.00000E+00
    0.33361E+07        -0.10208E+08         0.00000E+00
    0.00000E+00         0.00000E+00         0.00000E+00
 
    0.60354E+06         0.34358E+07         0.00000E+00
    0.34358E+07        -0.10196E+08         0.00000E+00
    0.00000E+00         0.00000E+00         0.00000E+00
 
    0.56080E+06         0.35359E+07         0.00000E+00
    0.35359E+07        -0.10184E+08         0.00000E+00
    0.00000E+00         0.00000E+00         0.00000E+00
 
    0.51787E+06         0.36366E+07         0.00000E+00
    0.36366E+07        -0.10171E+08         0.00000E+00
    0.00000E+00         0.00000E+00         0.00000E+00
 
    0.47473E+06         0.37378E+07         0.00000E+00
    0.37378E+07        -0.10157E+08         0.00000E+00
    0.00000E+00         0.00000E+00         0.00000E+00
 
    0.43133E+06         0.38396E+07         0.00000E+00
    0.38396E+07        -0.10143E+08         0.00000E+00
    0.00000E+00         0.00000E+00         0.00000E+00
 
    0.38764E+06         0.39419E+07         0.00000E+00
    0.39419E+07        -0.10127E+08         0.00000E+00
    0.00000E+00         0.00000E+00         0.00000E+00
 
    0.34363E+06         0.40447E+07         0.00000E+00
    0.40447E+07        -0.10111E+08         0.00000E+00
    0.00000E+00         0.00000E+00         0.00000E+00
 
    0.29927E+06         0.41481E+07         0.00000E+00
    0.41481E+07        -0.10094E+08         0.00000E+00
    0.00000E+00         0.00000E+00         0.00000E+00
 
    0.25452E+06         0.42520E+07         0.00000E+00
    0.42520E+07        -0.10076E+08         0.00000E+00
    0.00000E+00         0.00000E+00         0.00000E+00
 
    0.20935E+06         0.43566E+07         0.00000E+00
    0.43566E+07        -0.10057E+08         0.00000E+00
    0.00000E+00         0.00000E+00         0.00000E+00
 
    0.16372E+06         0.44616E+07         0.00000E+00
    0.44616E+07        -0.10037E+08         0.00000E+00
    0.00000E+00         0.00000E+00         0.00000E+00
 
    0.11760E+06         0.45673E+07         0.00000E+00
    0.45673E+07        -0.10017E+08         0.00000E+00
    0.00000E+00         0.00000E+00         0.00000E+00
 
    0.70956E+05         0.46735E+07         0.00000E+00
    0.46735E+07        -0.99948E+07         0.00000E+00
    0.00000E+00         0.00000E+00         0.00000E+00
 
    0.23748E+05         0.47803E+07         0.00000E+00
    0.47803E+07        -0.99720E+07         0.00000E+00
    0.00000E+00         0.00000E+00         0.00000E+00
 
    0.21952E+07         0.47231E+05         0.00000E+00
    0.47231E+05        -0.10877E+08         0.00000E+00
    0.00000E+00         0.00000E+00         0.00000E+00
 
    0.21384E+07         0.14085E+06         0.00000E+00
    0.14085E+06        -0.10877E+08         0.00000E+00
    0.00000E+00         0.00000E+00         0.00000E+00
 
    0.20826E+07         0.23421E+06         0.00000E+00
    0.23421E+06        -0.10877E+08         0.00000E+00
    0.00000E+00         0.00000E+00         0.00000E+00
 
    0.20278E+07         0.32737E+06         0.00000E+00
    0.32737E+06        -0.10878E+08         0.00000E+00
    0.00000E+00         0.00000E+00         0.00000E+00
 
    0.19738E+07         0.42035E+06         0.00000E+00
    0.42035E+06        -0.10878E+08         0.00000E+00
    0.00000E+00         0.00000E+00         0.00000E+00
 
    0.19206E+07         0.51320E+06         0.00000E+00
    0.51320E+06        -0.10878E+08         0.00000E+00
    0.00000E+00         0.00000E+00         0.00000E+00
 
    0.18683E+07         0.60596E+06         0.00000E+00
    0.60596E+06        -0.10878E+08         0.00000E+00
    0.00000E+00         0.00000E+00         0.00000E+00
 
    0.18169E+07         0.69866E+06         0.00000E+00
    0.69866E+06        -0.10879E+08         0.00000E+00
    0.00000E+00         0.00000E+00         0.00000E+00
 
    0.17663E+07         0.79134E+06         0.00000E+00
    0.79134E+06        -0.10879E+08         0.00000E+00
    0.00000E+00         0.00000E+00         0.00000E+00
 
    0.17164E+07         0.88404E+06         0.00000E+00
    0.88404E+06        -0.10879E+08         0.00000E+00
    0.00000E+00         0.00000E+00         0.00000E+00
 
    0.16673E+07         0.97678E+06         0.00000E+00
    0.97678E+06        -0.10879E+08         0.00000E+00
    0.00000E+00         0.00000E+00         0.00000E+00
 
    0.16189E+07         0.10696E+07         0.00000E+00
    0.10696E+07        -0.10879E+08         0.00000E+00
    0.00000E+00         0.00000E+00         0.00000E+00
 
    0.15713E+07         0.11626E+07         0.00000E+00
    0.11626E+07        -0.10879E+08         0.00000E+00
    0.00000E+00         0.00000E+00         0.00000E+00
 
    0.15243E+07         0.12556E+07         0.00000E+00
    0.12556E+07        -0.10879E+08         0.00000E+00
    0.00000E+00         0.00000E+00         0.00000E+00
 
    0.14780E+07         0.13489E+07         0.00000E+00
    0.13489E+07        -0.10878E+08         0.00000E+00
    0.00000E+00         0.00000E+00         0.00000E+00
 
    0.14323E+07         0.14424E+07         0.00000E+00
    0.14424E+07        -0.10878E+08         0.00000E+00
    0.00000E+00         0.00000E+00         0.00000E+00
 
    0.13872E+07         0.15361E+07         0.00000E+00
    0.15361E+07        -0.10877E+08         0.00000E+00
    0.00000E+00         0.00000E+00         0.00000E+00
 
    0.13427E+07         0.16301E+07         0.00000E+00
    0.16301E+07        -0.10876E+08         0.00000E+00
    0.00000E+00         0.00000E+00         0.00000E+00
 
    0.12988E+07         0.17243E+07         0.00000E+00
    0.17243E+07        -0.10875E+08         0.00000E+00
    0.00000E+00         0.00000E+00         0.00000E+00
 
    0.12553E+07         0.18189E+07         0.00000E+00
    0.18189E+07        -0.10873E+08         0.00000E+00
    0.00000E+00         0.00000E+00         0.00000E+00
 
    0.12123E+07         0.19138E+07         0.00000E+00
    0.19138E+07        -0.10872E+08         0.00000E+00
    0.00000E+00         0.00000E+00         0.00000E+00
 
    0.11698E+07         0.20091E+07         0.00000E+00
    0.20091E+07        -0.10870E+08         0.00000E+00
    0.00000E+00         0.00000E+00         0.00000E+00
 
    0.11277E+07         0.21048E+07         0.00000E+00
    0.21048E+07        -0.10867E+08         0.00000E+00
    0.00000E+00         0.00000E+00         0.00000E+00
 
    0.10859E+07         0.22009E+07         0.00000E+00
    0.22009E+07        -0.10864E+08         0.00000E+00
    0.00000E+00         0.00000E+00         0.00000E+00
 
    0.10445E+07         0.22974E+07         0.00000E+00
    0.22974E+07        -0.10861E+08         0.00000E+00
    0.00000E+00         0.00000E+00         0.00000E+00
 
    0.10035E+07         0.23943E+07         0.00000E+00
    0.23943E+07        -0.10858E+08         0.00000E+00
    0.00000E+00         0.00000E+00         0.00000E+00
 
    0.96268E+06         0.24917E+07         0.00000E+00
    0.24917E+07        -0.10854E+08         0.00000E+00
    0.00000E+00         0.00000E+00         0.00000E+00
 
    0.92215E+06         0.25896E+07         0.00000E+00
    0.25896E+07        -0.10849E+08         0.00000E+00
    0.00000E+00         0.00000E+00         0.00000E+00
 
    0.88183E+06         0.26880E+07         0.00000E+00
    0.26880E+07        -0.10844E+08         0.00000E+00
    0.00000E+00         0.00000E+00         0.00000E+00
 
    0.84170E+06         0.27870E+07         0.00000E+00
    0.27870E+07        -0.10839E+08         0.00000E+00
    0.00000E+00         0.00000E+00         0.00000E+00
 
    0.80171E+06         0.28864E+07         0.00000E+00
    0.28864E+07        -0.10833E+08         0.00000E+00
    0.00000E+00         0.00000E+00         0.00000E+00
 
    0.76184E+06         0.29865E+07         0.00000E+00
    0.29865E+07        -0.10826E+08         0.00000E+00
    0.00000E+00         0.00000E+00         0.00000E+00
 
    0.72204E+06         0.30871E+07         0.00000E+00
    0.30871E+07        -0.10819E+08         0.00000E+00
    0.00000E+00         0.00000E+00         0.00000E+00
 
    0.68228E+06         0.31882E+07         0.00000E+00
    0.31882E+07        -0.10812E+08         0.00000E+00
    0.00000E+00         0.00000E+00         0.00000E+00
 
    0.64252E+06         0.32900E+07         0.00000E+00
    0.32900E+07        -0.10803E+08         0.00000E+00
    0.00000E+00         0.00000E+00         0.00000E+00
 
    0.60274E+06         0.33923E+07         0.00000E+00
    0.33923E+07        -0.10794E+08         0.00000E+00
    0.00000E+00         0.00000E+00         0.00000E+00
 
    0.56289E+06         0.34953E+07         0.00000E+00
    0.34953E+07        -0.10784E+08         0.00000E+00
    0.00000E+00         0.00000E+00         0.00000E+00
 
    0.52294E+06         0.35989E+07         0.00000E+00
    0.35989E+07        -0.10774E+08         0.00000E+00
    0.00000E+00         0.00000E+00         0.00000E+00
 
    0.48285E+06         0.37031E+07         0.00000E+00
    0.37031E+07        -0.10763E+08         0.00000E+00
    0.00000E+00         0.00000E+00         0.00000E+00
 
    0.44258E+06         0.38080E+07         0.00000E+00
    0.38080E+07        -0.10751E+08         0.00000E+00
    0.00000E+00         0.00000E+00         0.00000E+00
 
    0.40210E+06         0.39135E+07         0.00000E+00
    0.39135E+07        -0.10738E+08         0.00000E+00
    0.00000E+00         0.00000E+00         0.00000E+00
 
    0.36137E+06         0.40197E+07         0.00000E+00
    0.40197E+07        -0.10724E+08         0.00000E+00
    0.00000E+00         0.00000E+00         0.00000E+00
 
    0.32036E+06         0.41265E+07         0.00000E+00
    0.41265E+07        -0.10710E+08         0.00000E+00
    0.00000E+00         0.00000E+00         0.00000E+00
 
    0.27903E+06         0.42340E+07         0.00000E+00
    0.42340E+07        -0.10695E+08         0.00000E+00
    0.00000E+00         0.00000E+00         0.00000E+00
 
    0.23733E+06         0.43422E+07         0.00000E+00
    0.43422E+07        -0.10678E+08         0.00000E+00
    0.00000E+00         0.00000E+00         0.00000E+00
 
    0.19524E+06         0.44511E+07         0.00000E+00
    0.44511E+07        -0.10661E+08         0.00000E+00
    0.00000E+00         0.00000E+00         0.00000E+00
 
    0.15272E+06         0.45606E+07         0.00000E+00
    0.45606E+07        -0.10643E+08         0.00000E+00
    0.00000E+00         0.00000E+00         0.00000E+00
 
    0.10972E+06         0.46708E+07         0.00000E+00
    0.46708E+07        -0.10624E+08         0.00000E+00
    0.00000E+00         0.00000E+00         0.00000E+00
 
    0.66216E+05         0.47818E+07         0.00000E+00
    0.47818E+07        -0.10604E+08         0.00000E+00
    0.00000E+00         0.00000E+00         0.00000E+00
 
    0.22166E+05         0.48934E+07         0.00000E+00
    0.48934E+07        -0.10583E+08         0.00000E+00
    0.00000E+00         0.00000E+00         0.00000E+00
 
    0.20931E+07         0.47151E+05         0.00000E+00
    0.47151E+05        -0.11448E+08         0.00000E+00
    0.00000E+00         0.00000E+00         0.00000E+00
 
    0.20351E+07         0.14072E+06         0.00000E+00
    0.14072E+06        -0.11448E+08         0.00000E+00
    0.00000E+00         0.00000E+00         0.00000E+00
 
    0.19783E+07         0.23409E+06         0.00000E+00
    0.23409E+06        -0.11449E+08         0.00000E+00
    0.00000E+00         0.00000E+00         0.00000E+00
 
    0.19225E+07         0.32729E+06         0.00000E+00
    0.32729E+06        -0.11449E+08         0.00000E+00
    0.00000E+00         0.00000E+00         0.00000E+00
 
    0.18679E+07         0.42038E+06         0.00000E+00
    0.42038E+06        -0.11450E+08         0.00000E+00
    0.00000E+00         0.00000E+00         0.00000E+00
 
    0.18143E+07         0.51340E+06         0.00000E+00
    0.51340E+06        -0.11451E+08         0.00000E+00
    0.00000E+00         0.00000E+00         0.00000E+00
 
    0.17617E+07         0.60639E+06         0.00000E+00
    0.60639E+06        -0.11451E+08         0.00000E+00
    0.00000E+00         0.00000E+00         0.00000E+00
 
    0.17102E+07         0.69939E+06         0.00000E+00
    0.69939E+06        -0.11452E+08         0.00000E+00
    0.00000E+00         0.00000E+00         0.00000E+00
 
    0.16597E+07         0.79244E+06         0.00000E+00
    0.79244E+06        -0.11453E+08         0.00000E+00
    0.00000E+00         0.00000E+00         0.00000E+00
 
    0.16101E+07         0.88558E+06         0.00000E+00
    0.88558E+06        -0.11454E+08         0.00000E+00
    0.00000E+00         0.00000E+00         0.00000E+00
 
    0.15614E+07         0.97885E+06         0.00000E+00
    0.97885E+06        -0.11455E+08         0.00000E+00
    0.00000E+00         0.00000E+00         0.00000E+00
 
    0.15137E+07         0.10723E+07         0.00000E+00
    0.10723E+07        -0.11456E+08         0.00000E+00
    0.00000E+00         0.00000E+00         0.00000E+00
 
    0.14668E+07         0.11659E+07         0.00000E+00
    0.11659E+07        -0.11457E+08         0.00000E+00
    0.00000E+00         0.00000E+00         0.00000E+00
 
    0.14208E+07         0.12598E+07         0.00000E+00
    0.12598E+07        -0.11458E+08         0.00000E+00
    0.00000E+00         0.00000E+00         0.00000E+00
 
    0.13756E+07         0.13539E+07         0.00000E+00
    0.13539E+07        -0.11459E+08         0.00000E+00
    0.00000E+00         0.00000E+00         0.00000E+00
 
    0.13311E+07         0.14483E+07         0.00000E+00
    0.14483E+07        -0.11460E+08         0.00000E+00
    0.00000E+00         0.00000E+00         0.00000E+00
 
    0.12874E+07         0.15431E+07         0.00000E+00
    0.15431E+07        -0.11460E+08         0.00000E+00
    0.00000E+00         0.00000E+00         0.00000E+00
 
    0.12444E+07         0.16382E+07         0.00000E+00
    0.16382E+07        -0.11461E+08         0.00000E+00
    0.00000E+00         0.00000E+00         0.00000E+00
 
    0.12021E+07         0.17337E+07         0.00000E+00
    0.17337E+07        -0.11461E+08         0.00000E+00
    0.00000E+00         0.00000E+00         0.00000E+00
 
    0.11605E+07         0.18296E+07         0.00000E+00
    0.18296E+07        -0.11461E+08         0.00000E+00
    0.00000E+00         0.00000E+00         0.00000E+00
 
    0.11194E+07         0.19260E+07         0.00000E+00
    0.19260E+07        -0.11461E+08         0.00000E+00
    0.00000E+00         0.00000E+00         0.00000E+00
 
    0.10789E+07         0.20228E+07         0.00000E+00
    0.20228E+07        -0.11461E+08         0.00000E+00
    0.00000E+00         0.00000E+00         0.00000E+00
 
    0.10389E+07         0.21202E+07         0.00000E+00
    0.21202E+07        -0.11460E+08         0.00000E+00
    0.00000E+00         0.00000E+00         0.00000E+00
 
    0.99944E+06         0.22180E+07         0.00000E+00
    0.22180E+07        -0.11459E+08         0.00000E+00
    0.00000E+00         0.00000E+00         0.00000E+00
 
    0.96043E+06         0.23164E+07         0.00000E+00
    0.23164E+07        -0.11457E+08         0.00000E+00
    0.00000E+00         0.00000E+00         0.00000E+00
 
    0.92183E+06         0.24153E+07         0.00000E+00
    0.24153E+07        -0.11456E+08         0.00000E+00
    0.00000E+00         0.00000E+00         0.00000E+00
 
    0.88362E+06         0.25148E+07         0.00000E+00
    0.25148E+07        -0.11454E+08         0.00000E+00
    0.00000E+00         0.00000E+00         0.00000E+00
 
    0.84575E+06         0.26149E+07         0.00000E+00
    0.26149E+07        -0.11451E+08         0.00000E+00
    0.00000E+00         0.00000E+00         0.00000E+00
 
    0.80819E+06         0.27157E+07         0.00000E+00
    0.27157E+07        -0.11448E+08         0.00000E+00
    0.00000E+00         0.00000E+00         0.00000E+00
 
    0.77089E+06         0.28171E+07         0.00000E+00
    0.28171E+07        -0.11444E+08         0.00000E+00
    0.00000E+00         0.00000E+00         0.00000E+00
 
    0.73382E+06         0.29191E+07         0.00000E+00
    0.29191E+07        -0.11440E+08         0.00000E+00
    0.00000E+00         0.00000E+00         0.00000E+00
 
    0.69694E+06         0.30218E+07         0.00000E+00
    0.30218E+07        -0.11436E+08         0.00000E+00
    0.00000E+00         0.00000E+00         0.00000E+00
 
    0.66021E+06         0.31251E+07         0.00000E+00
    0.31251E+07        -0.11431E+08         0.00000E+00
    0.00000E+00         0.00000E+00         0.00000E+00
 
    0.62359E+06         0.32292E+07         0.00000E+00
    0.32292E+07        -0.11425E+08         0.00000E+00
    0.00000E+00         0.00000E+00         0.00000E+00
 
    0.58704E+06         0.33340E+07         0.00000E+00
    0.33340E+07        -0.11418E+08         0.00000E+00
    0.00000E+00         0.00000E+00         0.00000E+00
 
    0.55053E+06         0.34395E+07         0.00000E+00
    0.34395E+07        -0.11411E+08         0.00000E+00
    0.00000E+00         0.00000E+00         0.00000E+00
 
    0.51400E+06         0.35458E+07         0.00000E+00
    0.35458E+07        -0.11404E+08         0.00000E+00
    0.00000E+00         0.00000E+00         0.00000E+00
 
    0.47743E+06         0.36527E+07         0.00000E+00
    0.36527E+07        -0.11395E+08         0.00000E+00
    0.00000E+00         0.00000E+00         0.00000E+00
 
    0.44076E+06         0.37605E+07         0.00000E+00
    0.37605E+07        -0.11386E+08         0.00000E+00
    0.00000E+00         0.00000E+00         0.00000E+00
 
    0.40398E+06         0.38690E+07         0.00000E+00
    0.38690E+07        -0.11376E+08         0.00000E+00
    0.00000E+00         0.00000E+00         0.00000E+00
 
    0.36702E+06         0.39783E+07         0.00000E+00
    0.39783E+07        -0.11365E+08         0.00000E+00
    0.00000E+00         0.00000E+00         0.00000E+00
 
    0.32985E+06         0.40883E+07         0.00000E+00
    0.40883E+07        -0.11354E+08         0.00000E+00
    0.00000E+00         0.00000E+00         0.00000E+00
 
    0.29244E+06         0.41992E+07         0.00000E+00
    0.41992E+07        -0.11341E+08         0.00000E+00
    0.00000E+00         0.00000E+00         0.00000E+00
 
    0.25474E+06         0.43108E+07         0.00000E+00
    0.43108E+07        -0.11328E+08         0.00000E+00
    0.00000E+00         0.00000E+00         0.00000E+00
 
    0.21672E+06         0.44233E+07         0.00000E+00
    0.44233E+07        -0.11314E+08         0.00000E+00
    0.00000E+00         0.00000E+00         0.00000E+00
 
    0.17832E+06         0.45365E+07         0.00000E+00
    0.45365E+07        -0.11299E+08         0.00000E+00
    0.00000E+00         0.00000E+00         0.00000E+00
 
    0.13952E+06         0.46506E+07         0.00000E+00
    0.46506E+07        -0.11282E+08         0.00000E+00
    0.00000E+00         0.00000E+00         0.00000E+00
 
    0.10027E+06         0.47655E+07         0.00000E+00
    0.47655E+07        -0.11265E+08         0.00000E+00
    0.00000E+00         0.00000E+00         0.00000E+00
 
    0.60535E+05         0.48812E+07         0.00000E+00
    0.48812E+07        -0.11247E+08         0.00000E+00
    0.00000E+00         0.00000E+00         0.00000E+00
 
    0.20270E+05         0.49977E+07         0.00000E+00
    0.49977E+07        -0.11228E+08         0.00000E+00
    0.00000E+00         0.00000E+00         0.00000E+00
 
    0.19638E+07         0.46800E+05         0.00000E+00
    0.46800E+05        -0.12045E+08         0.00000E+00
    0.00000E+00         0.00000E+00         0.00000E+00
 
    0.19048E+07         0.13981E+06         0.00000E+00
    0.13981E+06        -0.12045E+08         0.00000E+00
    0.00000E+00         0.00000E+00         0.00000E+00
 
    0.18471E+07         0.23268E+06         0.00000E+00
    0.23268E+06        -0.12046E+08         0.00000E+00
    0.00000E+00         0.00000E+00         0.00000E+00
 
    0.17908E+07         0.32545E+06         0.00000E+00
    0.32545E+06        -0.12046E+08         0.00000E+00
    0.00000E+00         0.00000E+00         0.00000E+00
 
    0.17359E+07         0.41817E+06         0.00000E+00
    0.41817E+06        -0.12048E+08         0.00000E+00
    0.00000E+00         0.00000E+00         0.00000E+00
 
    0.16822E+07         0.51089E+06         0.00000E+00
    0.51089E+06        -0.12049E+08         0.00000E+00
    0.00000E+00         0.00000E+00         0.00000E+00
 
    0.16297E+07         0.60366E+06         0.00000E+00
    0.60366E+06        -0.12050E+08         0.00000E+00
    0.00000E+00         0.00000E+00         0.00000E+00
 
    0.15785E+07         0.69653E+06         0.00000E+00
    0.69653E+06        -0.12052E+08         0.00000E+00
    0.00000E+00         0.00000E+00         0.00000E+00
 
    0.15284E+07         0.78952E+06         0.00000E+00
    0.78952E+06        -0.12054E+08         0.00000E+00
    0.00000E+00         0.00000E+00         0.00000E+00
 
    0.14795E+07         0.88269E+06         0.00000E+00
    0.88269E+06        -0.12056E+08         0.00000E+00
    0.00000E+00         0.00000E+00         0.00000E+00
 
    0.14318E+07         0.97609E+06         0.00000E+00
    0.97609E+06        -0.12058E+08         0.00000E+00
    0.00000E+00         0.00000E+00         0.00000E+00
 
    0.13851E+07         0.10697E+07         0.00000E+00
    0.10697E+07        -0.12060E+08         0.00000E+00
    0.00000E+00         0.00000E+00         0.00000E+00
 
    0.13395E+07         0.11637E+07         0.00000E+00
    0.11637E+07        -0.12062E+08         0.00000E+00
    0.00000E+00         0.00000E+00         0.00000E+00
 
    0.12949E+07         0.12580E+07         0.00000E+00
    0.12580E+07        -0.12065E+08         0.00000E+00
    0.00000E+00         0.00000E+00         0.00000E+00
 
    0.12512E+07         0.13526E+07         0.00000E+00
    0.13526E+07        -0.12067E+08         0.00000E+00
    0.00000E+00         0.00000E+00         0.00000E+00
 
    0.12085E+07         0.14477E+07         0.00000E+00
    0.14477E+07        -0.12069E+08         0.00000E+00
    0.00000E+00         0.00000E+00         0.00000E+00
 
    0.11668E+07         0.15432E+07         0.00000E+00
    0.15432E+07        -0.12071E+08         0.00000E+00
    0.00000E+00         0.00000E+00         0.00000E+00
 
    0.11258E+07         0.16391E+07         0.00000E+00
    0.16391E+07        -0.12073E+08         0.00000E+00
    0.00000E+00         0.00000E+00         0.00000E+00
 
    0.10857E+07         0.17356E+07         0.00000E+00
    0.17356E+07        -0.12075E+08         0.00000E+00
    0.00000E+00         0.00000E+00         0.00000E+00
 
    0.10464E+07         0.18326E+07         0.00000E+00
    0.18326E+07        -0.12077E+08         0.00000E+00
    0.00000E+00         0.00000E+00         0.00000E+00
 
    0.10078E+07         0.19301E+07         0.00000E+00
    0.19301E+07        -0.12079E+08         0.00000E+00
    0.00000E+00         0.00000E+00         0.00000E+00
 
    0.96989E+06         0.20283E+07         0.00000E+00
    0.20283E+07        -0.12080E+08         0.00000E+00
    0.00000E+00         0.00000E+00         0.00000E+00
 
    0.93265E+06         0.21270E+07         0.00000E+00
    0.21270E+07        -0.12081E+08         0.00000E+00
    0.00000E+00         0.00000E+00         0.00000E+00
 
    0.89602E+06         0.22264E+07         0.00000E+00
    0.22264E+07        -0.12082E+08         0.00000E+00
    0.00000E+00         0.00000E+00         0.00000E+00
 
    0.85997E+06         0.23264E+07         0.00000E+00
    0.23264E+07        -0.12083E+08         0.00000E+00
    0.00000E+00         0.00000E+00         0.00000E+00
 
    0.82444E+06         0.24272E+07         0.00000E+00
    0.24272E+07        -0.12083E+08         0.00000E+00
    0.00000E+00         0.00000E+00         0.00000E+00
 
    0.78941E+06         0.25286E+07         0.00000E+00
    0.25286E+07        -0.12083E+08         0.00000E+00
    0.00000E+00         0.00000E+00         0.00000E+00
 
    0.75481E+06         0.26308E+07         0.00000E+00
    0.26308E+07        -0.12082E+08         0.00000E+00
    0.00000E+00         0.00000E+00         0.00000E+00
 
    0.72061E+06         0.27337E+07         0.00000E+00
    0.27337E+07        -0.12081E+08         0.00000E+00
    0.00000E+00         0.00000E+00         0.00000E+00
 
    0.68678E+06         0.28374E+07         0.00000E+00
    0.28374E+07        -0.12080E+08         0.00000E+00
    0.00000E+00         0.00000E+00         0.00000E+00
 
    0.65325E+06         0.29418E+07         0.00000E+00
    0.29418E+07        -0.12078E+08         0.00000E+00
    0.00000E+00         0.00000E+00         0.00000E+00
 
    0.61999E+06         0.30471E+07         0.00000E+00
    0.30471E+07        -0.12076E+08         0.00000E+00
    0.00000E+00         0.00000E+00         0.00000E+00
 
    0.58696E+06         0.31531E+07         0.00000E+00
    0.31531E+07        -0.12073E+08         0.00000E+00
    0.00000E+00         0.00000E+00         0.00000E+00
 
    0.55412E+06         0.32600E+07         0.00000E+00
    0.32600E+07        -0.12069E+08         0.00000E+00
    0.00000E+00         0.00000E+00         0.00000E+00
 
    0.52141E+06         0.33677E+07         0.00000E+00
    0.33677E+07        -0.12065E+08         0.00000E+00
    0.00000E+00         0.00000E+00         0.00000E+00
 
    0.48880E+06         0.34763E+07         0.00000E+00
    0.34763E+07        -0.12060E+08         0.00000E+00
    0.00000E+00         0.00000E+00         0.00000E+00
 
    0.45624E+06         0.35858E+07         0.00000E+00
    0.35858E+07        -0.12055E+08         0.00000E+00
    0.00000E+00         0.00000E+00         0.00000E+00
 
    0.42369E+06         0.36961E+07         0.00000E+00
    0.36961E+07        -0.12049E+08         0.00000E+00
    0.00000E+00         0.00000E+00         0.00000E+00
 
    0.39110E+06         0.38073E+07         0.00000E+00
    0.38073E+07        -0.12042E+08         0.00000E+00
    0.00000E+00         0.00000E+00         0.00000E+00
 
    0.35844E+06         0.39194E+07         0.00000E+00
    0.39194E+07        -0.12034E+08         0.00000E+00
    0.00000E+00         0.00000E+00         0.00000E+00
 
    0.32565E+06         0.40325E+07         0.00000E+00
    0.40325E+07        -0.12026E+08         0.00000E+00
    0.00000E+00         0.00000E+00         0.00000E+00
 
    0.29270E+06         0.41464E+07         0.00000E+00
    0.41464E+07        -0.12017E+08         0.00000E+00
    0.00000E+00         0.00000E+00         0.00000E+00
 
    0.25955E+06         0.42613E+07         0.00000E+00
    0.42613E+07        -0.12006E+08         0.00000E+00
    0.00000E+00         0.00000E+00         0.00000E+00
 
    0.22614E+06         0.43771E+07         0.00000E+00
    0.43771E+07        -0.11995E+08         0.00000E+00
    0.00000E+00         0.00000E+00         0.00000E+00
 
    0.19244E+06         0.44938E+07         0.00000E+00
    0.44938E+07        -0.11983E+08         0.00000E+00
    0.00000E+00         0.00000E+00         0.00000E+00
 
    0.15840E+06         0.46114E+07         0.00000E+00
    0.46114E+07        -0.11971E+08         0.00000E+00
    0.00000E+00         0.00000E+00         0.00000E+00
 
    0.12399E+06         0.47301E+07         0.00000E+00
    0.47301E+07        -0.11957E+08         0.00000E+00
    0.00000E+00         0.00000E+00         0.00000E+00
 
    0.89149E+05         0.48496E+07         0.00000E+00
    0.48496E+07        -0.11942E+08         0.00000E+00
    0.00000E+00         0.00000E+00         0.00000E+00
 
    0.53847E+05         0.49702E+07         0.00000E+00
    0.49702E+07        -0.11926E+08         0.00000E+00
    0.00000E+00         0.00000E+00         0.00000E+00
 
    0.18037E+05         0.50916E+07         0.00000E+00
    0.50916E+07        -0.11909E+08         0.00000E+00
    0.00000E+00         0.00000E+00         0.00000E+00
 
    0.18040E+07         0.46138E+05         0.00000E+00
    0.46138E+05        -0.12667E+08         0.00000E+00
    0.00000E+00         0.00000E+00         0.00000E+00
 
    0.17443E+07         0.13801E+06         0.00000E+00
    0.13801E+06        -0.12668E+08         0.00000E+00
    0.00000E+00         0.00000E+00         0.00000E+00
 
    0.16862E+07         0.22980E+06         0.00000E+00
    0.22980E+06        -0.12669E+08         0.00000E+00
    0.00000E+00         0.00000E+00         0.00000E+00
 
    0.16298E+07         0.32158E+06         0.00000E+00
    0.32158E+06        -0.12670E+08         0.00000E+00
    0.00000E+00         0.00000E+00         0.00000E+00
 
    0.15748E+07         0.41339E+06         0.00000E+00
    0.41339E+06        -0.12671E+08         0.00000E+00
    0.00000E+00         0.00000E+00         0.00000E+00
 
    0.15214E+07         0.50529E+06         0.00000E+00
    0.50529E+06        -0.12673E+08         0.00000E+00
    0.00000E+00         0.00000E+00         0.00000E+00
 
    0.14695E+07         0.59732E+06         0.00000E+00
    0.59732E+06        -0.12676E+08         0.00000E+00
    0.00000E+00         0.00000E+00         0.00000E+00
 
    0.14190E+07         0.68955E+06         0.00000E+00
    0.68955E+06        -0.12678E+08         0.00000E+00
    0.00000E+00         0.00000E+00         0.00000E+00
 
    0.13700E+07         0.78201E+06         0.00000E+00
    0.78201E+06        -0.12681E+08         0.00000E+00
    0.00000E+00         0.00000E+00         0.00000E+00
 
    0.13223E+07         0.87475E+06         0.00000E+00
    0.87475E+06        -0.12684E+08         0.00000E+00
    0.00000E+00         0.00000E+00         0.00000E+00
 
    0.12759E+07         0.96781E+06         0.00000E+00
    0.96781E+06        -0.12688E+08         0.00000E+00
    0.00000E+00         0.00000E+00         0.00000E+00
 
    0.12308E+07         0.10612E+07         0.00000E+00
    0.10612E+07        -0.12691E+08         0.00000E+00
    0.00000E+00         0.00000E+00         0.00000E+00
 
    0.11870E+07         0.11551E+07         0.00000E+00
    0.11551E+07        -0.12695E+08         0.00000E+00
    0.00000E+00         0.00000E+00         0.00000E+00
 
    0.11444E+07         0.12494E+07         0.00000E+00
    0.12494E+07        -0.12698E+08         0.00000E+00
    0.00000E+00         0.00000E+00         0.00000E+00
 
    0.11029E+07         0.13442E+07         0.00000E+00
    0.13442E+07        -0.12702E+08         0.00000E+00
    0.00000E+00         0.00000E+00         0.00000E+00
 
    0.10625E+07         0.14395E+07         0.00000E+00
    0.14395E+07        -0.12706E+08         0.00000E+00
    0.00000E+00         0.00000E+00         0.00000E+00
 
    0.10232E+07         0.15354E+07         0.00000E+00
    0.15354E+07        -0.12710E+08         0.00000E+00
    0.00000E+00         0.00000E+00         0.00000E+00
 
    0.98497E+06         0.16318E+07         0.00000E+00
    0.16318E+07        -0.12714E+08         0.00000E+00
    0.00000E+00         0.00000E+00         0.00000E+00
 
    0.94768E+06         0.17289E+07         0.00000E+00
    0.17289E+07        -0.12717E+08         0.00000E+00
    0.00000E+00         0.00000E+00         0.00000E+00
 
    0.91132E+06         0.18267E+07         0.00000E+00
    0.18267E+07        -0.12721E+08         0.00000E+00
    0.00000E+00         0.00000E+00         0.00000E+00
 
    0.87584E+06         0.19251E+07         0.00000E+00
    0.19251E+07        -0.12725E+08         0.00000E+00
    0.00000E+00         0.00000E+00         0.00000E+00
 
    0.84119E+06         0.20243E+07         0.00000E+00
    0.20243E+07        -0.12728E+08         0.00000E+00
    0.00000E+00         0.00000E+00         0.00000E+00
 
    0.80733E+06         0.21242E+07         0.00000E+00
    0.21242E+07        -0.12731E+08         0.00000E+00
    0.00000E+00         0.00000E+00         0.00000E+00
 
    0.77421E+06         0.22249E+07         0.00000E+00
    0.22249E+07        -0.12734E+08         0.00000E+00
    0.00000E+00         0.00000E+00         0.00000E+00
 
    0.74178E+06         0.23264E+07         0.00000E+00
    0.23264E+07        -0.12737E+08         0.00000E+00
    0.00000E+00         0.00000E+00         0.00000E+00
 
    0.71000E+06         0.24287E+07         0.00000E+00
    0.24287E+07        -0.12740E+08         0.00000E+00
    0.00000E+00         0.00000E+00         0.00000E+00
 
    0.67881E+06         0.25318E+07         0.00000E+00
    0.25318E+07        -0.12742E+08         0.00000E+00
    0.00000E+00         0.00000E+00         0.00000E+00
 
    0.64816E+06         0.26358E+07         0.00000E+00
    0.26358E+07        -0.12744E+08         0.00000E+00
    0.00000E+00         0.00000E+00         0.00000E+00
 
    0.61802E+06         0.27408E+07         0.00000E+00
    0.27408E+07        -0.12745E+08         0.00000E+00
    0.00000E+00         0.00000E+00         0.00000E+00
 
    0.58832E+06         0.28466E+07         0.00000E+00
    0.28466E+07        -0.12746E+08         0.00000E+00
    0.00000E+00         0.00000E+00         0.00000E+00
 
    0.55902E+06         0.29533E+07         0.00000E+00
    0.29533E+07        -0.12747E+08         0.00000E+00
    0.00000E+00         0.00000E+00         0.00000E+00
 
    0.53008E+06         0.30610E+07         0.00000E+00
    0.30610E+07        -0.12747E+08         0.00000E+00
    0.00000E+00         0.00000E+00         0.00000E+00
 
    0.50145E+06         0.31696E+07         0.00000E+00
    0.31696E+07        -0.12746E+08         0.00000E+00
    0.00000E+00         0.00000E+00         0.00000E+00
 
    0.47306E+06         0.32792E+07         0.00000E+00
    0.32792E+07        -0.12745E+08         0.00000E+00
    0.00000E+00         0.00000E+00         0.00000E+00
 
    0.44489E+06         0.33897E+07         0.00000E+00
    0.33897E+07        -0.12744E+08         0.00000E+00
    0.00000E+00         0.00000E+00         0.00000E+00
 
    0.41688E+06         0.35013E+07         0.00000E+00
    0.35013E+07        -0.12742E+08         0.00000E+00
    0.00000E+00         0.00000E+00         0.00000E+00
 
    0.38899E+06         0.36139E+07         0.00000E+00
    0.36139E+07        -0.12739E+08         0.00000E+00
    0.00000E+00         0.00000E+00         0.00000E+00
 
    0.36116E+06         0.37275E+07         0.00000E+00
    0.37275E+07        -0.12735E+08         0.00000E+00
    0.00000E+00         0.00000E+00         0.00000E+00
 
    0.33335E+06         0.38421E+07         0.00000E+00
    0.38421E+07        -0.12731E+08         0.00000E+00
    0.00000E+00         0.00000E+00         0.00000E+00
 
    0.30551E+06         0.39578E+07         0.00000E+00
    0.39578E+07        -0.12726E+08         0.00000E+00
    0.00000E+00         0.00000E+00         0.00000E+00
 
    0.27760E+06         0.40745E+07         0.00000E+00
    0.40745E+07        -0.12720E+08         0.00000E+00
    0.00000E+00         0.00000E+00         0.00000E+00
 
    0.24956E+06         0.41923E+07         0.00000E+00
    0.41923E+07        -0.12713E+08         0.00000E+00
    0.00000E+00         0.00000E+00         0.00000E+00
 
    0.22136E+06         0.43112E+07         0.00000E+00
    0.43112E+07        -0.12706E+08         0.00000E+00
    0.00000E+00         0.00000E+00         0.00000E+00
 
    0.19295E+06         0.44311E+07         0.00000E+00
    0.44311E+07        -0.12698E+08         0.00000E+00
    0.00000E+00         0.00000E+00         0.00000E+00
 
    0.16428E+06         0.45521E+07         0.00000E+00
    0.45521E+07        -0.12688E+08         0.00000E+00
    0.00000E+00         0.00000E+00         0.00000E+00
 
    0.13530E+06         0.46742E+07         0.00000E+00
    0.46742E+07        -0.12678E+08         0.00000E+00
    0.00000E+00         0.00000E+00         0.00000E+00
 
    0.10598E+06         0.47974E+07         0.00000E+00
    0.47974E+07        -0.12667E+08         0.00000E+00
    0.00000E+00         0.00000E+00         0.00000E+00
 
    0.76255E+05         0.49216E+07         0.00000E+00
    0.49216E+07        -0.12654E+08         0.00000E+00
    0.00000E+00         0.00000E+00         0.00000E+00
 
    0.46095E+05         0.50470E+07         0.00000E+00
    0.50470E+07        -0.12641E+08         0.00000E+00
    0.00000E+00         0.00000E+00         0.00000E+00
 
    0.15449E+05         0.51735E+07         0.00000E+00
    0.51735E+07        -0.12627E+08         0.00000E+00
    0.00000E+00         0.00000E+00         0.00000E+00
 
    0.16104E+07         0.45120E+05         0.00000E+00
    0.45120E+05        -0.13316E+08         0.00000E+00
    0.00000E+00         0.00000E+00         0.00000E+00
 
    0.15504E+07         0.13518E+06         0.00000E+00
    0.13518E+06        -0.13317E+08         0.00000E+00
    0.00000E+00         0.00000E+00         0.00000E+00
 
    0.14923E+07         0.22525E+06         0.00000E+00
    0.22525E+06        -0.13318E+08         0.00000E+00
    0.00000E+00         0.00000E+00         0.00000E+00
 
    0.14361E+07         0.31539E+06         0.00000E+00
    0.31539E+06        -0.13320E+08         0.00000E+00
    0.00000E+00         0.00000E+00         0.00000E+00
 
    0.13817E+07         0.40568E+06         0.00000E+00
    0.40568E+06        -0.13322E+08         0.00000E+00
    0.00000E+00         0.00000E+00         0.00000E+00
 
    0.13291E+07         0.49615E+06         0.00000E+00
    0.49615E+06        -0.13325E+08         0.00000E+00
    0.00000E+00         0.00000E+00         0.00000E+00
 
    0.12782E+07         0.58688E+06         0.00000E+00
    0.58688E+06        -0.13328E+08         0.00000E+00
    0.00000E+00         0.00000E+00         0.00000E+00
 
    0.12291E+07         0.67790E+06         0.00000E+00
    0.67790E+06        -0.13331E+08         0.00000E+00
    0.00000E+00         0.00000E+00         0.00000E+00
 
    0.11815E+07         0.76928E+06         0.00000E+00
    0.76928E+06        -0.13335E+08         0.00000E+00
    0.00000E+00         0.00000E+00         0.00000E+00
 
    0.11356E+07         0.86106E+06         0.00000E+00
    0.86106E+06        -0.13339E+08         0.00000E+00
    0.00000E+00         0.00000E+00         0.00000E+00
 
    0.10912E+07         0.95330E+06         0.00000E+00
    0.95330E+06        -0.13344E+08         0.00000E+00
    0.00000E+00         0.00000E+00         0.00000E+00
 
    0.10484E+07         0.10460E+07         0.00000E+00
    0.10460E+07        -0.13349E+08         0.00000E+00
    0.00000E+00         0.00000E+00         0.00000E+00
 
    0.10070E+07         0.11393E+07         0.00000E+00
    0.11393E+07        -0.13354E+08         0.00000E+00
    0.00000E+00         0.00000E+00         0.00000E+00
 
    0.96696E+06         0.12332E+07         0.00000E+00
    0.12332E+07        -0.13359E+08         0.00000E+00
    0.00000E+00         0.00000E+00         0.00000E+00
 
    0.92831E+06         0.13276E+07         0.00000E+00
    0.13276E+07        -0.13365E+08         0.00000E+00
    0.00000E+00         0.00000E+00         0.00000E+00
 
    0.89095E+06         0.14228E+07         0.00000E+00
    0.14228E+07        -0.13371E+08         0.00000E+00
    0.00000E+00         0.00000E+00         0.00000E+00
 
    0.85485E+06         0.15186E+07         0.00000E+00
    0.15186E+07        -0.13376E+08         0.00000E+00
    0.00000E+00         0.00000E+00         0.00000E+00
 
    0.81994E+06         0.16152E+07         0.00000E+00
    0.16152E+07        -0.13382E+08         0.00000E+00
    0.00000E+00         0.00000E+00         0.00000E+00
 
    0.78617E+06         0.17126E+07         0.00000E+00
    0.17126E+07        -0.13388E+08         0.00000E+00
    0.00000E+00         0.00000E+00         0.00000E+00
 
    0.75349E+06         0.18108E+07         0.00000E+00
    0.18108E+07        -0.13394E+08         0.00000E+00
    0.00000E+00         0.00000E+00         0.00000E+00
 
    0.72184E+06         0.19098E+07         0.00000E+00
    0.19098E+07        -0.13400E+08         0.00000E+00
    0.00000E+00         0.00000E+00         0.00000E+00
 
    0.69117E+06         0.20097E+07         0.00000E+00
    0.20097E+07        -0.13405E+08         0.00000E+00
    0.00000E+00         0.00000E+00         0.00000E+00
 
    0.66142E+06         0.21105E+07         0.00000E+00
    0.21105E+07        -0.13411E+08         0.00000E+00
    0.00000E+00         0.00000E+00         0.00000E+00
 
    0.63255E+06         0.22122E+07         0.00000E+00
    0.22122E+07        -0.13416E+08         0.00000E+00
    0.00000E+00         0.00000E+00         0.00000E+00
 
    0.60449E+06         0.23149E+07         0.00000E+00
    0.23149E+07        -0.13422E+08         0.00000E+00
    0.00000E+00         0.00000E+00         0.00000E+00
 
    0.57719E+06         0.24185E+07         0.00000E+00
    0.24185E+07        -0.13427E+08         0.00000E+00
    0.00000E+00         0.00000E+00         0.00000E+00
 
    0.55059E+06         0.25231E+07         0.00000E+00
    0.25231E+07        -0.13431E+08         0.00000E+00
    0.00000E+00         0.00000E+00         0.00000E+00
 
    0.52465E+06         0.26288E+07         0.00000E+00
    0.26288E+07        -0.13436E+08         0.00000E+00
    0.00000E+00         0.00000E+00         0.00000E+00
 
    0.49931E+06         0.27355E+07         0.00000E+00
    0.27355E+07        -0.13440E+08         0.00000E+00
    0.00000E+00         0.00000E+00         0.00000E+00
 
    0.47451E+06         0.28433E+07         0.00000E+00
    0.28433E+07        -0.13444E+08         0.00000E+00
    0.00000E+00         0.00000E+00         0.00000E+00
 
    0.45021E+06         0.29521E+07         0.00000E+00
    0.29521E+07        -0.13447E+08         0.00000E+00
    0.00000E+00         0.00000E+00         0.00000E+00
 
    0.42633E+06         0.30620E+07         0.00000E+00
    0.30620E+07        -0.13450E+08         0.00000E+00
    0.00000E+00         0.00000E+00         0.00000E+00
 
    0.40285E+06         0.31731E+07         0.00000E+00
    0.31731E+07        -0.13452E+08         0.00000E+00
    0.00000E+00         0.00000E+00         0.00000E+00
 
    0.37969E+06         0.32852E+07         0.00000E+00
    0.32852E+07        -0.13454E+08         0.00000E+00
    0.00000E+00         0.00000E+00         0.00000E+00
 
    0.35681E+06         0.33985E+07         0.00000E+00
    0.33985E+07        -0.13455E+08         0.00000E+00
    0.00000E+00         0.00000E+00         0.00000E+00
 
    0.33416E+06         0.35130E+07         0.00000E+00
    0.35130E+07        -0.13456E+08         0.00000E+00
    0.00000E+00         0.00000E+00         0.00000E+00
 
    0.31168E+06         0.36286E+07         0.00000E+00
    0.36286E+07        -0.13456E+08         0.00000E+00
    0.00000E+00         0.00000E+00         0.00000E+00
 
    0.28932E+06         0.37454E+07         0.00000E+00
    0.37454E+07        -0.13455E+08         0.00000E+00
    0.00000E+00         0.00000E+00         0.00000E+00
 
    0.26704E+06         0.38634E+07         0.00000E+00
    0.38634E+07        -0.13454E+08         0.00000E+00
    0.00000E+00         0.00000E+00         0.00000E+00
 
    0.24477E+06         0.39825E+07         0.00000E+00
    0.39825E+07        -0.13452E+08         0.00000E+00
    0.00000E+00         0.00000E+00         0.00000E+00
 
    0.22248E+06         0.41029E+07         0.00000E+00
    0.41029E+07        -0.13449E+08         0.00000E+00
    0.00000E+00         0.00000E+00         0.00000E+00
 
    0.20011E+06         0.42245E+07         0.00000E+00
    0.42245E+07        -0.13445E+08         0.00000E+00
    0.00000E+00         0.00000E+00         0.00000E+00
 
    0.17761E+06         0.43473E+07         0.00000E+00
    0.43473E+07        -0.13440E+08         0.00000E+00
    0.00000E+00         0.00000E+00         0.00000E+00
 
    0.15494E+06         0.44713E+07         0.00000E+00
    0.44713E+07        -0.13435E+08         0.00000E+00
    0.00000E+00         0.00000E+00         0.00000E+00
 
    0.13204E+06         0.45965E+07         0.00000E+00
    0.45965E+07        -0.13429E+08         0.00000E+00
    0.00000E+00         0.00000E+00         0.00000E+00
 
    0.10886E+06         0.47230E+07         0.00000E+00
    0.47230E+07        -0.13421E+08         0.00000E+00
    0.00000E+00         0.00000E+00         0.00000E+00
 
    0.85369E+05         0.48508E+07         0.00000E+00
    0.48508E+07        -0.13413E+08         0.00000E+00
    0.00000E+00         0.00000E+00         0.00000E+00
 
    0.61507E+05         0.49797E+07         0.00000E+00
    0.49797E+07        -0.13404E+08         0.00000E+00
    0.00000E+00         0.00000E+00         0.00000E+00
 
    0.37230E+05         0.51100E+07         0.00000E+00
    0.51100E+07        -0.13393E+08         0.00000E+00
    0.00000E+00         0.00000E+00         0.00000E+00
 
    0.12491E+05         0.52415E+07         0.00000E+00
    0.52415E+07        -0.13382E+08         0.00000E+00
    0.00000E+00         0.00000E+00         0.00000E+00
 
    0.13793E+07         0.43696E+05         0.00000E+00
    0.43696E+05        -0.13991E+08         0.00000E+00
    0.00000E+00         0.00000E+00         0.00000E+00
 
    0.13195E+07         0.13118E+06         0.00000E+00
    0.13118E+06        -0.13992E+08         0.00000E+00
    0.00000E+00         0.00000E+00         0.00000E+00
 
    0.12619E+07         0.21879E+06         0.00000E+00
    0.21879E+06        -0.13994E+08         0.00000E+00
    0.00000E+00         0.00000E+00         0.00000E+00
 
    0.12065E+07         0.30659E+06         0.00000E+00
    0.30659E+06        -0.13996E+08         0.00000E+00
    0.00000E+00         0.00000E+00         0.00000E+00
 
    0.11532E+07         0.39465E+06         0.00000E+00
    0.39465E+06        -0.13999E+08         0.00000E+00
    0.00000E+00         0.00000E+00         0.00000E+00
 
    0.11019E+07         0.48303E+06         0.00000E+00
    0.48303E+06        -0.14002E+08         0.00000E+00
    0.00000E+00         0.00000E+00         0.00000E+00
 
    0.10527E+07         0.57179E+06         0.00000E+00
    0.57179E+06        -0.14006E+08         0.00000E+00
    0.00000E+00         0.00000E+00         0.00000E+00
 
    0.10055E+07         0.66098E+06         0.00000E+00
    0.66098E+06        -0.14011E+08         0.00000E+00
    0.00000E+00         0.00000E+00         0.00000E+00
 
    0.96018E+06         0.75067E+06         0.00000E+00
    0.75067E+06        -0.14016E+08         0.00000E+00
    0.00000E+00         0.00000E+00         0.00000E+00
 
    0.91672E+06         0.84090E+06         0.00000E+00
    0.84090E+06        -0.14022E+08         0.00000E+00
    0.00000E+00         0.00000E+00         0.00000E+00
 
    0.87504E+06         0.93174E+06         0.00000E+00
    0.93174E+06        -0.14028E+08         0.00000E+00
    0.00000E+00         0.00000E+00         0.00000E+00
 
    0.83511E+06         0.10232E+07         0.00000E+00
    0.10232E+07        -0.14034E+08         0.00000E+00
    0.00000E+00         0.00000E+00         0.00000E+00
 
    0.79686E+06         0.11154E+07         0.00000E+00
    0.11154E+07        -0.14041E+08         0.00000E+00
    0.00000E+00         0.00000E+00         0.00000E+00
 
    0.76023E+06         0.12083E+07         0.00000E+00
    0.12083E+07        -0.14048E+08         0.00000E+00
    0.00000E+00         0.00000E+00         0.00000E+00
 
    0.72516E+06         0.13020E+07         0.00000E+00
    0.13020E+07        -0.14056E+08         0.00000E+00
    0.00000E+00         0.00000E+00         0.00000E+00
 
    0.69159E+06         0.13966E+07         0.00000E+00
    0.13966E+07        -0.14063E+08         0.00000E+00
    0.00000E+00         0.00000E+00         0.00000E+00
 
    0.65945E+06         0.14920E+07         0.00000E+00
    0.14920E+07        -0.14071E+08         0.00000E+00
    0.00000E+00         0.00000E+00         0.00000E+00
 
    0.62870E+06         0.15883E+07         0.00000E+00
    0.15883E+07        -0.14079E+08         0.00000E+00
    0.00000E+00         0.00000E+00         0.00000E+00
 
    0.59925E+06         0.16855E+07         0.00000E+00
    0.16855E+07        -0.14087E+08         0.00000E+00
    0.00000E+00         0.00000E+00         0.00000E+00
 
    0.57106E+06         0.17837E+07         0.00000E+00
    0.17837E+07        -0.14096E+08         0.00000E+00
    0.00000E+00         0.00000E+00         0.00000E+00
 
    0.54406E+06         0.18830E+07         0.00000E+00
    0.18830E+07        -0.14104E+08         0.00000E+00
    0.00000E+00         0.00000E+00         0.00000E+00
 
    0.51819E+06         0.19832E+07         0.00000E+00
    0.19832E+07        -0.14112E+08         0.00000E+00
    0.00000E+00         0.00000E+00         0.00000E+00
 
    0.49338E+06         0.20846E+07         0.00000E+00
    0.20846E+07        -0.14120E+08         0.00000E+00
    0.00000E+00         0.00000E+00         0.00000E+00
 
    0.46958E+06         0.21870E+07         0.00000E+00
    0.21870E+07        -0.14128E+08         0.00000E+00
    0.00000E+00         0.00000E+00         0.00000E+00
 
    0.44672E+06         0.22906E+07         0.00000E+00
    0.22906E+07        -0.14136E+08         0.00000E+00
    0.00000E+00         0.00000E+00         0.00000E+00
 
    0.42474E+06         0.23953E+07         0.00000E+00
    0.23953E+07        -0.14144E+08         0.00000E+00
    0.00000E+00         0.00000E+00         0.00000E+00
 
    0.40357E+06         0.25012E+07         0.00000E+00
    0.25012E+07        -0.14152E+08         0.00000E+00
    0.00000E+00         0.00000E+00         0.00000E+00
 
    0.38317E+06         0.26082E+07         0.00000E+00
    0.26082E+07        -0.14159E+08         0.00000E+00
    0.00000E+00         0.00000E+00         0.00000E+00
 
    0.36346E+06         0.27165E+07         0.00000E+00
    0.27165E+07        -0.14166E+08         0.00000E+00
    0.00000E+00         0.00000E+00         0.00000E+00
 
    0.34439E+06         0.28260E+07         0.00000E+00
    0.28260E+07        -0.14173E+08         0.00000E+00
    0.00000E+00         0.00000E+00         0.00000E+00
 
    0.32590E+06         0.29367E+07         0.00000E+00
    0.29367E+07        -0.14179E+08         0.00000E+00
    0.00000E+00         0.00000E+00         0.00000E+00
 
    0.30793E+06         0.30488E+07         0.00000E+00
    0.30488E+07        -0.14185E+08         0.00000E+00
    0.00000E+00         0.00000E+00         0.00000E+00
 
    0.29041E+06         0.31621E+07         0.00000E+00
    0.31621E+07        -0.14190E+08         0.00000E+00
    0.00000E+00         0.00000E+00         0.00000E+00
 
    0.27330E+06         0.32766E+07         0.00000E+00
    0.32766E+07        -0.14195E+08         0.00000E+00
    0.00000E+00         0.00000E+00         0.00000E+00
 
    0.25653E+06         0.33925E+07         0.00000E+00
    0.33925E+07        -0.14199E+08         0.00000E+00
    0.00000E+00         0.00000E+00         0.00000E+00
 
    0.24005E+06         0.35097E+07         0.00000E+00
    0.35097E+07        -0.14203E+08         0.00000E+00
    0.00000E+00         0.00000E+00         0.00000E+00
 
    0.22379E+06         0.36283E+07         0.00000E+00
    0.36283E+07        -0.14206E+08         0.00000E+00
    0.00000E+00         0.00000E+00         0.00000E+00
 
    0.20772E+06         0.37481E+07         0.00000E+00
    0.37481E+07        -0.14209E+08         0.00000E+00
    0.00000E+00         0.00000E+00         0.00000E+00
 
    0.19176E+06         0.38694E+07         0.00000E+00
    0.38694E+07        -0.14211E+08         0.00000E+00
    0.00000E+00         0.00000E+00         0.00000E+00
 
    0.17587E+06         0.39919E+07         0.00000E+00
    0.39919E+07        -0.14212E+08         0.00000E+00
    0.00000E+00         0.00000E+00         0.00000E+00
 
    0.15999E+06         0.41159E+07         0.00000E+00
    0.41159E+07        -0.14212E+08         0.00000E+00
    0.00000E+00         0.00000E+00         0.00000E+00
 
    0.14408E+06         0.42412E+07         0.00000E+00
    0.42412E+07        -0.14212E+08         0.00000E+00
    0.00000E+00         0.00000E+00         0.00000E+00
 
    0.12807E+06         0.43679E+07         0.00000E+00
    0.43679E+07        -0.14211E+08         0.00000E+00
    0.00000E+00         0.00000E+00         0.00000E+00
 
    0.11191E+06         0.44959E+07         0.00000E+00
    0.44959E+07        -0.14208E+08         0.00000E+00
    0.00000E+00         0.00000E+00         0.00000E+00
 
    0.95560E+05         0.46254E+07         0.00000E+00
    0.46254E+07        -0.14205E+08         0.00000E+00
    0.00000E+00         0.00000E+00         0.00000E+00
 
    0.78965E+05         0.47562E+07         0.00000E+00
    0.47562E+07        -0.14201E+08         0.00000E+00
    0.00000E+00         0.00000E+00         0.00000E+00
 
    0.62075E+05         0.48885E+07         0.00000E+00
    0.48885E+07        -0.14196E+08         0.00000E+00
    0.00000E+00         0.00000E+00         0.00000E+00
 
    0.44841E+05         0.50221E+07         0.00000E+00
    0.50221E+07        -0.14190E+08         0.00000E+00
    0.00000E+00         0.00000E+00         0.00000E+00
 
    0.27215E+05         0.51572E+07         0.00000E+00
    0.51572E+07        -0.14183E+08         0.00000E+00
    0.00000E+00         0.00000E+00         0.00000E+00
 
    0.91490E+04         0.52937E+07         0.00000E+00
    0.52937E+07        -0.14175E+08         0.00000E+00
    0.00000E+00         0.00000E+00         0.00000E+00
 
    0.11066E+07         0.41809E+05         0.00000E+00
    0.41809E+05        -0.14693E+08         0.00000E+00
    0.00000E+00         0.00000E+00         0.00000E+00
 
    0.10475E+07         0.12586E+06         0.00000E+00
    0.12586E+06        -0.14694E+08         0.00000E+00
    0.00000E+00         0.00000E+00         0.00000E+00
 
    0.99104E+06         0.21018E+06         0.00000E+00
    0.21018E+06        -0.14696E+08         0.00000E+00
    0.00000E+00         0.00000E+00         0.00000E+00
 
    0.93708E+06         0.29483E+06         0.00000E+00
    0.29483E+06        -0.14699E+08         0.00000E+00
    0.00000E+00         0.00000E+00         0.00000E+00
 
    0.88557E+06         0.37988E+06         0.00000E+00
    0.37988E+06        -0.14702E+08         0.00000E+00
    0.00000E+00         0.00000E+00         0.00000E+00
 
    0.83646E+06         0.46540E+06         0.00000E+00
    0.46540E+06        -0.14707E+08         0.00000E+00
    0.00000E+00         0.00000E+00         0.00000E+00
 
    0.78967E+06         0.55146E+06         0.00000E+00
    0.55146E+06        -0.14712E+08         0.00000E+00
    0.00000E+00         0.00000E+00         0.00000E+00
 
    0.74514E+06         0.63812E+06         0.00000E+00
    0.63812E+06        -0.14718E+08         0.00000E+00
    0.00000E+00         0.00000E+00         0.00000E+00
 
    0.70280E+06         0.72544E+06         0.00000E+00
    0.72544E+06        -0.14724E+08         0.00000E+00
    0.00000E+00         0.00000E+00         0.00000E+00
 
    0.66260E+06         0.81347E+06         0.00000E+00
    0.81347E+06        -0.14731E+08         0.00000E+00
    0.00000E+00         0.00000E+00         0.00000E+00
 
    0.62445E+06         0.90228E+06         0.00000E+00
    0.90228E+06        -0.14739E+08         0.00000E+00
    0.00000E+00         0.00000E+00         0.00000E+00
 
    0.58830E+06         0.99191E+06         0.00000E+00
    0.99191E+06        -0.14747E+08         0.00000E+00
    0.00000E+00         0.00000E+00         0.00000E+00
 
    0.55406E+06         0.10824E+07         0.00000E+00
    0.10824E+07        -0.14756E+08         0.00000E+00
    0.00000E+00         0.00000E+00         0.00000E+00
 
    0.52167E+06         0.11738E+07         0.00000E+00
    0.11738E+07        -0.14765E+08         0.00000E+00
    0.00000E+00         0.00000E+00         0.00000E+00
 
    0.49107E+06         0.12662E+07         0.00000E+00
    0.12662E+07        -0.14775E+08         0.00000E+00
    0.00000E+00         0.00000E+00         0.00000E+00
 
    0.46217E+06         0.13597E+07         0.00000E+00
    0.13597E+07        -0.14785E+08         0.00000E+00
    0.00000E+00         0.00000E+00         0.00000E+00
 
    0.43491E+06         0.14541E+07         0.00000E+00
    0.14541E+07        -0.14795E+08         0.00000E+00
    0.00000E+00         0.00000E+00         0.00000E+00
 
    0.40921E+06         0.15497E+07         0.00000E+00
    0.15497E+07        -0.14805E+08         0.00000E+00
    0.00000E+00         0.00000E+00         0.00000E+00
 
    0.38501E+06         0.16464E+07         0.00000E+00
    0.16464E+07        -0.14816E+08         0.00000E+00
    0.00000E+00         0.00000E+00         0.00000E+00
 
    0.36222E+06         0.17442E+07         0.00000E+00
    0.17442E+07        -0.14827E+08         0.00000E+00
    0.00000E+00         0.00000E+00         0.00000E+00
 
    0.34079E+06         0.18433E+07         0.00000E+00
    0.18433E+07        -0.14837E+08         0.00000E+00
    0.00000E+00         0.00000E+00         0.00000E+00
 
    0.32064E+06         0.19436E+07         0.00000E+00
    0.19436E+07        -0.14848E+08         0.00000E+00
    0.00000E+00         0.00000E+00         0.00000E+00
 
    0.30169E+06         0.20451E+07         0.00000E+00
    0.20451E+07        -0.14859E+08         0.00000E+00
    0.00000E+00         0.00000E+00         0.00000E+00
 
    0.28389E+06         0.21480E+07         0.00000E+00
    0.21480E+07        -0.14870E+08         0.00000E+00
    0.00000E+00         0.00000E+00         0.00000E+00
 
    0.26715E+06         0.22521E+07         0.00000E+00
    0.22521E+07        -0.14881E+08         0.00000E+00
    0.00000E+00         0.00000E+00         0.00000E+00
 
    0.25141E+06         0.23576E+07         0.00000E+00
    0.23576E+07        -0.14892E+08         0.00000E+00
    0.00000E+00         0.00000E+00         0.00000E+00
 
    0.23660E+06         0.24644E+07         0.00000E+00
    0.24644E+07        -0.14903E+08         0.00000E+00
    0.00000E+00         0.00000E+00         0.00000E+00
 
    0.22265E+06         0.25726E+07         0.00000E+00
    0.25726E+07        -0.14913E+08         0.00000E+00
    0.00000E+00         0.00000E+00         0.00000E+00
 
    0.20949E+06         0.26823E+07         0.00000E+00
    0.26823E+07        -0.14923E+08         0.00000E+00
    0.00000E+00         0.00000E+00         0.00000E+00
 
    0.19706E+06         0.27933E+07         0.00000E+00
    0.27933E+07        -0.14933E+08         0.00000E+00
    0.00000E+00         0.00000E+00         0.00000E+00
 
    0.18529E+06         0.29057E+07         0.00000E+00
    0.29057E+07        -0.14943E+08         0.00000E+00
    0.00000E+00         0.00000E+00         0.00000E+00
 
    0.17411E+06         0.30196E+07         0.00000E+00
    0.30196E+07        -0.14952E+08         0.00000E+00
    0.00000E+00         0.00000E+00         0.00000E+00
 
    0.16346E+06         0.31350E+07         0.00000E+00
    0.31350E+07        -0.14961E+08         0.00000E+00
    0.00000E+00         0.00000E+00         0.00000E+00
 
    0.15328E+06         0.32518E+07         0.00000E+00
    0.32518E+07        -0.14969E+08         0.00000E+00
    0.00000E+00         0.00000E+00         0.00000E+00
 
    0.14350E+06         0.33702E+07         0.00000E+00
    0.33702E+07        -0.14977E+08         0.00000E+00
    0.00000E+00         0.00000E+00         0.00000E+00
 
    0.13406E+06         0.34900E+07         0.00000E+00
    0.34900E+07        -0.14984E+08         0.00000E+00
    0.00000E+00         0.00000E+00         0.00000E+00
 
    0.12490E+06         0.36113E+07         0.00000E+00
    0.36113E+07        -0.14991E+08         0.00000E+00
    0.00000E+00         0.00000E+00         0.00000E+00
 
    0.11596E+06         0.37341E+07         0.00000E+00
    0.37341E+07        -0.14997E+08         0.00000E+00
    0.00000E+00         0.00000E+00         0.00000E+00
 
    0.10719E+06         0.38585E+07         0.00000E+00
    0.38585E+07        -0.15002E+08         0.00000E+00
    0.00000E+00         0.00000E+00         0.00000E+00
 
    0.98513E+05         0.39844E+07         0.00000E+00
    0.39844E+07        -0.15007E+08         0.00000E+00
    0.00000E+00         0.00000E+00         0.00000E+00
 
    0.89886E+05         0.41118E+07         0.00000E+00
    0.41118E+07        -0.15011E+08         0.00000E+00
    0.00000E+00         0.00000E+00         0.00000E+00
 
    0.81250E+05         0.42407E+07         0.00000E+00
    0.42407E+07        -0.15014E+08         0.00000E+00
    0.00000E+00         0.00000E+00         0.00000E+00
 
    0.72549E+05         0.43712E+07         0.00000E+00
    0.43712E+07        -0.15016E+08         0.00000E+00
    0.00000E+00         0.00000E+00         0.00000E+00
 
    0.63729E+05         0.45032E+07         0.00000E+00
    0.45032E+07        -0.15018E+08         0.00000E+00
    0.00000E+00         0.00000E+00         0.00000E+00
 
    0.54737E+05         0.46368E+07         0.00000E+00
    0.46368E+07        -0.15018E+08         0.00000E+00
    0.00000E+00         0.00000E+00         0.00000E+00
 
    0.45522E+05         0.47720E+07         0.00000E+00
    0.47720E+07        -0.15018E+08         0.00000E+00
    0.00000E+00         0.00000E+00         0.00000E+00
 
    0.36033E+05         0.49087E+07         0.00000E+00
    0.49087E+07        -0.15017E+08         0.00000E+00
    0.00000E+00         0.00000E+00         0.00000E+00
 
    0.26218E+05         0.50469E+07         0.00000E+00
    0.50469E+07        -0.15014E+08         0.00000E+00
    0.00000E+00         0.00000E+00         0.00000E+00
 
    0.16029E+05         0.51868E+07         0.00000E+00
    0.51868E+07        -0.15011E+08         0.00000E+00
    0.00000E+00         0.00000E+00         0.00000E+00
 
    0.54174E+04         0.53282E+07         0.00000E+00
    0.53282E+07        -0.15007E+08         0.00000E+00
    0.00000E+00         0.00000E+00         0.00000E+00
 
    0.78780E+06         0.39397E+05         0.00000E+00
    0.39397E+05        -0.15421E+08         0.00000E+00
    0.00000E+00         0.00000E+00         0.00000E+00
 
    0.73026E+06         0.11906E+06         0.00000E+00
    0.11906E+06        -0.15422E+08         0.00000E+00
    0.00000E+00         0.00000E+00         0.00000E+00
 
    0.67568E+06         0.19914E+06         0.00000E+00
    0.19914E+06        -0.15424E+08         0.00000E+00
    0.00000E+00         0.00000E+00         0.00000E+00
 
    0.62399E+06         0.27973E+06         0.00000E+00
    0.27973E+06        -0.15428E+08         0.00000E+00
    0.00000E+00         0.00000E+00         0.00000E+00
 
    0.57510E+06         0.36090E+06         0.00000E+00
    0.36090E+06        -0.15432E+08         0.00000E+00
    0.00000E+00         0.00000E+00         0.00000E+00
 
    0.52895E+06         0.44273E+06         0.00000E+00
    0.44273E+06        -0.15438E+08         0.00000E+00
    0.00000E+00         0.00000E+00         0.00000E+00
 
    0.48546E+06         0.52528E+06         0.00000E+00
    0.52528E+06        -0.15444E+08         0.00000E+00
    0.00000E+00         0.00000E+00         0.00000E+00
 
    0.44455E+06         0.60862E+06         0.00000E+00
    0.60862E+06        -0.15451E+08         0.00000E+00
    0.00000E+00         0.00000E+00         0.00000E+00
 
    0.40614E+06         0.69282E+06         0.00000E+00
    0.69282E+06        -0.15459E+08         0.00000E+00
    0.00000E+00         0.00000E+00         0.00000E+00
 
    0.37014E+06         0.77794E+06         0.00000E+00
    0.77794E+06        -0.15468E+08         0.00000E+00
    0.00000E+00         0.00000E+00         0.00000E+00
 
    0.33649E+06         0.86403E+06         0.00000E+00
    0.86403E+06        -0.15477E+08         0.00000E+00
    0.00000E+00         0.00000E+00         0.00000E+00
 
    0.30509E+06         0.95115E+06         0.00000E+00
    0.95115E+06        -0.15487E+08         0.00000E+00
    0.00000E+00         0.00000E+00         0.00000E+00
 
    0.27586E+06         0.10394E+07         0.00000E+00
    0.10394E+07        -0.15498E+08         0.00000E+00
    0.00000E+00         0.00000E+00         0.00000E+00
 
    0.24873E+06         0.11287E+07         0.00000E+00
    0.11287E+07        -0.15509E+08         0.00000E+00
    0.00000E+00         0.00000E+00         0.00000E+00
 
    0.22360E+06         0.12192E+07         0.00000E+00
    0.12192E+07        -0.15521E+08         0.00000E+00
    0.00000E+00         0.00000E+00         0.00000E+00
 
    0.20039E+06         0.13110E+07         0.00000E+00
    0.13110E+07        -0.15534E+08         0.00000E+00
    0.00000E+00         0.00000E+00         0.00000E+00
 
    0.17903E+06         0.14040E+07         0.00000E+00
    0.14040E+07        -0.15546E+08         0.00000E+00
    0.00000E+00         0.00000E+00         0.00000E+00
 
    0.15943E+06         0.14983E+07         0.00000E+00
    0.14983E+07        -0.15559E+08         0.00000E+00
    0.00000E+00         0.00000E+00         0.00000E+00
 
    0.14150E+06         0.15940E+07         0.00000E+00
    0.15940E+07        -0.15573E+08         0.00000E+00
    0.00000E+00         0.00000E+00         0.00000E+00
 
    0.12516E+06         0.16910E+07         0.00000E+00
    0.16910E+07        -0.15586E+08         0.00000E+00
    0.00000E+00         0.00000E+00         0.00000E+00
 
    0.11034E+06         0.17895E+07         0.00000E+00
    0.17895E+07        -0.15600E+08         0.00000E+00
    0.00000E+00         0.00000E+00         0.00000E+00
 
    0.96940E+05         0.18894E+07         0.00000E+00
    0.18894E+07        -0.15614E+08         0.00000E+00
    0.00000E+00         0.00000E+00         0.00000E+00
 
    0.84893E+05         0.19908E+07         0.00000E+00
    0.19908E+07        -0.15628E+08         0.00000E+00
    0.00000E+00         0.00000E+00         0.00000E+00
 
    0.74114E+05         0.20936E+07         0.00000E+00
    0.20936E+07        -0.15642E+08         0.00000E+00
    0.00000E+00         0.00000E+00         0.00000E+00
 
    0.64524E+05         0.21980E+07         0.00000E+00
    0.21980E+07        -0.15656E+08         0.00000E+00
    0.00000E+00         0.00000E+00         0.00000E+00
 
    0.56045E+05         0.23040E+07         0.00000E+00
    0.23040E+07        -0.15670E+08         0.00000E+00
    0.00000E+00         0.00000E+00         0.00000E+00
 
    0.48600E+05         0.24115E+07         0.00000E+00
    0.24115E+07        -0.15684E+08         0.00000E+00
    0.00000E+00         0.00000E+00         0.00000E+00
 
    0.42110E+05         0.25206E+07         0.00000E+00
    0.25206E+07        -0.15698E+08         0.00000E+00
    0.00000E+00         0.00000E+00         0.00000E+00
 
    0.36502E+05         0.26313E+07         0.00000E+00
    0.26313E+07        -0.15712E+08         0.00000E+00
    0.00000E+00         0.00000E+00         0.00000E+00
 
    0.31699E+05         0.27436E+07         0.00000E+00
    0.27436E+07        -0.15725E+08         0.00000E+00
    0.00000E+00         0.00000E+00         0.00000E+00
 
    0.27630E+05         0.28575E+07         0.00000E+00
    0.28575E+07        -0.15738E+08         0.00000E+00
    0.00000E+00         0.00000E+00         0.00000E+00
 
    0.24222E+05         0.29731E+07         0.00000E+00
    0.29731E+07        -0.15751E+08         0.00000E+00
    0.00000E+00         0.00000E+00         0.00000E+00
 
    0.21403E+05         0.30904E+07         0.00000E+00
    0.30904E+07        -0.15764E+08         0.00000E+00
    0.00000E+00         0.00000E+00         0.00000E+00
 
    0.19105E+05         0.32093E+07         0.00000E+00
    0.32093E+07        -0.15775E+08         0.00000E+00
    0.00000E+00         0.00000E+00         0.00000E+00
 
    0.17257E+05         0.33299E+07         0.00000E+00
    0.33299E+07        -0.15787E+08         0.00000E+00
    0.00000E+00         0.00000E+00         0.00000E+00
 
    0.15795E+05         0.34521E+07         0.00000E+00
    0.34521E+07        -0.15798E+08         0.00000E+00
    0.00000E+00         0.00000E+00         0.00000E+00
 
    0.14651E+05         0.35761E+07         0.00000E+00
    0.35761E+07        -0.15808E+08         0.00000E+00
    0.00000E+00         0.00000E+00         0.00000E+00
 
    0.13761E+05         0.37017E+07         0.00000E+00
    0.37017E+07        -0.15818E+08         0.00000E+00
    0.00000E+00         0.00000E+00         0.00000E+00
 
    0.13062E+05         0.38291E+07         0.00000E+00
    0.38291E+07        -0.15828E+08         0.00000E+00
    0.00000E+00         0.00000E+00         0.00000E+00
 
    0.12492E+05         0.39581E+07         0.00000E+00
    0.39581E+07        -0.15836E+08         0.00000E+00
    0.00000E+00         0.00000E+00         0.00000E+00
 
    0.11991E+05         0.40889E+07         0.00000E+00
    0.40889E+07        -0.15844E+08         0.00000E+00
    0.00000E+00         0.00000E+00         0.00000E+00
 
    0.11499E+05         0.42214E+07         0.00000E+00
    0.42214E+07        -0.15851E+08         0.00000E+00
    0.00000E+00         0.00000E+00         0.00000E+00
 
    0.10960E+05         0.43556E+07         0.00000E+00
    0.43556E+07        -0.15857E+08         0.00000E+00
    0.00000E+00         0.00000E+00         0.00000E+00
 
    0.10317E+05         0.44915E+07         0.00000E+00
    0.44915E+07        -0.15863E+08         0.00000E+00
    0.00000E+00         0.00000E+00         0.00000E+00
 
    0.95150E+04         0.46291E+07         0.00000E+00
    0.46291E+07        -0.15867E+08         0.00000E+00
    0.00000E+00         0.00000E+00         0.00000E+00
 
    0.85006E+04         0.47685E+07         0.00000E+00
    0.47685E+07        -0.15871E+08         0.00000E+00
    0.00000E+00         0.00000E+00         0.00000E+00
 
    0.72217E+04         0.49095E+07         0.00000E+00
    0.49095E+07        -0.15874E+08         0.00000E+00
    0.00000E+00         0.00000E+00         0.00000E+00
 
    0.56273E+04         0.50523E+07         0.00000E+00
    0.50523E+07        -0.15875E+08         0.00000E+00
    0.00000E+00         0.00000E+00         0.00000E+00
 
    0.36681E+04         0.51968E+07         0.00000E+00
    0.51968E+07        -0.15876E+08         0.00000E+00
    0.00000E+00         0.00000E+00         0.00000E+00
 
    0.12955E+04         0.53431E+07         0.00000E+00
    0.53431E+07        -0.15876E+08         0.00000E+00
    0.00000E+00         0.00000E+00         0.00000E+00
 
    0.41826E+06         0.36394E+05         0.00000E+00
    0.36394E+05        -0.16174E+08         0.00000E+00
    0.00000E+00         0.00000E+00         0.00000E+00
 
    0.36313E+06         0.11058E+06         0.00000E+00
    0.11058E+06        -0.16176E+08         0.00000E+00
    0.00000E+00         0.00000E+00         0.00000E+00
 
    0.31138E+06         0.18539E+06         0.00000E+00
    0.18539E+06        -0.16179E+08         0.00000E+00
    0.00000E+00         0.00000E+00         0.00000E+00
 
    0.26292E+06         0.26092E+06         0.00000E+00
    0.26092E+06        -0.16183E+08         0.00000E+00
    0.00000E+00         0.00000E+00         0.00000E+00
 
    0.21766E+06         0.33724E+06         0.00000E+00
    0.33724E+06        -0.16188E+08         0.00000E+00
    0.00000E+00         0.00000E+00         0.00000E+00
 
    0.17551E+06         0.41444E+06         0.00000E+00
    0.41444E+06        -0.16194E+08         0.00000E+00
    0.00000E+00         0.00000E+00         0.00000E+00
 
    0.13637E+06         0.49259E+06         0.00000E+00
    0.49259E+06        -0.16202E+08         0.00000E+00
    0.00000E+00         0.00000E+00         0.00000E+00
 
    0.10016E+06         0.57176E+06         0.00000E+00
    0.57176E+06        -0.16211E+08         0.00000E+00
    0.00000E+00         0.00000E+00         0.00000E+00
 
    0.66765E+05         0.65202E+06         0.00000E+00
    0.65202E+06        -0.16220E+08         0.00000E+00
    0.00000E+00         0.00000E+00         0.00000E+00
 
    0.36101E+05         0.73343E+06         0.00000E+00
    0.73343E+06        -0.16231E+08         0.00000E+00
    0.00000E+00         0.00000E+00         0.00000E+00
 
    0.80675E+04         0.81606E+06         0.00000E+00
    0.81606E+06        -0.16242E+08         0.00000E+00
    0.00000E+00         0.00000E+00         0.00000E+00
 
   -0.17432E+05         0.89995E+06         0.00000E+00
    0.89995E+06        -0.16254E+08         0.00000E+00
    0.00000E+00         0.00000E+00         0.00000E+00
 
   -0.40495E+05         0.98518E+06         0.00000E+00
    0.98518E+06        -0.16267E+08         0.00000E+00
    0.00000E+00         0.00000E+00         0.00000E+00
 
   -0.61220E+05         0.10718E+07         0.00000E+00
    0.10718E+07        -0.16281E+08         0.00000E+00
    0.00000E+00         0.00000E+00         0.00000E+00
 
   -0.79703E+05         0.11598E+07         0.00000E+00
    0.11598E+07        -0.16295E+08         0.00000E+00
    0.00000E+00         0.00000E+00         0.00000E+00
 
   -0.96041E+05         0.12493E+07         0.00000E+00
    0.12493E+07        -0.16310E+08         0.00000E+00
    0.00000E+00         0.00000E+00         0.00000E+00
 
   -0.11033E+06         0.13403E+07         0.00000E+00
    0.13403E+07        -0.16326E+08         0.00000E+00
    0.00000E+00         0.00000E+00         0.00000E+00
 
   -0.12267E+06         0.14329E+07         0.00000E+00
    0.14329E+07        -0.16342E+08         0.00000E+00
    0.00000E+00         0.00000E+00         0.00000E+00
 
   -0.13316E+06         0.15270E+07         0.00000E+00
    0.15270E+07        -0.16358E+08         0.00000E+00
    0.00000E+00         0.00000E+00         0.00000E+00
 
   -0.14188E+06         0.16228E+07         0.00000E+00
    0.16228E+07        -0.16375E+08         0.00000E+00
    0.00000E+00         0.00000E+00         0.00000E+00
 
   -0.14893E+06         0.17202E+07         0.00000E+00
    0.17202E+07        -0.16391E+08         0.00000E+00
    0.00000E+00         0.00000E+00         0.00000E+00
 
   -0.15441E+06         0.18193E+07         0.00000E+00
    0.18193E+07        -0.16409E+08         0.00000E+00
    0.00000E+00         0.00000E+00         0.00000E+00
 
   -0.15841E+06         0.19201E+07         0.00000E+00
    0.19201E+07        -0.16426E+08         0.00000E+00
    0.00000E+00         0.00000E+00         0.00000E+00
 
   -0.16102E+06         0.20227E+07         0.00000E+00
    0.20227E+07        -0.16444E+08         0.00000E+00
    0.00000E+00         0.00000E+00         0.00000E+00
 
   -0.16233E+06         0.21270E+07         0.00000E+00
    0.21270E+07        -0.16461E+08         0.00000E+00
    0.00000E+00         0.00000E+00         0.00000E+00
 
   -0.16242E+06         0.22331E+07         0.00000E+00
    0.22331E+07        -0.16479E+08         0.00000E+00
    0.00000E+00         0.00000E+00         0.00000E+00
 
   -0.16139E+06         0.23409E+07         0.00000E+00
    0.23409E+07        -0.16496E+08         0.00000E+00
    0.00000E+00         0.00000E+00         0.00000E+00
 
   -0.15931E+06         0.24506E+07         0.00000E+00
    0.24506E+07        -0.16514E+08         0.00000E+00
    0.00000E+00         0.00000E+00         0.00000E+00
 
   -0.15628E+06         0.25621E+07         0.00000E+00
    0.25621E+07        -0.16531E+08         0.00000E+00
    0.00000E+00         0.00000E+00         0.00000E+00
 
   -0.15238E+06         0.26755E+07         0.00000E+00
    0.26755E+07        -0.16548E+08         0.00000E+00
    0.00000E+00         0.00000E+00         0.00000E+00
 
   -0.14768E+06         0.27906E+07         0.00000E+00
    0.27906E+07        -0.16565E+08         0.00000E+00
    0.00000E+00         0.00000E+00         0.00000E+00
 
   -0.14227E+06         0.29077E+07         0.00000E+00
    0.29077E+07        -0.16582E+08         0.00000E+00
    0.00000E+00         0.00000E+00         0.00000E+00
 
   -0.13623E+06         0.30266E+07         0.00000E+00
    0.30266E+07        -0.16598E+08         0.00000E+00
    0.00000E+00         0.00000E+00         0.00000E+00
 
   -0.12962E+06         0.31474E+07         0.00000E+00
    0.31474E+07        -0.16614E+08         0.00000E+00
    0.00000E+00         0.00000E+00         0.00000E+00
 
   -0.12253E+06         0.32700E+07         0.00000E+00
    0.32700E+07        -0.16629E+08         0.00000E+00
    0.00000E+00         0.00000E+00         0.00000E+00
 
   -0.11503E+06         0.33946E+07         0.00000E+00
    0.33946E+07        -0.16644E+08         0.00000E+00
    0.00000E+00         0.00000E+00         0.00000E+00
 
   -0.10719E+06         0.35210E+07         0.00000E+00
    0.35210E+07        -0.16659E+08         0.00000E+00
    0.00000E+00         0.00000E+00         0.00000E+00
 
   -0.99076E+05         0.36493E+07         0.00000E+00
    0.36493E+07        -0.16673E+08         0.00000E+00
    0.00000E+00         0.00000E+00         0.00000E+00
 
   -0.90758E+05         0.37795E+07         0.00000E+00
    0.37795E+07        -0.16686E+08         0.00000E+00
    0.00000E+00         0.00000E+00         0.00000E+00
 
   -0.82301E+05         0.39116E+07         0.00000E+00
    0.39116E+07        -0.16699E+08         0.00000E+00
    0.00000E+00         0.00000E+00         0.00000E+00
 
   -0.73769E+05         0.40456E+07         0.00000E+00
    0.40456E+07        -0.16711E+08         0.00000E+00
    0.00000E+00         0.00000E+00         0.00000E+00
 
   -0.65223E+05         0.41815E+07         0.00000E+00
    0.41815E+07        -0.16722E+08         0.00000E+00
    0.00000E+00         0.00000E+00         0.00000E+00
 
   -0.56724E+05         0.43193E+07         0.00000E+00
    0.43193E+07        -0.16733E+08         0.00000E+00
    0.00000E+00         0.00000E+00         0.00000E+00
 
   -0.48331E+05         0.44589E+07         0.00000E+00
    0.44589E+07        -0.16743E+08         0.00000E+00
    0.00000E+00         0.00000E+00         0.00000E+00
 
   -0.40099E+05         0.46005E+07         0.00000E+00
    0.46005E+07        -0.16751E+08         0.00000E+00
    0.00000E+00         0.00000E+00         0.00000E+00
 
   -0.32083E+05         0.47439E+07         0.00000E+00
    0.47439E+07        -0.16759E+08         0.00000E+00
    0.00000E+00         0.00000E+00         0.00000E+00
 
   -0.24336E+05         0.48892E+07         0.00000E+00
    0.48892E+07        -0.16767E+08         0.00000E+00
    0.00000E+00         0.00000E+00         0.00000E+00
 
   -0.16909E+05         0.50364E+07         0.00000E+00
    0.50364E+07        -0.16773E+08         0.00000E+00
    0.00000E+00         0.00000E+00         0.00000E+00
 
   -0.98516E+04         0.51855E+07         0.00000E+00
    0.51855E+07        -0.16778E+08         0.00000E+00
    0.00000E+00         0.00000E+00         0.00000E+00
 
   -0.32105E+04         0.53365E+07         0.00000E+00
    0.53365E+07        -0.16782E+08         0.00000E+00
    0.00000E+00         0.00000E+00         0.00000E+00
 
   -0.72556E+04         0.32727E+05         0.00000E+00
    0.32727E+05        -0.16953E+08         0.00000E+00
    0.00000E+00         0.00000E+00         0.00000E+00
 
   -0.58867E+05         0.10023E+06         0.00000E+00
    0.10023E+06        -0.16955E+08         0.00000E+00
    0.00000E+00         0.00000E+00         0.00000E+00
 
   -0.10664E+06         0.16862E+06         0.00000E+00
    0.16862E+06        -0.16958E+08         0.00000E+00
    0.00000E+00         0.00000E+00         0.00000E+00
 
   -0.15068E+06         0.23798E+06         0.00000E+00
    0.23798E+06        -0.16963E+08         0.00000E+00
    0.00000E+00         0.00000E+00         0.00000E+00
 
   -0.19110E+06         0.30839E+06         0.00000E+00
    0.30839E+06        -0.16969E+08         0.00000E+00
    0.00000E+00         0.00000E+00         0.00000E+00
 
   -0.22801E+06         0.37995E+06         0.00000E+00
    0.37995E+06        -0.16977E+08         0.00000E+00
    0.00000E+00         0.00000E+00         0.00000E+00
 
   -0.26153E+06         0.45272E+06         0.00000E+00
    0.45272E+06        -0.16985E+08         0.00000E+00
    0.00000E+00         0.00000E+00         0.00000E+00
 
   -0.29177E+06         0.52679E+06         0.00000E+00
    0.52679E+06        -0.16996E+08         0.00000E+00
    0.00000E+00         0.00000E+00         0.00000E+00
 
   -0.31884E+06         0.60223E+06         0.00000E+00
    0.60223E+06        -0.17007E+08         0.00000E+00
    0.00000E+00         0.00000E+00         0.00000E+00
 
   -0.34286E+06         0.67909E+06         0.00000E+00
    0.67909E+06        -0.17019E+08         0.00000E+00
    0.00000E+00         0.00000E+00         0.00000E+00
 
   -0.36395E+06         0.75745E+06         0.00000E+00
    0.75745E+06        -0.17033E+08         0.00000E+00
    0.00000E+00         0.00000E+00         0.00000E+00
 
   -0.38223E+06         0.83737E+06         0.00000E+00
    0.83737E+06        -0.17047E+08         0.00000E+00
    0.00000E+00         0.00000E+00         0.00000E+00
 
   -0.39779E+06         0.91888E+06         0.00000E+00
    0.91888E+06        -0.17063E+08         0.00000E+00
    0.00000E+00         0.00000E+00         0.00000E+00
 
   -0.41077E+06         0.10021E+07         0.00000E+00
    0.10021E+07        -0.17079E+08         0.00000E+00
    0.00000E+00         0.00000E+00         0.00000E+00
 
   -0.42127E+06         0.10869E+07         0.00000E+00
    0.10869E+07        -0.17096E+08         0.00000E+00
    0.00000E+00         0.00000E+00         0.00000E+00
 
   -0.42941E+06         0.11736E+07         0.00000E+00
    0.11736E+07        -0.17114E+08         0.00000E+00
    0.00000E+00         0.00000E+00         0.00000E+00
 
   -0.43530E+06         0.12620E+07         0.00000E+00
    0.12620E+07        -0.17132E+08         0.00000E+00
    0.00000E+00         0.00000E+00         0.00000E+00
 
   -0.43905E+06         0.13522E+07         0.00000E+00
    0.13522E+07        -0.17151E+08         0.00000E+00
    0.00000E+00         0.00000E+00         0.00000E+00
 
   -0.44076E+06         0.14443E+07         0.00000E+00
    0.14443E+07        -0.17170E+08         0.00000E+00
    0.00000E+00         0.00000E+00         0.00000E+00
 
   -0.44056E+06         0.15383E+07         0.00000E+00
    0.15383E+07        -0.17190E+08         0.00000E+00
    0.00000E+00         0.00000E+00         0.00000E+00
 
   -0.43855E+06         0.16343E+07         0.00000E+00
    0.16343E+07        -0.17211E+08         0.00000E+00
    0.00000E+00         0.00000E+00         0.00000E+00
 
   -0.43483E+06         0.17321E+07         0.00000E+00
    0.17321E+07        -0.17231E+08         0.00000E+00
    0.00000E+00         0.00000E+00         0.00000E+00
 
   -0.42950E+06         0.18320E+07         0.00000E+00
    0.18320E+07        -0.17252E+08         0.00000E+00
    0.00000E+00         0.00000E+00         0.00000E+00
 
   -0.42268E+06         0.19338E+07         0.00000E+00
    0.19338E+07        -0.17273E+08         0.00000E+00
    0.00000E+00         0.00000E+00         0.00000E+00
 
   -0.41445E+06         0.20376E+07         0.00000E+00
    0.20376E+07        -0.17294E+08         0.00000E+00
    0.00000E+00         0.00000E+00         0.00000E+00
 
   -0.40493E+06         0.21435E+07         0.00000E+00
    0.21435E+07        -0.17316E+08         0.00000E+00
    0.00000E+00         0.00000E+00         0.00000E+00
 
   -0.39420E+06         0.22514E+07         0.00000E+00
    0.22514E+07        -0.17337E+08         0.00000E+00
    0.00000E+00         0.00000E+00         0.00000E+00
 
   -0.38237E+06         0.23614E+07         0.00000E+00
    0.23614E+07        -0.17358E+08         0.00000E+00
    0.00000E+00         0.00000E+00         0.00000E+00
 
   -0.36952E+06         0.24734E+07         0.00000E+00
    0.24734E+07        -0.17380E+08         0.00000E+00
    0.00000E+00         0.00000E+00         0.00000E+00
 
   -0.35575E+06         0.25875E+07         0.00000E+00
    0.25875E+07        -0.17401E+08         0.00000E+00
    0.00000E+00         0.00000E+00         0.00000E+00
 
   -0.34114E+06         0.27037E+07         0.00000E+00
    0.27037E+07        -0.17422E+08         0.00000E+00
    0.00000E+00         0.00000E+00         0.00000E+00
 
   -0.32579E+06         0.28219E+07         0.00000E+00
    0.28219E+07        -0.17442E+08         0.00000E+00
    0.00000E+00         0.00000E+00         0.00000E+00
 
   -0.30978E+06         0.29423E+07         0.00000E+00
    0.29423E+07        -0.17463E+08         0.00000E+00
    0.00000E+00         0.00000E+00         0.00000E+00
 
   -0.29319E+06         0.30647E+07         0.00000E+00
    0.30647E+07        -0.17483E+08         0.00000E+00
    0.00000E+00         0.00000E+00         0.00000E+00
 
   -0.27610E+06         0.31893E+07         0.00000E+00
    0.31893E+07        -0.17503E+08         0.00000E+00
    0.00000E+00         0.00000E+00         0.00000E+00
 
   -0.25860E+06         0.33159E+07         0.00000E+00
    0.33159E+07        -0.17522E+08         0.00000E+00
    0.00000E+00         0.00000E+00         0.00000E+00
 
   -0.24075E+06         0.34446E+07         0.00000E+00
    0.34446E+07        -0.17541E+08         0.00000E+00
    0.00000E+00         0.00000E+00         0.00000E+00
 
   -0.22263E+06         0.35754E+07         0.00000E+00
    0.35754E+07        -0.17559E+08         0.00000E+00
    0.00000E+00         0.00000E+00         0.00000E+00
 
   -0.20432E+06         0.37083E+07         0.00000E+00
    0.37083E+07        -0.17577E+08         0.00000E+00
    0.00000E+00         0.00000E+00         0.00000E+00
 
   -0.18588E+06         0.38433E+07         0.00000E+00
    0.38433E+07        -0.17594E+08         0.00000E+00
    0.00000E+00         0.00000E+00         0.00000E+00
 
   -0.16738E+06         0.39804E+07         0.00000E+00
    0.39804E+07        -0.17611E+08         0.00000E+00
    0.00000E+00         0.00000E+00         0.00000E+00
 
   -0.14888E+06         0.41195E+07         0.00000E+00
    0.41195E+07        -0.17626E+08         0.00000E+00
    0.00000E+00         0.00000E+00         0.00000E+00
 
   -0.13045E+06         0.42607E+07         0.00000E+00
    0.42607E+07        -0.17642E+08         0.00000E+00
    0.00000E+00         0.00000E+00         0.00000E+00
 
   -0.11215E+06         0.44039E+07         0.00000E+00
    0.44039E+07        -0.17656E+08         0.00000E+00
    0.00000E+00         0.00000E+00         0.00000E+00
 
   -0.94033E+05         0.45493E+07         0.00000E+00
    0.45493E+07        -0.17669E+08         0.00000E+00
    0.00000E+00         0.00000E+00         0.00000E+00
 
   -0.76157E+05         0.46966E+07         0.00000E+00
    0.46966E+07        -0.17682E+08         0.00000E+00
    0.00000E+00         0.00000E+00         0.00000E+00
 
   -0.58575E+05         0.48460E+07         0.00000E+00
    0.48460E+07        -0.17694E+08         0.00000E+00
    0.00000E+00         0.00000E+00         0.00000E+00
 
   -0.41338E+05         0.49975E+07         0.00000E+00
    0.49975E+07        -0.17705E+08         0.00000E+00
    0.00000E+00         0.00000E+00         0.00000E+00
 
   -0.24493E+05         0.51510E+07         0.00000E+00
    0.51510E+07        -0.17715E+08         0.00000E+00
    0.00000E+00         0.00000E+00         0.00000E+00
 
   -0.80875E+04         0.53065E+07         0.00000E+00
    0.53065E+07        -0.17724E+08         0.00000E+00
    0.00000E+00         0.00000E+00         0.00000E+00
 
   -0.49433E+06         0.28320E+05         0.00000E+00
    0.28320E+05        -0.17756E+08         0.00000E+00
    0.00000E+00         0.00000E+00         0.00000E+00
 
   -0.54105E+06         0.87833E+05         0.00000E+00
    0.87833E+05        -0.17758E+08         0.00000E+00
    0.00000E+00         0.00000E+00         0.00000E+00
 
   -0.58343E+06         0.14853E+06         0.00000E+00
    0.14853E+06        -0.17762E+08         0.00000E+00
    0.00000E+00         0.00000E+00         0.00000E+00
 
   -0.62161E+06         0.21051E+06         0.00000E+00
    0.21051E+06        -0.17767E+08         0.00000E+00
    0.00000E+00         0.00000E+00         0.00000E+00
 
   -0.65572E+06         0.27387E+06         0.00000E+00
    0.27387E+06        -0.17774E+08         0.00000E+00
    0.00000E+00         0.00000E+00         0.00000E+00
 
   -0.68591E+06         0.33868E+06         0.00000E+00
    0.33868E+06        -0.17783E+08         0.00000E+00
    0.00000E+00         0.00000E+00         0.00000E+00
 
   -0.71231E+06         0.40504E+06         0.00000E+00
    0.40504E+06        -0.17794E+08         0.00000E+00
    0.00000E+00         0.00000E+00         0.00000E+00
 
   -0.73505E+06         0.47302E+06         0.00000E+00
    0.47302E+06        -0.17806E+08         0.00000E+00
    0.00000E+00         0.00000E+00         0.00000E+00
 
   -0.75428E+06         0.54269E+06         0.00000E+00
    0.54269E+06        -0.17819E+08         0.00000E+00
    0.00000E+00         0.00000E+00         0.00000E+00
 
   -0.77013E+06         0.61412E+06         0.00000E+00
    0.61412E+06        -0.17833E+08         0.00000E+00
    0.00000E+00         0.00000E+00         0.00000E+00
 
   -0.78274E+06         0.68737E+06         0.00000E+00
    0.68737E+06        -0.17849E+08         0.00000E+00
    0.00000E+00         0.00000E+00         0.00000E+00
 
   -0.79224E+06         0.76249E+06         0.00000E+00
    0.76249E+06        -0.17866E+08         0.00000E+00
    0.00000E+00         0.00000E+00         0.00000E+00
 
   -0.79877E+06         0.83954E+06         0.00000E+00
    0.83954E+06        -0.17884E+08         0.00000E+00
    0.00000E+00         0.00000E+00         0.00000E+00
 
   -0.80247E+06         0.91858E+06         0.00000E+00
    0.91858E+06        -0.17903E+08         0.00000E+00
    0.00000E+00         0.00000E+00         0.00000E+00
 
   -0.80346E+06         0.99964E+06         0.00000E+00
    0.99964E+06        -0.17922E+08         0.00000E+00
    0.00000E+00         0.00000E+00         0.00000E+00
 
   -0.80189E+06         0.10828E+07         0.00000E+00
    0.10828E+07        -0.17943E+08         0.00000E+00
    0.00000E+00         0.00000E+00         0.00000E+00
 
   -0.79787E+06         0.11680E+07         0.00000E+00
    0.11680E+07        -0.17965E+08         0.00000E+00
    0.00000E+00         0.00000E+00         0.00000E+00
 
   -0.79154E+06         0.12553E+07         0.00000E+00
    0.12553E+07        -0.17987E+08         0.00000E+00
    0.00000E+00         0.00000E+00         0.00000E+00
 
   -0.78301E+06         0.13449E+07         0.00000E+00
    0.13449E+07        -0.18009E+08         0.00000E+00
    0.00000E+00         0.00000E+00         0.00000E+00
 
   -0.77243E+06         0.14366E+07         0.00000E+00
    0.14366E+07        -0.18033E+08         0.00000E+00
    0.00000E+00         0.00000E+00         0.00000E+00
 
   -0.75991E+06         0.15305E+07         0.00000E+00
    0.15305E+07        -0.18056E+08         0.00000E+00
    0.00000E+00         0.00000E+00         0.00000E+00
 
   -0.74556E+06         0.16267E+07         0.00000E+00
    0.16267E+07        -0.18081E+08         0.00000E+00
    0.00000E+00         0.00000E+00         0.00000E+00
 
   -0.72951E+06         0.17252E+07         0.00000E+00
    0.17252E+07        -0.18105E+08         0.00000E+00
    0.00000E+00         0.00000E+00         0.00000E+00
 
   -0.71187E+06         0.18259E+07         0.00000E+00
    0.18259E+07        -0.18130E+08         0.00000E+00
    0.00000E+00         0.00000E+00         0.00000E+00
 
   -0.69275E+06         0.19289E+07         0.00000E+00
    0.19289E+07        -0.18155E+08         0.00000E+00
    0.00000E+00         0.00000E+00         0.00000E+00
 
   -0.67228E+06         0.20342E+07         0.00000E+00
    0.20342E+07        -0.18180E+08         0.00000E+00
    0.00000E+00         0.00000E+00         0.00000E+00
 
   -0.65054E+06         0.21418E+07         0.00000E+00
    0.21418E+07        -0.18205E+08         0.00000E+00
    0.00000E+00         0.00000E+00         0.00000E+00
 
   -0.62765E+06         0.22517E+07         0.00000E+00
    0.22517E+07        -0.18231E+08         0.00000E+00
    0.00000E+00         0.00000E+00         0.00000E+00
 
   -0.60372E+06         0.23640E+07         0.00000E+00
    0.23640E+07        -0.18256E+08         0.00000E+00
    0.00000E+00         0.00000E+00         0.00000E+00
 
   -0.57884E+06         0.24785E+07         0.00000E+00
    0.24785E+07        -0.18281E+08         0.00000E+00
    0.00000E+00         0.00000E+00         0.00000E+00
 
   -0.55311E+06         0.25954E+07         0.00000E+00
    0.25954E+07        -0.18307E+08         0.00000E+00
    0.00000E+00         0.00000E+00         0.00000E+00
 
   -0.52663E+06         0.27147E+07         0.00000E+00
    0.27147E+07        -0.18332E+08         0.00000E+00
    0.00000E+00         0.00000E+00         0.00000E+00
 
   -0.49948E+06         0.28362E+07         0.00000E+00
    0.28362E+07        -0.18356E+08         0.00000E+00
    0.00000E+00         0.00000E+00         0.00000E+00
 
   -0.47176E+06         0.29601E+07         0.00000E+00
    0.29601E+07        -0.18381E+08         0.00000E+00
    0.00000E+00         0.00000E+00         0.00000E+00
 
   -0.44356E+06         0.30862E+07         0.00000E+00
    0.30862E+07        -0.18405E+08         0.00000E+00
    0.00000E+00         0.00000E+00         0.00000E+00
 
   -0.41496E+06         0.32147E+07         0.00000E+00
    0.32147E+07        -0.18429E+08         0.00000E+00
    0.00000E+00         0.00000E+00         0.00000E+00
 
   -0.38604E+06         0.33455E+07         0.00000E+00
    0.33455E+07        -0.18452E+08         0.00000E+00
    0.00000E+00         0.00000E+00         0.00000E+00
 
   -0.35689E+06         0.34786E+07         0.00000E+00
    0.34786E+07        -0.18475E+08         0.00000E+00
    0.00000E+00         0.00000E+00         0.00000E+00
 
   -0.32757E+06         0.36140E+07         0.00000E+00
    0.36140E+07        -0.18498E+08         0.00000E+00
    0.00000E+00         0.00000E+00         0.00000E+00
 
   -0.29816E+06         0.37517E+07         0.00000E+00
    0.37517E+07        -0.18519E+08         0.00000E+00
    0.00000E+00         0.00000E+00         0.00000E+00
 
   -0.26873E+06         0.38916E+07         0.00000E+00
    0.38916E+07        -0.18541E+08         0.00000E+00
    0.00000E+00         0.00000E+00         0.00000E+00
 
   -0.23936E+06         0.40338E+07         0.00000E+00
    0.40338E+07        -0.18561E+08         0.00000E+00
    0.00000E+00         0.00000E+00         0.00000E+00
 
   -0.21009E+06         0.41783E+07         0.00000E+00
    0.41783E+07        -0.18581E+08         0.00000E+00
    0.00000E+00         0.00000E+00         0.00000E+00
 
   -0.18101E+06         0.43250E+07         0.00000E+00
    0.43250E+07        -0.18600E+08         0.00000E+00
    0.00000E+00         0.00000E+00         0.00000E+00
 
   -0.15216E+06         0.44739E+07         0.00000E+00
    0.44739E+07        -0.18619E+08         0.00000E+00
    0.00000E+00         0.00000E+00         0.00000E+00
 
   -0.12360E+06         0.46250E+07         0.00000E+00
    0.46250E+07        -0.18636E+08         0.00000E+00
    0.00000E+00         0.00000E+00         0.00000E+00
 
   -0.95391E+05         0.47783E+07         0.00000E+00
    0.47783E+07        -0.18653E+08         0.00000E+00
    0.00000E+00         0.00000E+00         0.00000E+00
 
   -0.67575E+05         0.49338E+07         0.00000E+00
    0.49338E+07        -0.18669E+08         0.00000E+00
    0.00000E+00         0.00000E+00         0.00000E+00
 
   -0.40202E+05         0.50915E+07         0.00000E+00
    0.50915E+07        -0.18684E+08         0.00000E+00
    0.00000E+00         0.00000E+00         0.00000E+00
 
   -0.13316E+05         0.52514E+07         0.00000E+00
    0.52514E+07        -0.18698E+08         0.00000E+00
    0.00000E+00         0.00000E+00         0.00000E+00
 
   -0.10489E+07         0.23100E+05         0.00000E+00
    0.23100E+05        -0.18582E+08         0.00000E+00
    0.00000E+00         0.00000E+00         0.00000E+00
 
   -0.10890E+07         0.73188E+05         0.00000E+00
    0.73188E+05        -0.18584E+08         0.00000E+00
    0.00000E+00         0.00000E+00         0.00000E+00
 
   -0.11243E+07         0.12484E+06         0.00000E+00
    0.12484E+06        -0.18588E+08         0.00000E+00
    0.00000E+00         0.00000E+00         0.00000E+00
 
   -0.11549E+07         0.17815E+06         0.00000E+00
    0.17815E+06        -0.18595E+08         0.00000E+00
    0.00000E+00         0.00000E+00         0.00000E+00
 
   -0.11809E+07         0.23322E+06         0.00000E+00
    0.23322E+06        -0.18603E+08         0.00000E+00
    0.00000E+00         0.00000E+00         0.00000E+00
 
   -0.12026E+07         0.29014E+06         0.00000E+00
    0.29014E+06        -0.18613E+08         0.00000E+00
    0.00000E+00         0.00000E+00         0.00000E+00
 
   -0.12201E+07         0.34898E+06         0.00000E+00
    0.34898E+06        -0.18625E+08         0.00000E+00
    0.00000E+00         0.00000E+00         0.00000E+00
 
   -0.12335E+07         0.40983E+06         0.00000E+00
    0.40983E+06        -0.18639E+08         0.00000E+00
    0.00000E+00         0.00000E+00         0.00000E+00
 
   -0.12431E+07         0.47276E+06         0.00000E+00
    0.47276E+06        -0.18654E+08         0.00000E+00
    0.00000E+00         0.00000E+00         0.00000E+00
 
   -0.12490E+07         0.53782E+06         0.00000E+00
    0.53782E+06        -0.18671E+08         0.00000E+00
    0.00000E+00         0.00000E+00         0.00000E+00
 
   -0.12514E+07         0.60508E+06         0.00000E+00
    0.60508E+06        -0.18689E+08         0.00000E+00
    0.00000E+00         0.00000E+00         0.00000E+00
 
   -0.12503E+07         0.67459E+06         0.00000E+00
    0.67459E+06        -0.18708E+08         0.00000E+00
    0.00000E+00         0.00000E+00         0.00000E+00
 
   -0.12461E+07         0.74641E+06         0.00000E+00
    0.74641E+06        -0.18729E+08         0.00000E+00
    0.00000E+00         0.00000E+00         0.00000E+00
 
   -0.12387E+07         0.82057E+06         0.00000E+00
    0.82057E+06        -0.18750E+08         0.00000E+00
    0.00000E+00         0.00000E+00         0.00000E+00
 
   -0.12285E+07         0.89712E+06         0.00000E+00
    0.89712E+06        -0.18773E+08         0.00000E+00
    0.00000E+00         0.00000E+00         0.00000E+00
 
   -0.12155E+07         0.97609E+06         0.00000E+00
    0.97609E+06        -0.18797E+08         0.00000E+00
    0.00000E+00         0.00000E+00         0.00000E+00
 
   -0.11999E+07         0.10575E+07         0.00000E+00
    0.10575E+07        -0.18821E+08         0.00000E+00
    0.00000E+00         0.00000E+00         0.00000E+00
 
   -0.11818E+07         0.11414E+07         0.00000E+00
    0.11414E+07        -0.18847E+08         0.00000E+00
    0.00000E+00         0.00000E+00         0.00000E+00
 
   -0.11614E+07         0.12278E+07         0.00000E+00
    0.12278E+07        -0.18873E+08         0.00000E+00
    0.00000E+00         0.00000E+00         0.00000E+00
 
   -0.11388E+07         0.13168E+07         0.00000E+00
    0.13168E+07        -0.18899E+08         0.00000E+00
    0.00000E+00         0.00000E+00         0.00000E+00
 
   -0.11142E+07         0.14083E+07         0.00000E+00
    0.14083E+07        -0.18927E+08         0.00000E+00
    0.00000E+00         0.00000E+00         0.00000E+00
 
   -0.10877E+07         0.15023E+07         0.00000E+00
    0.15023E+07        -0.18955E+08         0.00000E+00
    0.00000E+00         0.00000E+00         0.00000E+00
 
   -0.10594E+07         0.15989E+07         0.00000E+00
    0.15989E+07        -0.18983E+08         0.00000E+00
    0.00000E+00         0.00000E+00         0.00000E+00
 
   -0.10294E+07         0.16981E+07         0.00000E+00
    0.16981E+07        -0.19012E+08         0.00000E+00
    0.00000E+00         0.00000E+00         0.00000E+00
 
   -0.99796E+06         0.17999E+07         0.00000E+00
    0.17999E+07        -0.19041E+08         0.00000E+00
    0.00000E+00         0.00000E+00         0.00000E+00
 
   -0.96509E+06         0.19042E+07         0.00000E+00
    0.19042E+07        -0.19070E+08         0.00000E+00
    0.00000E+00         0.00000E+00         0.00000E+00
 
   -0.93095E+06         0.20112E+07         0.00000E+00
    0.20112E+07        -0.19099E+08         0.00000E+00
    0.00000E+00         0.00000E+00         0.00000E+00
 
   -0.89563E+06         0.21208E+07         0.00000E+00
    0.21208E+07        -0.19129E+08         0.00000E+00
    0.00000E+00         0.00000E+00         0.00000E+00
 
   -0.85927E+06         0.22329E+07         0.00000E+00
    0.22329E+07        -0.19158E+08         0.00000E+00
    0.00000E+00         0.00000E+00         0.00000E+00
 
   -0.82197E+06         0.23476E+07         0.00000E+00
    0.23476E+07        -0.19188E+08         0.00000E+00
    0.00000E+00         0.00000E+00         0.00000E+00
 
   -0.78383E+06         0.24650E+07         0.00000E+00
    0.24650E+07        -0.19217E+08         0.00000E+00
    0.00000E+00         0.00000E+00         0.00000E+00
 
   -0.74496E+06         0.25849E+07         0.00000E+00
    0.25849E+07        -0.19247E+08         0.00000E+00
    0.00000E+00         0.00000E+00         0.00000E+00
 
   -0.70546E+06         0.27073E+07         0.00000E+00
    0.27073E+07        -0.19276E+08         0.00000E+00
    0.00000E+00         0.00000E+00         0.00000E+00
 
   -0.66543E+06         0.28323E+07         0.00000E+00
    0.28323E+07        -0.19305E+08         0.00000E+00
    0.00000E+00         0.00000E+00         0.00000E+00
 
   -0.62495E+06         0.29599E+07         0.00000E+00
    0.29599E+07        -0.19334E+08         0.00000E+00
    0.00000E+00         0.00000E+00         0.00000E+00
 
   -0.58413E+06         0.30900E+07         0.00000E+00
    0.30900E+07        -0.19362E+08         0.00000E+00
    0.00000E+00         0.00000E+00         0.00000E+00
 
   -0.54304E+06         0.32227E+07         0.00000E+00
    0.32227E+07        -0.19390E+08         0.00000E+00
    0.00000E+00         0.00000E+00         0.00000E+00
 
   -0.50177E+06         0.33578E+07         0.00000E+00
    0.33578E+07        -0.19418E+08         0.00000E+00
    0.00000E+00         0.00000E+00         0.00000E+00
 
   -0.46041E+06         0.34955E+07         0.00000E+00
    0.34955E+07        -0.19445E+08         0.00000E+00
    0.00000E+00         0.00000E+00         0.00000E+00
 
   -0.41903E+06         0.36356E+07         0.00000E+00
    0.36356E+07        -0.19472E+08         0.00000E+00
    0.00000E+00         0.00000E+00         0.00000E+00
 
   -0.37771E+06         0.37782E+07         0.00000E+00
    0.37782E+07        -0.19498E+08         0.00000E+00
    0.00000E+00         0.00000E+00         0.00000E+00
 
   -0.33651E+06         0.39232E+07         0.00000E+00
    0.39232E+07        -0.19523E+08         0.00000E+00
    0.00000E+00         0.00000E+00         0.00000E+00
 
   -0.29550E+06         0.40707E+07         0.00000E+00
    0.40707E+07        -0.19548E+08         0.00000E+00
    0.00000E+00         0.00000E+00         0.00000E+00
 
   -0.25475E+06         0.42206E+07         0.00000E+00
    0.42206E+07        -0.19573E+08         0.00000E+00
    0.00000E+00         0.00000E+00         0.00000E+00
 
   -0.21433E+06         0.43729E+07         0.00000E+00
    0.43729E+07        -0.19596E+08         0.00000E+00
    0.00000E+00         0.00000E+00         0.00000E+00
 
   -0.17428E+06         0.45275E+07         0.00000E+00
    0.45275E+07        -0.19619E+08         0.00000E+00
    0.00000E+00         0.00000E+00         0.00000E+00
 
   -0.13466E+06         0.46845E+07         0.00000E+00
    0.46845E+07        -0.19641E+08         0.00000E+00
    0.00000E+00         0.00000E+00         0.00000E+00
 
   -0.95521E+05         0.48439E+07         0.00000E+00
    0.48439E+07        -0.19663E+08         0.00000E+00
    0.00000E+00         0.00000E+00         0.00000E+00
 
   -0.56911E+05         0.50056E+07         0.00000E+00
    0.50056E+07        -0.19683E+08         0.00000E+00
    0.00000E+00         0.00000E+00         0.00000E+00
 
   -0.18872E+05         0.51696E+07         0.00000E+00
    0.51696E+07        -0.19703E+08         0.00000E+00
    0.00000E+00         0.00000E+00         0.00000E+00
 
   -0.16773E+07         0.16997E+05         0.00000E+00
    0.16997E+05        -0.19430E+08         0.00000E+00
    0.00000E+00         0.00000E+00         0.00000E+00
 
   -0.17087E+07         0.56134E+05         0.00000E+00
    0.56134E+05        -0.19432E+08         0.00000E+00
    0.00000E+00         0.00000E+00         0.00000E+00
 
   -0.17348E+07         0.97294E+05         0.00000E+00
    0.97294E+05        -0.19437E+08         0.00000E+00
    0.00000E+00         0.00000E+00         0.00000E+00
 
   -0.17556E+07         0.14058E+06         0.00000E+00
    0.14058E+06        -0.19444E+08         0.00000E+00
    0.00000E+00         0.00000E+00         0.00000E+00
 
   -0.17715E+07         0.18609E+06         0.00000E+00
    0.18609E+06        -0.19454E+08         0.00000E+00
    0.00000E+00         0.00000E+00         0.00000E+00
 
   -0.17825E+07         0.23390E+06         0.00000E+00
    0.23390E+06        -0.19466E+08         0.00000E+00
    0.00000E+00         0.00000E+00         0.00000E+00
 
   -0.17890E+07         0.28410E+06         0.00000E+00
    0.28410E+06        -0.19479E+08         0.00000E+00
    0.00000E+00         0.00000E+00         0.00000E+00
 
   -0.17910E+07         0.33676E+06         0.00000E+00
    0.33676E+06        -0.19494E+08         0.00000E+00
    0.00000E+00         0.00000E+00         0.00000E+00
 
   -0.17889E+07         0.39195E+06         0.00000E+00
    0.39195E+06        -0.19512E+08         0.00000E+00
    0.00000E+00         0.00000E+00         0.00000E+00
 
   -0.17827E+07         0.44972E+06         0.00000E+00
    0.44972E+06        -0.19530E+08         0.00000E+00
    0.00000E+00         0.00000E+00         0.00000E+00
 
   -0.17727E+07         0.51012E+06         0.00000E+00
    0.51012E+06        -0.19551E+08         0.00000E+00
    0.00000E+00         0.00000E+00         0.00000E+00
 
   -0.17591E+07         0.57321E+06         0.00000E+00
    0.57321E+06        -0.19573E+08         0.00000E+00
    0.00000E+00         0.00000E+00         0.00000E+00
 
   -0.17420E+07         0.63902E+06         0.00000E+00
    0.63902E+06        -0.19596E+08         0.00000E+00
    0.00000E+00         0.00000E+00         0.00000E+00
 
   -0.17217E+07         0.70760E+06         0.00000E+00
    0.70760E+06        -0.19620E+08         0.00000E+00
    0.00000E+00         0.00000E+00         0.00000E+00
 
   -0.16983E+07         0.77897E+06         0.00000E+00
    0.77897E+06        -0.19646E+08         0.00000E+00
    0.00000E+00         0.00000E+00         0.00000E+00
 
   -0.16720E+07         0.85316E+06         0.00000E+00
    0.85316E+06        -0.19673E+08         0.00000E+00
    0.00000E+00         0.00000E+00         0.00000E+00
 
   -0.16429E+07         0.93019E+06         0.00000E+00
    0.93019E+06        -0.19700E+08         0.00000E+00
    0.00000E+00         0.00000E+00         0.00000E+00
 
   -0.16112E+07         0.10101E+07         0.00000E+00
    0.10101E+07        -0.19729E+08         0.00000E+00
    0.00000E+00         0.00000E+00         0.00000E+00
 
   -0.15772E+07         0.10929E+07         0.00000E+00
    0.10929E+07        -0.19758E+08         0.00000E+00
    0.00000E+00         0.00000E+00         0.00000E+00
 
   -0.15409E+07         0.11785E+07         0.00000E+00
    0.11785E+07        -0.19788E+08         0.00000E+00
    0.00000E+00         0.00000E+00         0.00000E+00
 
   -0.15024E+07         0.12671E+07         0.00000E+00
    0.12671E+07        -0.19819E+08         0.00000E+00
    0.00000E+00         0.00000E+00         0.00000E+00
 
   -0.14620E+07         0.13585E+07         0.00000E+00
    0.13585E+07        -0.19851E+08         0.00000E+00
    0.00000E+00         0.00000E+00         0.00000E+00
 
   -0.14199E+07         0.14529E+07         0.00000E+00
    0.14529E+07        -0.19883E+08         0.00000E+00
    0.00000E+00         0.00000E+00         0.00000E+00
 
   -0.13760E+07         0.15501E+07         0.00000E+00
    0.15501E+07        -0.19915E+08         0.00000E+00
    0.00000E+00         0.00000E+00         0.00000E+00
 
   -0.13306E+07         0.16503E+07         0.00000E+00
    0.16503E+07        -0.19948E+08         0.00000E+00
    0.00000E+00         0.00000E+00         0.00000E+00
 
   -0.12839E+07         0.17533E+07         0.00000E+00
    0.17533E+07        -0.19981E+08         0.00000E+00
    0.00000E+00         0.00000E+00         0.00000E+00
 
   -0.12358E+07         0.18593E+07         0.00000E+00
    0.18593E+07        -0.20015E+08         0.00000E+00
    0.00000E+00         0.00000E+00         0.00000E+00
 
   -0.11866E+07         0.19681E+07         0.00000E+00
    0.19681E+07        -0.20048E+08         0.00000E+00
    0.00000E+00         0.00000E+00         0.00000E+00
 
   -0.11365E+07         0.20798E+07         0.00000E+00
    0.20798E+07        -0.20082E+08         0.00000E+00
    0.00000E+00         0.00000E+00         0.00000E+00
 
   -0.10854E+07         0.21943E+07         0.00000E+00
    0.21943E+07        -0.20116E+08         0.00000E+00
    0.00000E+00         0.00000E+00         0.00000E+00
 
   -0.10335E+07         0.23118E+07         0.00000E+00
    0.23118E+07        -0.20150E+08         0.00000E+00
    0.00000E+00         0.00000E+00         0.00000E+00
 
   -0.98094E+06         0.24320E+07         0.00000E+00
    0.24320E+07        -0.20183E+08         0.00000E+00
    0.00000E+00         0.00000E+00         0.00000E+00
 
   -0.92782E+06         0.25551E+07         0.00000E+00
    0.25551E+07        -0.20217E+08         0.00000E+00
    0.00000E+00         0.00000E+00         0.00000E+00
 
   -0.87424E+06         0.26809E+07         0.00000E+00
    0.26809E+07        -0.20251E+08         0.00000E+00
    0.00000E+00         0.00000E+00         0.00000E+00
 
   -0.82030E+06         0.28096E+07         0.00000E+00
    0.28096E+07        -0.20284E+08         0.00000E+00
    0.00000E+00         0.00000E+00         0.00000E+00
 
   -0.76609E+06         0.29410E+07         0.00000E+00
    0.29410E+07        -0.20317E+08         0.00000E+00
    0.00000E+00         0.00000E+00         0.00000E+00
 
   -0.71171E+06         0.30752E+07         0.00000E+00
    0.30752E+07        -0.20350E+08         0.00000E+00
    0.00000E+00         0.00000E+00         0.00000E+00
 
   -0.65725E+06         0.32121E+07         0.00000E+00
    0.32121E+07        -0.20383E+08         0.00000E+00
    0.00000E+00         0.00000E+00         0.00000E+00
 
   -0.60278E+06         0.33517E+07         0.00000E+00
    0.33517E+07        -0.20415E+08         0.00000E+00
    0.00000E+00         0.00000E+00         0.00000E+00
 
   -0.54840E+06         0.34940E+07         0.00000E+00
    0.34940E+07        -0.20446E+08         0.00000E+00
    0.00000E+00         0.00000E+00         0.00000E+00
 
   -0.49419E+06         0.36390E+07         0.00000E+00
    0.36390E+07        -0.20478E+08         0.00000E+00
    0.00000E+00         0.00000E+00         0.00000E+00
 
   -0.44021E+06         0.37866E+07         0.00000E+00
    0.37866E+07        -0.20508E+08         0.00000E+00
    0.00000E+00         0.00000E+00         0.00000E+00
 
   -0.38654E+06         0.39368E+07         0.00000E+00
    0.39368E+07        -0.20539E+08         0.00000E+00
    0.00000E+00         0.00000E+00         0.00000E+00
 
   -0.33325E+06         0.40896E+07         0.00000E+00
    0.40896E+07        -0.20568E+08         0.00000E+00
    0.00000E+00         0.00000E+00         0.00000E+00
 
   -0.28040E+06         0.42450E+07         0.00000E+00
    0.42450E+07        -0.20597E+08         0.00000E+00
    0.00000E+00         0.00000E+00         0.00000E+00
 
   -0.22806E+06         0.44029E+07         0.00000E+00
    0.44029E+07        -0.20626E+08         0.00000E+00
    0.00000E+00         0.00000E+00         0.00000E+00
 
   -0.17627E+06         0.45633E+07         0.00000E+00
    0.45633E+07        -0.20653E+08         0.00000E+00
    0.00000E+00         0.00000E+00         0.00000E+00
 
   -0.12509E+06         0.47263E+07         0.00000E+00
    0.47263E+07        -0.20680E+08         0.00000E+00
    0.00000E+00         0.00000E+00         0.00000E+00
 
   -0.74562E+05         0.48916E+07         0.00000E+00
    0.48916E+07        -0.20706E+08         0.00000E+00
    0.00000E+00         0.00000E+00         0.00000E+00
 
   -0.24734E+05         0.50594E+07         0.00000E+00
    0.50594E+07        -0.20732E+08         0.00000E+00
    0.00000E+00         0.00000E+00         0.00000E+00
 
   -0.23858E+07         0.99496E+04         0.00000E+00
    0.99496E+04        -0.20298E+08         0.00000E+00
    0.00000E+00         0.00000E+00         0.00000E+00
 
   -0.24061E+07         0.36546E+05         0.00000E+00
    0.36546E+05        -0.20301E+08         0.00000E+00
    0.00000E+00         0.00000E+00         0.00000E+00
 
   -0.24203E+07         0.65730E+05         0.00000E+00
    0.65730E+05        -0.20306E+08         0.00000E+00
    0.00000E+00         0.00000E+00         0.00000E+00
 
   -0.24289E+07         0.97601E+05         0.00000E+00
    0.97601E+05        -0.20314E+08         0.00000E+00
    0.00000E+00         0.00000E+00         0.00000E+00
 
   -0.24320E+07         0.13225E+06         0.00000E+00
    0.13225E+06        -0.20325E+08         0.00000E+00
    0.00000E+00         0.00000E+00         0.00000E+00
 
   -0.24299E+07         0.16976E+06         0.00000E+00
    0.16976E+06        -0.20338E+08         0.00000E+00
    0.00000E+00         0.00000E+00         0.00000E+00
 
   -0.24228E+07         0.21020E+06         0.00000E+00
    0.21020E+06        -0.20353E+08         0.00000E+00
    0.00000E+00         0.00000E+00         0.00000E+00
 
   -0.24110E+07         0.25363E+06         0.00000E+00
    0.25363E+06        -0.20370E+08         0.00000E+00
    0.00000E+00         0.00000E+00         0.00000E+00
 
   -0.23946E+07         0.30011E+06         0.00000E+00
    0.30011E+06        -0.20389E+08         0.00000E+00
    0.00000E+00         0.00000E+00         0.00000E+00
 
   -0.23740E+07         0.34969E+06         0.00000E+00
    0.34969E+06        -0.20410E+08         0.00000E+00
    0.00000E+00         0.00000E+00         0.00000E+00
 
   -0.23493E+07         0.40241E+06         0.00000E+00
    0.40241E+06        -0.20433E+08         0.00000E+00
    0.00000E+00         0.00000E+00         0.00000E+00
 
   -0.23208E+07         0.45831E+06         0.00000E+00
    0.45831E+06        -0.20457E+08         0.00000E+00
    0.00000E+00         0.00000E+00         0.00000E+00
 
   -0.22887E+07         0.51740E+06         0.00000E+00
    0.51740E+06        -0.20483E+08         0.00000E+00
    0.00000E+00         0.00000E+00         0.00000E+00
 
   -0.22532E+07         0.57973E+06         0.00000E+00
    0.57973E+06        -0.20510E+08         0.00000E+00
    0.00000E+00         0.00000E+00         0.00000E+00
 
   -0.22144E+07         0.64530E+06         0.00000E+00
    0.64530E+06        -0.20538E+08         0.00000E+00
    0.00000E+00         0.00000E+00         0.00000E+00
 
   -0.21727E+07         0.71413E+06         0.00000E+00
    0.71413E+06        -0.20568E+08         0.00000E+00
    0.00000E+00         0.00000E+00         0.00000E+00
 
   -0.21281E+07         0.78622E+06         0.00000E+00
    0.78622E+06        -0.20599E+08         0.00000E+00
    0.00000E+00         0.00000E+00         0.00000E+00
 
   -0.20809E+07         0.86159E+06         0.00000E+00
    0.86159E+06        -0.20630E+08         0.00000E+00
    0.00000E+00         0.00000E+00         0.00000E+00
 
   -0.20312E+07         0.94022E+06         0.00000E+00
    0.94022E+06        -0.20663E+08         0.00000E+00
    0.00000E+00         0.00000E+00         0.00000E+00
 
   -0.19793E+07         0.10221E+07         0.00000E+00
    0.10221E+07        -0.20696E+08         0.00000E+00
    0.00000E+00         0.00000E+00         0.00000E+00
 
   -0.19252E+07         0.11073E+07         0.00000E+00
    0.11073E+07        -0.20731E+08         0.00000E+00
    0.00000E+00         0.00000E+00         0.00000E+00
 
   -0.18692E+07         0.11957E+07         0.00000E+00
    0.11957E+07        -0.20765E+08         0.00000E+00
    0.00000E+00         0.00000E+00         0.00000E+00
 
   -0.18115E+07         0.12874E+07         0.00000E+00
    0.12874E+07        -0.20801E+08         0.00000E+00
    0.00000E+00         0.00000E+00         0.00000E+00
 
   -0.17521E+07         0.13823E+07         0.00000E+00
    0.13823E+07        -0.20837E+08         0.00000E+00
    0.00000E+00         0.00000E+00         0.00000E+00
 
   -0.16912E+07         0.14804E+07         0.00000E+00
    0.14804E+07        -0.20873E+08         0.00000E+00
    0.00000E+00         0.00000E+00         0.00000E+00
 
   -0.16289E+07         0.15818E+07         0.00000E+00
    0.15818E+07        -0.20910E+08         0.00000E+00
    0.00000E+00         0.00000E+00         0.00000E+00
 
   -0.15655E+07         0.16863E+07         0.00000E+00
    0.16863E+07        -0.20948E+08         0.00000E+00
    0.00000E+00         0.00000E+00         0.00000E+00
 
   -0.15010E+07         0.17940E+07         0.00000E+00
    0.17940E+07        -0.20985E+08         0.00000E+00
    0.00000E+00         0.00000E+00         0.00000E+00
 
   -0.14355E+07         0.19048E+07         0.00000E+00
    0.19048E+07        -0.21023E+08         0.00000E+00
    0.00000E+00         0.00000E+00         0.00000E+00
 
   -0.13693E+07         0.20188E+07         0.00000E+00
    0.20188E+07        -0.21061E+08         0.00000E+00
    0.00000E+00         0.00000E+00         0.00000E+00
 
   -0.13023E+07         0.21359E+07         0.00000E+00
    0.21359E+07        -0.21099E+08         0.00000E+00
    0.00000E+00         0.00000E+00         0.00000E+00
 
   -0.12348E+07         0.22561E+07         0.00000E+00
    0.22561E+07        -0.21137E+08         0.00000E+00
    0.00000E+00         0.00000E+00         0.00000E+00
 
   -0.11668E+07         0.23794E+07         0.00000E+00
    0.23794E+07        -0.21175E+08         0.00000E+00
    0.00000E+00         0.00000E+00         0.00000E+00
 
   -0.10984E+07         0.25057E+07         0.00000E+00
    0.25057E+07        -0.21213E+08         0.00000E+00
    0.00000E+00         0.00000E+00         0.00000E+00
 
   -0.10298E+07         0.26350E+07         0.00000E+00
    0.26350E+07        -0.21251E+08         0.00000E+00
    0.00000E+00         0.00000E+00         0.00000E+00
 
   -0.96102E+06         0.27674E+07         0.00000E+00
    0.27674E+07        -0.21289E+08         0.00000E+00
    0.00000E+00         0.00000E+00         0.00000E+00
 
   -0.89220E+06         0.29027E+07         0.00000E+00
    0.29027E+07        -0.21326E+08         0.00000E+00
    0.00000E+00         0.00000E+00         0.00000E+00
 
   -0.82342E+06         0.30410E+07         0.00000E+00
    0.30410E+07        -0.21364E+08         0.00000E+00
    0.00000E+00         0.00000E+00         0.00000E+00
 
   -0.75478E+06         0.31821E+07         0.00000E+00
    0.31821E+07        -0.21401E+08         0.00000E+00
    0.00000E+00         0.00000E+00         0.00000E+00
 
   -0.68636E+06         0.33262E+07         0.00000E+00
    0.33262E+07        -0.21438E+08         0.00000E+00
    0.00000E+00         0.00000E+00         0.00000E+00
 
   -0.61824E+06         0.34732E+07         0.00000E+00
    0.34732E+07        -0.21474E+08         0.00000E+00
    0.00000E+00         0.00000E+00         0.00000E+00
 
   -0.55051E+06         0.36230E+07         0.00000E+00
    0.36230E+07        -0.21510E+08         0.00000E+00
    0.00000E+00         0.00000E+00         0.00000E+00
 
   -0.48324E+06         0.37756E+07         0.00000E+00
    0.37756E+07        -0.21546E+08         0.00000E+00
    0.00000E+00         0.00000E+00         0.00000E+00
 
   -0.41651E+06         0.39310E+07         0.00000E+00
    0.39310E+07        -0.21581E+08         0.00000E+00
    0.00000E+00         0.00000E+00         0.00000E+00
 
   -0.35038E+06         0.40891E+07         0.00000E+00
    0.40891E+07        -0.21615E+08         0.00000E+00
    0.00000E+00         0.00000E+00         0.00000E+00
 
   -0.28492E+06         0.42499E+07         0.00000E+00
    0.42499E+07        -0.21649E+08         0.00000E+00
    0.00000E+00         0.00000E+00         0.00000E+00
 
   -0.22018E+06         0.44135E+07         0.00000E+00
    0.44135E+07        -0.21683E+08         0.00000E+00
    0.00000E+00         0.00000E+00         0.00000E+00
 
   -0.15624E+06         0.45796E+07         0.00000E+00
    0.45796E+07        -0.21716E+08         0.00000E+00
    0.00000E+00         0.00000E+00         0.00000E+00
 
   -0.93124E+05         0.47483E+07         0.00000E+00
    0.47483E+07        -0.21748E+08         0.00000E+00
    0.00000E+00         0.00000E+00         0.00000E+00
 
   -0.30891E+05         0.49196E+07         0.00000E+00
    0.49196E+07        -0.21779E+08         0.00000E+00
    0.00000E+00         0.00000E+00         0.00000E+00
 
   -0.31811E+07         0.19184E+04         0.00000E+00
    0.19184E+04        -0.21184E+08         0.00000E+00
    0.00000E+00         0.00000E+00         0.00000E+00
 
   -0.31869E+07         0.14365E+05         0.00000E+00
    0.14365E+05        -0.21187E+08         0.00000E+00
    0.00000E+00         0.00000E+00         0.00000E+00
 
   -0.31863E+07         0.30088E+05         0.00000E+00
    0.30088E+05        -0.21194E+08         0.00000E+00
    0.00000E+00         0.00000E+00         0.00000E+00
 
   -0.31795E+07         0.49179E+05         0.00000E+00
    0.49179E+05        -0.21203E+08         0.00000E+00
    0.00000E+00         0.00000E+00         0.00000E+00
 
   -0.31668E+07         0.71717E+05         0.00000E+00
    0.71717E+05        -0.21214E+08         0.00000E+00
    0.00000E+00         0.00000E+00         0.00000E+00
 
   -0.31485E+07         0.97769E+05         0.00000E+00
    0.97769E+05        -0.21229E+08         0.00000E+00
    0.00000E+00         0.00000E+00         0.00000E+00
 
   -0.31249E+07         0.12740E+06         0.00000E+00
    0.12740E+06        -0.21245E+08         0.00000E+00
    0.00000E+00         0.00000E+00         0.00000E+00
 
   -0.30963E+07         0.16064E+06         0.00000E+00
    0.16064E+06        -0.21264E+08         0.00000E+00
    0.00000E+00         0.00000E+00         0.00000E+00
 
   -0.30630E+07         0.19755E+06         0.00000E+00
    0.19755E+06        -0.21285E+08         0.00000E+00
    0.00000E+00         0.00000E+00         0.00000E+00
 
   -0.30251E+07         0.23815E+06         0.00000E+00
    0.23815E+06        -0.21308E+08         0.00000E+00
    0.00000E+00         0.00000E+00         0.00000E+00
 
   -0.29831E+07         0.28246E+06         0.00000E+00
    0.28246E+06        -0.21333E+08         0.00000E+00
    0.00000E+00         0.00000E+00         0.00000E+00
 
   -0.29371E+07         0.33050E+06         0.00000E+00
    0.33050E+06        -0.21359E+08         0.00000E+00
    0.00000E+00         0.00000E+00         0.00000E+00
 
   -0.28874E+07         0.38228E+06         0.00000E+00
    0.38228E+06        -0.21387E+08         0.00000E+00
    0.00000E+00         0.00000E+00         0.00000E+00
 
   -0.28342E+07         0.43780E+06         0.00000E+00
    0.43780E+06        -0.21417E+08         0.00000E+00
    0.00000E+00         0.00000E+00         0.00000E+00
 
   -0.27778E+07         0.49705E+06         0.00000E+00
    0.49705E+06        -0.21447E+08         0.00000E+00
    0.00000E+00         0.00000E+00         0.00000E+00
 
   -0.27183E+07         0.56003E+06         0.00000E+00
    0.56003E+06        -0.21480E+08         0.00000E+00
    0.00000E+00         0.00000E+00         0.00000E+00
 
   -0.26561E+07         0.62673E+06         0.00000E+00
    0.62673E+06        -0.21513E+08         0.00000E+00
    0.00000E+00         0.00000E+00         0.00000E+00
 
   -0.25912E+07         0.69713E+06         0.00000E+00
    0.69713E+06        -0.21547E+08         0.00000E+00
    0.00000E+00         0.00000E+00         0.00000E+00
 
   -0.25239E+07         0.77121E+06         0.00000E+00
    0.77121E+06        -0.21582E+08         0.00000E+00
    0.00000E+00         0.00000E+00         0.00000E+00
 
   -0.24544E+07         0.84896E+06         0.00000E+00
    0.84896E+06        -0.21619E+08         0.00000E+00
    0.00000E+00         0.00000E+00         0.00000E+00
 
   -0.23829E+07         0.93034E+06         0.00000E+00
    0.93034E+06        -0.21656E+08         0.00000E+00
    0.00000E+00         0.00000E+00         0.00000E+00
 
   -0.23095E+07         0.10153E+07         0.00000E+00
    0.10153E+07        -0.21694E+08         0.00000E+00
    0.00000E+00         0.00000E+00         0.00000E+00
 
   -0.22344E+07         0.11039E+07         0.00000E+00
    0.11039E+07        -0.21732E+08         0.00000E+00
    0.00000E+00         0.00000E+00         0.00000E+00
 
   -0.21578E+07         0.11961E+07         0.00000E+00
    0.11961E+07        -0.21771E+08         0.00000E+00
    0.00000E+00         0.00000E+00         0.00000E+00
 
   -0.20798E+07         0.12917E+07         0.00000E+00
    0.12917E+07        -0.21811E+08         0.00000E+00
    0.00000E+00         0.00000E+00         0.00000E+00
 
   -0.20006E+07         0.13909E+07         0.00000E+00
    0.13909E+07        -0.21851E+08         0.00000E+00
    0.00000E+00         0.00000E+00         0.00000E+00
 
   -0.19203E+07         0.14936E+07         0.00000E+00
    0.14936E+07        -0.21892E+08         0.00000E+00
    0.00000E+00         0.00000E+00         0.00000E+00
 
   -0.18390E+07         0.15997E+07         0.00000E+00
    0.15997E+07        -0.21933E+08         0.00000E+00
    0.00000E+00         0.00000E+00         0.00000E+00
 
   -0.17569E+07         0.17092E+07         0.00000E+00
    0.17092E+07        -0.21974E+08         0.00000E+00
    0.00000E+00         0.00000E+00         0.00000E+00
 
   -0.16741E+07         0.18221E+07         0.00000E+00
    0.18221E+07        -0.22016E+08         0.00000E+00
    0.00000E+00         0.00000E+00         0.00000E+00
 
   -0.15908E+07         0.19384E+07         0.00000E+00
    0.19384E+07        -0.22058E+08         0.00000E+00
    0.00000E+00         0.00000E+00         0.00000E+00
 
   -0.15069E+07         0.20580E+07         0.00000E+00
    0.20580E+07        -0.22100E+08         0.00000E+00
    0.00000E+00         0.00000E+00         0.00000E+00
 
   -0.14228E+07         0.21810E+07         0.00000E+00
    0.21810E+07        -0.22142E+08         0.00000E+00
    0.00000E+00         0.00000E+00         0.00000E+00
 
   -0.13384E+07         0.23072E+07         0.00000E+00
    0.23072E+07        -0.22184E+08         0.00000E+00
    0.00000E+00         0.00000E+00         0.00000E+00
 
   -0.12540E+07         0.24367E+07         0.00000E+00
    0.24367E+07        -0.22227E+08         0.00000E+00
    0.00000E+00         0.00000E+00         0.00000E+00
 
   -0.11695E+07         0.25694E+07         0.00000E+00
    0.25694E+07        -0.22269E+08         0.00000E+00
    0.00000E+00         0.00000E+00         0.00000E+00
 
   -0.10851E+07         0.27053E+07         0.00000E+00
    0.27053E+07        -0.22311E+08         0.00000E+00
    0.00000E+00         0.00000E+00         0.00000E+00
 
   -0.10009E+07         0.28444E+07         0.00000E+00
    0.28444E+07        -0.22354E+08         0.00000E+00
    0.00000E+00         0.00000E+00         0.00000E+00
 
   -0.91693E+06         0.29866E+07         0.00000E+00
    0.29866E+07        -0.22396E+08         0.00000E+00
    0.00000E+00         0.00000E+00         0.00000E+00
 
   -0.83340E+06         0.31320E+07         0.00000E+00
    0.31320E+07        -0.22438E+08         0.00000E+00
    0.00000E+00         0.00000E+00         0.00000E+00
 
   -0.75033E+06         0.32804E+07         0.00000E+00
    0.32804E+07        -0.22479E+08         0.00000E+00
    0.00000E+00         0.00000E+00         0.00000E+00
 
   -0.66783E+06         0.34319E+07         0.00000E+00
    0.34319E+07        -0.22521E+08         0.00000E+00
    0.00000E+00         0.00000E+00         0.00000E+00
 
   -0.58597E+06         0.35864E+07         0.00000E+00
    0.35864E+07        -0.22562E+08         0.00000E+00
    0.00000E+00         0.00000E+00         0.00000E+00
 
   -0.50484E+06         0.37438E+07         0.00000E+00
    0.37438E+07        -0.22602E+08         0.00000E+00
    0.00000E+00         0.00000E+00         0.00000E+00
 
   -0.42451E+06         0.39042E+07         0.00000E+00
    0.39042E+07        -0.22643E+08         0.00000E+00
    0.00000E+00         0.00000E+00         0.00000E+00
 
   -0.34506E+06         0.40675E+07         0.00000E+00
    0.40675E+07        -0.22683E+08         0.00000E+00
    0.00000E+00         0.00000E+00         0.00000E+00
 
   -0.26656E+06         0.42337E+07         0.00000E+00
    0.42337E+07        -0.22722E+08         0.00000E+00
    0.00000E+00         0.00000E+00         0.00000E+00
 
   -0.18907E+06         0.44026E+07         0.00000E+00
    0.44026E+07        -0.22761E+08         0.00000E+00
    0.00000E+00         0.00000E+00         0.00000E+00
 
   -0.11265E+06         0.45743E+07         0.00000E+00
    0.45743E+07        -0.22799E+08         0.00000E+00
    0.00000E+00         0.00000E+00         0.00000E+00
 
   -0.37359E+05         0.47487E+07         0.00000E+00
    0.47487E+07        -0.22837E+08         0.00000E+00
    0.00000E+00         0.00000E+00         0.00000E+00
 
   -0.40692E+07        -0.71120E+04         0.00000E+00
   -0.71120E+04        -0.22087E+08         0.00000E+00
    0.00000E+00         0.00000E+00         0.00000E+00
 
   -0.40568E+07        -0.10375E+05         0.00000E+00
   -0.10375E+05        -0.22090E+08         0.00000E+00
    0.00000E+00         0.00000E+00         0.00000E+00
 
   -0.40375E+07        -0.95205E+04         0.00000E+00
   -0.95205E+04        -0.22097E+08         0.00000E+00
    0.00000E+00         0.00000E+00         0.00000E+00
 
   -0.40116E+07        -0.44758E+04         0.00000E+00
   -0.44758E+04        -0.22107E+08         0.00000E+00
    0.00000E+00         0.00000E+00         0.00000E+00
 
   -0.39794E+07         0.48197E+04         0.00000E+00
    0.48197E+04        -0.22120E+08         0.00000E+00
    0.00000E+00         0.00000E+00         0.00000E+00
 
   -0.39414E+07         0.18413E+05         0.00000E+00
    0.18413E+05        -0.22135E+08         0.00000E+00
    0.00000E+00         0.00000E+00         0.00000E+00
 
   -0.38979E+07         0.36338E+05         0.00000E+00
    0.36338E+05        -0.22153E+08         0.00000E+00
    0.00000E+00         0.00000E+00         0.00000E+00
 
   -0.38491E+07         0.58618E+05         0.00000E+00
    0.58618E+05        -0.22173E+08         0.00000E+00
    0.00000E+00         0.00000E+00         0.00000E+00
 
   -0.37955E+07         0.85264E+05         0.00000E+00
    0.85264E+05        -0.22196E+08         0.00000E+00
    0.00000E+00         0.00000E+00         0.00000E+00
 
   -0.37374E+07         0.11628E+06         0.00000E+00
    0.11628E+06        -0.22220E+08         0.00000E+00
    0.00000E+00         0.00000E+00         0.00000E+00
 
   -0.36749E+07         0.15165E+06         0.00000E+00
    0.15165E+06        -0.22247E+08         0.00000E+00
    0.00000E+00         0.00000E+00         0.00000E+00
 
   -0.36086E+07         0.19137E+06         0.00000E+00
    0.19137E+06        -0.22275E+08         0.00000E+00
    0.00000E+00         0.00000E+00         0.00000E+00
 
   -0.35385E+07         0.23542E+06         0.00000E+00
    0.23542E+06        -0.22305E+08         0.00000E+00
    0.00000E+00         0.00000E+00         0.00000E+00
 
   -0.34651E+07         0.28375E+06         0.00000E+00
    0.28375E+06        -0.22336E+08         0.00000E+00
    0.00000E+00         0.00000E+00         0.00000E+00
 
   -0.33884E+07         0.33635E+06         0.00000E+00
    0.33635E+06        -0.22369E+08         0.00000E+00
    0.00000E+00         0.00000E+00         0.00000E+00
 
   -0.33089E+07         0.39317E+06         0.00000E+00
    0.39317E+06        -0.22403E+08         0.00000E+00
    0.00000E+00         0.00000E+00         0.00000E+00
 
   -0.32267E+07         0.45416E+06         0.00000E+00
    0.45416E+06        -0.22438E+08         0.00000E+00
    0.00000E+00         0.00000E+00         0.00000E+00
 
   -0.31420E+07         0.51929E+06         0.00000E+00
    0.51929E+06        -0.22474E+08         0.00000E+00
    0.00000E+00         0.00000E+00         0.00000E+00
 
   -0.30551E+07         0.58851E+06         0.00000E+00
    0.58851E+06        -0.22512E+08         0.00000E+00
    0.00000E+00         0.00000E+00         0.00000E+00
 
   -0.29661E+07         0.66177E+06         0.00000E+00
    0.66177E+06        -0.22550E+08         0.00000E+00
    0.00000E+00         0.00000E+00         0.00000E+00
 
   -0.28753E+07         0.73903E+06         0.00000E+00
    0.73903E+06        -0.22589E+08         0.00000E+00
    0.00000E+00         0.00000E+00         0.00000E+00
 
   -0.27828E+07         0.82022E+06         0.00000E+00
    0.82022E+06        -0.22629E+08         0.00000E+00
    0.00000E+00         0.00000E+00         0.00000E+00
 
   -0.26888E+07         0.90532E+06         0.00000E+00
    0.90532E+06        -0.22670E+08         0.00000E+00
    0.00000E+00         0.00000E+00         0.00000E+00
 
   -0.25934E+07         0.99427E+06         0.00000E+00
    0.99427E+06        -0.22711E+08         0.00000E+00
    0.00000E+00         0.00000E+00         0.00000E+00
 
   -0.24968E+07         0.10870E+07         0.00000E+00
    0.10870E+07        -0.22754E+08         0.00000E+00
    0.00000E+00         0.00000E+00         0.00000E+00
 
   -0.23992E+07         0.11836E+07         0.00000E+00
    0.11836E+07        -0.22796E+08         0.00000E+00
    0.00000E+00         0.00000E+00         0.00000E+00
 
   -0.23007E+07         0.12838E+07         0.00000E+00
    0.12838E+07        -0.22840E+08         0.00000E+00
    0.00000E+00         0.00000E+00         0.00000E+00
 
   -0.22013E+07         0.13877E+07         0.00000E+00
    0.13877E+07        -0.22884E+08         0.00000E+00
    0.00000E+00         0.00000E+00         0.00000E+00
 
   -0.21013E+07         0.14953E+07         0.00000E+00
    0.14953E+07        -0.22928E+08         0.00000E+00
    0.00000E+00         0.00000E+00         0.00000E+00
 
   -0.20008E+07         0.16065E+07         0.00000E+00
    0.16065E+07        -0.22973E+08         0.00000E+00
    0.00000E+00         0.00000E+00         0.00000E+00
 
   -0.18998E+07         0.17213E+07         0.00000E+00
    0.17213E+07        -0.23018E+08         0.00000E+00
    0.00000E+00         0.00000E+00         0.00000E+00
 
   -0.17986E+07         0.18397E+07         0.00000E+00
    0.18397E+07        -0.23063E+08         0.00000E+00
    0.00000E+00         0.00000E+00         0.00000E+00
 
   -0.16972E+07         0.19615E+07         0.00000E+00
    0.19615E+07        -0.23109E+08         0.00000E+00
    0.00000E+00         0.00000E+00         0.00000E+00
 
   -0.15956E+07         0.20869E+07         0.00000E+00
    0.20869E+07        -0.23155E+08         0.00000E+00
    0.00000E+00         0.00000E+00         0.00000E+00
 
   -0.14941E+07         0.22158E+07         0.00000E+00
    0.22158E+07        -0.23201E+08         0.00000E+00
    0.00000E+00         0.00000E+00         0.00000E+00
 
   -0.13928E+07         0.23481E+07         0.00000E+00
    0.23481E+07        -0.23248E+08         0.00000E+00
    0.00000E+00         0.00000E+00         0.00000E+00
 
   -0.12917E+07         0.24838E+07         0.00000E+00
    0.24838E+07        -0.23295E+08         0.00000E+00
    0.00000E+00         0.00000E+00         0.00000E+00
 
   -0.11909E+07         0.26229E+07         0.00000E+00
    0.26229E+07        -0.23341E+08         0.00000E+00
    0.00000E+00         0.00000E+00         0.00000E+00
 
   -0.10906E+07         0.27654E+07         0.00000E+00
    0.27654E+07        -0.23388E+08         0.00000E+00
    0.00000E+00         0.00000E+00         0.00000E+00
 
   -0.99081E+06         0.29112E+07         0.00000E+00
    0.29112E+07        -0.23435E+08         0.00000E+00
    0.00000E+00         0.00000E+00         0.00000E+00
 
   -0.89168E+06         0.30603E+07         0.00000E+00
    0.30603E+07        -0.23482E+08         0.00000E+00
    0.00000E+00         0.00000E+00         0.00000E+00
 
   -0.79330E+06         0.32127E+07         0.00000E+00
    0.32127E+07        -0.23529E+08         0.00000E+00
    0.00000E+00         0.00000E+00         0.00000E+00
 
   -0.69576E+06         0.33684E+07         0.00000E+00
    0.33684E+07        -0.23576E+08         0.00000E+00
    0.00000E+00         0.00000E+00         0.00000E+00
 
   -0.59916E+06         0.35272E+07         0.00000E+00
    0.35272E+07        -0.23622E+08         0.00000E+00
    0.00000E+00         0.00000E+00         0.00000E+00
 
   -0.50359E+06         0.36892E+07         0.00000E+00
    0.36892E+07        -0.23668E+08         0.00000E+00
    0.00000E+00         0.00000E+00         0.00000E+00
 
   -0.40914E+06         0.38544E+07         0.00000E+00
    0.38544E+07        -0.23714E+08         0.00000E+00
    0.00000E+00         0.00000E+00         0.00000E+00
 
   -0.31589E+06         0.40226E+07         0.00000E+00
    0.40226E+07        -0.23760E+08         0.00000E+00
    0.00000E+00         0.00000E+00         0.00000E+00
 
   -0.22394E+06         0.41938E+07         0.00000E+00
    0.41938E+07        -0.23805E+08         0.00000E+00
    0.00000E+00         0.00000E+00         0.00000E+00
 
   -0.13335E+06         0.43680E+07         0.00000E+00
    0.43680E+07        -0.23850E+08         0.00000E+00
    0.00000E+00         0.00000E+00         0.00000E+00
 
   -0.44205E+05         0.45451E+07         0.00000E+00
    0.45451E+07        -0.23894E+08         0.00000E+00
    0.00000E+00         0.00000E+00         0.00000E+00
 
   -0.50557E+07        -0.17125E+05         0.00000E+00
   -0.17125E+05        -0.23003E+08         0.00000E+00
    0.00000E+00         0.00000E+00         0.00000E+00
 
   -0.50204E+07        -0.37517E+05         0.00000E+00
   -0.37517E+05        -0.23007E+08         0.00000E+00
    0.00000E+00         0.00000E+00         0.00000E+00
 
   -0.49778E+07        -0.52765E+05         0.00000E+00
   -0.52765E+05        -0.23014E+08         0.00000E+00
    0.00000E+00         0.00000E+00         0.00000E+00
 
   -0.49283E+07        -0.62824E+05         0.00000E+00
   -0.62824E+05        -0.23025E+08         0.00000E+00
    0.00000E+00         0.00000E+00         0.00000E+00
 
   -0.48723E+07        -0.67662E+05         0.00000E+00
   -0.67662E+05        -0.23038E+08         0.00000E+00
    0.00000E+00         0.00000E+00         0.00000E+00
 
   -0.48103E+07        -0.67266E+05         0.00000E+00
   -0.67266E+05        -0.23055E+08         0.00000E+00
    0.00000E+00         0.00000E+00         0.00000E+00
 
   -0.47428E+07        -0.61641E+05         0.00000E+00
   -0.61641E+05        -0.23074E+08         0.00000E+00
    0.00000E+00         0.00000E+00         0.00000E+00
 
   -0.46700E+07        -0.50805E+05         0.00000E+00
   -0.50805E+05        -0.23095E+08         0.00000E+00
    0.00000E+00         0.00000E+00         0.00000E+00
 
   -0.45924E+07        -0.34787E+05         0.00000E+00
   -0.34787E+05        -0.23118E+08         0.00000E+00
    0.00000E+00         0.00000E+00         0.00000E+00
 
   -0.45103E+07        -0.13632E+05         0.00000E+00
   -0.13632E+05        -0.23144E+08         0.00000E+00
    0.00000E+00         0.00000E+00         0.00000E+00
 
   -0.44242E+07         0.12606E+05         0.00000E+00
    0.12606E+05        -0.23171E+08         0.00000E+00
    0.00000E+00         0.00000E+00         0.00000E+00
 
   -0.43343E+07         0.43866E+05         0.00000E+00
    0.43866E+05        -0.23201E+08         0.00000E+00
    0.00000E+00         0.00000E+00         0.00000E+00
 
   -0.42409E+07         0.80078E+05         0.00000E+00
    0.80078E+05        -0.23231E+08         0.00000E+00
    0.00000E+00         0.00000E+00         0.00000E+00
 
   -0.41444E+07         0.12116E+06         0.00000E+00
    0.12116E+06        -0.23264E+08         0.00000E+00
    0.00000E+00         0.00000E+00         0.00000E+00
 
   -0.40450E+07         0.16704E+06         0.00000E+00
    0.16704E+06        -0.23297E+08         0.00000E+00
    0.00000E+00         0.00000E+00         0.00000E+00
 
   -0.39430E+07         0.21764E+06         0.00000E+00
    0.21764E+06        -0.23332E+08         0.00000E+00
    0.00000E+00         0.00000E+00         0.00000E+00
 
   -0.38386E+07         0.27285E+06         0.00000E+00
    0.27285E+06        -0.23368E+08         0.00000E+00
    0.00000E+00         0.00000E+00         0.00000E+00
 
   -0.37321E+07         0.33261E+06         0.00000E+00
    0.33261E+06        -0.23405E+08         0.00000E+00
    0.00000E+00         0.00000E+00         0.00000E+00
 
   -0.36237E+07         0.39682E+06         0.00000E+00
    0.39682E+06        -0.23444E+08         0.00000E+00
    0.00000E+00         0.00000E+00         0.00000E+00
 
   -0.35135E+07         0.46539E+06         0.00000E+00
    0.46539E+06        -0.23483E+08         0.00000E+00
    0.00000E+00         0.00000E+00         0.00000E+00
 
   -0.34018E+07         0.53826E+06         0.00000E+00
    0.53826E+06        -0.23523E+08         0.00000E+00
    0.00000E+00         0.00000E+00         0.00000E+00
 
   -0.32887E+07         0.61534E+06         0.00000E+00
    0.61534E+06        -0.23564E+08         0.00000E+00
    0.00000E+00         0.00000E+00         0.00000E+00
 
   -0.31744E+07         0.69656E+06         0.00000E+00
    0.69656E+06        -0.23606E+08         0.00000E+00
    0.00000E+00         0.00000E+00         0.00000E+00
 
   -0.30590E+07         0.78186E+06         0.00000E+00
    0.78186E+06        -0.23648E+08         0.00000E+00
    0.00000E+00         0.00000E+00         0.00000E+00
 
   -0.29427E+07         0.87115E+06         0.00000E+00
    0.87115E+06        -0.23691E+08         0.00000E+00
    0.00000E+00         0.00000E+00         0.00000E+00
 
   -0.28255E+07         0.96440E+06         0.00000E+00
    0.96440E+06        -0.23735E+08         0.00000E+00
    0.00000E+00         0.00000E+00         0.00000E+00
 
   -0.27077E+07         0.10615E+07         0.00000E+00
    0.10615E+07        -0.23780E+08         0.00000E+00
    0.00000E+00         0.00000E+00         0.00000E+00
 
   -0.25893E+07         0.11625E+07         0.00000E+00
    0.11625E+07        -0.23826E+08         0.00000E+00
    0.00000E+00         0.00000E+00         0.00000E+00
 
   -0.24704E+07         0.12673E+07         0.00000E+00
    0.12673E+07        -0.23872E+08         0.00000E+00
    0.00000E+00         0.00000E+00         0.00000E+00
 
   -0.23511E+07         0.13759E+07         0.00000E+00
    0.13759E+07        -0.23919E+08         0.00000E+00
    0.00000E+00         0.00000E+00         0.00000E+00
 
   -0.22316E+07         0.14882E+07         0.00000E+00
    0.14882E+07        -0.23966E+08         0.00000E+00
    0.00000E+00         0.00000E+00         0.00000E+00
 
   -0.21120E+07         0.16043E+07         0.00000E+00
    0.16043E+07        -0.24014E+08         0.00000E+00
    0.00000E+00         0.00000E+00         0.00000E+00
 
   -0.19923E+07         0.17240E+07         0.00000E+00
    0.17240E+07        -0.24063E+08         0.00000E+00
    0.00000E+00         0.00000E+00         0.00000E+00
 
   -0.18726E+07         0.18474E+07         0.00000E+00
    0.18474E+07        -0.24112E+08         0.00000E+00
    0.00000E+00         0.00000E+00         0.00000E+00
 
   -0.17531E+07         0.19745E+07         0.00000E+00
    0.19745E+07        -0.24162E+08         0.00000E+00
    0.00000E+00         0.00000E+00         0.00000E+00
 
   -0.16338E+07         0.21051E+07         0.00000E+00
    0.21051E+07        -0.24212E+08         0.00000E+00
    0.00000E+00         0.00000E+00         0.00000E+00
 
   -0.15149E+07         0.22395E+07         0.00000E+00
    0.22395E+07        -0.24263E+08         0.00000E+00
    0.00000E+00         0.00000E+00         0.00000E+00
 
   -0.13964E+07         0.23774E+07         0.00000E+00
    0.23774E+07        -0.24314E+08         0.00000E+00
    0.00000E+00         0.00000E+00         0.00000E+00
 
   -0.12785E+07         0.25190E+07         0.00000E+00
    0.25190E+07        -0.24365E+08         0.00000E+00
    0.00000E+00         0.00000E+00         0.00000E+00
 
   -0.11613E+07         0.26641E+07         0.00000E+00
    0.26641E+07        -0.24417E+08         0.00000E+00
    0.00000E+00         0.00000E+00         0.00000E+00
 
   -0.10448E+07         0.28128E+07         0.00000E+00
    0.28128E+07        -0.24469E+08         0.00000E+00
    0.00000E+00         0.00000E+00         0.00000E+00
 
   -0.92931E+06         0.29650E+07         0.00000E+00
    0.29650E+07        -0.24521E+08         0.00000E+00
    0.00000E+00         0.00000E+00         0.00000E+00
 
   -0.81480E+06         0.31208E+07         0.00000E+00
    0.31208E+07        -0.24574E+08         0.00000E+00
    0.00000E+00         0.00000E+00         0.00000E+00
 
   -0.70143E+06         0.32801E+07         0.00000E+00
    0.32801E+07        -0.24626E+08         0.00000E+00
    0.00000E+00         0.00000E+00         0.00000E+00
 
   -0.58931E+06         0.34428E+07         0.00000E+00
    0.34428E+07        -0.24679E+08         0.00000E+00
    0.00000E+00         0.00000E+00         0.00000E+00
 
   -0.47856E+06         0.36089E+07         0.00000E+00
    0.36089E+07        -0.24731E+08         0.00000E+00
    0.00000E+00         0.00000E+00         0.00000E+00
 
   -0.36931E+06         0.37785E+07         0.00000E+00
    0.37785E+07        -0.24784E+08         0.00000E+00
    0.00000E+00         0.00000E+00         0.00000E+00
 
   -0.26165E+06         0.39513E+07         0.00000E+00
    0.39513E+07        -0.24836E+08         0.00000E+00
    0.00000E+00         0.00000E+00         0.00000E+00
 
   -0.15571E+06         0.41274E+07         0.00000E+00
    0.41274E+07        -0.24888E+08         0.00000E+00
    0.00000E+00         0.00000E+00         0.00000E+00
 
   -0.51591E+05         0.43066E+07         0.00000E+00
    0.43066E+07        -0.24939E+08         0.00000E+00
    0.00000E+00         0.00000E+00         0.00000E+00
 
   -0.61449E+07        -0.28071E+05         0.00000E+00
   -0.28071E+05        -0.23931E+08         0.00000E+00
    0.00000E+00         0.00000E+00         0.00000E+00
 
   -0.60809E+07        -0.66764E+05         0.00000E+00
   -0.66764E+05        -0.23935E+08         0.00000E+00
    0.00000E+00         0.00000E+00         0.00000E+00
 
   -0.60094E+07        -0.99042E+05         0.00000E+00
   -0.99042E+05        -0.23943E+08         0.00000E+00
    0.00000E+00         0.00000E+00         0.00000E+00
 
   -0.59308E+07        -0.12490E+06         0.00000E+00
   -0.12490E+06        -0.23954E+08         0.00000E+00
    0.00000E+00         0.00000E+00         0.00000E+00
 
   -0.58458E+07        -0.14435E+06         0.00000E+00
   -0.14435E+06        -0.23968E+08         0.00000E+00
    0.00000E+00         0.00000E+00         0.00000E+00
 
   -0.57548E+07        -0.15744E+06         0.00000E+00
   -0.15744E+06        -0.23984E+08         0.00000E+00
    0.00000E+00         0.00000E+00         0.00000E+00
 
   -0.56584E+07        -0.16424E+06         0.00000E+00
   -0.16424E+06        -0.24004E+08         0.00000E+00
    0.00000E+00         0.00000E+00         0.00000E+00
 
   -0.55571E+07        -0.16481E+06         0.00000E+00
   -0.16481E+06        -0.24025E+08         0.00000E+00
    0.00000E+00         0.00000E+00         0.00000E+00
 
   -0.54513E+07        -0.15927E+06         0.00000E+00
   -0.15927E+06        -0.24049E+08         0.00000E+00
    0.00000E+00         0.00000E+00         0.00000E+00
 
   -0.53414E+07        -0.14772E+06         0.00000E+00
   -0.14772E+06        -0.24075E+08         0.00000E+00
    0.00000E+00         0.00000E+00         0.00000E+00
 
   -0.52278E+07        -0.13028E+06         0.00000E+00
   -0.13028E+06        -0.24102E+08         0.00000E+00
    0.00000E+00         0.00000E+00         0.00000E+00
 
   -0.51110E+07        -0.10711E+06         0.00000E+00
   -0.10711E+06        -0.24131E+08         0.00000E+00
    0.00000E+00         0.00000E+00         0.00000E+00
 
   -0.49913E+07        -0.78328E+05         0.00000E+00
   -0.78328E+05        -0.24162E+08         0.00000E+00
    0.00000E+00         0.00000E+00         0.00000E+00
 
   -0.48690E+07        -0.44097E+05         0.00000E+00
   -0.44097E+05        -0.24193E+08         0.00000E+00
    0.00000E+00         0.00000E+00         0.00000E+00
 
   -0.47443E+07        -0.45616E+04         0.00000E+00
   -0.45616E+04        -0.24226E+08         0.00000E+00
    0.00000E+00         0.00000E+00         0.00000E+00
 
   -0.46176E+07         0.40127E+05         0.00000E+00
    0.40127E+05        -0.24261E+08         0.00000E+00
    0.00000E+00         0.00000E+00         0.00000E+00
 
   -0.44891E+07         0.89819E+05         0.00000E+00
    0.89819E+05        -0.24296E+08         0.00000E+00
    0.00000E+00         0.00000E+00         0.00000E+00
 
   -0.43591E+07         0.14437E+06         0.00000E+00
    0.14437E+06        -0.24332E+08         0.00000E+00
    0.00000E+00         0.00000E+00         0.00000E+00
 
   -0.42276E+07         0.20365E+06         0.00000E+00
    0.20365E+06        -0.24369E+08         0.00000E+00
    0.00000E+00         0.00000E+00         0.00000E+00
 
   -0.40949E+07         0.26751E+06         0.00000E+00
    0.26751E+06        -0.24407E+08         0.00000E+00
    0.00000E+00         0.00000E+00         0.00000E+00
 
   -0.39612E+07         0.33583E+06         0.00000E+00
    0.33583E+06        -0.24446E+08         0.00000E+00
    0.00000E+00         0.00000E+00         0.00000E+00
 
   -0.38266E+07         0.40851E+06         0.00000E+00
    0.40851E+06        -0.24486E+08         0.00000E+00
    0.00000E+00         0.00000E+00         0.00000E+00
 
   -0.36911E+07         0.48543E+06         0.00000E+00
    0.48543E+06        -0.24527E+08         0.00000E+00
    0.00000E+00         0.00000E+00         0.00000E+00
 
   -0.35550E+07         0.56650E+06         0.00000E+00
    0.56650E+06        -0.24569E+08         0.00000E+00
    0.00000E+00         0.00000E+00         0.00000E+00
 
   -0.34183E+07         0.65164E+06         0.00000E+00
    0.65164E+06        -0.24612E+08         0.00000E+00
    0.00000E+00         0.00000E+00         0.00000E+00
 
   -0.32810E+07         0.74077E+06         0.00000E+00
    0.74077E+06        -0.24655E+08         0.00000E+00
    0.00000E+00         0.00000E+00         0.00000E+00
 
   -0.31434E+07         0.83384E+06         0.00000E+00
    0.83384E+06        -0.24700E+08         0.00000E+00
    0.00000E+00         0.00000E+00         0.00000E+00
 
   -0.30054E+07         0.93079E+06         0.00000E+00
    0.93079E+06        -0.24745E+08         0.00000E+00
    0.00000E+00         0.00000E+00         0.00000E+00
 
   -0.28671E+07         0.10316E+07         0.00000E+00
    0.10316E+07        -0.24792E+08         0.00000E+00
    0.00000E+00         0.00000E+00         0.00000E+00
 
   -0.27286E+07         0.11362E+07         0.00000E+00
    0.11362E+07        -0.24839E+08         0.00000E+00
    0.00000E+00         0.00000E+00         0.00000E+00
 
   -0.25900E+07         0.12446E+07         0.00000E+00
    0.12446E+07        -0.24887E+08         0.00000E+00
    0.00000E+00         0.00000E+00         0.00000E+00
 
   -0.24513E+07         0.13568E+07         0.00000E+00
    0.13568E+07        -0.24937E+08         0.00000E+00
    0.00000E+00         0.00000E+00         0.00000E+00
 
   -0.23127E+07         0.14727E+07         0.00000E+00
    0.14727E+07        -0.24987E+08         0.00000E+00
    0.00000E+00         0.00000E+00         0.00000E+00
 
   -0.21741E+07         0.15925E+07         0.00000E+00
    0.15925E+07        -0.25038E+08         0.00000E+00
    0.00000E+00         0.00000E+00         0.00000E+00
 
   -0.20357E+07         0.17160E+07         0.00000E+00
    0.17160E+07        -0.25091E+08         0.00000E+00
    0.00000E+00         0.00000E+00         0.00000E+00
 
   -0.18976E+07         0.18433E+07         0.00000E+00
    0.18433E+07        -0.25144E+08         0.00000E+00
    0.00000E+00         0.00000E+00         0.00000E+00
 
   -0.17598E+07         0.19745E+07         0.00000E+00
    0.19745E+07        -0.25198E+08         0.00000E+00
    0.00000E+00         0.00000E+00         0.00000E+00
 
   -0.16225E+07         0.21095E+07         0.00000E+00
    0.21095E+07        -0.25253E+08         0.00000E+00
    0.00000E+00         0.00000E+00         0.00000E+00
 
   -0.14858E+07         0.22483E+07         0.00000E+00
    0.22483E+07        -0.25309E+08         0.00000E+00
    0.00000E+00         0.00000E+00         0.00000E+00
 
   -0.13497E+07         0.23910E+07         0.00000E+00
    0.23910E+07        -0.25365E+08         0.00000E+00
    0.00000E+00         0.00000E+00         0.00000E+00
 
   -0.12145E+07         0.25375E+07         0.00000E+00
    0.25375E+07        -0.25423E+08         0.00000E+00
    0.00000E+00         0.00000E+00         0.00000E+00
 
   -0.10803E+07         0.26880E+07         0.00000E+00
    0.26880E+07        -0.25481E+08         0.00000E+00
    0.00000E+00         0.00000E+00         0.00000E+00
 
   -0.94717E+06         0.28423E+07         0.00000E+00
    0.28423E+07        -0.25539E+08         0.00000E+00
    0.00000E+00         0.00000E+00         0.00000E+00
 
   -0.81531E+06         0.30006E+07         0.00000E+00
    0.30006E+07        -0.25598E+08         0.00000E+00
    0.00000E+00         0.00000E+00         0.00000E+00
 
   -0.68488E+06         0.31627E+07         0.00000E+00
    0.31627E+07        -0.25657E+08         0.00000E+00
    0.00000E+00         0.00000E+00         0.00000E+00
 
   -0.55603E+06         0.33286E+07         0.00000E+00
    0.33286E+07        -0.25717E+08         0.00000E+00
    0.00000E+00         0.00000E+00         0.00000E+00
 
   -0.42893E+06         0.34984E+07         0.00000E+00
    0.34984E+07        -0.25777E+08         0.00000E+00
    0.00000E+00         0.00000E+00         0.00000E+00
 
   -0.30375E+06         0.36719E+07         0.00000E+00
    0.36719E+07        -0.25836E+08         0.00000E+00
    0.00000E+00         0.00000E+00         0.00000E+00
 
   -0.18066E+06         0.38491E+07         0.00000E+00
    0.38491E+07        -0.25896E+08         0.00000E+00
    0.00000E+00         0.00000E+00         0.00000E+00
 
   -0.59831E+05         0.40299E+07         0.00000E+00
    0.40299E+07        -0.25956E+08         0.00000E+00
    0.00000E+00         0.00000E+00         0.00000E+00
 
   -0.73397E+07        -0.39901E+05         0.00000E+00
   -0.39901E+05        -0.24867E+08         0.00000E+00
    0.00000E+00         0.00000E+00         0.00000E+00
 
   -0.72397E+07        -0.97655E+05         0.00000E+00
   -0.97655E+05        -0.24871E+08         0.00000E+00
    0.00000E+00         0.00000E+00         0.00000E+00
 
   -0.71322E+07        -0.14739E+06         0.00000E+00
   -0.14739E+06        -0.24879E+08         0.00000E+00
    0.00000E+00         0.00000E+00         0.00000E+00
 
   -0.70178E+07        -0.18917E+06         0.00000E+00
   -0.18917E+06        -0.24890E+08         0.00000E+00
    0.00000E+00         0.00000E+00         0.00000E+00
 
   -0.68973E+07        -0.22307E+06         0.00000E+00
   -0.22307E+06        -0.24904E+08         0.00000E+00
    0.00000E+00         0.00000E+00         0.00000E+00
 
   -0.67712E+07        -0.24921E+06         0.00000E+00
   -0.24921E+06        -0.24921E+08         0.00000E+00
    0.00000E+00         0.00000E+00         0.00000E+00
 
   -0.66403E+07        -0.26774E+06         0.00000E+00
   -0.26774E+06        -0.24940E+08         0.00000E+00
    0.00000E+00         0.00000E+00         0.00000E+00
 
   -0.65052E+07        -0.27887E+06         0.00000E+00
   -0.27887E+06        -0.24961E+08         0.00000E+00
    0.00000E+00         0.00000E+00         0.00000E+00
 
   -0.63663E+07        -0.28280E+06         0.00000E+00
   -0.28280E+06        -0.24983E+08         0.00000E+00
    0.00000E+00         0.00000E+00         0.00000E+00
 
   -0.62242E+07        -0.27975E+06         0.00000E+00
   -0.27975E+06        -0.25008E+08         0.00000E+00
    0.00000E+00         0.00000E+00         0.00000E+00
 
   -0.60794E+07        -0.26997E+06         0.00000E+00
   -0.26997E+06        -0.25033E+08         0.00000E+00
    0.00000E+00         0.00000E+00         0.00000E+00
 
   -0.59323E+07        -0.25371E+06         0.00000E+00
   -0.25371E+06        -0.25060E+08         0.00000E+00
    0.00000E+00         0.00000E+00         0.00000E+00
 
   -0.57832E+07        -0.23122E+06         0.00000E+00
   -0.23122E+06        -0.25088E+08         0.00000E+00
    0.00000E+00         0.00000E+00         0.00000E+00
 
   -0.56325E+07        -0.20277E+06         0.00000E+00
   -0.20277E+06        -0.25118E+08         0.00000E+00
    0.00000E+00         0.00000E+00         0.00000E+00
 
   -0.54805E+07        -0.16860E+06         0.00000E+00
   -0.16860E+06        -0.25148E+08         0.00000E+00
    0.00000E+00         0.00000E+00         0.00000E+00
 
   -0.53274E+07        -0.12897E+06         0.00000E+00
   -0.12897E+06        -0.25178E+08         0.00000E+00
    0.00000E+00         0.00000E+00         0.00000E+00
 
   -0.51735E+07        -0.84110E+05         0.00000E+00
   -0.84110E+05        -0.25210E+08         0.00000E+00
    0.00000E+00         0.00000E+00         0.00000E+00
 
   -0.50188E+07        -0.34249E+05         0.00000E+00
   -0.34249E+05        -0.25243E+08         0.00000E+00
    0.00000E+00         0.00000E+00         0.00000E+00
 
   -0.48636E+07         0.20403E+05         0.00000E+00
    0.20403E+05        -0.25276E+08         0.00000E+00
    0.00000E+00         0.00000E+00         0.00000E+00
 
   -0.47080E+07         0.79653E+05         0.00000E+00
    0.79653E+05        -0.25311E+08         0.00000E+00
    0.00000E+00         0.00000E+00         0.00000E+00
 
   -0.45520E+07         0.14332E+06         0.00000E+00
    0.14332E+06        -0.25346E+08         0.00000E+00
    0.00000E+00         0.00000E+00         0.00000E+00
 
   -0.43957E+07         0.21126E+06         0.00000E+00
    0.21126E+06        -0.25382E+08         0.00000E+00
    0.00000E+00         0.00000E+00         0.00000E+00
 
   -0.42393E+07         0.28332E+06         0.00000E+00
    0.28332E+06        -0.25419E+08         0.00000E+00
    0.00000E+00         0.00000E+00         0.00000E+00
 
   -0.40826E+07         0.35939E+06         0.00000E+00
    0.35939E+06        -0.25458E+08         0.00000E+00
    0.00000E+00         0.00000E+00         0.00000E+00
 
   -0.39257E+07         0.43936E+06         0.00000E+00
    0.43936E+06        -0.25497E+08         0.00000E+00
    0.00000E+00         0.00000E+00         0.00000E+00
 
   -0.37687E+07         0.52317E+06         0.00000E+00
    0.52317E+06        -0.25538E+08         0.00000E+00
    0.00000E+00         0.00000E+00         0.00000E+00
 
   -0.36116E+07         0.61073E+06         0.00000E+00
    0.61073E+06        -0.25580E+08         0.00000E+00
    0.00000E+00         0.00000E+00         0.00000E+00
 
   -0.34543E+07         0.70202E+06         0.00000E+00
    0.70202E+06        -0.25623E+08         0.00000E+00
    0.00000E+00         0.00000E+00         0.00000E+00
 
   -0.32969E+07         0.79700E+06         0.00000E+00
    0.79700E+06        -0.25668E+08         0.00000E+00
    0.00000E+00         0.00000E+00         0.00000E+00
 
   -0.31394E+07         0.89566E+06         0.00000E+00
    0.89566E+06        -0.25714E+08         0.00000E+00
    0.00000E+00         0.00000E+00         0.00000E+00
 
   -0.29818E+07         0.99801E+06         0.00000E+00
    0.99801E+06        -0.25761E+08         0.00000E+00
    0.00000E+00         0.00000E+00         0.00000E+00
 
   -0.28240E+07         0.11041E+07         0.00000E+00
    0.11041E+07        -0.25810E+08         0.00000E+00
    0.00000E+00         0.00000E+00         0.00000E+00
 
   -0.26662E+07         0.12139E+07         0.00000E+00
    0.12139E+07        -0.25861E+08         0.00000E+00
    0.00000E+00         0.00000E+00         0.00000E+00
 
   -0.25084E+07         0.13274E+07         0.00000E+00
    0.13274E+07        -0.25913E+08         0.00000E+00
    0.00000E+00         0.00000E+00         0.00000E+00
 
   -0.23506E+07         0.14448E+07         0.00000E+00
    0.14448E+07        -0.25967E+08         0.00000E+00
    0.00000E+00         0.00000E+00         0.00000E+00
 
   -0.21929E+07         0.15662E+07         0.00000E+00
    0.15662E+07        -0.26022E+08         0.00000E+00
    0.00000E+00         0.00000E+00         0.00000E+00
 
   -0.20353E+07         0.16914E+07         0.00000E+00
    0.16914E+07        -0.26079E+08         0.00000E+00
    0.00000E+00         0.00000E+00         0.00000E+00
 
   -0.18780E+07         0.18207E+07         0.00000E+00
    0.18207E+07        -0.26137E+08         0.00000E+00
    0.00000E+00         0.00000E+00         0.00000E+00
 
   -0.17210E+07         0.19542E+07         0.00000E+00
    0.19542E+07        -0.26197E+08         0.00000E+00
    0.00000E+00         0.00000E+00         0.00000E+00
 
   -0.15646E+07         0.20918E+07         0.00000E+00
    0.20918E+07        -0.26259E+08         0.00000E+00
    0.00000E+00         0.00000E+00         0.00000E+00
 
   -0.14088E+07         0.22337E+07         0.00000E+00
    0.22337E+07        -0.26321E+08         0.00000E+00
    0.00000E+00         0.00000E+00         0.00000E+00
 
   -0.12539E+07         0.23799E+07         0.00000E+00
    0.23799E+07        -0.26385E+08         0.00000E+00
    0.00000E+00         0.00000E+00         0.00000E+00
 
   -0.10999E+07         0.25305E+07         0.00000E+00
    0.25305E+07        -0.26450E+08         0.00000E+00
    0.00000E+00         0.00000E+00         0.00000E+00
 
   -0.94716E+06         0.26856E+07         0.00000E+00
    0.26856E+07        -0.26516E+08         0.00000E+00
    0.00000E+00         0.00000E+00         0.00000E+00
 
   -0.79585E+06         0.28451E+07         0.00000E+00
    0.28451E+07        -0.26583E+08         0.00000E+00
    0.00000E+00         0.00000E+00         0.00000E+00
 
   -0.64621E+06         0.30090E+07         0.00000E+00
    0.30090E+07        -0.26651E+08         0.00000E+00
    0.00000E+00         0.00000E+00         0.00000E+00
 
   -0.49850E+06         0.31775E+07         0.00000E+00
    0.31775E+07        -0.26719E+08         0.00000E+00
    0.00000E+00         0.00000E+00         0.00000E+00
 
   -0.35297E+06         0.33504E+07         0.00000E+00
    0.33504E+07        -0.26788E+08         0.00000E+00
    0.00000E+00         0.00000E+00         0.00000E+00
 
   -0.20987E+06         0.35277E+07         0.00000E+00
    0.35277E+07        -0.26857E+08         0.00000E+00
    0.00000E+00         0.00000E+00         0.00000E+00
 
   -0.69477E+05         0.37094E+07         0.00000E+00
    0.37094E+07        -0.26926E+08         0.00000E+00
    0.00000E+00         0.00000E+00         0.00000E+00
 
   -0.86404E+07        -0.52531E+05         0.00000E+00
   -0.52531E+05        -0.25807E+08         0.00000E+00
    0.00000E+00         0.00000E+00         0.00000E+00
 
   -0.84950E+07        -0.12961E+06         0.00000E+00
   -0.12961E+06        -0.25812E+08         0.00000E+00
    0.00000E+00         0.00000E+00         0.00000E+00
 
   -0.83424E+07        -0.19652E+06         0.00000E+00
   -0.19652E+06        -0.25820E+08         0.00000E+00
    0.00000E+00         0.00000E+00         0.00000E+00
 
   -0.81835E+07        -0.25335E+06         0.00000E+00
   -0.25335E+06        -0.25831E+08         0.00000E+00
    0.00000E+00         0.00000E+00         0.00000E+00
 
   -0.80193E+07        -0.30036E+06         0.00000E+00
   -0.30036E+06        -0.25844E+08         0.00000E+00
    0.00000E+00         0.00000E+00         0.00000E+00
 
   -0.78507E+07        -0.33786E+06         0.00000E+00
   -0.33786E+06        -0.25859E+08         0.00000E+00
    0.00000E+00         0.00000E+00         0.00000E+00
 
   -0.76784E+07        -0.36617E+06         0.00000E+00
   -0.36617E+06        -0.25877E+08         0.00000E+00
    0.00000E+00         0.00000E+00         0.00000E+00
 
   -0.75033E+07        -0.38566E+06         0.00000E+00
   -0.38566E+06        -0.25895E+08         0.00000E+00
    0.00000E+00         0.00000E+00         0.00000E+00
 
   -0.73260E+07        -0.39671E+06         0.00000E+00
   -0.39671E+06        -0.25915E+08         0.00000E+00
    0.00000E+00         0.00000E+00         0.00000E+00
 
   -0.71471E+07        -0.39974E+06         0.00000E+00
   -0.39974E+06        -0.25936E+08         0.00000E+00
    0.00000E+00         0.00000E+00         0.00000E+00
 
   -0.69672E+07        -0.39519E+06         0.00000E+00
   -0.39519E+06        -0.25957E+08         0.00000E+00
    0.00000E+00         0.00000E+00         0.00000E+00
 
   -0.67866E+07        -0.38350E+06         0.00000E+00
   -0.38350E+06        -0.25979E+08         0.00000E+00
    0.00000E+00         0.00000E+00         0.00000E+00
 
   -0.66058E+07        -0.36511E+06         0.00000E+00
   -0.36511E+06        -0.26002E+08         0.00000E+00
    0.00000E+00         0.00000E+00         0.00000E+00
 
   -0.64250E+07        -0.34046E+06         0.00000E+00
   -0.34046E+06        -0.26024E+08         0.00000E+00
    0.00000E+00         0.00000E+00         0.00000E+00
 
   -0.62445E+07        -0.30994E+06         0.00000E+00
   -0.30994E+06        -0.26048E+08         0.00000E+00
    0.00000E+00         0.00000E+00         0.00000E+00
 
   -0.60645E+07        -0.27394E+06         0.00000E+00
   -0.27394E+06        -0.26072E+08         0.00000E+00
    0.00000E+00         0.00000E+00         0.00000E+00
 
   -0.58849E+07        -0.23282E+06         0.00000E+00
   -0.23282E+06        -0.26096E+08         0.00000E+00
    0.00000E+00         0.00000E+00         0.00000E+00
 
   -0.57060E+07        -0.18689E+06         0.00000E+00
   -0.18689E+06        -0.26121E+08         0.00000E+00
    0.00000E+00         0.00000E+00         0.00000E+00
 
   -0.55278E+07        -0.13646E+06         0.00000E+00
   -0.13646E+06        -0.26147E+08         0.00000E+00
    0.00000E+00         0.00000E+00         0.00000E+00
 
   -0.53501E+07        -0.81760E+05         0.00000E+00
   -0.81760E+05        -0.26174E+08         0.00000E+00
    0.00000E+00         0.00000E+00         0.00000E+00
 
   -0.51731E+07        -0.23031E+05         0.00000E+00
   -0.23031E+05        -0.26202E+08         0.00000E+00
    0.00000E+00         0.00000E+00         0.00000E+00
 
   -0.49966E+07         0.39540E+05         0.00000E+00
    0.39540E+05        -0.26231E+08         0.00000E+00
    0.00000E+00         0.00000E+00         0.00000E+00
 
   -0.48205E+07         0.10579E+06         0.00000E+00
    0.10579E+06        -0.26261E+08         0.00000E+00
    0.00000E+00         0.00000E+00         0.00000E+00
 
   -0.46448E+07         0.17559E+06         0.00000E+00
    0.17559E+06        -0.26292E+08         0.00000E+00
    0.00000E+00         0.00000E+00         0.00000E+00
 
   -0.44695E+07         0.24884E+06         0.00000E+00
    0.24884E+06        -0.26325E+08         0.00000E+00
    0.00000E+00         0.00000E+00         0.00000E+00
 
   -0.42943E+07         0.32546E+06         0.00000E+00
    0.32546E+06        -0.26360E+08         0.00000E+00
    0.00000E+00         0.00000E+00         0.00000E+00
 
   -0.41192E+07         0.40540E+06         0.00000E+00
    0.40540E+06        -0.26396E+08         0.00000E+00
    0.00000E+00         0.00000E+00         0.00000E+00
 
   -0.39441E+07         0.48864E+06         0.00000E+00
    0.48864E+06        -0.26435E+08         0.00000E+00
    0.00000E+00         0.00000E+00         0.00000E+00
 
   -0.37689E+07         0.57517E+06         0.00000E+00
    0.57517E+06        -0.26475E+08         0.00000E+00
    0.00000E+00         0.00000E+00         0.00000E+00
 
   -0.35935E+07         0.66503E+06         0.00000E+00
    0.66503E+06        -0.26517E+08         0.00000E+00
    0.00000E+00         0.00000E+00         0.00000E+00
 
   -0.34178E+07         0.75825E+06         0.00000E+00
    0.75825E+06        -0.26562E+08         0.00000E+00
    0.00000E+00         0.00000E+00         0.00000E+00
 
   -0.32418E+07         0.85491E+06         0.00000E+00
    0.85491E+06        -0.26609E+08         0.00000E+00
    0.00000E+00         0.00000E+00         0.00000E+00
 
   -0.30654E+07         0.95508E+06         0.00000E+00
    0.95508E+06        -0.26658E+08         0.00000E+00
    0.00000E+00         0.00000E+00         0.00000E+00
 
   -0.28886E+07         0.10589E+07         0.00000E+00
    0.10589E+07        -0.26709E+08         0.00000E+00
    0.00000E+00         0.00000E+00         0.00000E+00
 
   -0.27113E+07         0.11664E+07         0.00000E+00
    0.11664E+07        -0.26763E+08         0.00000E+00
    0.00000E+00         0.00000E+00         0.00000E+00
 
   -0.25336E+07         0.12779E+07         0.00000E+00
    0.12779E+07        -0.26820E+08         0.00000E+00
    0.00000E+00         0.00000E+00         0.00000E+00
 
   -0.23555E+07         0.13934E+07         0.00000E+00
    0.13934E+07        -0.26878E+08         0.00000E+00
    0.00000E+00         0.00000E+00         0.00000E+00
 
   -0.21771E+07         0.15130E+07         0.00000E+00
    0.15130E+07        -0.26940E+08         0.00000E+00
    0.00000E+00         0.00000E+00         0.00000E+00
 
   -0.19985E+07         0.16371E+07         0.00000E+00
    0.16371E+07        -0.27004E+08         0.00000E+00
    0.00000E+00         0.00000E+00         0.00000E+00
 
   -0.18197E+07         0.17658E+07         0.00000E+00
    0.17658E+07        -0.27070E+08         0.00000E+00
    0.00000E+00         0.00000E+00         0.00000E+00
 
   -0.16410E+07         0.18991E+07         0.00000E+00
    0.18991E+07        -0.27138E+08         0.00000E+00
    0.00000E+00         0.00000E+00         0.00000E+00
 
   -0.14626E+07         0.20374E+07         0.00000E+00
    0.20374E+07        -0.27209E+08         0.00000E+00
    0.00000E+00         0.00000E+00         0.00000E+00
 
   -0.12847E+07         0.21808E+07         0.00000E+00
    0.21808E+07        -0.27282E+08         0.00000E+00
    0.00000E+00         0.00000E+00         0.00000E+00
 
   -0.11076E+07         0.23294E+07         0.00000E+00
    0.23294E+07        -0.27357E+08         0.00000E+00
    0.00000E+00         0.00000E+00         0.00000E+00
 
   -0.93160E+06         0.24833E+07         0.00000E+00
    0.24833E+07        -0.27433E+08         0.00000E+00
    0.00000E+00         0.00000E+00         0.00000E+00
 
   -0.75707E+06         0.26427E+07         0.00000E+00
    0.26427E+07        -0.27511E+08         0.00000E+00
    0.00000E+00         0.00000E+00         0.00000E+00
 
   -0.58436E+06         0.28076E+07         0.00000E+00
    0.28076E+07        -0.27589E+08         0.00000E+00
    0.00000E+00         0.00000E+00         0.00000E+00
 
   -0.41391E+06         0.29781E+07         0.00000E+00
    0.29781E+07        -0.27669E+08         0.00000E+00
    0.00000E+00         0.00000E+00         0.00000E+00
 
   -0.24616E+06         0.31542E+07         0.00000E+00
    0.31542E+07        -0.27750E+08         0.00000E+00
    0.00000E+00         0.00000E+00         0.00000E+00
 
   -0.81513E+05         0.33357E+07         0.00000E+00
    0.33357E+07        -0.27831E+08         0.00000E+00
    0.00000E+00         0.00000E+00         0.00000E+00
 
   -0.10044E+08        -0.66458E+05         0.00000E+00
   -0.66458E+05        -0.26750E+08         0.00000E+00
    0.00000E+00         0.00000E+00         0.00000E+00
 
   -0.98401E+07        -0.16193E+06         0.00000E+00
   -0.16193E+06        -0.26754E+08         0.00000E+00
    0.00000E+00         0.00000E+00         0.00000E+00
 
   -0.96299E+07        -0.24401E+06         0.00000E+00
   -0.24401E+06        -0.26762E+08         0.00000E+00
    0.00000E+00         0.00000E+00         0.00000E+00
 
   -0.94149E+07        -0.31338E+06         0.00000E+00
   -0.31338E+06        -0.26771E+08         0.00000E+00
    0.00000E+00         0.00000E+00         0.00000E+00
 
   -0.91964E+07        -0.37042E+06         0.00000E+00
   -0.37042E+06        -0.26783E+08         0.00000E+00
    0.00000E+00         0.00000E+00         0.00000E+00
 
   -0.89755E+07        -0.41557E+06         0.00000E+00
   -0.41557E+06        -0.26795E+08         0.00000E+00
    0.00000E+00         0.00000E+00         0.00000E+00
 
   -0.87535E+07        -0.44940E+06         0.00000E+00
   -0.44940E+06        -0.26809E+08         0.00000E+00
    0.00000E+00         0.00000E+00         0.00000E+00
 
   -0.85314E+07        -0.47264E+06         0.00000E+00
   -0.47264E+06        -0.26822E+08         0.00000E+00
    0.00000E+00         0.00000E+00         0.00000E+00
 
   -0.83100E+07        -0.48610E+06         0.00000E+00
   -0.48610E+06        -0.26835E+08         0.00000E+00
    0.00000E+00         0.00000E+00         0.00000E+00
 
   -0.80901E+07        -0.49061E+06         0.00000E+00
   -0.49061E+06        -0.26848E+08         0.00000E+00
    0.00000E+00         0.00000E+00         0.00000E+00
 
   -0.78721E+07        -0.48697E+06         0.00000E+00
   -0.48697E+06        -0.26860E+08         0.00000E+00
    0.00000E+00         0.00000E+00         0.00000E+00
 
   -0.76564E+07        -0.47598E+06         0.00000E+00
   -0.47598E+06        -0.26872E+08         0.00000E+00
    0.00000E+00         0.00000E+00         0.00000E+00
 
   -0.74432E+07        -0.45834E+06         0.00000E+00
   -0.45834E+06        -0.26884E+08         0.00000E+00
    0.00000E+00         0.00000E+00         0.00000E+00
 
   -0.72327E+07        -0.43471E+06         0.00000E+00
   -0.43471E+06        -0.26895E+08         0.00000E+00
    0.00000E+00         0.00000E+00         0.00000E+00
 
   -0.70247E+07        -0.40568E+06         0.00000E+00
   -0.40568E+06        -0.26906E+08         0.00000E+00
    0.00000E+00         0.00000E+00         0.00000E+00
 
   -0.68194E+07        -0.37177E+06         0.00000E+00
   -0.37177E+06        -0.26918E+08         0.00000E+00
    0.00000E+00         0.00000E+00         0.00000E+00
 
   -0.66165E+07        -0.33341E+06         0.00000E+00
   -0.33341E+06        -0.26930E+08         0.00000E+00
    0.00000E+00         0.00000E+00         0.00000E+00
 
   -0.64159E+07        -0.29101E+06         0.00000E+00
   -0.29101E+06        -0.26942E+08         0.00000E+00
    0.00000E+00         0.00000E+00         0.00000E+00
 
   -0.62174E+07        -0.24490E+06         0.00000E+00
   -0.24490E+06        -0.26956E+08         0.00000E+00
    0.00000E+00         0.00000E+00         0.00000E+00
 
   -0.60207E+07        -0.19536E+06         0.00000E+00
   -0.19536E+06        -0.26970E+08         0.00000E+00
    0.00000E+00         0.00000E+00         0.00000E+00
 
   -0.58258E+07        -0.14261E+06         0.00000E+00
   -0.14261E+06        -0.26986E+08         0.00000E+00
    0.00000E+00         0.00000E+00         0.00000E+00
 
   -0.56322E+07        -0.86856E+05         0.00000E+00
   -0.86856E+05        -0.27004E+08         0.00000E+00
    0.00000E+00         0.00000E+00         0.00000E+00
 
   -0.54398E+07        -0.28241E+05         0.00000E+00
   -0.28241E+05        -0.27023E+08         0.00000E+00
    0.00000E+00         0.00000E+00         0.00000E+00
 
   -0.52484E+07         0.33122E+05         0.00000E+00
    0.33122E+05        -0.27044E+08         0.00000E+00
    0.00000E+00         0.00000E+00         0.00000E+00
 
   -0.50576E+07         0.97150E+05         0.00000E+00
    0.97150E+05        -0.27067E+08         0.00000E+00
    0.00000E+00         0.00000E+00         0.00000E+00
 
   -0.48673E+07         0.16380E+06         0.00000E+00
    0.16380E+06        -0.27092E+08         0.00000E+00
    0.00000E+00         0.00000E+00         0.00000E+00
 
   -0.46771E+07         0.23304E+06         0.00000E+00
    0.23304E+06        -0.27120E+08         0.00000E+00
    0.00000E+00         0.00000E+00         0.00000E+00
 
   -0.44870E+07         0.30490E+06         0.00000E+00
    0.30490E+06        -0.27150E+08         0.00000E+00
    0.00000E+00         0.00000E+00         0.00000E+00
 
   -0.42966E+07         0.37939E+06         0.00000E+00
    0.37939E+06        -0.27183E+08         0.00000E+00
    0.00000E+00         0.00000E+00         0.00000E+00
 
   -0.41057E+07         0.45660E+06         0.00000E+00
    0.45660E+06        -0.27220E+08         0.00000E+00
    0.00000E+00         0.00000E+00         0.00000E+00
 
   -0.39142E+07         0.53660E+06         0.00000E+00
    0.53660E+06        -0.27259E+08         0.00000E+00
    0.00000E+00         0.00000E+00         0.00000E+00
 
   -0.37218E+07         0.61952E+06         0.00000E+00
    0.61952E+06        -0.27301E+08         0.00000E+00
    0.00000E+00         0.00000E+00         0.00000E+00
 
   -0.35284E+07         0.70550E+06         0.00000E+00
    0.70550E+06        -0.27347E+08         0.00000E+00
    0.00000E+00         0.00000E+00         0.00000E+00
 
   -0.33338E+07         0.79471E+06         0.00000E+00
    0.79471E+06        -0.27396E+08         0.00000E+00
    0.00000E+00         0.00000E+00         0.00000E+00
 
   -0.31379E+07         0.88736E+06         0.00000E+00
    0.88736E+06        -0.27449E+08         0.00000E+00
    0.00000E+00         0.00000E+00         0.00000E+00
 
   -0.29406E+07         0.98367E+06         0.00000E+00
    0.98367E+06        -0.27505E+08         0.00000E+00
    0.00000E+00         0.00000E+00         0.00000E+00
 
   -0.27419E+07         0.10839E+07         0.00000E+00
    0.10839E+07        -0.27565E+08         0.00000E+00
    0.00000E+00         0.00000E+00         0.00000E+00
 
   -0.25416E+07         0.11883E+07         0.00000E+00
    0.11883E+07        -0.27629E+08         0.00000E+00
    0.00000E+00         0.00000E+00         0.00000E+00
 
   -0.23399E+07         0.12973E+07         0.00000E+00
    0.12973E+07        -0.27696E+08         0.00000E+00
    0.00000E+00         0.00000E+00         0.00000E+00
 
   -0.21368E+07         0.14112E+07         0.00000E+00
    0.14112E+07        -0.27768E+08         0.00000E+00
    0.00000E+00         0.00000E+00         0.00000E+00
 
   -0.19324E+07         0.15303E+07         0.00000E+00
    0.15303E+07        -0.27843E+08         0.00000E+00
    0.00000E+00         0.00000E+00         0.00000E+00
 
   -0.17269E+07         0.16550E+07         0.00000E+00
    0.16550E+07        -0.27921E+08         0.00000E+00
    0.00000E+00         0.00000E+00         0.00000E+00
 
   -0.15207E+07         0.17857E+07         0.00000E+00
    0.17857E+07        -0.28003E+08         0.00000E+00
    0.00000E+00         0.00000E+00         0.00000E+00
 
   -0.13142E+07         0.19227E+07         0.00000E+00
    0.19227E+07        -0.28089E+08         0.00000E+00
    0.00000E+00         0.00000E+00         0.00000E+00
 
   -0.11078E+07         0.20665E+07         0.00000E+00
    0.20665E+07        -0.28177E+08         0.00000E+00
    0.00000E+00         0.00000E+00         0.00000E+00
 
   -0.90202E+06         0.22172E+07         0.00000E+00
    0.22172E+07        -0.28268E+08         0.00000E+00
    0.00000E+00         0.00000E+00         0.00000E+00
 
   -0.69748E+06         0.23750E+07         0.00000E+00
    0.23750E+07        -0.28360E+08         0.00000E+00
    0.00000E+00         0.00000E+00         0.00000E+00
 
   -0.49472E+06         0.25401E+07         0.00000E+00
    0.25401E+07        -0.28455E+08         0.00000E+00
    0.00000E+00         0.00000E+00         0.00000E+00
 
   -0.29438E+06         0.27126E+07         0.00000E+00
    0.27126E+07        -0.28551E+08         0.00000E+00
    0.00000E+00         0.00000E+00         0.00000E+00
 
   -0.97446E+05         0.28932E+07         0.00000E+00
    0.28932E+07        -0.28648E+08         0.00000E+00
    0.00000E+00         0.00000E+00         0.00000E+00
 
   -0.11543E+08        -0.80706E+05         0.00000E+00
   -0.80706E+05        -0.27689E+08         0.00000E+00
    0.00000E+00         0.00000E+00         0.00000E+00
 
   -0.11261E+08        -0.19276E+06         0.00000E+00
   -0.19276E+06        -0.27693E+08         0.00000E+00
    0.00000E+00         0.00000E+00         0.00000E+00
 
   -0.10975E+08        -0.28748E+06         0.00000E+00
   -0.28748E+06        -0.27700E+08         0.00000E+00
    0.00000E+00         0.00000E+00         0.00000E+00
 
   -0.10685E+08        -0.36386E+06         0.00000E+00
   -0.36386E+06        -0.27709E+08         0.00000E+00
    0.00000E+00         0.00000E+00         0.00000E+00
 
   -0.10396E+08        -0.42282E+06         0.00000E+00
   -0.42282E+06        -0.27716E+08         0.00000E+00
    0.00000E+00         0.00000E+00         0.00000E+00
 
   -0.10110E+08        -0.46606E+06         0.00000E+00
   -0.46606E+06        -0.27722E+08         0.00000E+00
    0.00000E+00         0.00000E+00         0.00000E+00
 
   -0.98286E+07        -0.49554E+06         0.00000E+00
   -0.49554E+06        -0.27725E+08         0.00000E+00
    0.00000E+00         0.00000E+00         0.00000E+00
 
   -0.95533E+07        -0.51317E+06         0.00000E+00
   -0.51317E+06        -0.27725E+08         0.00000E+00
    0.00000E+00         0.00000E+00         0.00000E+00
 
   -0.92846E+07        -0.52068E+06         0.00000E+00
   -0.52068E+06        -0.27723E+08         0.00000E+00
    0.00000E+00         0.00000E+00         0.00000E+00
 
   -0.90229E+07        -0.51960E+06         0.00000E+00
   -0.51960E+06        -0.27719E+08         0.00000E+00
    0.00000E+00         0.00000E+00         0.00000E+00
 
   -0.87681E+07        -0.51121E+06         0.00000E+00
   -0.51121E+06        -0.27713E+08         0.00000E+00
    0.00000E+00         0.00000E+00         0.00000E+00
 
   -0.85200E+07        -0.49661E+06         0.00000E+00
   -0.49661E+06        -0.27706E+08         0.00000E+00
    0.00000E+00         0.00000E+00         0.00000E+00
 
   -0.82782E+07        -0.47671E+06         0.00000E+00
   -0.47671E+06        -0.27699E+08         0.00000E+00
    0.00000E+00         0.00000E+00         0.00000E+00
 
   -0.80424E+07        -0.45227E+06         0.00000E+00
   -0.45227E+06        -0.27691E+08         0.00000E+00
    0.00000E+00         0.00000E+00         0.00000E+00
 
   -0.78120E+07        -0.42390E+06         0.00000E+00
   -0.42390E+06        -0.27683E+08         0.00000E+00
    0.00000E+00         0.00000E+00         0.00000E+00
 
   -0.75866E+07        -0.39211E+06         0.00000E+00
   -0.39211E+06        -0.27675E+08         0.00000E+00
    0.00000E+00         0.00000E+00         0.00000E+00
 
   -0.73657E+07        -0.35732E+06         0.00000E+00
   -0.35732E+06        -0.27669E+08         0.00000E+00
    0.00000E+00         0.00000E+00         0.00000E+00
 
   -0.71488E+07        -0.31988E+06         0.00000E+00
   -0.31988E+06        -0.27664E+08         0.00000E+00
    0.00000E+00         0.00000E+00         0.00000E+00
 
   -0.69354E+07        -0.28004E+06         0.00000E+00
   -0.28004E+06        -0.27660E+08         0.00000E+00
    0.00000E+00         0.00000E+00         0.00000E+00
 
   -0.67251E+07        -0.23802E+06         0.00000E+00
   -0.23802E+06        -0.27658E+08         0.00000E+00
    0.00000E+00         0.00000E+00         0.00000E+00
 
   -0.65173E+07        -0.19400E+06         0.00000E+00
   -0.19400E+06        -0.27658E+08         0.00000E+00
    0.00000E+00         0.00000E+00         0.00000E+00
 
   -0.63117E+07        -0.14811E+06         0.00000E+00
   -0.14811E+06        -0.27660E+08         0.00000E+00
    0.00000E+00         0.00000E+00         0.00000E+00
 
   -0.61078E+07        -0.10042E+06         0.00000E+00
   -0.10042E+06        -0.27665E+08         0.00000E+00
    0.00000E+00         0.00000E+00         0.00000E+00
 
   -0.59052E+07        -0.51006E+05         0.00000E+00
   -0.51006E+05        -0.27673E+08         0.00000E+00
    0.00000E+00         0.00000E+00         0.00000E+00
 
   -0.57035E+07         0.10133E+03         0.00000E+00
    0.10133E+03        -0.27683E+08         0.00000E+00
    0.00000E+00         0.00000E+00         0.00000E+00
 
   -0.55023E+07         0.52898E+05         0.00000E+00
    0.52898E+05        -0.27697E+08         0.00000E+00
    0.00000E+00         0.00000E+00         0.00000E+00
 
   -0.53012E+07         0.10740E+06         0.00000E+00
    0.10740E+06        -0.27714E+08         0.00000E+00
    0.00000E+00         0.00000E+00         0.00000E+00
 
   -0.51000E+07         0.16366E+06         0.00000E+00
    0.16366E+06        -0.27735E+08         0.00000E+00
    0.00000E+00         0.00000E+00         0.00000E+00
 
   -0.48981E+07         0.22173E+06         0.00000E+00
    0.22173E+06        -0.27759E+08         0.00000E+00
    0.00000E+00         0.00000E+00         0.00000E+00
 
   -0.46954E+07         0.28171E+06         0.00000E+00
    0.28171E+06        -0.27787E+08         0.00000E+00
    0.00000E+00         0.00000E+00         0.00000E+00
 
   -0.44914E+07         0.34371E+06         0.00000E+00
    0.34371E+06        -0.27819E+08         0.00000E+00
    0.00000E+00         0.00000E+00         0.00000E+00
 
   -0.42858E+07         0.40788E+06         0.00000E+00
    0.40788E+06        -0.27855E+08         0.00000E+00
    0.00000E+00         0.00000E+00         0.00000E+00
 
   -0.40783E+07         0.47438E+06         0.00000E+00
    0.47438E+06        -0.27896E+08         0.00000E+00
    0.00000E+00         0.00000E+00         0.00000E+00
 
   -0.38686E+07         0.54343E+06         0.00000E+00
    0.54343E+06        -0.27941E+08         0.00000E+00
    0.00000E+00         0.00000E+00         0.00000E+00
 
   -0.36565E+07         0.61526E+06         0.00000E+00
    0.61526E+06        -0.27991E+08         0.00000E+00
    0.00000E+00         0.00000E+00         0.00000E+00
 
   -0.34415E+07         0.69015E+06         0.00000E+00
    0.69015E+06        -0.28046E+08         0.00000E+00
    0.00000E+00         0.00000E+00         0.00000E+00
 
   -0.32234E+07         0.76842E+06         0.00000E+00
    0.76842E+06        -0.28106E+08         0.00000E+00
    0.00000E+00         0.00000E+00         0.00000E+00
 
   -0.30021E+07         0.85047E+06         0.00000E+00
    0.85047E+06        -0.28171E+08         0.00000E+00
    0.00000E+00         0.00000E+00         0.00000E+00
 
   -0.27772E+07         0.93673E+06         0.00000E+00
    0.93673E+06        -0.28241E+08         0.00000E+00
    0.00000E+00         0.00000E+00         0.00000E+00
 
   -0.25487E+07         0.10277E+07         0.00000E+00
    0.10277E+07        -0.28317E+08         0.00000E+00
    0.00000E+00         0.00000E+00         0.00000E+00
 
   -0.23165E+07         0.11240E+07         0.00000E+00
    0.11240E+07        -0.28398E+08         0.00000E+00
    0.00000E+00         0.00000E+00         0.00000E+00
 
   -0.20805E+07         0.12262E+07         0.00000E+00
    0.12262E+07        -0.28486E+08         0.00000E+00
    0.00000E+00         0.00000E+00         0.00000E+00
 
   -0.18409E+07         0.13352E+07         0.00000E+00
    0.13352E+07        -0.28578E+08         0.00000E+00
    0.00000E+00         0.00000E+00         0.00000E+00
 
   -0.15981E+07         0.14518E+07         0.00000E+00
    0.14518E+07        -0.28677E+08         0.00000E+00
    0.00000E+00         0.00000E+00         0.00000E+00
 
   -0.13525E+07         0.15769E+07         0.00000E+00
    0.15769E+07        -0.28780E+08         0.00000E+00
    0.00000E+00         0.00000E+00         0.00000E+00
 
   -0.11051E+07         0.17113E+07         0.00000E+00
    0.17113E+07        -0.28889E+08         0.00000E+00
    0.00000E+00         0.00000E+00         0.00000E+00
 
   -0.85704E+06         0.18560E+07         0.00000E+00
    0.18560E+07        -0.29002E+08         0.00000E+00
    0.00000E+00         0.00000E+00         0.00000E+00
 
   -0.60965E+06         0.20114E+07         0.00000E+00
    0.20114E+07        -0.29118E+08         0.00000E+00
    0.00000E+00         0.00000E+00         0.00000E+00
 
   -0.36431E+06         0.21776E+07         0.00000E+00
    0.21776E+07        -0.29236E+08         0.00000E+00
    0.00000E+00         0.00000E+00         0.00000E+00
 
   -0.12114E+06         0.23529E+07         0.00000E+00
    0.23529E+07        -0.29355E+08         0.00000E+00
    0.00000E+00         0.00000E+00         0.00000E+00
 
   -0.13130E+08        -0.10691E+06         0.00000E+00
   -0.10691E+06        -0.28630E+08         0.00000E+00
    0.00000E+00         0.00000E+00         0.00000E+00
 
   -0.12721E+08        -0.23074E+06         0.00000E+00
   -0.23074E+06        -0.28641E+08         0.00000E+00
    0.00000E+00         0.00000E+00         0.00000E+00
 
   -0.12314E+08        -0.31636E+06         0.00000E+00
   -0.31636E+06        -0.28644E+08         0.00000E+00
    0.00000E+00         0.00000E+00         0.00000E+00
 
   -0.11920E+08        -0.37393E+06         0.00000E+00
   -0.37393E+06        -0.28637E+08         0.00000E+00
    0.00000E+00         0.00000E+00         0.00000E+00
 
   -0.11544E+08        -0.41087E+06         0.00000E+00
   -0.41087E+06        -0.28622E+08         0.00000E+00
    0.00000E+00         0.00000E+00         0.00000E+00
 
   -0.11185E+08        -0.43252E+06         0.00000E+00
   -0.43252E+06        -0.28601E+08         0.00000E+00
    0.00000E+00         0.00000E+00         0.00000E+00
 
   -0.10845E+08        -0.44274E+06         0.00000E+00
   -0.44274E+06        -0.28574E+08         0.00000E+00
    0.00000E+00         0.00000E+00         0.00000E+00
 
   -0.10522E+08        -0.44434E+06         0.00000E+00
   -0.44434E+06        -0.28543E+08         0.00000E+00
    0.00000E+00         0.00000E+00         0.00000E+00
 
   -0.10213E+08        -0.43933E+06         0.00000E+00
   -0.43933E+06        -0.28510E+08         0.00000E+00
    0.00000E+00         0.00000E+00         0.00000E+00
 
   -0.99194E+07        -0.42922E+06         0.00000E+00
   -0.42922E+06        -0.28475E+08         0.00000E+00
    0.00000E+00         0.00000E+00         0.00000E+00
 
   -0.96379E+07        -0.41510E+06         0.00000E+00
   -0.41510E+06        -0.28440E+08         0.00000E+00
    0.00000E+00         0.00000E+00         0.00000E+00
 
   -0.93676E+07        -0.39779E+06         0.00000E+00
   -0.39779E+06        -0.28404E+08         0.00000E+00
    0.00000E+00         0.00000E+00         0.00000E+00
 
   -0.91072E+07        -0.37792E+06         0.00000E+00
   -0.37792E+06        -0.28369E+08         0.00000E+00
    0.00000E+00         0.00000E+00         0.00000E+00
 
   -0.88557E+07        -0.35595E+06         0.00000E+00
   -0.35595E+06        -0.28335E+08         0.00000E+00
    0.00000E+00         0.00000E+00         0.00000E+00
 
   -0.86119E+07        -0.33224E+06         0.00000E+00
   -0.33224E+06        -0.28303E+08         0.00000E+00
    0.00000E+00         0.00000E+00         0.00000E+00
 
   -0.83750E+07        -0.30705E+06         0.00000E+00
   -0.30705E+06        -0.28272E+08         0.00000E+00
    0.00000E+00         0.00000E+00         0.00000E+00
 
   -0.81440E+07        -0.28060E+06         0.00000E+00
   -0.28060E+06        -0.28244E+08         0.00000E+00
    0.00000E+00         0.00000E+00         0.00000E+00
 
   -0.79182E+07        -0.25303E+06         0.00000E+00
   -0.25303E+06        -0.28219E+08         0.00000E+00
    0.00000E+00         0.00000E+00         0.00000E+00
 
   -0.76967E+07        -0.22446E+06         0.00000E+00
   -0.22446E+06        -0.28196E+08         0.00000E+00
    0.00000E+00         0.00000E+00         0.00000E+00
 
   -0.74790E+07        -0.19498E+06         0.00000E+00
   -0.19498E+06        -0.28177E+08         0.00000E+00
    0.00000E+00         0.00000E+00         0.00000E+00
 
   -0.72645E+07        -0.16465E+06         0.00000E+00
   -0.16465E+06        -0.28160E+08         0.00000E+00
    0.00000E+00         0.00000E+00         0.00000E+00
 
   -0.70524E+07        -0.13350E+06         0.00000E+00
   -0.13350E+06        -0.28147E+08         0.00000E+00
    0.00000E+00         0.00000E+00         0.00000E+00
 
   -0.68422E+07        -0.10155E+06         0.00000E+00
   -0.10155E+06        -0.28138E+08         0.00000E+00
    0.00000E+00         0.00000E+00         0.00000E+00
 
   -0.66335E+07        -0.68806E+05         0.00000E+00
   -0.68806E+05        -0.28132E+08         0.00000E+00
    0.00000E+00         0.00000E+00         0.00000E+00
 
   -0.64256E+07        -0.35255E+05         0.00000E+00
   -0.35255E+05        -0.28131E+08         0.00000E+00
    0.00000E+00         0.00000E+00         0.00000E+00
 
   -0.62182E+07        -0.87054E+03         0.00000E+00
   -0.87054E+03        -0.28133E+08         0.00000E+00
    0.00000E+00         0.00000E+00         0.00000E+00
 
   -0.60108E+07         0.34386E+05         0.00000E+00
    0.34386E+05        -0.28140E+08         0.00000E+00
    0.00000E+00         0.00000E+00         0.00000E+00
 
   -0.58028E+07         0.70566E+05         0.00000E+00
    0.70566E+05        -0.28151E+08         0.00000E+00
    0.00000E+00         0.00000E+00         0.00000E+00
 
   -0.55939E+07         0.10774E+06         0.00000E+00
    0.10774E+06        -0.28167E+08         0.00000E+00
    0.00000E+00         0.00000E+00         0.00000E+00
 
   -0.53836E+07         0.14598E+06         0.00000E+00
    0.14598E+06        -0.28187E+08         0.00000E+00
    0.00000E+00         0.00000E+00         0.00000E+00
 
   -0.51714E+07         0.18539E+06         0.00000E+00
    0.18539E+06        -0.28212E+08         0.00000E+00
    0.00000E+00         0.00000E+00         0.00000E+00
 
   -0.49569E+07         0.22610E+06         0.00000E+00
    0.22610E+06        -0.28242E+08         0.00000E+00
    0.00000E+00         0.00000E+00         0.00000E+00
 
   -0.47396E+07         0.26822E+06         0.00000E+00
    0.26822E+06        -0.28277E+08         0.00000E+00
    0.00000E+00         0.00000E+00         0.00000E+00
 
   -0.45191E+07         0.31194E+06         0.00000E+00
    0.31194E+06        -0.28318E+08         0.00000E+00
    0.00000E+00         0.00000E+00         0.00000E+00
 
   -0.42948E+07         0.35745E+06         0.00000E+00
    0.35745E+06        -0.28364E+08         0.00000E+00
    0.00000E+00         0.00000E+00         0.00000E+00
 
   -0.40663E+07         0.40498E+06         0.00000E+00
    0.40498E+06        -0.28416E+08         0.00000E+00
    0.00000E+00         0.00000E+00         0.00000E+00
 
   -0.38331E+07         0.45480E+06         0.00000E+00
    0.45480E+06        -0.28474E+08         0.00000E+00
    0.00000E+00         0.00000E+00         0.00000E+00
 
   -0.35945E+07         0.50726E+06         0.00000E+00
    0.50726E+06        -0.28539E+08         0.00000E+00
    0.00000E+00         0.00000E+00         0.00000E+00
 
   -0.33501E+07         0.56276E+06         0.00000E+00
    0.56276E+06        -0.28610E+08         0.00000E+00
    0.00000E+00         0.00000E+00         0.00000E+00
 
   -0.30991E+07         0.62178E+06         0.00000E+00
    0.62178E+06        -0.28689E+08         0.00000E+00
    0.00000E+00         0.00000E+00         0.00000E+00
 
   -0.28410E+07         0.68495E+06         0.00000E+00
    0.68495E+06        -0.28774E+08         0.00000E+00
    0.00000E+00         0.00000E+00         0.00000E+00
 
   -0.25752E+07         0.75301E+06         0.00000E+00
    0.75301E+06        -0.28868E+08         0.00000E+00
    0.00000E+00         0.00000E+00         0.00000E+00
 
   -0.23009E+07         0.82692E+06         0.00000E+00
    0.82692E+06        -0.28970E+08         0.00000E+00
    0.00000E+00         0.00000E+00         0.00000E+00
 
   -0.20177E+07         0.90787E+06         0.00000E+00
    0.90787E+06        -0.29080E+08         0.00000E+00
    0.00000E+00         0.00000E+00         0.00000E+00
 
   -0.17251E+07         0.99741E+06         0.00000E+00
    0.99741E+06        -0.29200E+08         0.00000E+00
    0.00000E+00         0.00000E+00         0.00000E+00
 
   -0.14230E+07         0.10975E+07         0.00000E+00
    0.10975E+07        -0.29329E+08         0.00000E+00
    0.00000E+00         0.00000E+00         0.00000E+00
 
   -0.11119E+07         0.12107E+07         0.00000E+00
    0.12107E+07        -0.29468E+08         0.00000E+00
    0.00000E+00         0.00000E+00         0.00000E+00
 
   -0.79352E+06         0.13404E+07         0.00000E+00
    0.13404E+07        -0.29616E+08         0.00000E+00
    0.00000E+00         0.00000E+00         0.00000E+00
 
   -0.47181E+06         0.14909E+07         0.00000E+00
    0.14909E+07        -0.29774E+08         0.00000E+00
    0.00000E+00         0.00000E+00         0.00000E+00
 
   -0.15542E+06         0.16677E+07         0.00000E+00
    0.16677E+07        -0.29937E+08         0.00000E+00
    0.00000E+00         0.00000E+00         0.00000E+00
 
   -0.14667E+08        -0.13689E+06         0.00000E+00
   -0.13689E+06        -0.29525E+08         0.00000E+00
    0.00000E+00         0.00000E+00         0.00000E+00
 
   -0.14038E+08        -0.17203E+06         0.00000E+00
   -0.17203E+06        -0.29484E+08         0.00000E+00
    0.00000E+00         0.00000E+00         0.00000E+00
 
   -0.13489E+08        -0.18984E+06         0.00000E+00
   -0.18984E+06        -0.29428E+08         0.00000E+00
    0.00000E+00         0.00000E+00         0.00000E+00
 
   -0.12999E+08        -0.19775E+06         0.00000E+00
   -0.19775E+06        -0.29365E+08         0.00000E+00
    0.00000E+00         0.00000E+00         0.00000E+00
 
   -0.12557E+08        -0.19975E+06         0.00000E+00
   -0.19975E+06        -0.29297E+08         0.00000E+00
    0.00000E+00         0.00000E+00         0.00000E+00
 
   -0.12152E+08        -0.19807E+06         0.00000E+00
   -0.19807E+06        -0.29226E+08         0.00000E+00
    0.00000E+00         0.00000E+00         0.00000E+00
 
   -0.11779E+08        -0.19398E+06         0.00000E+00
   -0.19398E+06        -0.29155E+08         0.00000E+00
    0.00000E+00         0.00000E+00         0.00000E+00
 
   -0.11431E+08        -0.18827E+06         0.00000E+00
   -0.18827E+06        -0.29085E+08         0.00000E+00
    0.00000E+00         0.00000E+00         0.00000E+00
 
   -0.11104E+08        -0.18141E+06         0.00000E+00
   -0.18141E+06        -0.29016E+08         0.00000E+00
    0.00000E+00         0.00000E+00         0.00000E+00
 
   -0.10796E+08        -0.17371E+06         0.00000E+00
   -0.17371E+06        -0.28949E+08         0.00000E+00
    0.00000E+00         0.00000E+00         0.00000E+00
 
   -0.10504E+08        -0.16537E+06         0.00000E+00
   -0.16537E+06        -0.28884E+08         0.00000E+00
    0.00000E+00         0.00000E+00         0.00000E+00
 
   -0.10226E+08        -0.15655E+06         0.00000E+00
   -0.15655E+06        -0.28823E+08         0.00000E+00
    0.00000E+00         0.00000E+00         0.00000E+00
 
   -0.99587E+07        -0.14733E+06         0.00000E+00
   -0.14733E+06        -0.28765E+08         0.00000E+00
    0.00000E+00         0.00000E+00         0.00000E+00
 
   -0.97019E+07        -0.13779E+06         0.00000E+00
   -0.13779E+06        -0.28710E+08         0.00000E+00
    0.00000E+00         0.00000E+00         0.00000E+00
 
   -0.94539E+07        -0.12798E+06         0.00000E+00
   -0.12798E+06        -0.28658E+08         0.00000E+00
    0.00000E+00         0.00000E+00         0.00000E+00
 
   -0.92134E+07        -0.11794E+06         0.00000E+00
   -0.11794E+06        -0.28611E+08         0.00000E+00
    0.00000E+00         0.00000E+00         0.00000E+00
 
   -0.89793E+07        -0.10768E+06         0.00000E+00
   -0.10768E+06        -0.28567E+08         0.00000E+00
    0.00000E+00         0.00000E+00         0.00000E+00
 
   -0.87509E+07        -0.97229E+05         0.00000E+00
   -0.97229E+05        -0.28527E+08         0.00000E+00
    0.00000E+00         0.00000E+00         0.00000E+00
 
   -0.85271E+07        -0.86594E+05         0.00000E+00
   -0.86594E+05        -0.28492E+08         0.00000E+00
    0.00000E+00         0.00000E+00         0.00000E+00
 
   -0.83073E+07        -0.75779E+05         0.00000E+00
   -0.75779E+05        -0.28460E+08         0.00000E+00
    0.00000E+00         0.00000E+00         0.00000E+00
 
   -0.80906E+07        -0.64786E+05         0.00000E+00
   -0.64786E+05        -0.28433E+08         0.00000E+00
    0.00000E+00         0.00000E+00         0.00000E+00
 
   -0.78766E+07        -0.53611E+05         0.00000E+00
   -0.53611E+05        -0.28410E+08         0.00000E+00
    0.00000E+00         0.00000E+00         0.00000E+00
 
   -0.76644E+07        -0.42247E+05         0.00000E+00
   -0.42247E+05        -0.28391E+08         0.00000E+00
    0.00000E+00         0.00000E+00         0.00000E+00
 
   -0.74537E+07        -0.30684E+05         0.00000E+00
   -0.30684E+05        -0.28377E+08         0.00000E+00
    0.00000E+00         0.00000E+00         0.00000E+00
 
   -0.72438E+07        -0.18908E+05         0.00000E+00
   -0.18908E+05        -0.28368E+08         0.00000E+00
    0.00000E+00         0.00000E+00         0.00000E+00
 
   -0.70341E+07        -0.69032E+04         0.00000E+00
   -0.69032E+04        -0.28363E+08         0.00000E+00
    0.00000E+00         0.00000E+00         0.00000E+00
 
   -0.68242E+07         0.53516E+04         0.00000E+00
    0.53516E+04        -0.28363E+08         0.00000E+00
    0.00000E+00         0.00000E+00         0.00000E+00
 
   -0.66136E+07         0.17880E+05         0.00000E+00
    0.17880E+05        -0.28368E+08         0.00000E+00
    0.00000E+00         0.00000E+00         0.00000E+00
 
   -0.64018E+07         0.30710E+05         0.00000E+00
    0.30710E+05        -0.28378E+08         0.00000E+00
    0.00000E+00         0.00000E+00         0.00000E+00
 
   -0.61882E+07         0.43875E+05         0.00000E+00
    0.43875E+05        -0.28394E+08         0.00000E+00
    0.00000E+00         0.00000E+00         0.00000E+00
 
   -0.59723E+07         0.57414E+05         0.00000E+00
    0.57414E+05        -0.28414E+08         0.00000E+00
    0.00000E+00         0.00000E+00         0.00000E+00
 
   -0.57537E+07         0.71370E+05         0.00000E+00
    0.71370E+05        -0.28440E+08         0.00000E+00
    0.00000E+00         0.00000E+00         0.00000E+00
 
   -0.55318E+07         0.85798E+05         0.00000E+00
    0.85798E+05        -0.28472E+08         0.00000E+00
    0.00000E+00         0.00000E+00         0.00000E+00
 
   -0.53059E+07         0.10076E+06         0.00000E+00
    0.10076E+06        -0.28509E+08         0.00000E+00
    0.00000E+00         0.00000E+00         0.00000E+00
 
   -0.50756E+07         0.11633E+06         0.00000E+00
    0.11633E+06        -0.28553E+08         0.00000E+00
    0.00000E+00         0.00000E+00         0.00000E+00
 
   -0.48400E+07         0.13260E+06         0.00000E+00
    0.13260E+06        -0.28603E+08         0.00000E+00
    0.00000E+00         0.00000E+00         0.00000E+00
 
   -0.45986E+07         0.14967E+06         0.00000E+00
    0.14967E+06        -0.28659E+08         0.00000E+00
    0.00000E+00         0.00000E+00         0.00000E+00
 
   -0.43505E+07         0.16768E+06         0.00000E+00
    0.16768E+06        -0.28723E+08         0.00000E+00
    0.00000E+00         0.00000E+00         0.00000E+00
 
   -0.40948E+07         0.18679E+06         0.00000E+00
    0.18679E+06        -0.28793E+08         0.00000E+00
    0.00000E+00         0.00000E+00         0.00000E+00
 
   -0.38305E+07         0.20721E+06         0.00000E+00
    0.20721E+06        -0.28872E+08         0.00000E+00
    0.00000E+00         0.00000E+00         0.00000E+00
 
   -0.35564E+07         0.22920E+06         0.00000E+00
    0.22920E+06        -0.28959E+08         0.00000E+00
    0.00000E+00         0.00000E+00         0.00000E+00
 
   -0.32712E+07         0.25310E+06         0.00000E+00
    0.25310E+06        -0.29055E+08         0.00000E+00
    0.00000E+00         0.00000E+00         0.00000E+00
 
   -0.29732E+07         0.27937E+06         0.00000E+00
    0.27937E+06        -0.29162E+08         0.00000E+00
    0.00000E+00         0.00000E+00         0.00000E+00
 
   -0.26603E+07         0.30864E+06         0.00000E+00
    0.30864E+06        -0.29279E+08         0.00000E+00
    0.00000E+00         0.00000E+00         0.00000E+00
 
   -0.23301E+07         0.34175E+06         0.00000E+00
    0.34175E+06        -0.29408E+08         0.00000E+00
    0.00000E+00         0.00000E+00         0.00000E+00
 
   -0.19795E+07         0.37996E+06         0.00000E+00
    0.37996E+06        -0.29551E+08         0.00000E+00
    0.00000E+00         0.00000E+00         0.00000E+00
 
   -0.16042E+07         0.42513E+06         0.00000E+00
    0.42513E+06        -0.29709E+08         0.00000E+00
    0.00000E+00         0.00000E+00         0.00000E+00
 
   -0.11986E+07         0.48009E+06         0.00000E+00
    0.48009E+06        -0.29887E+08         0.00000E+00
    0.00000E+00         0.00000E+00         0.00000E+00
 
   -0.75474E+06         0.54946E+06         0.00000E+00
    0.54946E+06        -0.30087E+08         0.00000E+00
    0.00000E+00         0.00000E+00         0.00000E+00
 
   -0.26105E+06         0.64093E+06         0.00000E+00
    0.64093E+06        -0.30315E+08         0.00000E+00
    0.00000E+00         0.00000E+00         0.00000E+00
 
TENSORS stresstot double 
   -0.49539E+08        -0.38793E+04         0.00000E+00
   -0.38793E+04        -0.50001E+08         0.00000E+00
    0.00000E+00         0.00000E+00        -0.49987E+08
 
   -0.49555E+08        -0.46645E+04         0.00000E+00
   -0.46645E+04        -0.50002E+08         0.00000E+00
    0.00000E+00         0.00000E+00        -0.49987E+08
 
   -0.49569E+08        -0.49615E+04         0.00000E+00
   -0.49615E+04        -0.50003E+08         0.00000E+00
    0.00000E+00         0.00000E+00        -0.49987E+08
 
   -0.49581E+08        -0.49863E+04         0.00000E+00
   -0.49863E+04        -0.50005E+08         0.00000E+00
    0.00000E+00         0.00000E+00        -0.49987E+08
 
   -0.49593E+08        -0.48542E+04         0.00000E+00
   -0.48542E+04        -0.50006E+08         0.00000E+00
    0.00000E+00         0.00000E+00        -0.49987E+08
 
   -0.49603E+08        -0.46289E+04         0.00000E+00
   -0.46289E+04        -0.50008E+08         0.00000E+00
    0.00000E+00         0.00000E+00        -0.49987E+08
 
   -0.49613E+08        -0.43466E+04         0.00000E+00
   -0.43466E+04        -0.50009E+08         0.00000E+00
    0.00000E+00         0.00000E+00        -0.49987E+08
 
   -0.49622E+08        -0.40286E+04         0.00000E+00
   -0.40286E+04        -0.50011E+08         0.00000E+00
    0.00000E+00         0.00000E+00        -0.49987E+08
 
   -0.49630E+08        -0.36879E+04         0.00000E+00
   -0.36879E+04        -0.50012E+08         0.00000E+00
    0.00000E+00         0.00000E+00        -0.49987E+08
 
   -0.49639E+08        -0.33327E+04         0.00000E+00
   -0.33327E+04        -0.50014E+08         0.00000E+00
    0.00000E+00         0.00000E+00        -0.49987E+08
 
   -0.49647E+08        -0.29683E+04         0.00000E+00
   -0.29683E+04        -0.50015E+08         0.00000E+00
    0.00000E+00         0.00000E+00        -0.49987E+08
 
   -0.49654E+08        -0.25982E+04         0.00000E+00
   -0.25982E+04        -0.50016E+08         0.00000E+00
    0.00000E+00         0.00000E+00        -0.49987E+08
 
   -0.49662E+08        -0.22246E+04         0.00000E+00
   -0.22246E+04        -0.50017E+08         0.00000E+00
    0.00000E+00         0.00000E+00        -0.49987E+08
 
   -0.49669E+08        -0.18493E+04         0.00000E+00
   -0.18493E+04        -0.50017E+08         0.00000E+00
    0.00000E+00         0.00000E+00        -0.49987E+08
 
   -0.49676E+08        -0.14732E+04         0.00000E+00
   -0.14732E+04        -0.50018E+08         0.00000E+00
    0.00000E+00         0.00000E+00        -0.49987E+08
 
   -0.49683E+08        -0.10971E+04         0.00000E+00
   -0.10971E+04        -0.50019E+08         0.00000E+00
    0.00000E+00         0.00000E+00        -0.49987E+08
 
   -0.49690E+08        -0.72129E+03         0.00000E+00
   -0.72129E+03        -0.50019E+08         0.00000E+00
    0.00000E+00         0.00000E+00        -0.49987E+08
 
   -0.49697E+08        -0.34614E+03         0.00000E+00
   -0.34614E+03        -0.50019E+08         0.00000E+00
    0.00000E+00         0.00000E+00        -0.49987E+08
 
   -0.49704E+08         0.28300E+02         0.00000E+00
    0.28300E+02        -0.50019E+08         0.00000E+00
    0.00000E+00         0.00000E+00        -0.49987E+08
 
   -0.49711E+08         0.40206E+03         0.00000E+00
    0.40206E+03        -0.50019E+08         0.00000E+00
    0.00000E+00         0.00000E+00        -0.49987E+08
 
   -0.49718E+08         0.77528E+03         0.00000E+00
    0.77528E+03        -0.50019E+08         0.00000E+00
    0.00000E+00         0.00000E+00        -0.49987E+08
 
   -0.49725E+08         0.11482E+04         0.00000E+00
    0.11482E+04        -0.50018E+08         0.00000E+00
    0.00000E+00         0.00000E+00        -0.49987E+08
 
   -0.49732E+08         0.15210E+04         0.00000E+00
    0.15210E+04        -0.50018E+08         0.00000E+00
    0.00000E+00         0.00000E+00        -0.49987E+08
 
   -0.49739E+08         0.18941E+04         0.00000E+00
    0.18941E+04        -0.50017E+08         0.00000E+00
    0.00000E+00         0.00000E+00        -0.49987E+08
 
   -0.49746E+08         0.22680E+04         0.00000E+00
    0.22680E+04        -0.50016E+08         0.00000E+00
    0.00000E+00         0.00000E+00        -0.49987E+08
 
   -0.49753E+08         0.26431E+04         0.00000E+00
    0.26431E+04        -0.50015E+08         0.00000E+00
    0.00000E+00         0.00000E+00        -0.49988E+08
 
   -0.49760E+08         0.30200E+04         0.00000E+00
    0.30200E+04        -0.50014E+08         0.00000E+00
    0.00000E+00         0.00000E+00        -0.49988E+08
 
   -0.49767E+08         0.33994E+04         0.00000E+00
    0.33994E+04        -0.50013E+08         0.00000E+00
    0.00000E+00         0.00000E+00        -0.49988E+08
 
   -0.49775E+08         0.37820E+04         0.00000E+00
    0.37820E+04        -0.50011E+08         0.00000E+00
    0.00000E+00         0.00000E+00        -0.49988E+08
 
   -0.49782E+08         0.41688E+04         0.00000E+00
    0.41688E+04        -0.50010E+08         0.00000E+00
    0.00000E+00         0.00000E+00        -0.49988E+08
 
   -0.49790E+08         0.45607E+04         0.00000E+00
    0.45607E+04        -0.50008E+08         0.00000E+00
    0.00000E+00         0.00000E+00        -0.49988E+08
 
   -0.49797E+08         0.49588E+04         0.00000E+00
    0.49588E+04        -0.50006E+08         0.00000E+00
    0.00000E+00         0.00000E+00        -0.49988E+08
 
   -0.49805E+08         0.53647E+04         0.00000E+00
    0.53647E+04        -0.50004E+08         0.00000E+00
    0.00000E+00         0.00000E+00        -0.49988E+08
 
   -0.49813E+08         0.57798E+04         0.00000E+00
    0.57798E+04        -0.50002E+08         0.00000E+00
    0.00000E+00         0.00000E+00        -0.49988E+08
 
   -0.49821E+08         0.62061E+04         0.00000E+00
    0.62061E+04        -0.49999E+08         0.00000E+00
    0.00000E+00         0.00000E+00        -0.49988E+08
 
   -0.49829E+08         0.66459E+04         0.00000E+00
    0.66459E+04        -0.49997E+08         0.00000E+00
    0.00000E+00         0.00000E+00        -0.49988E+08
 
   -0.49838E+08         0.71019E+04         0.00000E+00
    0.71019E+04        -0.49994E+08         0.00000E+00
    0.00000E+00         0.00000E+00        -0.49988E+08
 
   -0.49846E+08         0.75775E+04         0.00000E+00
    0.75775E+04        -0.49991E+08         0.00000E+00
    0.00000E+00         0.00000E+00        -0.49988E+08
 
   -0.49855E+08         0.80769E+04         0.00000E+00
    0.80769E+04        -0.49988E+08         0.00000E+00
    0.00000E+00         0.00000E+00        -0.49988E+08
 
   -0.49864E+08         0.86053E+04         0.00000E+00
    0.86053E+04        -0.49985E+08         0.00000E+00
    0.00000E+00         0.00000E+00        -0.49988E+08
 
   -0.49874E+08         0.91696E+04         0.00000E+00
    0.91696E+04        -0.49981E+08         0.00000E+00
    0.00000E+00         0.00000E+00        -0.49988E+08
 
   -0.49883E+08         0.97785E+04         0.00000E+00
    0.97785E+04        -0.49977E+08         0.00000E+00
    0.00000E+00         0.00000E+00        -0.49988E+08
 
   -0.49893E+08         0.10444E+05         0.00000E+00
    0.10444E+05        -0.49973E+08         0.00000E+00
    0.00000E+00         0.00000E+00        -0.49988E+08
 
   -0.49904E+08         0.11181E+05         0.00000E+00
    0.11181E+05        -0.49969E+08         0.00000E+00
    0.00000E+00         0.00000E+00        -0.49988E+08
 
   -0.49915E+08         0.12013E+05         0.00000E+00
    0.12013E+05        -0.49964E+08         0.00000E+00
    0.00000E+00         0.00000E+00        -0.49988E+08
 
   -0.49926E+08         0.12971E+05         0.00000E+00
    0.12971E+05        -0.49959E+08         0.00000E+00
    0.00000E+00         0.00000E+00        -0.49988E+08
 
   -0.49938E+08         0.14104E+05         0.00000E+00
    0.14104E+05        -0.49954E+08         0.00000E+00
    0.00000E+00         0.00000E+00        -0.49988E+08
 
   -0.49951E+08         0.15484E+05         0.00000E+00
    0.15484E+05        -0.49948E+08         0.00000E+00
    0.00000E+00         0.00000E+00        -0.49988E+08
 
   -0.49965E+08         0.17230E+05         0.00000E+00
    0.17230E+05        -0.49942E+08         0.00000E+00
    0.00000E+00         0.00000E+00        -0.49988E+08
 
   -0.49980E+08         0.19539E+05         0.00000E+00
    0.19539E+05        -0.49935E+08         0.00000E+00
    0.00000E+00         0.00000E+00        -0.49988E+08
 
   -0.49554E+08        -0.27033E+04         0.00000E+00
   -0.27033E+04        -0.50000E+08         0.00000E+00
    0.00000E+00         0.00000E+00        -0.49961E+08
 
   -0.49564E+08        -0.56595E+04         0.00000E+00
   -0.56595E+04        -0.49999E+08         0.00000E+00
    0.00000E+00         0.00000E+00        -0.49961E+08
 
   -0.49574E+08        -0.75461E+04         0.00000E+00
   -0.75461E+04        -0.49999E+08         0.00000E+00
    0.00000E+00         0.00000E+00        -0.49961E+08
 
   -0.49584E+08        -0.86556E+04         0.00000E+00
   -0.86556E+04        -0.49999E+08         0.00000E+00
    0.00000E+00         0.00000E+00        -0.49961E+08
 
   -0.49593E+08        -0.92013E+04         0.00000E+00
   -0.92013E+04        -0.49999E+08         0.00000E+00
    0.00000E+00         0.00000E+00        -0.49961E+08
 
   -0.49603E+08        -0.93362E+04         0.00000E+00
   -0.93362E+04        -0.49999E+08         0.00000E+00
    0.00000E+00         0.00000E+00        -0.49961E+08
 
   -0.49611E+08        -0.91706E+04         0.00000E+00
   -0.91706E+04        -0.50000E+08         0.00000E+00
    0.00000E+00         0.00000E+00        -0.49962E+08
 
   -0.49620E+08        -0.87835E+04         0.00000E+00
   -0.87835E+04        -0.50000E+08         0.00000E+00
    0.00000E+00         0.00000E+00        -0.49962E+08
 
   -0.49628E+08        -0.82322E+04         0.00000E+00
   -0.82322E+04        -0.50000E+08         0.00000E+00
    0.00000E+00         0.00000E+00        -0.49962E+08
 
   -0.49636E+08        -0.75583E+04         0.00000E+00
   -0.75583E+04        -0.50001E+08         0.00000E+00
    0.00000E+00         0.00000E+00        -0.49962E+08
 
   -0.49644E+08        -0.67924E+04         0.00000E+00
   -0.67924E+04        -0.50001E+08         0.00000E+00
    0.00000E+00         0.00000E+00        -0.49962E+08
 
   -0.49651E+08        -0.59571E+04         0.00000E+00
   -0.59571E+04        -0.50002E+08         0.00000E+00
    0.00000E+00         0.00000E+00        -0.49962E+08
 
   -0.49659E+08        -0.50691E+04         0.00000E+00
   -0.50691E+04        -0.50002E+08         0.00000E+00
    0.00000E+00         0.00000E+00        -0.49962E+08
 
   -0.49666E+08        -0.41409E+04         0.00000E+00
   -0.41409E+04        -0.50002E+08         0.00000E+00
    0.00000E+00         0.00000E+00        -0.49962E+08
 
   -0.49673E+08        -0.31820E+04         0.00000E+00
   -0.31820E+04        -0.50002E+08         0.00000E+00
    0.00000E+00         0.00000E+00        -0.49962E+08
 
   -0.49680E+08        -0.21994E+04         0.00000E+00
   -0.21994E+04        -0.50002E+08         0.00000E+00
    0.00000E+00         0.00000E+00        -0.49962E+08
 
   -0.49687E+08        -0.11983E+04         0.00000E+00
   -0.11983E+04        -0.50002E+08         0.00000E+00
    0.00000E+00         0.00000E+00        -0.49962E+08
 
   -0.49694E+08        -0.18275E+03         0.00000E+00
   -0.18275E+03        -0.50002E+08         0.00000E+00
    0.00000E+00         0.00000E+00        -0.49962E+08
 
   -0.49701E+08         0.84448E+03         0.00000E+00
    0.84448E+03        -0.50002E+08         0.00000E+00
    0.00000E+00         0.00000E+00        -0.49962E+08
 
   -0.49708E+08         0.18813E+04         0.00000E+00
    0.18813E+04        -0.50001E+08         0.00000E+00
    0.00000E+00         0.00000E+00        -0.49962E+08
 
   -0.49714E+08         0.29265E+04         0.00000E+00
    0.29265E+04        -0.50001E+08         0.00000E+00
    0.00000E+00         0.00000E+00        -0.49963E+08
 
   -0.49721E+08         0.39792E+04         0.00000E+00
    0.39792E+04        -0.50000E+08         0.00000E+00
    0.00000E+00         0.00000E+00        -0.49963E+08
 
   -0.49728E+08         0.50390E+04         0.00000E+00
    0.50390E+04        -0.49999E+08         0.00000E+00
    0.00000E+00         0.00000E+00        -0.49963E+08
 
   -0.49735E+08         0.61060E+04         0.00000E+00
    0.61060E+04        -0.49998E+08         0.00000E+00
    0.00000E+00         0.00000E+00        -0.49963E+08
 
   -0.49742E+08         0.71806E+04         0.00000E+00
    0.71806E+04        -0.49997E+08         0.00000E+00
    0.00000E+00         0.00000E+00        -0.49963E+08
 
   -0.49749E+08         0.82637E+04         0.00000E+00
    0.82637E+04        -0.49996E+08         0.00000E+00
    0.00000E+00         0.00000E+00        -0.49963E+08
 
   -0.49756E+08         0.93563E+04         0.00000E+00
    0.93563E+04        -0.49995E+08         0.00000E+00
    0.00000E+00         0.00000E+00        -0.49963E+08
 
   -0.49764E+08         0.10460E+05         0.00000E+00
    0.10460E+05        -0.49994E+08         0.00000E+00
    0.00000E+00         0.00000E+00        -0.49963E+08
 
   -0.49771E+08         0.11576E+05         0.00000E+00
    0.11576E+05        -0.49992E+08         0.00000E+00
    0.00000E+00         0.00000E+00        -0.49963E+08
 
   -0.49778E+08         0.12707E+05         0.00000E+00
    0.12707E+05        -0.49990E+08         0.00000E+00
    0.00000E+00         0.00000E+00        -0.49963E+08
 
   -0.49786E+08         0.13855E+05         0.00000E+00
    0.13855E+05        -0.49988E+08         0.00000E+00
    0.00000E+00         0.00000E+00        -0.49963E+08
 
   -0.49793E+08         0.15024E+05         0.00000E+00
    0.15024E+05        -0.49986E+08         0.00000E+00
    0.00000E+00         0.00000E+00        -0.49963E+08
 
   -0.49801E+08         0.16217E+05         0.00000E+00
    0.16217E+05        -0.49984E+08         0.00000E+00
    0.00000E+00         0.00000E+00        -0.49963E+08
 
   -0.49809E+08         0.17438E+05         0.00000E+00
    0.17438E+05        -0.49982E+08         0.00000E+00
    0.00000E+00         0.00000E+00        -0.49964E+08
 
   -0.49817E+08         0.18692E+05         0.00000E+00
    0.18692E+05        -0.49980E+08         0.00000E+00
    0.00000E+00         0.00000E+00        -0.49964E+08
 
   -0.49825E+08         0.19986E+05         0.00000E+00
    0.19986E+05        -0.49977E+08         0.00000E+00
    0.00000E+00         0.00000E+00        -0.49964E+08
 
   -0.49833E+08         0.21325E+05         0.00000E+00
    0.21325E+05        -0.49974E+08         0.00000E+00
    0.00000E+00         0.00000E+00        -0.49964E+08
 
   -0.49841E+08         0.22720E+05         0.00000E+00
    0.22720E+05        -0.49971E+08         0.00000E+00
    0.00000E+00         0.00000E+00        -0.49964E+08
 
   -0.49850E+08         0.24180E+05         0.00000E+00
    0.24180E+05        -0.49968E+08         0.00000E+00
    0.00000E+00         0.00000E+00        -0.49964E+08
 
   -0.49859E+08         0.25717E+05         0.00000E+00
    0.25717E+05        -0.49965E+08         0.00000E+00
    0.00000E+00         0.00000E+00        -0.49964E+08
 
   -0.49868E+08         0.27348E+05         0.00000E+00
    0.27348E+05        -0.49961E+08         0.00000E+00
    0.00000E+00         0.00000E+00        -0.49964E+08
 
   -0.49877E+08         0.29092E+05         0.00000E+00
    0.29092E+05        -0.49958E+08         0.00000E+00
    0.00000E+00         0.00000E+00        -0.49964E+08
 
   -0.49887E+08         0.30973E+05         0.00000E+00
    0.30973E+05        -0.49954E+08         0.00000E+00
    0.00000E+00         0.00000E+00        -0.49964E+08
 
   -0.49896E+08         0.33023E+05         0.00000E+00
    0.33023E+05        -0.49950E+08         0.00000E+00
    0.00000E+00         0.00000E+00        -0.49964E+08
 
   -0.49906E+08         0.35279E+05         0.00000E+00
    0.35279E+05        -0.49945E+08         0.00000E+00
    0.00000E+00         0.00000E+00        -0.49964E+08
 
   -0.49917E+08         0.37795E+05         0.00000E+00
    0.37795E+05        -0.49941E+08         0.00000E+00
    0.00000E+00         0.00000E+00        -0.49964E+08
 
   -0.49927E+08         0.40635E+05         0.00000E+00
    0.40635E+05        -0.49936E+08         0.00000E+00
    0.00000E+00         0.00000E+00        -0.49964E+08
 
   -0.49938E+08         0.43887E+05         0.00000E+00
    0.43887E+05        -0.49931E+08         0.00000E+00
    0.00000E+00         0.00000E+00        -0.49964E+08
 
   -0.49948E+08         0.47661E+05         0.00000E+00
    0.47661E+05        -0.49925E+08         0.00000E+00
    0.00000E+00         0.00000E+00        -0.49964E+08
 
   -0.49959E+08         0.52100E+05         0.00000E+00
    0.52100E+05        -0.49920E+08         0.00000E+00
    0.00000E+00         0.00000E+00        -0.49964E+08
 
   -0.49569E+08        -0.17215E+04         0.00000E+00
   -0.17215E+04        -0.50000E+08         0.00000E+00
    0.00000E+00         0.00000E+00        -0.49937E+08
 
   -0.49575E+08        -0.39513E+04         0.00000E+00
   -0.39513E+04        -0.50000E+08         0.00000E+00
    0.00000E+00         0.00000E+00        -0.49937E+08
 
   -0.49582E+08        -0.57477E+04         0.00000E+00
   -0.57477E+04        -0.49999E+08         0.00000E+00
    0.00000E+00         0.00000E+00        -0.49937E+08
 
   -0.49589E+08        -0.70736E+04         0.00000E+00
   -0.70736E+04        -0.49999E+08         0.00000E+00
    0.00000E+00         0.00000E+00        -0.49937E+08
 
   -0.49596E+08        -0.79492E+04         0.00000E+00
   -0.79492E+04        -0.49998E+08         0.00000E+00
    0.00000E+00         0.00000E+00        -0.49937E+08
 
   -0.49604E+08        -0.84195E+04         0.00000E+00
   -0.84195E+04        -0.49998E+08         0.00000E+00
    0.00000E+00         0.00000E+00        -0.49937E+08
 
   -0.49611E+08        -0.85374E+04         0.00000E+00
   -0.85374E+04        -0.49997E+08         0.00000E+00
    0.00000E+00         0.00000E+00        -0.49937E+08
 
   -0.49618E+08        -0.83552E+04         0.00000E+00
   -0.83552E+04        -0.49997E+08         0.00000E+00
    0.00000E+00         0.00000E+00        -0.49937E+08
 
   -0.49625E+08        -0.79204E+04         0.00000E+00
   -0.79204E+04        -0.49997E+08         0.00000E+00
    0.00000E+00         0.00000E+00        -0.49937E+08
 
   -0.49632E+08        -0.72748E+04         0.00000E+00
   -0.72748E+04        -0.49996E+08         0.00000E+00
    0.00000E+00         0.00000E+00        -0.49937E+08
 
   -0.49640E+08        -0.64539E+04         0.00000E+00
   -0.64539E+04        -0.49996E+08         0.00000E+00
    0.00000E+00         0.00000E+00        -0.49937E+08
 
   -0.49647E+08        -0.54877E+04         0.00000E+00
   -0.54877E+04        -0.49995E+08         0.00000E+00
    0.00000E+00         0.00000E+00        -0.49938E+08
 
   -0.49653E+08        -0.44008E+04         0.00000E+00
   -0.44008E+04        -0.49995E+08         0.00000E+00
    0.00000E+00         0.00000E+00        -0.49938E+08
 
   -0.49660E+08        -0.32139E+04         0.00000E+00
   -0.32139E+04        -0.49994E+08         0.00000E+00
    0.00000E+00         0.00000E+00        -0.49938E+08
 
   -0.49667E+08        -0.19437E+04         0.00000E+00
   -0.19437E+04        -0.49994E+08         0.00000E+00
    0.00000E+00         0.00000E+00        -0.49938E+08
 
   -0.49674E+08        -0.60391E+03         0.00000E+00
   -0.60391E+03        -0.49993E+08         0.00000E+00
    0.00000E+00         0.00000E+00        -0.49938E+08
 
   -0.49681E+08         0.79426E+03         0.00000E+00
    0.79426E+03        -0.49992E+08         0.00000E+00
    0.00000E+00         0.00000E+00        -0.49938E+08
 
   -0.49688E+08         0.22418E+04         0.00000E+00
    0.22418E+04        -0.49992E+08         0.00000E+00
    0.00000E+00         0.00000E+00        -0.49938E+08
 
   -0.49694E+08         0.37316E+04         0.00000E+00
    0.37316E+04        -0.49991E+08         0.00000E+00
    0.00000E+00         0.00000E+00        -0.49938E+08
 
   -0.49701E+08         0.52579E+04         0.00000E+00
    0.52579E+04        -0.49990E+08         0.00000E+00
    0.00000E+00         0.00000E+00        -0.49938E+08
 
   -0.49708E+08         0.68163E+04         0.00000E+00
    0.68163E+04        -0.49989E+08         0.00000E+00
    0.00000E+00         0.00000E+00        -0.49938E+08
 
   -0.49715E+08         0.84035E+04         0.00000E+00
    0.84035E+04        -0.49988E+08         0.00000E+00
    0.00000E+00         0.00000E+00        -0.49939E+08
 
   -0.49722E+08         0.10017E+05         0.00000E+00
    0.10017E+05        -0.49987E+08         0.00000E+00
    0.00000E+00         0.00000E+00        -0.49939E+08
 
   -0.49728E+08         0.11655E+05         0.00000E+00
    0.11655E+05        -0.49986E+08         0.00000E+00
    0.00000E+00         0.00000E+00        -0.49939E+08
 
   -0.49735E+08         0.13318E+05         0.00000E+00
    0.13318E+05        -0.49984E+08         0.00000E+00
    0.00000E+00         0.00000E+00        -0.49939E+08
 
   -0.49742E+08         0.15004E+05         0.00000E+00
    0.15004E+05        -0.49983E+08         0.00000E+00
    0.00000E+00         0.00000E+00        -0.49939E+08
 
   -0.49749E+08         0.16715E+05         0.00000E+00
    0.16715E+05        -0.49981E+08         0.00000E+00
    0.00000E+00         0.00000E+00        -0.49939E+08
 
   -0.49756E+08         0.18451E+05         0.00000E+00
    0.18451E+05        -0.49980E+08         0.00000E+00
    0.00000E+00         0.00000E+00        -0.49939E+08
 
   -0.49764E+08         0.20214E+05         0.00000E+00
    0.20214E+05        -0.49978E+08         0.00000E+00
    0.00000E+00         0.00000E+00        -0.49939E+08
 
   -0.49771E+08         0.22006E+05         0.00000E+00
    0.22006E+05        -0.49976E+08         0.00000E+00
    0.00000E+00         0.00000E+00        -0.49939E+08
 
   -0.49778E+08         0.23831E+05         0.00000E+00
    0.23831E+05        -0.49974E+08         0.00000E+00
    0.00000E+00         0.00000E+00        -0.49940E+08
 
   -0.49786E+08         0.25691E+05         0.00000E+00
    0.25691E+05        -0.49972E+08         0.00000E+00
    0.00000E+00         0.00000E+00        -0.49940E+08
 
   -0.49793E+08         0.27592E+05         0.00000E+00
    0.27592E+05        -0.49970E+08         0.00000E+00
    0.00000E+00         0.00000E+00        -0.49940E+08
 
   -0.49801E+08         0.29539E+05         0.00000E+00
    0.29539E+05        -0.49967E+08         0.00000E+00
    0.00000E+00         0.00000E+00        -0.49940E+08
 
   -0.49808E+08         0.31537E+05         0.00000E+00
    0.31537E+05        -0.49965E+08         0.00000E+00
    0.00000E+00         0.00000E+00        -0.49940E+08
 
   -0.49816E+08         0.33593E+05         0.00000E+00
    0.33593E+05        -0.49962E+08         0.00000E+00
    0.00000E+00         0.00000E+00        -0.49940E+08
 
   -0.49824E+08         0.35717E+05         0.00000E+00
    0.35717E+05        -0.49959E+08         0.00000E+00
    0.00000E+00         0.00000E+00        -0.49940E+08
 
   -0.49832E+08         0.37917E+05         0.00000E+00
    0.37917E+05        -0.49956E+08         0.00000E+00
    0.00000E+00         0.00000E+00        -0.49940E+08
 
   -0.49840E+08         0.40205E+05         0.00000E+00
    0.40205E+05        -0.49953E+08         0.00000E+00
    0.00000E+00         0.00000E+00        -0.49940E+08
 
   -0.49849E+08         0.42594E+05         0.00000E+00
    0.42594E+05        -0.49950E+08         0.00000E+00
    0.00000E+00         0.00000E+00        -0.49940E+08
 
   -0.49857E+08         0.45099E+05         0.00000E+00
    0.45099E+05        -0.49946E+08         0.00000E+00
    0.00000E+00         0.00000E+00        -0.49940E+08
 
   -0.49866E+08         0.47736E+05         0.00000E+00
    0.47736E+05        -0.49943E+08         0.00000E+00
    0.00000E+00         0.00000E+00        -0.49940E+08
 
   -0.49874E+08         0.50526E+05         0.00000E+00
    0.50526E+05        -0.49939E+08         0.00000E+00
    0.00000E+00         0.00000E+00        -0.49941E+08
 
   -0.49883E+08         0.53489E+05         0.00000E+00
    0.53489E+05        -0.49935E+08         0.00000E+00
    0.00000E+00         0.00000E+00        -0.49941E+08
 
   -0.49892E+08         0.56650E+05         0.00000E+00
    0.56650E+05        -0.49931E+08         0.00000E+00
    0.00000E+00         0.00000E+00        -0.49941E+08
 
   -0.49901E+08         0.60031E+05         0.00000E+00
    0.60031E+05        -0.49927E+08         0.00000E+00
    0.00000E+00         0.00000E+00        -0.49941E+08
 
   -0.49910E+08         0.63654E+05         0.00000E+00
    0.63654E+05        -0.49923E+08         0.00000E+00
    0.00000E+00         0.00000E+00        -0.49941E+08
 
   -0.49919E+08         0.67533E+05         0.00000E+00
    0.67533E+05        -0.49919E+08         0.00000E+00
    0.00000E+00         0.00000E+00        -0.49941E+08
 
   -0.49928E+08         0.71666E+05         0.00000E+00
    0.71666E+05        -0.49914E+08         0.00000E+00
    0.00000E+00         0.00000E+00        -0.49941E+08
 
   -0.49936E+08         0.76015E+05         0.00000E+00
    0.76015E+05        -0.49910E+08         0.00000E+00
    0.00000E+00         0.00000E+00        -0.49941E+08
 
   -0.49579E+08        -0.11368E+04         0.00000E+00
   -0.11368E+04        -0.50000E+08         0.00000E+00
    0.00000E+00         0.00000E+00        -0.49913E+08
 
   -0.49584E+08        -0.25629E+04         0.00000E+00
   -0.25629E+04        -0.50000E+08         0.00000E+00
    0.00000E+00         0.00000E+00        -0.49913E+08
 
   -0.49589E+08        -0.36789E+04         0.00000E+00
   -0.36789E+04        -0.49999E+08         0.00000E+00
    0.00000E+00         0.00000E+00        -0.49913E+08
 
   -0.49594E+08        -0.44998E+04         0.00000E+00
   -0.44998E+04        -0.49999E+08         0.00000E+00
    0.00000E+00         0.00000E+00        -0.49913E+08
 
   -0.49599E+08        -0.50312E+04         0.00000E+00
   -0.50312E+04        -0.49998E+08         0.00000E+00
    0.00000E+00         0.00000E+00        -0.49913E+08
 
   -0.49605E+08        -0.52809E+04         0.00000E+00
   -0.52809E+04        -0.49998E+08         0.00000E+00
    0.00000E+00         0.00000E+00        -0.49913E+08
 
   -0.49611E+08        -0.52619E+04         0.00000E+00
   -0.52619E+04        -0.49997E+08         0.00000E+00
    0.00000E+00         0.00000E+00        -0.49914E+08
 
   -0.49617E+08        -0.49915E+04         0.00000E+00
   -0.49915E+04        -0.49996E+08         0.00000E+00
    0.00000E+00         0.00000E+00        -0.49914E+08
 
   -0.49623E+08        -0.44898E+04         0.00000E+00
   -0.44898E+04        -0.49995E+08         0.00000E+00
    0.00000E+00         0.00000E+00        -0.49914E+08
 
   -0.49629E+08        -0.37779E+04         0.00000E+00
   -0.37779E+04        -0.49994E+08         0.00000E+00
    0.00000E+00         0.00000E+00        -0.49914E+08
 
   -0.49635E+08        -0.28772E+04         0.00000E+00
   -0.28772E+04        -0.49993E+08         0.00000E+00
    0.00000E+00         0.00000E+00        -0.49914E+08
 
   -0.49641E+08        -0.18079E+04         0.00000E+00
   -0.18079E+04        -0.49993E+08         0.00000E+00
    0.00000E+00         0.00000E+00        -0.49914E+08
 
   -0.49647E+08        -0.58904E+03         0.00000E+00
   -0.58904E+03        -0.49992E+08         0.00000E+00
    0.00000E+00         0.00000E+00        -0.49914E+08
 
   -0.49654E+08         0.76204E+03         0.00000E+00
    0.76204E+03        -0.49991E+08         0.00000E+00
    0.00000E+00         0.00000E+00        -0.49914E+08
 
   -0.49660E+08         0.22299E+04         0.00000E+00
    0.22299E+04        -0.49989E+08         0.00000E+00
    0.00000E+00         0.00000E+00        -0.49914E+08
 
   -0.49667E+08         0.38007E+04         0.00000E+00
    0.38007E+04        -0.49988E+08         0.00000E+00
    0.00000E+00         0.00000E+00        -0.49914E+08
 
   -0.49673E+08         0.54626E+04         0.00000E+00
    0.54626E+04        -0.49987E+08         0.00000E+00
    0.00000E+00         0.00000E+00        -0.49914E+08
 
   -0.49680E+08         0.72052E+04         0.00000E+00
    0.72052E+04        -0.49986E+08         0.00000E+00
    0.00000E+00         0.00000E+00        -0.49915E+08
 
   -0.49686E+08         0.90196E+04         0.00000E+00
    0.90196E+04        -0.49985E+08         0.00000E+00
    0.00000E+00         0.00000E+00        -0.49915E+08
 
   -0.49693E+08         0.10898E+05         0.00000E+00
    0.10898E+05        -0.49984E+08         0.00000E+00
    0.00000E+00         0.00000E+00        -0.49915E+08
 
   -0.49699E+08         0.12835E+05         0.00000E+00
    0.12835E+05        -0.49982E+08         0.00000E+00
    0.00000E+00         0.00000E+00        -0.49915E+08
 
   -0.49706E+08         0.14825E+05         0.00000E+00
    0.14825E+05        -0.49981E+08         0.00000E+00
    0.00000E+00         0.00000E+00        -0.49915E+08
 
   -0.49712E+08         0.16865E+05         0.00000E+00
    0.16865E+05        -0.49979E+08         0.00000E+00
    0.00000E+00         0.00000E+00        -0.49915E+08
 
   -0.49719E+08         0.18950E+05         0.00000E+00
    0.18950E+05        -0.49978E+08         0.00000E+00
    0.00000E+00         0.00000E+00        -0.49915E+08
 
   -0.49726E+08         0.21079E+05         0.00000E+00
    0.21079E+05        -0.49976E+08         0.00000E+00
    0.00000E+00         0.00000E+00        -0.49915E+08
 
   -0.49733E+08         0.23250E+05         0.00000E+00
    0.23250E+05        -0.49974E+08         0.00000E+00
    0.00000E+00         0.00000E+00        -0.49916E+08
 
   -0.49739E+08         0.25463E+05         0.00000E+00
    0.25463E+05        -0.49972E+08         0.00000E+00
    0.00000E+00         0.00000E+00        -0.49916E+08
 
   -0.49746E+08         0.27718E+05         0.00000E+00
    0.27718E+05        -0.49970E+08         0.00000E+00
    0.00000E+00         0.00000E+00        -0.49916E+08
 
   -0.49753E+08         0.30016E+05         0.00000E+00
    0.30016E+05        -0.49968E+08         0.00000E+00
    0.00000E+00         0.00000E+00        -0.49916E+08
 
   -0.49760E+08         0.32358E+05         0.00000E+00
    0.32358E+05        -0.49966E+08         0.00000E+00
    0.00000E+00         0.00000E+00        -0.49916E+08
 
   -0.49767E+08         0.34746E+05         0.00000E+00
    0.34746E+05        -0.49964E+08         0.00000E+00
    0.00000E+00         0.00000E+00        -0.49916E+08
 
   -0.49775E+08         0.37183E+05         0.00000E+00
    0.37183E+05        -0.49962E+08         0.00000E+00
    0.00000E+00         0.00000E+00        -0.49916E+08
 
   -0.49782E+08         0.39673E+05         0.00000E+00
    0.39673E+05        -0.49959E+08         0.00000E+00
    0.00000E+00         0.00000E+00        -0.49916E+08
 
   -0.49789E+08         0.42220E+05         0.00000E+00
    0.42220E+05        -0.49957E+08         0.00000E+00
    0.00000E+00         0.00000E+00        -0.49917E+08
 
   -0.49797E+08         0.44829E+05         0.00000E+00
    0.44829E+05        -0.49954E+08         0.00000E+00
    0.00000E+00         0.00000E+00        -0.49917E+08
 
   -0.49804E+08         0.47506E+05         0.00000E+00
    0.47506E+05        -0.49951E+08         0.00000E+00
    0.00000E+00         0.00000E+00        -0.49917E+08
 
   -0.49812E+08         0.50257E+05         0.00000E+00
    0.50257E+05        -0.49948E+08         0.00000E+00
    0.00000E+00         0.00000E+00        -0.49917E+08
 
   -0.49819E+08         0.53089E+05         0.00000E+00
    0.53089E+05        -0.49945E+08         0.00000E+00
    0.00000E+00         0.00000E+00        -0.49917E+08
 
   -0.49827E+08         0.56010E+05         0.00000E+00
    0.56010E+05        -0.49942E+08         0.00000E+00
    0.00000E+00         0.00000E+00        -0.49917E+08
 
   -0.49835E+08         0.59029E+05         0.00000E+00
    0.59029E+05        -0.49939E+08         0.00000E+00
    0.00000E+00         0.00000E+00        -0.49917E+08
 
   -0.49843E+08         0.62155E+05         0.00000E+00
    0.62155E+05        -0.49936E+08         0.00000E+00
    0.00000E+00         0.00000E+00        -0.49917E+08
 
   -0.49851E+08         0.65397E+05         0.00000E+00
    0.65397E+05        -0.49933E+08         0.00000E+00
    0.00000E+00         0.00000E+00        -0.49917E+08
 
   -0.49859E+08         0.68765E+05         0.00000E+00
    0.68765E+05        -0.49929E+08         0.00000E+00
    0.00000E+00         0.00000E+00        -0.49917E+08
 
   -0.49866E+08         0.72267E+05         0.00000E+00
    0.72267E+05        -0.49926E+08         0.00000E+00
    0.00000E+00         0.00000E+00        -0.49917E+08
 
   -0.49874E+08         0.75912E+05         0.00000E+00
    0.75912E+05        -0.49922E+08         0.00000E+00
    0.00000E+00         0.00000E+00        -0.49918E+08
 
   -0.49882E+08         0.79707E+05         0.00000E+00
    0.79707E+05        -0.49918E+08         0.00000E+00
    0.00000E+00         0.00000E+00        -0.49918E+08
 
   -0.49890E+08         0.83655E+05         0.00000E+00
    0.83655E+05        -0.49914E+08         0.00000E+00
    0.00000E+00         0.00000E+00        -0.49918E+08
 
   -0.49898E+08         0.87759E+05         0.00000E+00
    0.87759E+05        -0.49911E+08         0.00000E+00
    0.00000E+00         0.00000E+00        -0.49918E+08
 
   -0.49906E+08         0.92024E+05         0.00000E+00
    0.92024E+05        -0.49907E+08         0.00000E+00
    0.00000E+00         0.00000E+00        -0.49918E+08
 
   -0.49914E+08         0.96464E+05         0.00000E+00
    0.96464E+05        -0.49903E+08         0.00000E+00
    0.00000E+00         0.00000E+00        -0.49918E+08
 
   -0.49585E+08        -0.58817E+03         0.00000E+00
   -0.58817E+03        -0.50000E+08         0.00000E+00
    0.00000E+00         0.00000E+00        -0.49890E+08
 
   -0.49588E+08        -0.11999E+04         0.00000E+00
   -0.11999E+04        -0.50000E+08         0.00000E+00
    0.00000E+00         0.00000E+00        -0.49890E+08
 
   -0.49592E+08        -0.15998E+04         0.00000E+00
   -0.15998E+04        -0.49999E+08         0.00000E+00
    0.00000E+00         0.00000E+00        -0.49890E+08
 
   -0.49596E+08        -0.17860E+04         0.00000E+00
   -0.17860E+04        -0.49999E+08         0.00000E+00
    0.00000E+00         0.00000E+00        -0.49890E+08
 
   -0.49600E+08        -0.17618E+04         0.00000E+00
   -0.17618E+04        -0.49998E+08         0.00000E+00
    0.00000E+00         0.00000E+00        -0.49890E+08
 
   -0.49604E+08        -0.15323E+04         0.00000E+00
   -0.15323E+04        -0.49998E+08         0.00000E+00
    0.00000E+00         0.00000E+00        -0.49890E+08
 
   -0.49609E+08        -0.11033E+04         0.00000E+00
   -0.11033E+04        -0.49997E+08         0.00000E+00
    0.00000E+00         0.00000E+00        -0.49891E+08
 
   -0.49614E+08        -0.48203E+03         0.00000E+00
   -0.48203E+03        -0.49996E+08         0.00000E+00
    0.00000E+00         0.00000E+00        -0.49891E+08
 
   -0.49619E+08         0.32326E+03         0.00000E+00
    0.32326E+03        -0.49995E+08         0.00000E+00
    0.00000E+00         0.00000E+00        -0.49891E+08
 
   -0.49624E+08         0.13032E+04         0.00000E+00
    0.13032E+04        -0.49994E+08         0.00000E+00
    0.00000E+00         0.00000E+00        -0.49891E+08
 
   -0.49629E+08         0.24476E+04         0.00000E+00
    0.24476E+04        -0.49993E+08         0.00000E+00
    0.00000E+00         0.00000E+00        -0.49891E+08
 
   -0.49635E+08         0.37458E+04         0.00000E+00
    0.37458E+04        -0.49991E+08         0.00000E+00
    0.00000E+00         0.00000E+00        -0.49891E+08
 
   -0.49641E+08         0.51870E+04         0.00000E+00
    0.51870E+04        -0.49990E+08         0.00000E+00
    0.00000E+00         0.00000E+00        -0.49891E+08
 
   -0.49646E+08         0.67606E+04         0.00000E+00
    0.67606E+04        -0.49989E+08         0.00000E+00
    0.00000E+00         0.00000E+00        -0.49891E+08
 
   -0.49652E+08         0.84562E+04         0.00000E+00
    0.84562E+04        -0.49988E+08         0.00000E+00
    0.00000E+00         0.00000E+00        -0.49891E+08
 
   -0.49658E+08         0.10264E+05         0.00000E+00
    0.10264E+05        -0.49986E+08         0.00000E+00
    0.00000E+00         0.00000E+00        -0.49891E+08
 
   -0.49664E+08         0.12175E+05         0.00000E+00
    0.12175E+05        -0.49985E+08         0.00000E+00
    0.00000E+00         0.00000E+00        -0.49891E+08
 
   -0.49670E+08         0.14181E+05         0.00000E+00
    0.14181E+05        -0.49983E+08         0.00000E+00
    0.00000E+00         0.00000E+00        -0.49892E+08
 
   -0.49676E+08         0.16275E+05         0.00000E+00
    0.16275E+05        -0.49982E+08         0.00000E+00
    0.00000E+00         0.00000E+00        -0.49892E+08
 
   -0.49682E+08         0.18449E+05         0.00000E+00
    0.18449E+05        -0.49980E+08         0.00000E+00
    0.00000E+00         0.00000E+00        -0.49892E+08
 
   -0.49688E+08         0.20698E+05         0.00000E+00
    0.20698E+05        -0.49978E+08         0.00000E+00
    0.00000E+00         0.00000E+00        -0.49892E+08
 
   -0.49695E+08         0.23016E+05         0.00000E+00
    0.23016E+05        -0.49976E+08         0.00000E+00
    0.00000E+00         0.00000E+00        -0.49892E+08
 
   -0.49701E+08         0.25401E+05         0.00000E+00
    0.25401E+05        -0.49975E+08         0.00000E+00
    0.00000E+00         0.00000E+00        -0.49892E+08
 
   -0.49708E+08         0.27847E+05         0.00000E+00
    0.27847E+05        -0.49973E+08         0.00000E+00
    0.00000E+00         0.00000E+00        -0.49892E+08
 
   -0.49714E+08         0.30352E+05         0.00000E+00
    0.30352E+05        -0.49971E+08         0.00000E+00
    0.00000E+00         0.00000E+00        -0.49893E+08
 
   -0.49721E+08         0.32914E+05         0.00000E+00
    0.32914E+05        -0.49969E+08         0.00000E+00
    0.00000E+00         0.00000E+00        -0.49893E+08
 
   -0.49727E+08         0.35531E+05         0.00000E+00
    0.35531E+05        -0.49967E+08         0.00000E+00
    0.00000E+00         0.00000E+00        -0.49893E+08
 
   -0.49734E+08         0.38203E+05         0.00000E+00
    0.38203E+05        -0.49965E+08         0.00000E+00
    0.00000E+00         0.00000E+00        -0.49893E+08
 
   -0.49741E+08         0.40929E+05         0.00000E+00
    0.40929E+05        -0.49962E+08         0.00000E+00
    0.00000E+00         0.00000E+00        -0.49893E+08
 
   -0.49747E+08         0.43711E+05         0.00000E+00
    0.43711E+05        -0.49960E+08         0.00000E+00
    0.00000E+00         0.00000E+00        -0.49893E+08
 
   -0.49754E+08         0.46547E+05         0.00000E+00
    0.46547E+05        -0.49958E+08         0.00000E+00
    0.00000E+00         0.00000E+00        -0.49893E+08
 
   -0.49761E+08         0.49441E+05         0.00000E+00
    0.49441E+05        -0.49955E+08         0.00000E+00
    0.00000E+00         0.00000E+00        -0.49893E+08
 
   -0.49768E+08         0.52394E+05         0.00000E+00
    0.52394E+05        -0.49953E+08         0.00000E+00
    0.00000E+00         0.00000E+00        -0.49894E+08
 
   -0.49775E+08         0.55408E+05         0.00000E+00
    0.55408E+05        -0.49950E+08         0.00000E+00
    0.00000E+00         0.00000E+00        -0.49894E+08
 
   -0.49782E+08         0.58486E+05         0.00000E+00
    0.58486E+05        -0.49947E+08         0.00000E+00
    0.00000E+00         0.00000E+00        -0.49894E+08
 
   -0.49789E+08         0.61632E+05         0.00000E+00
    0.61632E+05        -0.49944E+08         0.00000E+00
    0.00000E+00         0.00000E+00        -0.49894E+08
 
   -0.49797E+08         0.64849E+05         0.00000E+00
    0.64849E+05        -0.49942E+08         0.00000E+00
    0.00000E+00         0.00000E+00        -0.49894E+08
 
   -0.49804E+08         0.68141E+05         0.00000E+00
    0.68141E+05        -0.49939E+08         0.00000E+00
    0.00000E+00         0.00000E+00        -0.49894E+08
 
   -0.49811E+08         0.71512E+05         0.00000E+00
    0.71512E+05        -0.49936E+08         0.00000E+00
    0.00000E+00         0.00000E+00        -0.49894E+08
 
   -0.49818E+08         0.74966E+05         0.00000E+00
    0.74966E+05        -0.49932E+08         0.00000E+00
    0.00000E+00         0.00000E+00        -0.49894E+08
 
   -0.49826E+08         0.78508E+05         0.00000E+00
    0.78508E+05        -0.49929E+08         0.00000E+00
    0.00000E+00         0.00000E+00        -0.49894E+08
 
   -0.49833E+08         0.82140E+05         0.00000E+00
    0.82140E+05        -0.49926E+08         0.00000E+00
    0.00000E+00         0.00000E+00        -0.49895E+08
 
   -0.49840E+08         0.85868E+05         0.00000E+00
    0.85868E+05        -0.49923E+08         0.00000E+00
    0.00000E+00         0.00000E+00        -0.49895E+08
 
   -0.49848E+08         0.89693E+05         0.00000E+00
    0.89693E+05        -0.49919E+08         0.00000E+00
    0.00000E+00         0.00000E+00        -0.49895E+08
 
   -0.49855E+08         0.93619E+05         0.00000E+00
    0.93619E+05        -0.49916E+08         0.00000E+00
    0.00000E+00         0.00000E+00        -0.49895E+08
 
   -0.49863E+08         0.97647E+05         0.00000E+00
    0.97647E+05        -0.49913E+08         0.00000E+00
    0.00000E+00         0.00000E+00        -0.49895E+08
 
   -0.49870E+08         0.10178E+06         0.00000E+00
    0.10178E+06        -0.49909E+08         0.00000E+00
    0.00000E+00         0.00000E+00        -0.49895E+08
 
   -0.49877E+08         0.10602E+06         0.00000E+00
    0.10602E+06        -0.49906E+08         0.00000E+00
    0.00000E+00         0.00000E+00        -0.49895E+08
 
   -0.49884E+08         0.11036E+06         0.00000E+00
    0.11036E+06        -0.49902E+08         0.00000E+00
    0.00000E+00         0.00000E+00        -0.49895E+08
 
   -0.49891E+08         0.11480E+06         0.00000E+00
    0.11480E+06        -0.49899E+08         0.00000E+00
    0.00000E+00         0.00000E+00        -0.49895E+08
 
   -0.49586E+08        -0.95596E+02         0.00000E+00
   -0.95596E+02        -0.50000E+08         0.00000E+00
    0.00000E+00         0.00000E+00        -0.49868E+08
 
   -0.49589E+08         0.10602E+03         0.00000E+00
    0.10602E+03        -0.50000E+08         0.00000E+00
    0.00000E+00         0.00000E+00        -0.49868E+08
 
   -0.49591E+08         0.45569E+03         0.00000E+00
    0.45569E+03        -0.49999E+08         0.00000E+00
    0.00000E+00         0.00000E+00        -0.49868E+08
 
   -0.49594E+08         0.95523E+03         0.00000E+00
    0.95523E+03        -0.49999E+08         0.00000E+00
    0.00000E+00         0.00000E+00        -0.49868E+08
 
   -0.49598E+08         0.16058E+04         0.00000E+00
    0.16058E+04        -0.49998E+08         0.00000E+00
    0.00000E+00         0.00000E+00        -0.49868E+08
 
   -0.49601E+08         0.24073E+04         0.00000E+00
    0.24073E+04        -0.49998E+08         0.00000E+00
    0.00000E+00         0.00000E+00        -0.49868E+08
 
   -0.49605E+08         0.33579E+04         0.00000E+00
    0.33579E+04        -0.49997E+08         0.00000E+00
    0.00000E+00         0.00000E+00        -0.49868E+08
 
   -0.49609E+08         0.44550E+04         0.00000E+00
    0.44550E+04        -0.49996E+08         0.00000E+00
    0.00000E+00         0.00000E+00        -0.49868E+08
 
   -0.49613E+08         0.56952E+04         0.00000E+00
    0.56952E+04        -0.49995E+08         0.00000E+00
    0.00000E+00         0.00000E+00        -0.49868E+08
 
   -0.49618E+08         0.70742E+04         0.00000E+00
    0.70742E+04        -0.49994E+08         0.00000E+00
    0.00000E+00         0.00000E+00        -0.49868E+08
 
   -0.49623E+08         0.85872E+04         0.00000E+00
    0.85872E+04        -0.49992E+08         0.00000E+00
    0.00000E+00         0.00000E+00        -0.49868E+08
 
   -0.49627E+08         0.10229E+05         0.00000E+00
    0.10229E+05        -0.49991E+08         0.00000E+00
    0.00000E+00         0.00000E+00        -0.49868E+08
 
   -0.49632E+08         0.11994E+05         0.00000E+00
    0.11994E+05        -0.49990E+08         0.00000E+00
    0.00000E+00         0.00000E+00        -0.49868E+08
 
   -0.49637E+08         0.13876E+05         0.00000E+00
    0.13876E+05        -0.49988E+08         0.00000E+00
    0.00000E+00         0.00000E+00        -0.49869E+08
 
   -0.49643E+08         0.15870E+05         0.00000E+00
    0.15870E+05        -0.49987E+08         0.00000E+00
    0.00000E+00         0.00000E+00        -0.49869E+08
 
   -0.49648E+08         0.17969E+05         0.00000E+00
    0.17969E+05        -0.49985E+08         0.00000E+00
    0.00000E+00         0.00000E+00        -0.49869E+08
 
   -0.49653E+08         0.20168E+05         0.00000E+00
    0.20168E+05        -0.49983E+08         0.00000E+00
    0.00000E+00         0.00000E+00        -0.49869E+08
 
   -0.49659E+08         0.22461E+05         0.00000E+00
    0.22461E+05        -0.49982E+08         0.00000E+00
    0.00000E+00         0.00000E+00        -0.49869E+08
 
   -0.49665E+08         0.24843E+05         0.00000E+00
    0.24843E+05        -0.49980E+08         0.00000E+00
    0.00000E+00         0.00000E+00        -0.49869E+08
 
   -0.49670E+08         0.27310E+05         0.00000E+00
    0.27310E+05        -0.49978E+08         0.00000E+00
    0.00000E+00         0.00000E+00        -0.49869E+08
 
   -0.49676E+08         0.29856E+05         0.00000E+00
    0.29856E+05        -0.49976E+08         0.00000E+00
    0.00000E+00         0.00000E+00        -0.49869E+08
 
   -0.49682E+08         0.32477E+05         0.00000E+00
    0.32477E+05        -0.49974E+08         0.00000E+00
    0.00000E+00         0.00000E+00        -0.49870E+08
 
   -0.49688E+08         0.35171E+05         0.00000E+00
    0.35171E+05        -0.49972E+08         0.00000E+00
    0.00000E+00         0.00000E+00        -0.49870E+08
 
   -0.49694E+08         0.37933E+05         0.00000E+00
    0.37933E+05        -0.49970E+08         0.00000E+00
    0.00000E+00         0.00000E+00        -0.49870E+08
 
   -0.49701E+08         0.40761E+05         0.00000E+00
    0.40761E+05        -0.49968E+08         0.00000E+00
    0.00000E+00         0.00000E+00        -0.49870E+08
 
   -0.49707E+08         0.43653E+05         0.00000E+00
    0.43653E+05        -0.49966E+08         0.00000E+00
    0.00000E+00         0.00000E+00        -0.49870E+08
 
   -0.49713E+08         0.46607E+05         0.00000E+00
    0.46607E+05        -0.49964E+08         0.00000E+00
    0.00000E+00         0.00000E+00        -0.49870E+08
 
   -0.49720E+08         0.49622E+05         0.00000E+00
    0.49622E+05        -0.49961E+08         0.00000E+00
    0.00000E+00         0.00000E+00        -0.49870E+08
 
   -0.49726E+08         0.52696E+05         0.00000E+00
    0.52696E+05        -0.49959E+08         0.00000E+00
    0.00000E+00         0.00000E+00        -0.49870E+08
 
   -0.49732E+08         0.55829E+05         0.00000E+00
    0.55829E+05        -0.49956E+08         0.00000E+00
    0.00000E+00         0.00000E+00        -0.49871E+08
 
   -0.49739E+08         0.59021E+05         0.00000E+00
    0.59021E+05        -0.49954E+08         0.00000E+00
    0.00000E+00         0.00000E+00        -0.49871E+08
 
   -0.49746E+08         0.62272E+05         0.00000E+00
    0.62272E+05        -0.49951E+08         0.00000E+00
    0.00000E+00         0.00000E+00        -0.49871E+08
 
   -0.49752E+08         0.65582E+05         0.00000E+00
    0.65582E+05        -0.49949E+08         0.00000E+00
    0.00000E+00         0.00000E+00        -0.49871E+08
 
   -0.49759E+08         0.68953E+05         0.00000E+00
    0.68953E+05        -0.49946E+08         0.00000E+00
    0.00000E+00         0.00000E+00        -0.49871E+08
 
   -0.49766E+08         0.72384E+05         0.00000E+00
    0.72384E+05        -0.49943E+08         0.00000E+00
    0.00000E+00         0.00000E+00        -0.49871E+08
 
   -0.49773E+08         0.75878E+05         0.00000E+00
    0.75878E+05        -0.49940E+08         0.00000E+00
    0.00000E+00         0.00000E+00        -0.49871E+08
 
   -0.49779E+08         0.79435E+05         0.00000E+00
    0.79435E+05        -0.49938E+08         0.00000E+00
    0.00000E+00         0.00000E+00        -0.49871E+08
 
   -0.49786E+08         0.83057E+05         0.00000E+00
    0.83057E+05        -0.49935E+08         0.00000E+00
    0.00000E+00         0.00000E+00        -0.49872E+08
 
   -0.49793E+08         0.86745E+05         0.00000E+00
    0.86745E+05        -0.49932E+08         0.00000E+00
    0.00000E+00         0.00000E+00        -0.49872E+08
 
   -0.49800E+08         0.90500E+05         0.00000E+00
    0.90500E+05        -0.49929E+08         0.00000E+00
    0.00000E+00         0.00000E+00        -0.49872E+08
 
   -0.49807E+08         0.94324E+05         0.00000E+00
    0.94324E+05        -0.49925E+08         0.00000E+00
    0.00000E+00         0.00000E+00        -0.49872E+08
 
   -0.49814E+08         0.98218E+05         0.00000E+00
    0.98218E+05        -0.49922E+08         0.00000E+00
    0.00000E+00         0.00000E+00        -0.49872E+08
 
   -0.49821E+08         0.10218E+06         0.00000E+00
    0.10218E+06        -0.49919E+08         0.00000E+00
    0.00000E+00         0.00000E+00        -0.49872E+08
 
   -0.49828E+08         0.10622E+06         0.00000E+00
    0.10622E+06        -0.49916E+08         0.00000E+00
    0.00000E+00         0.00000E+00        -0.49872E+08
 
   -0.49835E+08         0.11032E+06         0.00000E+00
    0.11032E+06        -0.49913E+08         0.00000E+00
    0.00000E+00         0.00000E+00        -0.49872E+08
 
   -0.49842E+08         0.11450E+06         0.00000E+00
    0.11450E+06        -0.49909E+08         0.00000E+00
    0.00000E+00         0.00000E+00        -0.49872E+08
 
   -0.49849E+08         0.11874E+06         0.00000E+00
    0.11874E+06        -0.49906E+08         0.00000E+00
    0.00000E+00         0.00000E+00        -0.49872E+08
 
   -0.49855E+08         0.12306E+06         0.00000E+00
    0.12306E+06        -0.49903E+08         0.00000E+00
    0.00000E+00         0.00000E+00        -0.49872E+08
 
   -0.49862E+08         0.12744E+06         0.00000E+00
    0.12744E+06        -0.49899E+08         0.00000E+00
    0.00000E+00         0.00000E+00        -0.49872E+08
 
   -0.49869E+08         0.13188E+06         0.00000E+00
    0.13188E+06        -0.49896E+08         0.00000E+00
    0.00000E+00         0.00000E+00        -0.49872E+08
 
   -0.49584E+08         0.36241E+03         0.00000E+00
    0.36241E+03        -0.50000E+08         0.00000E+00
    0.00000E+00         0.00000E+00        -0.49845E+08
 
   -0.49585E+08         0.13516E+04         0.00000E+00
    0.13516E+04        -0.50000E+08         0.00000E+00
    0.00000E+00         0.00000E+00        -0.49845E+08
 
   -0.49587E+08         0.24431E+04         0.00000E+00
    0.24431E+04        -0.49999E+08         0.00000E+00
    0.00000E+00         0.00000E+00        -0.49845E+08
 
   -0.49590E+08         0.36398E+04         0.00000E+00
    0.36398E+04        -0.49999E+08         0.00000E+00
    0.00000E+00         0.00000E+00        -0.49845E+08
 
   -0.49592E+08         0.49439E+04         0.00000E+00
    0.49439E+04        -0.49998E+08         0.00000E+00
    0.00000E+00         0.00000E+00        -0.49846E+08
 
   -0.49595E+08         0.63567E+04         0.00000E+00
    0.63567E+04        -0.49998E+08         0.00000E+00
    0.00000E+00         0.00000E+00        -0.49846E+08
 
   -0.49599E+08         0.78790E+04         0.00000E+00
    0.78790E+04        -0.49997E+08         0.00000E+00
    0.00000E+00         0.00000E+00        -0.49846E+08
 
   -0.49602E+08         0.95107E+04         0.00000E+00
    0.95107E+04        -0.49996E+08         0.00000E+00
    0.00000E+00         0.00000E+00        -0.49846E+08
 
   -0.49606E+08         0.11251E+05         0.00000E+00
    0.11251E+05        -0.49995E+08         0.00000E+00
    0.00000E+00         0.00000E+00        -0.49846E+08
 
   -0.49610E+08         0.13099E+05         0.00000E+00
    0.13099E+05        -0.49994E+08         0.00000E+00
    0.00000E+00         0.00000E+00        -0.49846E+08
 
   -0.49614E+08         0.15052E+05         0.00000E+00
    0.15052E+05        -0.49992E+08         0.00000E+00
    0.00000E+00         0.00000E+00        -0.49846E+08
 
   -0.49618E+08         0.17109E+05         0.00000E+00
    0.17109E+05        -0.49991E+08         0.00000E+00
    0.00000E+00         0.00000E+00        -0.49846E+08
 
   -0.49622E+08         0.19266E+05         0.00000E+00
    0.19266E+05        -0.49990E+08         0.00000E+00
    0.00000E+00         0.00000E+00        -0.49846E+08
 
   -0.49627E+08         0.21521E+05         0.00000E+00
    0.21521E+05        -0.49988E+08         0.00000E+00
    0.00000E+00         0.00000E+00        -0.49846E+08
 
   -0.49632E+08         0.23871E+05         0.00000E+00
    0.23871E+05        -0.49987E+08         0.00000E+00
    0.00000E+00         0.00000E+00        -0.49846E+08
 
   -0.49636E+08         0.26313E+05         0.00000E+00
    0.26313E+05        -0.49985E+08         0.00000E+00
    0.00000E+00         0.00000E+00        -0.49846E+08
 
   -0.49641E+08         0.28843E+05         0.00000E+00
    0.28843E+05        -0.49983E+08         0.00000E+00
    0.00000E+00         0.00000E+00        -0.49847E+08
 
   -0.49647E+08         0.31458E+05         0.00000E+00
    0.31458E+05        -0.49981E+08         0.00000E+00
    0.00000E+00         0.00000E+00        -0.49847E+08
 
   -0.49652E+08         0.34155E+05         0.00000E+00
    0.34155E+05        -0.49979E+08         0.00000E+00
    0.00000E+00         0.00000E+00        -0.49847E+08
 
   -0.49657E+08         0.36930E+05         0.00000E+00
    0.36930E+05        -0.49977E+08         0.00000E+00
    0.00000E+00         0.00000E+00        -0.49847E+08
 
   -0.49663E+08         0.39781E+05         0.00000E+00
    0.39781E+05        -0.49975E+08         0.00000E+00
    0.00000E+00         0.00000E+00        -0.49847E+08
 
   -0.49668E+08         0.42705E+05         0.00000E+00
    0.42705E+05        -0.49973E+08         0.00000E+00
    0.00000E+00         0.00000E+00        -0.49847E+08
 
   -0.49674E+08         0.45698E+05         0.00000E+00
    0.45698E+05        -0.49971E+08         0.00000E+00
    0.00000E+00         0.00000E+00        -0.49847E+08
 
   -0.49680E+08         0.48759E+05         0.00000E+00
    0.48759E+05        -0.49969E+08         0.00000E+00
    0.00000E+00         0.00000E+00        -0.49847E+08
 
   -0.49686E+08         0.51886E+05         0.00000E+00
    0.51886E+05        -0.49967E+08         0.00000E+00
    0.00000E+00         0.00000E+00        -0.49848E+08
 
   -0.49691E+08         0.55075E+05         0.00000E+00
    0.55075E+05        -0.49965E+08         0.00000E+00
    0.00000E+00         0.00000E+00        -0.49848E+08
 
   -0.49697E+08         0.58327E+05         0.00000E+00
    0.58327E+05        -0.49962E+08         0.00000E+00
    0.00000E+00         0.00000E+00        -0.49848E+08
 
   -0.49704E+08         0.61638E+05         0.00000E+00
    0.61638E+05        -0.49960E+08         0.00000E+00
    0.00000E+00         0.00000E+00        -0.49848E+08
 
   -0.49710E+08         0.65008E+05         0.00000E+00
    0.65008E+05        -0.49957E+08         0.00000E+00
    0.00000E+00         0.00000E+00        -0.49848E+08
 
   -0.49716E+08         0.68435E+05         0.00000E+00
    0.68435E+05        -0.49955E+08         0.00000E+00
    0.00000E+00         0.00000E+00        -0.49848E+08
 
   -0.49722E+08         0.71919E+05         0.00000E+00
    0.71919E+05        -0.49952E+08         0.00000E+00
    0.00000E+00         0.00000E+00        -0.49848E+08
 
   -0.49729E+08         0.75459E+05         0.00000E+00
    0.75459E+05        -0.49950E+08         0.00000E+00
    0.00000E+00         0.00000E+00        -0.49848E+08
 
   -0.49735E+08         0.79054E+05         0.00000E+00
    0.79054E+05        -0.49947E+08         0.00000E+00
    0.00000E+00         0.00000E+00        -0.49849E+08
 
   -0.49741E+08         0.82704E+05         0.00000E+00
    0.82704E+05        -0.49944E+08         0.00000E+00
    0.00000E+00         0.00000E+00        -0.49849E+08
 
   -0.49748E+08         0.86408E+05         0.00000E+00
    0.86408E+05        -0.49941E+08         0.00000E+00
    0.00000E+00         0.00000E+00        -0.49849E+08
 
   -0.49754E+08         0.90167E+05         0.00000E+00
    0.90167E+05        -0.49939E+08         0.00000E+00
    0.00000E+00         0.00000E+00        -0.49849E+08
 
   -0.49761E+08         0.93980E+05         0.00000E+00
    0.93980E+05        -0.49936E+08         0.00000E+00
    0.00000E+00         0.00000E+00        -0.49849E+08
 
   -0.49767E+08         0.97848E+05         0.00000E+00
    0.97848E+05        -0.49933E+08         0.00000E+00
    0.00000E+00         0.00000E+00        -0.49849E+08
 
   -0.49774E+08         0.10177E+06         0.00000E+00
    0.10177E+06        -0.49930E+08         0.00000E+00
    0.00000E+00         0.00000E+00        -0.49849E+08
 
   -0.49781E+08         0.10574E+06         0.00000E+00
    0.10574E+06        -0.49927E+08         0.00000E+00
    0.00000E+00         0.00000E+00        -0.49849E+08
 
   -0.49787E+08         0.10977E+06         0.00000E+00
    0.10977E+06        -0.49924E+08         0.00000E+00
    0.00000E+00         0.00000E+00        -0.49849E+08
 
   -0.49794E+08         0.11385E+06         0.00000E+00
    0.11385E+06        -0.49921E+08         0.00000E+00
    0.00000E+00         0.00000E+00        -0.49850E+08
 
   -0.49801E+08         0.11798E+06         0.00000E+00
    0.11798E+06        -0.49918E+08         0.00000E+00
    0.00000E+00         0.00000E+00        -0.49850E+08
 
   -0.49807E+08         0.12216E+06         0.00000E+00
    0.12216E+06        -0.49914E+08         0.00000E+00
    0.00000E+00         0.00000E+00        -0.49850E+08
 
   -0.49814E+08         0.12639E+06         0.00000E+00
    0.12639E+06        -0.49911E+08         0.00000E+00
    0.00000E+00         0.00000E+00        -0.49850E+08
 
   -0.49821E+08         0.13067E+06         0.00000E+00
    0.13067E+06        -0.49908E+08         0.00000E+00
    0.00000E+00         0.00000E+00        -0.49850E+08
 
   -0.49827E+08         0.13499E+06         0.00000E+00
    0.13499E+06        -0.49905E+08         0.00000E+00
    0.00000E+00         0.00000E+00        -0.49850E+08
 
   -0.49834E+08         0.13936E+06         0.00000E+00
    0.13936E+06        -0.49902E+08         0.00000E+00
    0.00000E+00         0.00000E+00        -0.49850E+08
 
   -0.49840E+08         0.14377E+06         0.00000E+00
    0.14377E+06        -0.49898E+08         0.00000E+00
    0.00000E+00         0.00000E+00        -0.49850E+08
 
   -0.49847E+08         0.14821E+06         0.00000E+00
    0.14821E+06        -0.49895E+08         0.00000E+00
    0.00000E+00         0.00000E+00        -0.49850E+08
 
   -0.49577E+08         0.78842E+03         0.00000E+00
    0.78842E+03        -0.50000E+08         0.00000E+00
    0.00000E+00         0.00000E+00        -0.49823E+08
 
   -0.49578E+08         0.25336E+04         0.00000E+00
    0.25336E+04        -0.50000E+08         0.00000E+00
    0.00000E+00         0.00000E+00        -0.49823E+08
 
   -0.49580E+08         0.43459E+04         0.00000E+00
    0.43459E+04        -0.50000E+08         0.00000E+00
    0.00000E+00         0.00000E+00        -0.49823E+08
 
   -0.49582E+08         0.62291E+04         0.00000E+00
    0.62291E+04        -0.49999E+08         0.00000E+00
    0.00000E+00         0.00000E+00        -0.49823E+08
 
   -0.49584E+08         0.81860E+04         0.00000E+00
    0.81860E+04        -0.49998E+08         0.00000E+00
    0.00000E+00         0.00000E+00        -0.49823E+08
 
   -0.49587E+08         0.10219E+05         0.00000E+00
    0.10219E+05        -0.49998E+08         0.00000E+00
    0.00000E+00         0.00000E+00        -0.49823E+08
 
   -0.49589E+08         0.12330E+05         0.00000E+00
    0.12330E+05        -0.49997E+08         0.00000E+00
    0.00000E+00         0.00000E+00        -0.49823E+08
 
   -0.49592E+08         0.14520E+05         0.00000E+00
    0.14520E+05        -0.49996E+08         0.00000E+00
    0.00000E+00         0.00000E+00        -0.49823E+08
 
   -0.49595E+08         0.16791E+05         0.00000E+00
    0.16791E+05        -0.49995E+08         0.00000E+00
    0.00000E+00         0.00000E+00        -0.49824E+08
 
   -0.49599E+08         0.19141E+05         0.00000E+00
    0.19141E+05        -0.49994E+08         0.00000E+00
    0.00000E+00         0.00000E+00        -0.49824E+08
 
   -0.49602E+08         0.21572E+05         0.00000E+00
    0.21572E+05        -0.49993E+08         0.00000E+00
    0.00000E+00         0.00000E+00        -0.49824E+08
 
   -0.49606E+08         0.24083E+05         0.00000E+00
    0.24083E+05        -0.49991E+08         0.00000E+00
    0.00000E+00         0.00000E+00        -0.49824E+08
 
   -0.49610E+08         0.26673E+05         0.00000E+00
    0.26673E+05        -0.49990E+08         0.00000E+00
    0.00000E+00         0.00000E+00        -0.49824E+08
 
   -0.49614E+08         0.29340E+05         0.00000E+00
    0.29340E+05        -0.49988E+08         0.00000E+00
    0.00000E+00         0.00000E+00        -0.49824E+08
 
   -0.49619E+08         0.32085E+05         0.00000E+00
    0.32085E+05        -0.49987E+08         0.00000E+00
    0.00000E+00         0.00000E+00        -0.49824E+08
 
   -0.49623E+08         0.34904E+05         0.00000E+00
    0.34904E+05        -0.49985E+08         0.00000E+00
    0.00000E+00         0.00000E+00        -0.49824E+08
 
   -0.49628E+08         0.37797E+05         0.00000E+00
    0.37797E+05        -0.49983E+08         0.00000E+00
    0.00000E+00         0.00000E+00        -0.49824E+08
 
   -0.49632E+08         0.40762E+05         0.00000E+00
    0.40762E+05        -0.49981E+08         0.00000E+00
    0.00000E+00         0.00000E+00        -0.49824E+08
 
   -0.49637E+08         0.43797E+05         0.00000E+00
    0.43797E+05        -0.49979E+08         0.00000E+00
    0.00000E+00         0.00000E+00        -0.49825E+08
 
   -0.49642E+08         0.46900E+05         0.00000E+00
    0.46900E+05        -0.49978E+08         0.00000E+00
    0.00000E+00         0.00000E+00        -0.49825E+08
 
   -0.49647E+08         0.50070E+05         0.00000E+00
    0.50070E+05        -0.49975E+08         0.00000E+00
    0.00000E+00         0.00000E+00        -0.49825E+08
 
   -0.49653E+08         0.53304E+05         0.00000E+00
    0.53304E+05        -0.49973E+08         0.00000E+00
    0.00000E+00         0.00000E+00        -0.49825E+08
 
   -0.49658E+08         0.56600E+05         0.00000E+00
    0.56600E+05        -0.49971E+08         0.00000E+00
    0.00000E+00         0.00000E+00        -0.49825E+08
 
   -0.49664E+08         0.59957E+05         0.00000E+00
    0.59957E+05        -0.49969E+08         0.00000E+00
    0.00000E+00         0.00000E+00        -0.49825E+08
 
   -0.49669E+08         0.63373E+05         0.00000E+00
    0.63373E+05        -0.49967E+08         0.00000E+00
    0.00000E+00         0.00000E+00        -0.49825E+08
 
   -0.49675E+08         0.66846E+05         0.00000E+00
    0.66846E+05        -0.49964E+08         0.00000E+00
    0.00000E+00         0.00000E+00        -0.49825E+08
 
   -0.49680E+08         0.70376E+05         0.00000E+00
    0.70376E+05        -0.49962E+08         0.00000E+00
    0.00000E+00         0.00000E+00        -0.49826E+08
 
   -0.49686E+08         0.73960E+05         0.00000E+00
    0.73960E+05        -0.49960E+08         0.00000E+00
    0.00000E+00         0.00000E+00        -0.49826E+08
 
   -0.49692E+08         0.77596E+05         0.00000E+00
    0.77596E+05        -0.49957E+08         0.00000E+00
    0.00000E+00         0.00000E+00        -0.49826E+08
 
   -0.49698E+08         0.81285E+05         0.00000E+00
    0.81285E+05        -0.49954E+08         0.00000E+00
    0.00000E+00         0.00000E+00        -0.49826E+08
 
   -0.49704E+08         0.85024E+05         0.00000E+00
    0.85024E+05        -0.49952E+08         0.00000E+00
    0.00000E+00         0.00000E+00        -0.49826E+08
 
   -0.49710E+08         0.88812E+05         0.00000E+00
    0.88812E+05        -0.49949E+08         0.00000E+00
    0.00000E+00         0.00000E+00        -0.49826E+08
 
   -0.49716E+08         0.92649E+05         0.00000E+00
    0.92649E+05        -0.49946E+08         0.00000E+00
    0.00000E+00         0.00000E+00        -0.49826E+08
 
   -0.49722E+08         0.96533E+05         0.00000E+00
    0.96533E+05        -0.49944E+08         0.00000E+00
    0.00000E+00         0.00000E+00        -0.49826E+08
 
   -0.49729E+08         0.10046E+06         0.00000E+00
    0.10046E+06        -0.49941E+08         0.00000E+00
    0.00000E+00         0.00000E+00        -0.49827E+08
 
   -0.49735E+08         0.10444E+06         0.00000E+00
    0.10444E+06        -0.49938E+08         0.00000E+00
    0.00000E+00         0.00000E+00        -0.49827E+08
 
   -0.49741E+08         0.10846E+06         0.00000E+00
    0.10846E+06        -0.49935E+08         0.00000E+00
    0.00000E+00         0.00000E+00        -0.49827E+08
 
   -0.49748E+08         0.11252E+06         0.00000E+00
    0.11252E+06        -0.49932E+08         0.00000E+00
    0.00000E+00         0.00000E+00        -0.49827E+08
 
   -0.49754E+08         0.11663E+06         0.00000E+00
    0.11663E+06        -0.49929E+08         0.00000E+00
    0.00000E+00         0.00000E+00        -0.49827E+08
 
   -0.49760E+08         0.12078E+06         0.00000E+00
    0.12078E+06        -0.49926E+08         0.00000E+00
    0.00000E+00         0.00000E+00        -0.49827E+08
 
   -0.49767E+08         0.12496E+06         0.00000E+00
    0.12496E+06        -0.49923E+08         0.00000E+00
    0.00000E+00         0.00000E+00        -0.49827E+08
 
   -0.49773E+08         0.12919E+06         0.00000E+00
    0.12919E+06        -0.49920E+08         0.00000E+00
    0.00000E+00         0.00000E+00        -0.49827E+08
 
   -0.49780E+08         0.13345E+06         0.00000E+00
    0.13345E+06        -0.49917E+08         0.00000E+00
    0.00000E+00         0.00000E+00        -0.49827E+08
 
   -0.49786E+08         0.13774E+06         0.00000E+00
    0.13774E+06        -0.49914E+08         0.00000E+00
    0.00000E+00         0.00000E+00        -0.49827E+08
 
   -0.49792E+08         0.14207E+06         0.00000E+00
    0.14207E+06        -0.49911E+08         0.00000E+00
    0.00000E+00         0.00000E+00        -0.49827E+08
 
   -0.49799E+08         0.14643E+06         0.00000E+00
    0.14643E+06        -0.49908E+08         0.00000E+00
    0.00000E+00         0.00000E+00        -0.49827E+08
 
   -0.49805E+08         0.15082E+06         0.00000E+00
    0.15082E+06        -0.49905E+08         0.00000E+00
    0.00000E+00         0.00000E+00        -0.49827E+08
 
   -0.49812E+08         0.15524E+06         0.00000E+00
    0.15524E+06        -0.49902E+08         0.00000E+00
    0.00000E+00         0.00000E+00        -0.49827E+08
 
   -0.49818E+08         0.15967E+06         0.00000E+00
    0.15967E+06        -0.49899E+08         0.00000E+00
    0.00000E+00         0.00000E+00        -0.49828E+08
 
   -0.49824E+08         0.16413E+06         0.00000E+00
    0.16413E+06        -0.49895E+08         0.00000E+00
    0.00000E+00         0.00000E+00        -0.49828E+08
 
   -0.49567E+08         0.11850E+04         0.00000E+00
    0.11850E+04        -0.50000E+08         0.00000E+00
    0.00000E+00         0.00000E+00        -0.49801E+08
 
   -0.49568E+08         0.36491E+04         0.00000E+00
    0.36491E+04        -0.50000E+08         0.00000E+00
    0.00000E+00         0.00000E+00        -0.49801E+08
 
   -0.49569E+08         0.61534E+04         0.00000E+00
    0.61534E+04        -0.50000E+08         0.00000E+00
    0.00000E+00         0.00000E+00        -0.49801E+08
 
   -0.49571E+08         0.87017E+04         0.00000E+00
    0.87017E+04        -0.49999E+08         0.00000E+00
    0.00000E+00         0.00000E+00        -0.49801E+08
 
   -0.49573E+08         0.11297E+05         0.00000E+00
    0.11297E+05        -0.49999E+08         0.00000E+00
    0.00000E+00         0.00000E+00        -0.49801E+08
 
   -0.49575E+08         0.13943E+05         0.00000E+00
    0.13943E+05        -0.49998E+08         0.00000E+00
    0.00000E+00         0.00000E+00        -0.49801E+08
 
   -0.49577E+08         0.16641E+05         0.00000E+00
    0.16641E+05        -0.49997E+08         0.00000E+00
    0.00000E+00         0.00000E+00        -0.49801E+08
 
   -0.49580E+08         0.19394E+05         0.00000E+00
    0.19394E+05        -0.49996E+08         0.00000E+00
    0.00000E+00         0.00000E+00        -0.49801E+08
 
   -0.49583E+08         0.22203E+05         0.00000E+00
    0.22203E+05        -0.49995E+08         0.00000E+00
    0.00000E+00         0.00000E+00        -0.49801E+08
 
   -0.49586E+08         0.25069E+05         0.00000E+00
    0.25069E+05        -0.49994E+08         0.00000E+00
    0.00000E+00         0.00000E+00        -0.49801E+08
 
   -0.49589E+08         0.27993E+05         0.00000E+00
    0.27993E+05        -0.49993E+08         0.00000E+00
    0.00000E+00         0.00000E+00        -0.49801E+08
 
   -0.49592E+08         0.30977E+05         0.00000E+00
    0.30977E+05        -0.49992E+08         0.00000E+00
    0.00000E+00         0.00000E+00        -0.49802E+08
 
   -0.49596E+08         0.34019E+05         0.00000E+00
    0.34019E+05        -0.49990E+08         0.00000E+00
    0.00000E+00         0.00000E+00        -0.49802E+08
 
   -0.49600E+08         0.37121E+05         0.00000E+00
    0.37121E+05        -0.49989E+08         0.00000E+00
    0.00000E+00         0.00000E+00        -0.49802E+08
 
   -0.49604E+08         0.40281E+05         0.00000E+00
    0.40281E+05        -0.49987E+08         0.00000E+00
    0.00000E+00         0.00000E+00        -0.49802E+08
 
   -0.49608E+08         0.43500E+05         0.00000E+00
    0.43500E+05        -0.49985E+08         0.00000E+00
    0.00000E+00         0.00000E+00        -0.49802E+08
 
   -0.49612E+08         0.46777E+05         0.00000E+00
    0.46777E+05        -0.49984E+08         0.00000E+00
    0.00000E+00         0.00000E+00        -0.49802E+08
 
   -0.49617E+08         0.50111E+05         0.00000E+00
    0.50111E+05        -0.49982E+08         0.00000E+00
    0.00000E+00         0.00000E+00        -0.49802E+08
 
   -0.49621E+08         0.53502E+05         0.00000E+00
    0.53502E+05        -0.49980E+08         0.00000E+00
    0.00000E+00         0.00000E+00        -0.49802E+08
 
   -0.49626E+08         0.56948E+05         0.00000E+00
    0.56948E+05        -0.49978E+08         0.00000E+00
    0.00000E+00         0.00000E+00        -0.49802E+08
 
   -0.49631E+08         0.60448E+05         0.00000E+00
    0.60448E+05        -0.49976E+08         0.00000E+00
    0.00000E+00         0.00000E+00        -0.49802E+08
 
   -0.49636E+08         0.64002E+05         0.00000E+00
    0.64002E+05        -0.49974E+08         0.00000E+00
    0.00000E+00         0.00000E+00        -0.49803E+08
 
   -0.49641E+08         0.67608E+05         0.00000E+00
    0.67608E+05        -0.49972E+08         0.00000E+00
    0.00000E+00         0.00000E+00        -0.49803E+08
 
   -0.49646E+08         0.71264E+05         0.00000E+00
    0.71264E+05        -0.49969E+08         0.00000E+00
    0.00000E+00         0.00000E+00        -0.49803E+08
 
   -0.49651E+08         0.74970E+05         0.00000E+00
    0.74970E+05        -0.49967E+08         0.00000E+00
    0.00000E+00         0.00000E+00        -0.49803E+08
 
   -0.49656E+08         0.78724E+05         0.00000E+00
    0.78724E+05        -0.49965E+08         0.00000E+00
    0.00000E+00         0.00000E+00        -0.49803E+08
 
   -0.49662E+08         0.82526E+05         0.00000E+00
    0.82526E+05        -0.49962E+08         0.00000E+00
    0.00000E+00         0.00000E+00        -0.49803E+08
 
   -0.49668E+08         0.86373E+05         0.00000E+00
    0.86373E+05        -0.49960E+08         0.00000E+00
    0.00000E+00         0.00000E+00        -0.49803E+08
 
   -0.49673E+08         0.90265E+05         0.00000E+00
    0.90265E+05        -0.49957E+08         0.00000E+00
    0.00000E+00         0.00000E+00        -0.49803E+08
 
   -0.49679E+08         0.94200E+05         0.00000E+00
    0.94200E+05        -0.49955E+08         0.00000E+00
    0.00000E+00         0.00000E+00        -0.49804E+08
 
   -0.49685E+08         0.98177E+05         0.00000E+00
    0.98177E+05        -0.49952E+08         0.00000E+00
    0.00000E+00         0.00000E+00        -0.49804E+08
 
   -0.49690E+08         0.10219E+06         0.00000E+00
    0.10219E+06        -0.49950E+08         0.00000E+00
    0.00000E+00         0.00000E+00        -0.49804E+08
 
   -0.49696E+08         0.10625E+06         0.00000E+00
    0.10625E+06        -0.49947E+08         0.00000E+00
    0.00000E+00         0.00000E+00        -0.49804E+08
 
   -0.49702E+08         0.11035E+06         0.00000E+00
    0.11035E+06        -0.49944E+08         0.00000E+00
    0.00000E+00         0.00000E+00        -0.49804E+08
 
   -0.49708E+08         0.11448E+06         0.00000E+00
    0.11448E+06        -0.49941E+08         0.00000E+00
    0.00000E+00         0.00000E+00        -0.49804E+08
 
   -0.49714E+08         0.11865E+06         0.00000E+00
    0.11865E+06        -0.49939E+08         0.00000E+00
    0.00000E+00         0.00000E+00        -0.49804E+08
 
   -0.49721E+08         0.12285E+06         0.00000E+00
    0.12285E+06        -0.49936E+08         0.00000E+00
    0.00000E+00         0.00000E+00        -0.49804E+08
 
   -0.49727E+08         0.12709E+06         0.00000E+00
    0.12709E+06        -0.49933E+08         0.00000E+00
    0.00000E+00         0.00000E+00        -0.49804E+08
 
   -0.49733E+08         0.13136E+06         0.00000E+00
    0.13136E+06        -0.49930E+08         0.00000E+00
    0.00000E+00         0.00000E+00        -0.49805E+08
 
   -0.49739E+08         0.13565E+06         0.00000E+00
    0.13565E+06        -0.49927E+08         0.00000E+00
    0.00000E+00         0.00000E+00        -0.49805E+08
 
   -0.49745E+08         0.13998E+06         0.00000E+00
    0.13998E+06        -0.49924E+08         0.00000E+00
    0.00000E+00         0.00000E+00        -0.49805E+08
 
   -0.49752E+08         0.14433E+06         0.00000E+00
    0.14433E+06        -0.49921E+08         0.00000E+00
    0.00000E+00         0.00000E+00        -0.49805E+08
 
   -0.49758E+08         0.14871E+06         0.00000E+00
    0.14871E+06        -0.49918E+08         0.00000E+00
    0.00000E+00         0.00000E+00        -0.49805E+08
 
   -0.49764E+08         0.15311E+06         0.00000E+00
    0.15311E+06        -0.49915E+08         0.00000E+00
    0.00000E+00         0.00000E+00        -0.49805E+08
 
   -0.49770E+08         0.15753E+06         0.00000E+00
    0.15753E+06        -0.49912E+08         0.00000E+00
    0.00000E+00         0.00000E+00        -0.49805E+08
 
   -0.49777E+08         0.16197E+06         0.00000E+00
    0.16197E+06        -0.49909E+08         0.00000E+00
    0.00000E+00         0.00000E+00        -0.49805E+08
 
   -0.49783E+08         0.16642E+06         0.00000E+00
    0.16642E+06        -0.49906E+08         0.00000E+00
    0.00000E+00         0.00000E+00        -0.49805E+08
 
   -0.49789E+08         0.17089E+06         0.00000E+00
    0.17089E+06        -0.49903E+08         0.00000E+00
    0.00000E+00         0.00000E+00        -0.49805E+08
 
   -0.49796E+08         0.17537E+06         0.00000E+00
    0.17537E+06        -0.49899E+08         0.00000E+00
    0.00000E+00         0.00000E+00        -0.49805E+08
 
   -0.49802E+08         0.17985E+06         0.00000E+00
    0.17985E+06        -0.49896E+08         0.00000E+00
    0.00000E+00         0.00000E+00        -0.49805E+08
 
   -0.49553E+08         0.15538E+04         0.00000E+00
    0.15538E+04        -0.50000E+08         0.00000E+00
    0.00000E+00         0.00000E+00        -0.49779E+08
 
   -0.49554E+08         0.46983E+04         0.00000E+00
    0.46983E+04        -0.50000E+08         0.00000E+00
    0.00000E+00         0.00000E+00        -0.49779E+08
 
   -0.49555E+08         0.78619E+04         0.00000E+00
    0.78619E+04        -0.50000E+08         0.00000E+00
    0.00000E+00         0.00000E+00        -0.49779E+08
 
   -0.49556E+08         0.11048E+05         0.00000E+00
    0.11048E+05        -0.49999E+08         0.00000E+00
    0.00000E+00         0.00000E+00        -0.49779E+08
 
   -0.49558E+08         0.14261E+05         0.00000E+00
    0.14261E+05        -0.49999E+08         0.00000E+00
    0.00000E+00         0.00000E+00        -0.49779E+08
 
   -0.49560E+08         0.17503E+05         0.00000E+00
    0.17503E+05        -0.49998E+08         0.00000E+00
    0.00000E+00         0.00000E+00        -0.49779E+08
 
   -0.49562E+08         0.20777E+05         0.00000E+00
    0.20777E+05        -0.49997E+08         0.00000E+00
    0.00000E+00         0.00000E+00        -0.49779E+08
 
   -0.49564E+08         0.24085E+05         0.00000E+00
    0.24085E+05        -0.49996E+08         0.00000E+00
    0.00000E+00         0.00000E+00        -0.49779E+08
 
   -0.49567E+08         0.27429E+05         0.00000E+00
    0.27429E+05        -0.49995E+08         0.00000E+00
    0.00000E+00         0.00000E+00        -0.49779E+08
 
   -0.49570E+08         0.30811E+05         0.00000E+00
    0.30811E+05        -0.49994E+08         0.00000E+00
    0.00000E+00         0.00000E+00        -0.49779E+08
 
   -0.49573E+08         0.34232E+05         0.00000E+00
    0.34232E+05        -0.49993E+08         0.00000E+00
    0.00000E+00         0.00000E+00        -0.49779E+08
 
   -0.49576E+08         0.37694E+05         0.00000E+00
    0.37694E+05        -0.49992E+08         0.00000E+00
    0.00000E+00         0.00000E+00        -0.49779E+08
 
   -0.49579E+08         0.41197E+05         0.00000E+00
    0.41197E+05        -0.49991E+08         0.00000E+00
    0.00000E+00         0.00000E+00        -0.49779E+08
 
   -0.49583E+08         0.44742E+05         0.00000E+00
    0.44742E+05        -0.49989E+08         0.00000E+00
    0.00000E+00         0.00000E+00        -0.49779E+08
 
   -0.49587E+08         0.48330E+05         0.00000E+00
    0.48330E+05        -0.49988E+08         0.00000E+00
    0.00000E+00         0.00000E+00        -0.49779E+08
 
   -0.49591E+08         0.51960E+05         0.00000E+00
    0.51960E+05        -0.49986E+08         0.00000E+00
    0.00000E+00         0.00000E+00        -0.49780E+08
 
   -0.49595E+08         0.55633E+05         0.00000E+00
    0.55633E+05        -0.49984E+08         0.00000E+00
    0.00000E+00         0.00000E+00        -0.49780E+08
 
   -0.49599E+08         0.59349E+05         0.00000E+00
    0.59349E+05        -0.49982E+08         0.00000E+00
    0.00000E+00         0.00000E+00        -0.49780E+08
 
   -0.49603E+08         0.63107E+05         0.00000E+00
    0.63107E+05        -0.49981E+08         0.00000E+00
    0.00000E+00         0.00000E+00        -0.49780E+08
 
   -0.49608E+08         0.66907E+05         0.00000E+00
    0.66907E+05        -0.49979E+08         0.00000E+00
    0.00000E+00         0.00000E+00        -0.49780E+08
 
   -0.49612E+08         0.70748E+05         0.00000E+00
    0.70748E+05        -0.49977E+08         0.00000E+00
    0.00000E+00         0.00000E+00        -0.49780E+08
 
   -0.49617E+08         0.74631E+05         0.00000E+00
    0.74631E+05        -0.49974E+08         0.00000E+00
    0.00000E+00         0.00000E+00        -0.49780E+08
 
   -0.49622E+08         0.78553E+05         0.00000E+00
    0.78553E+05        -0.49972E+08         0.00000E+00
    0.00000E+00         0.00000E+00        -0.49780E+08
 
   -0.49627E+08         0.82515E+05         0.00000E+00
    0.82515E+05        -0.49970E+08         0.00000E+00
    0.00000E+00         0.00000E+00        -0.49780E+08
 
   -0.49632E+08         0.86516E+05         0.00000E+00
    0.86516E+05        -0.49968E+08         0.00000E+00
    0.00000E+00         0.00000E+00        -0.49781E+08
 
   -0.49637E+08         0.90555E+05         0.00000E+00
    0.90555E+05        -0.49966E+08         0.00000E+00
    0.00000E+00         0.00000E+00        -0.49781E+08
 
   -0.49642E+08         0.94630E+05         0.00000E+00
    0.94630E+05        -0.49963E+08         0.00000E+00
    0.00000E+00         0.00000E+00        -0.49781E+08
 
   -0.49648E+08         0.98740E+05         0.00000E+00
    0.98740E+05        -0.49961E+08         0.00000E+00
    0.00000E+00         0.00000E+00        -0.49781E+08
 
   -0.49653E+08         0.10289E+06         0.00000E+00
    0.10289E+06        -0.49958E+08         0.00000E+00
    0.00000E+00         0.00000E+00        -0.49781E+08
 
   -0.49658E+08         0.10706E+06         0.00000E+00
    0.10706E+06        -0.49956E+08         0.00000E+00
    0.00000E+00         0.00000E+00        -0.49781E+08
 
   -0.49664E+08         0.11128E+06         0.00000E+00
    0.11128E+06        -0.49953E+08         0.00000E+00
    0.00000E+00         0.00000E+00        -0.49781E+08
 
   -0.49670E+08         0.11552E+06         0.00000E+00
    0.11552E+06        -0.49950E+08         0.00000E+00
    0.00000E+00         0.00000E+00        -0.49781E+08
 
   -0.49675E+08         0.11979E+06         0.00000E+00
    0.11979E+06        -0.49948E+08         0.00000E+00
    0.00000E+00         0.00000E+00        -0.49781E+08
 
   -0.49681E+08         0.12409E+06         0.00000E+00
    0.12409E+06        -0.49945E+08         0.00000E+00
    0.00000E+00         0.00000E+00        -0.49782E+08
 
   -0.49687E+08         0.12842E+06         0.00000E+00
    0.12842E+06        -0.49942E+08         0.00000E+00
    0.00000E+00         0.00000E+00        -0.49782E+08
 
   -0.49693E+08         0.13277E+06         0.00000E+00
    0.13277E+06        -0.49940E+08         0.00000E+00
    0.00000E+00         0.00000E+00        -0.49782E+08
 
   -0.49699E+08         0.13715E+06         0.00000E+00
    0.13715E+06        -0.49937E+08         0.00000E+00
    0.00000E+00         0.00000E+00        -0.49782E+08
 
   -0.49705E+08         0.14155E+06         0.00000E+00
    0.14155E+06        -0.49934E+08         0.00000E+00
    0.00000E+00         0.00000E+00        -0.49782E+08
 
   -0.49711E+08         0.14598E+06         0.00000E+00
    0.14598E+06        -0.49931E+08         0.00000E+00
    0.00000E+00         0.00000E+00        -0.49782E+08
 
   -0.49717E+08         0.15042E+06         0.00000E+00
    0.15042E+06        -0.49928E+08         0.00000E+00
    0.00000E+00         0.00000E+00        -0.49782E+08
 
   -0.49723E+08         0.15488E+06         0.00000E+00
    0.15488E+06        -0.49925E+08         0.00000E+00
    0.00000E+00         0.00000E+00        -0.49782E+08
 
   -0.49730E+08         0.15936E+06         0.00000E+00
    0.15936E+06        -0.49922E+08         0.00000E+00
    0.00000E+00         0.00000E+00        -0.49782E+08
 
   -0.49736E+08         0.16385E+06         0.00000E+00
    0.16385E+06        -0.49919E+08         0.00000E+00
    0.00000E+00         0.00000E+00        -0.49782E+08
 
   -0.49742E+08         0.16835E+06         0.00000E+00
    0.16835E+06        -0.49916E+08         0.00000E+00
    0.00000E+00         0.00000E+00        -0.49782E+08
 
   -0.49748E+08         0.17287E+06         0.00000E+00
    0.17287E+06        -0.49913E+08         0.00000E+00
    0.00000E+00         0.00000E+00        -0.49782E+08
 
   -0.49754E+08         0.17739E+06         0.00000E+00
    0.17739E+06        -0.49910E+08         0.00000E+00
    0.00000E+00         0.00000E+00        -0.49783E+08
 
   -0.49761E+08         0.18192E+06         0.00000E+00
    0.18192E+06        -0.49907E+08         0.00000E+00
    0.00000E+00         0.00000E+00        -0.49783E+08
 
   -0.49767E+08         0.18645E+06         0.00000E+00
    0.18645E+06        -0.49904E+08         0.00000E+00
    0.00000E+00         0.00000E+00        -0.49783E+08
 
   -0.49773E+08         0.19099E+06         0.00000E+00
    0.19099E+06        -0.49901E+08         0.00000E+00
    0.00000E+00         0.00000E+00        -0.49783E+08
 
   -0.49779E+08         0.19552E+06         0.00000E+00
    0.19552E+06        -0.49897E+08         0.00000E+00
    0.00000E+00         0.00000E+00        -0.49783E+08
 
   -0.49535E+08         0.18970E+04         0.00000E+00
    0.18970E+04        -0.50000E+08         0.00000E+00
    0.00000E+00         0.00000E+00        -0.49756E+08
 
   -0.49536E+08         0.56840E+04         0.00000E+00
    0.56840E+04        -0.50000E+08         0.00000E+00
    0.00000E+00         0.00000E+00        -0.49756E+08
 
   -0.49537E+08         0.94736E+04         0.00000E+00
    0.94736E+04        -0.50000E+08         0.00000E+00
    0.00000E+00         0.00000E+00        -0.49756E+08
 
   -0.49539E+08         0.13270E+05         0.00000E+00
    0.13270E+05        -0.49999E+08         0.00000E+00
    0.00000E+00         0.00000E+00        -0.49756E+08
 
   -0.49540E+08         0.17075E+05         0.00000E+00
    0.17075E+05        -0.49999E+08         0.00000E+00
    0.00000E+00         0.00000E+00        -0.49756E+08
 
   -0.49542E+08         0.20893E+05         0.00000E+00
    0.20893E+05        -0.49998E+08         0.00000E+00
    0.00000E+00         0.00000E+00        -0.49756E+08
 
   -0.49544E+08         0.24725E+05         0.00000E+00
    0.24725E+05        -0.49997E+08         0.00000E+00
    0.00000E+00         0.00000E+00        -0.49756E+08
 
   -0.49546E+08         0.28576E+05         0.00000E+00
    0.28576E+05        -0.49997E+08         0.00000E+00
    0.00000E+00         0.00000E+00        -0.49756E+08
 
   -0.49549E+08         0.32445E+05         0.00000E+00
    0.32445E+05        -0.49996E+08         0.00000E+00
    0.00000E+00         0.00000E+00        -0.49756E+08
 
   -0.49552E+08         0.36337E+05         0.00000E+00
    0.36337E+05        -0.49995E+08         0.00000E+00
    0.00000E+00         0.00000E+00        -0.49756E+08
 
   -0.49554E+08         0.40251E+05         0.00000E+00
    0.40251E+05        -0.49993E+08         0.00000E+00
    0.00000E+00         0.00000E+00        -0.49756E+08
 
   -0.49557E+08         0.44190E+05         0.00000E+00
    0.44190E+05        -0.49992E+08         0.00000E+00
    0.00000E+00         0.00000E+00        -0.49757E+08
 
   -0.49561E+08         0.48155E+05         0.00000E+00
    0.48155E+05        -0.49991E+08         0.00000E+00
    0.00000E+00         0.00000E+00        -0.49757E+08
 
   -0.49564E+08         0.52146E+05         0.00000E+00
    0.52146E+05        -0.49990E+08         0.00000E+00
    0.00000E+00         0.00000E+00        -0.49757E+08
 
   -0.49568E+08         0.56165E+05         0.00000E+00
    0.56165E+05        -0.49988E+08         0.00000E+00
    0.00000E+00         0.00000E+00        -0.49757E+08
 
   -0.49571E+08         0.60212E+05         0.00000E+00
    0.60212E+05        -0.49986E+08         0.00000E+00
    0.00000E+00         0.00000E+00        -0.49757E+08
 
   -0.49575E+08         0.64287E+05         0.00000E+00
    0.64287E+05        -0.49985E+08         0.00000E+00
    0.00000E+00         0.00000E+00        -0.49757E+08
 
   -0.49579E+08         0.68392E+05         0.00000E+00
    0.68392E+05        -0.49983E+08         0.00000E+00
    0.00000E+00         0.00000E+00        -0.49757E+08
 
   -0.49583E+08         0.72525E+05         0.00000E+00
    0.72525E+05        -0.49981E+08         0.00000E+00
    0.00000E+00         0.00000E+00        -0.49757E+08
 
   -0.49588E+08         0.76687E+05         0.00000E+00
    0.76687E+05        -0.49979E+08         0.00000E+00
    0.00000E+00         0.00000E+00        -0.49757E+08
 
   -0.49592E+08         0.80878E+05         0.00000E+00
    0.80878E+05        -0.49977E+08         0.00000E+00
    0.00000E+00         0.00000E+00        -0.49757E+08
 
   -0.49597E+08         0.85098E+05         0.00000E+00
    0.85098E+05        -0.49975E+08         0.00000E+00
    0.00000E+00         0.00000E+00        -0.49757E+08
 
   -0.49601E+08         0.89346E+05         0.00000E+00
    0.89346E+05        -0.49973E+08         0.00000E+00
    0.00000E+00         0.00000E+00        -0.49758E+08
 
   -0.49606E+08         0.93621E+05         0.00000E+00
    0.93621E+05        -0.49971E+08         0.00000E+00
    0.00000E+00         0.00000E+00        -0.49758E+08
 
   -0.49611E+08         0.97924E+05         0.00000E+00
    0.97924E+05        -0.49969E+08         0.00000E+00
    0.00000E+00         0.00000E+00        -0.49758E+08
 
   -0.49616E+08         0.10225E+06         0.00000E+00
    0.10225E+06        -0.49966E+08         0.00000E+00
    0.00000E+00         0.00000E+00        -0.49758E+08
 
   -0.49621E+08         0.10661E+06         0.00000E+00
    0.10661E+06        -0.49964E+08         0.00000E+00
    0.00000E+00         0.00000E+00        -0.49758E+08
 
   -0.49626E+08         0.11099E+06         0.00000E+00
    0.11099E+06        -0.49962E+08         0.00000E+00
    0.00000E+00         0.00000E+00        -0.49758E+08
 
   -0.49632E+08         0.11539E+06         0.00000E+00
    0.11539E+06        -0.49959E+08         0.00000E+00
    0.00000E+00         0.00000E+00        -0.49758E+08
 
   -0.49637E+08         0.11982E+06         0.00000E+00
    0.11982E+06        -0.49957E+08         0.00000E+00
    0.00000E+00         0.00000E+00        -0.49758E+08
 
   -0.49642E+08         0.12427E+06         0.00000E+00
    0.12427E+06        -0.49954E+08         0.00000E+00
    0.00000E+00         0.00000E+00        -0.49758E+08
 
   -0.49648E+08         0.12874E+06         0.00000E+00
    0.12874E+06        -0.49952E+08         0.00000E+00
    0.00000E+00         0.00000E+00        -0.49759E+08
 
   -0.49654E+08         0.13323E+06         0.00000E+00
    0.13323E+06        -0.49949E+08         0.00000E+00
    0.00000E+00         0.00000E+00        -0.49759E+08
 
   -0.49659E+08         0.13774E+06         0.00000E+00
    0.13774E+06        -0.49946E+08         0.00000E+00
    0.00000E+00         0.00000E+00        -0.49759E+08
 
   -0.49665E+08         0.14227E+06         0.00000E+00
    0.14227E+06        -0.49943E+08         0.00000E+00
    0.00000E+00         0.00000E+00        -0.49759E+08
 
   -0.49671E+08         0.14681E+06         0.00000E+00
    0.14681E+06        -0.49941E+08         0.00000E+00
    0.00000E+00         0.00000E+00        -0.49759E+08
 
   -0.49677E+08         0.15137E+06         0.00000E+00
    0.15137E+06        -0.49938E+08         0.00000E+00
    0.00000E+00         0.00000E+00        -0.49759E+08
 
   -0.49683E+08         0.15594E+06         0.00000E+00
    0.15594E+06        -0.49935E+08         0.00000E+00
    0.00000E+00         0.00000E+00        -0.49759E+08
 
   -0.49689E+08         0.16052E+06         0.00000E+00
    0.16052E+06        -0.49932E+08         0.00000E+00
    0.00000E+00         0.00000E+00        -0.49759E+08
 
   -0.49695E+08         0.16511E+06         0.00000E+00
    0.16511E+06        -0.49929E+08         0.00000E+00
    0.00000E+00         0.00000E+00        -0.49759E+08
 
   -0.49701E+08         0.16972E+06         0.00000E+00
    0.16972E+06        -0.49926E+08         0.00000E+00
    0.00000E+00         0.00000E+00        -0.49759E+08
 
   -0.49707E+08         0.17433E+06         0.00000E+00
    0.17433E+06        -0.49923E+08         0.00000E+00
    0.00000E+00         0.00000E+00        -0.49760E+08
 
   -0.49713E+08         0.17894E+06         0.00000E+00
    0.17894E+06        -0.49920E+08         0.00000E+00
    0.00000E+00         0.00000E+00        -0.49760E+08
 
   -0.49719E+08         0.18356E+06         0.00000E+00
    0.18356E+06        -0.49917E+08         0.00000E+00
    0.00000E+00         0.00000E+00        -0.49760E+08
 
   -0.49725E+08         0.18818E+06         0.00000E+00
    0.18818E+06        -0.49914E+08         0.00000E+00
    0.00000E+00         0.00000E+00        -0.49760E+08
 
   -0.49732E+08         0.19280E+06         0.00000E+00
    0.19280E+06        -0.49911E+08         0.00000E+00
    0.00000E+00         0.00000E+00        -0.49760E+08
 
   -0.49738E+08         0.19742E+06         0.00000E+00
    0.19742E+06        -0.49908E+08         0.00000E+00
    0.00000E+00         0.00000E+00        -0.49760E+08
 
   -0.49744E+08         0.20203E+06         0.00000E+00
    0.20203E+06        -0.49905E+08         0.00000E+00
    0.00000E+00         0.00000E+00        -0.49760E+08
 
   -0.49750E+08         0.20664E+06         0.00000E+00
    0.20664E+06        -0.49902E+08         0.00000E+00
    0.00000E+00         0.00000E+00        -0.49760E+08
 
   -0.49757E+08         0.21124E+06         0.00000E+00
    0.21124E+06        -0.49899E+08         0.00000E+00
    0.00000E+00         0.00000E+00        -0.49760E+08
 
   -0.49515E+08         0.22173E+04         0.00000E+00
    0.22173E+04        -0.50000E+08         0.00000E+00
    0.00000E+00         0.00000E+00        -0.49733E+08
 
   -0.49516E+08         0.66112E+04         0.00000E+00
    0.66112E+04        -0.50000E+08         0.00000E+00
    0.00000E+00         0.00000E+00        -0.49733E+08
 
   -0.49517E+08         0.10995E+05         0.00000E+00
    0.10995E+05        -0.50000E+08         0.00000E+00
    0.00000E+00         0.00000E+00        -0.49733E+08
 
   -0.49518E+08         0.15372E+05         0.00000E+00
    0.15372E+05        -0.49999E+08         0.00000E+00
    0.00000E+00         0.00000E+00        -0.49733E+08
 
   -0.49520E+08         0.19746E+05         0.00000E+00
    0.19746E+05        -0.49999E+08         0.00000E+00
    0.00000E+00         0.00000E+00        -0.49733E+08
 
   -0.49522E+08         0.24118E+05         0.00000E+00
    0.24118E+05        -0.49998E+08         0.00000E+00
    0.00000E+00         0.00000E+00        -0.49733E+08
 
   -0.49524E+08         0.28492E+05         0.00000E+00
    0.28492E+05        -0.49998E+08         0.00000E+00
    0.00000E+00         0.00000E+00        -0.49733E+08
 
   -0.49526E+08         0.32869E+05         0.00000E+00
    0.32869E+05        -0.49997E+08         0.00000E+00
    0.00000E+00         0.00000E+00        -0.49733E+08
 
   -0.49528E+08         0.37252E+05         0.00000E+00
    0.37252E+05        -0.49996E+08         0.00000E+00
    0.00000E+00         0.00000E+00        -0.49733E+08
 
   -0.49531E+08         0.41643E+05         0.00000E+00
    0.41643E+05        -0.49995E+08         0.00000E+00
    0.00000E+00         0.00000E+00        -0.49733E+08
 
   -0.49534E+08         0.46044E+05         0.00000E+00
    0.46044E+05        -0.49994E+08         0.00000E+00
    0.00000E+00         0.00000E+00        -0.49733E+08
 
   -0.49537E+08         0.50455E+05         0.00000E+00
    0.50455E+05        -0.49993E+08         0.00000E+00
    0.00000E+00         0.00000E+00        -0.49733E+08
 
   -0.49540E+08         0.54878E+05         0.00000E+00
    0.54878E+05        -0.49991E+08         0.00000E+00
    0.00000E+00         0.00000E+00        -0.49734E+08
 
   -0.49543E+08         0.59315E+05         0.00000E+00
    0.59315E+05        -0.49990E+08         0.00000E+00
    0.00000E+00         0.00000E+00        -0.49734E+08
 
   -0.49546E+08         0.63766E+05         0.00000E+00
    0.63766E+05        -0.49988E+08         0.00000E+00
    0.00000E+00         0.00000E+00        -0.49734E+08
 
   -0.49550E+08         0.68231E+05         0.00000E+00
    0.68231E+05        -0.49987E+08         0.00000E+00
    0.00000E+00         0.00000E+00        -0.49734E+08
 
   -0.49554E+08         0.72713E+05         0.00000E+00
    0.72713E+05        -0.49985E+08         0.00000E+00
    0.00000E+00         0.00000E+00        -0.49734E+08
 
   -0.49558E+08         0.77211E+05         0.00000E+00
    0.77211E+05        -0.49984E+08         0.00000E+00
    0.00000E+00         0.00000E+00        -0.49734E+08
 
   -0.49562E+08         0.81725E+05         0.00000E+00
    0.81725E+05        -0.49982E+08         0.00000E+00
    0.00000E+00         0.00000E+00        -0.49734E+08
 
   -0.49566E+08         0.86256E+05         0.00000E+00
    0.86256E+05        -0.49980E+08         0.00000E+00
    0.00000E+00         0.00000E+00        -0.49734E+08
 
   -0.49570E+08         0.90803E+05         0.00000E+00
    0.90803E+05        -0.49978E+08         0.00000E+00
    0.00000E+00         0.00000E+00        -0.49734E+08
 
   -0.49575E+08         0.95367E+05         0.00000E+00
    0.95367E+05        -0.49976E+08         0.00000E+00
    0.00000E+00         0.00000E+00        -0.49734E+08
 
   -0.49579E+08         0.99948E+05         0.00000E+00
    0.99948E+05        -0.49974E+08         0.00000E+00
    0.00000E+00         0.00000E+00        -0.49735E+08
 
   -0.49584E+08         0.10455E+06         0.00000E+00
    0.10455E+06        -0.49972E+08         0.00000E+00
    0.00000E+00         0.00000E+00        -0.49735E+08
 
   -0.49589E+08         0.10916E+06         0.00000E+00
    0.10916E+06        -0.49970E+08         0.00000E+00
    0.00000E+00         0.00000E+00        -0.49735E+08
 
   -0.49593E+08         0.11379E+06         0.00000E+00
    0.11379E+06        -0.49967E+08         0.00000E+00
    0.00000E+00         0.00000E+00        -0.49735E+08
 
   -0.49598E+08         0.11843E+06         0.00000E+00
    0.11843E+06        -0.49965E+08         0.00000E+00
    0.00000E+00         0.00000E+00        -0.49735E+08
 
   -0.49604E+08         0.12309E+06         0.00000E+00
    0.12309E+06        -0.49963E+08         0.00000E+00
    0.00000E+00         0.00000E+00        -0.49735E+08
 
   -0.49609E+08         0.12776E+06         0.00000E+00
    0.12776E+06        -0.49960E+08         0.00000E+00
    0.00000E+00         0.00000E+00        -0.49735E+08
 
   -0.49614E+08         0.13245E+06         0.00000E+00
    0.13245E+06        -0.49958E+08         0.00000E+00
    0.00000E+00         0.00000E+00        -0.49735E+08
 
   -0.49619E+08         0.13714E+06         0.00000E+00
    0.13714E+06        -0.49955E+08         0.00000E+00
    0.00000E+00         0.00000E+00        -0.49735E+08
 
   -0.49625E+08         0.14185E+06         0.00000E+00
    0.14185E+06        -0.49953E+08         0.00000E+00
    0.00000E+00         0.00000E+00        -0.49736E+08
 
   -0.49630E+08         0.14657E+06         0.00000E+00
    0.14657E+06        -0.49950E+08         0.00000E+00
    0.00000E+00         0.00000E+00        -0.49736E+08
 
   -0.49636E+08         0.15130E+06         0.00000E+00
    0.15130E+06        -0.49947E+08         0.00000E+00
    0.00000E+00         0.00000E+00        -0.49736E+08
 
   -0.49642E+08         0.15603E+06         0.00000E+00
    0.15603E+06        -0.49945E+08         0.00000E+00
    0.00000E+00         0.00000E+00        -0.49736E+08
 
   -0.49648E+08         0.16077E+06         0.00000E+00
    0.16077E+06        -0.49942E+08         0.00000E+00
    0.00000E+00         0.00000E+00        -0.49736E+08
 
   -0.49653E+08         0.16552E+06         0.00000E+00
    0.16552E+06        -0.49939E+08         0.00000E+00
    0.00000E+00         0.00000E+00        -0.49736E+08
 
   -0.49659E+08         0.17027E+06         0.00000E+00
    0.17027E+06        -0.49936E+08         0.00000E+00
    0.00000E+00         0.00000E+00        -0.49736E+08
 
   -0.49665E+08         0.17503E+06         0.00000E+00
    0.17503E+06        -0.49933E+08         0.00000E+00
    0.00000E+00         0.00000E+00        -0.49736E+08
 
   -0.49671E+08         0.17978E+06         0.00000E+00
    0.17978E+06        -0.49930E+08         0.00000E+00
    0.00000E+00         0.00000E+00        -0.49736E+08
 
   -0.49677E+08         0.18454E+06         0.00000E+00
    0.18454E+06        -0.49927E+08         0.00000E+00
    0.00000E+00         0.00000E+00        -0.49736E+08
 
   -0.49683E+08         0.18930E+06         0.00000E+00
    0.18930E+06        -0.49924E+08         0.00000E+00
    0.00000E+00         0.00000E+00        -0.49736E+08
 
   -0.49690E+08         0.19405E+06         0.00000E+00
    0.19405E+06        -0.49921E+08         0.00000E+00
    0.00000E+00         0.00000E+00        -0.49736E+08
 
   -0.49696E+08         0.19880E+06         0.00000E+00
    0.19880E+06        -0.49918E+08         0.00000E+00
    0.00000E+00         0.00000E+00        -0.49737E+08
 
   -0.49702E+08         0.20354E+06         0.00000E+00
    0.20354E+06        -0.49915E+08         0.00000E+00
    0.00000E+00         0.00000E+00        -0.49737E+08
 
   -0.49708E+08         0.20827E+06         0.00000E+00
    0.20827E+06        -0.49912E+08         0.00000E+00
    0.00000E+00         0.00000E+00        -0.49737E+08
 
   -0.49714E+08         0.21300E+06         0.00000E+00
    0.21300E+06        -0.49909E+08         0.00000E+00
    0.00000E+00         0.00000E+00        -0.49737E+08
 
   -0.49721E+08         0.21771E+06         0.00000E+00
    0.21771E+06        -0.49906E+08         0.00000E+00
    0.00000E+00         0.00000E+00        -0.49737E+08
 
   -0.49727E+08         0.22241E+06         0.00000E+00
    0.22241E+06        -0.49903E+08         0.00000E+00
    0.00000E+00         0.00000E+00        -0.49737E+08
 
   -0.49734E+08         0.22709E+06         0.00000E+00
    0.22709E+06        -0.49900E+08         0.00000E+00
    0.00000E+00         0.00000E+00        -0.49737E+08
 
   -0.49491E+08         0.25175E+04         0.00000E+00
    0.25175E+04        -0.50000E+08         0.00000E+00
    0.00000E+00         0.00000E+00        -0.49710E+08
 
   -0.49492E+08         0.74869E+04         0.00000E+00
    0.74869E+04        -0.50000E+08         0.00000E+00
    0.00000E+00         0.00000E+00        -0.49710E+08
 
   -0.49494E+08         0.12436E+05         0.00000E+00
    0.12436E+05        -0.50000E+08         0.00000E+00
    0.00000E+00         0.00000E+00        -0.49710E+08
 
   -0.49495E+08         0.17369E+05         0.00000E+00
    0.17369E+05        -0.49999E+08         0.00000E+00
    0.00000E+00         0.00000E+00        -0.49710E+08
 
   -0.49497E+08         0.22288E+05         0.00000E+00
    0.22288E+05        -0.49999E+08         0.00000E+00
    0.00000E+00         0.00000E+00        -0.49710E+08
 
   -0.49498E+08         0.27194E+05         0.00000E+00
    0.27194E+05        -0.49998E+08         0.00000E+00
    0.00000E+00         0.00000E+00        -0.49710E+08
 
   -0.49500E+08         0.32091E+05         0.00000E+00
    0.32091E+05        -0.49998E+08         0.00000E+00
    0.00000E+00         0.00000E+00        -0.49710E+08
 
   -0.49503E+08         0.36981E+05         0.00000E+00
    0.36981E+05        -0.49997E+08         0.00000E+00
    0.00000E+00         0.00000E+00        -0.49710E+08
 
   -0.49505E+08         0.41865E+05         0.00000E+00
    0.41865E+05        -0.49996E+08         0.00000E+00
    0.00000E+00         0.00000E+00        -0.49710E+08
 
   -0.49508E+08         0.46745E+05         0.00000E+00
    0.46745E+05        -0.49995E+08         0.00000E+00
    0.00000E+00         0.00000E+00        -0.49710E+08
 
   -0.49510E+08         0.51624E+05         0.00000E+00
    0.51624E+05        -0.49994E+08         0.00000E+00
    0.00000E+00         0.00000E+00        -0.49710E+08
 
   -0.49513E+08         0.56501E+05         0.00000E+00
    0.56501E+05        -0.49993E+08         0.00000E+00
    0.00000E+00         0.00000E+00        -0.49710E+08
 
   -0.49516E+08         0.61379E+05         0.00000E+00
    0.61379E+05        -0.49992E+08         0.00000E+00
    0.00000E+00         0.00000E+00        -0.49710E+08
 
   -0.49520E+08         0.66258E+05         0.00000E+00
    0.66258E+05        -0.49990E+08         0.00000E+00
    0.00000E+00         0.00000E+00        -0.49710E+08
 
   -0.49523E+08         0.71141E+05         0.00000E+00
    0.71141E+05        -0.49989E+08         0.00000E+00
    0.00000E+00         0.00000E+00        -0.49710E+08
 
   -0.49527E+08         0.76026E+05         0.00000E+00
    0.76026E+05        -0.49987E+08         0.00000E+00
    0.00000E+00         0.00000E+00        -0.49710E+08
 
   -0.49530E+08         0.80916E+05         0.00000E+00
    0.80916E+05        -0.49986E+08         0.00000E+00
    0.00000E+00         0.00000E+00        -0.49710E+08
 
   -0.49534E+08         0.85810E+05         0.00000E+00
    0.85810E+05        -0.49984E+08         0.00000E+00
    0.00000E+00         0.00000E+00        -0.49710E+08
 
   -0.49538E+08         0.90710E+05         0.00000E+00
    0.90710E+05        -0.49982E+08         0.00000E+00
    0.00000E+00         0.00000E+00        -0.49711E+08
 
   -0.49542E+08         0.95615E+05         0.00000E+00
    0.95615E+05        -0.49981E+08         0.00000E+00
    0.00000E+00         0.00000E+00        -0.49711E+08
 
   -0.49546E+08         0.10053E+06         0.00000E+00
    0.10053E+06        -0.49979E+08         0.00000E+00
    0.00000E+00         0.00000E+00        -0.49711E+08
 
   -0.49551E+08         0.10544E+06         0.00000E+00
    0.10544E+06        -0.49977E+08         0.00000E+00
    0.00000E+00         0.00000E+00        -0.49711E+08
 
   -0.49555E+08         0.11036E+06         0.00000E+00
    0.11036E+06        -0.49975E+08         0.00000E+00
    0.00000E+00         0.00000E+00        -0.49711E+08
 
   -0.49560E+08         0.11529E+06         0.00000E+00
    0.11529E+06        -0.49973E+08         0.00000E+00
    0.00000E+00         0.00000E+00        -0.49711E+08
 
   -0.49565E+08         0.12022E+06         0.00000E+00
    0.12022E+06        -0.49970E+08         0.00000E+00
    0.00000E+00         0.00000E+00        -0.49711E+08
 
   -0.49570E+08         0.12516E+06         0.00000E+00
    0.12516E+06        -0.49968E+08         0.00000E+00
    0.00000E+00         0.00000E+00        -0.49711E+08
 
   -0.49574E+08         0.13011E+06         0.00000E+00
    0.13011E+06        -0.49966E+08         0.00000E+00
    0.00000E+00         0.00000E+00        -0.49711E+08
 
   -0.49580E+08         0.13505E+06         0.00000E+00
    0.13505E+06        -0.49964E+08         0.00000E+00
    0.00000E+00         0.00000E+00        -0.49712E+08
 
   -0.49585E+08         0.14000E+06         0.00000E+00
    0.14000E+06        -0.49961E+08         0.00000E+00
    0.00000E+00         0.00000E+00        -0.49712E+08
 
   -0.49590E+08         0.14496E+06         0.00000E+00
    0.14496E+06        -0.49959E+08         0.00000E+00
    0.00000E+00         0.00000E+00        -0.49712E+08
 
   -0.49595E+08         0.14991E+06         0.00000E+00
    0.14991E+06        -0.49956E+08         0.00000E+00
    0.00000E+00         0.00000E+00        -0.49712E+08
 
   -0.49601E+08         0.15487E+06         0.00000E+00
    0.15487E+06        -0.49954E+08         0.00000E+00
    0.00000E+00         0.00000E+00        -0.49712E+08
 
   -0.49606E+08         0.15983E+06         0.00000E+00
    0.15983E+06        -0.49951E+08         0.00000E+00
    0.00000E+00         0.00000E+00        -0.49712E+08
 
   -0.49612E+08         0.16479E+06         0.00000E+00
    0.16479E+06        -0.49948E+08         0.00000E+00
    0.00000E+00         0.00000E+00        -0.49712E+08
 
   -0.49618E+08         0.16974E+06         0.00000E+00
    0.16974E+06        -0.49946E+08         0.00000E+00
    0.00000E+00         0.00000E+00        -0.49712E+08
 
   -0.49623E+08         0.17470E+06         0.00000E+00
    0.17470E+06        -0.49943E+08         0.00000E+00
    0.00000E+00         0.00000E+00        -0.49712E+08
 
   -0.49629E+08         0.17965E+06         0.00000E+00
    0.17965E+06        -0.49940E+08         0.00000E+00
    0.00000E+00         0.00000E+00        -0.49712E+08
 
   -0.49635E+08         0.18460E+06         0.00000E+00
    0.18460E+06        -0.49937E+08         0.00000E+00
    0.00000E+00         0.00000E+00        -0.49713E+08
 
   -0.49641E+08         0.18954E+06         0.00000E+00
    0.18954E+06        -0.49934E+08         0.00000E+00
    0.00000E+00         0.00000E+00        -0.49713E+08
 
   -0.49647E+08         0.19448E+06         0.00000E+00
    0.19448E+06        -0.49931E+08         0.00000E+00
    0.00000E+00         0.00000E+00        -0.49713E+08
 
   -0.49653E+08         0.19940E+06         0.00000E+00
    0.19940E+06        -0.49928E+08         0.00000E+00
    0.00000E+00         0.00000E+00        -0.49713E+08
 
   -0.49659E+08         0.20432E+06         0.00000E+00
    0.20432E+06        -0.49925E+08         0.00000E+00
    0.00000E+00         0.00000E+00        -0.49713E+08
 
   -0.49665E+08         0.20923E+06         0.00000E+00
    0.20923E+06        -0.49922E+08         0.00000E+00
    0.00000E+00         0.00000E+00        -0.49713E+08
 
   -0.49672E+08         0.21412E+06         0.00000E+00
    0.21412E+06        -0.49919E+08         0.00000E+00
    0.00000E+00         0.00000E+00        -0.49713E+08
 
   -0.49678E+08         0.21901E+06         0.00000E+00
    0.21901E+06        -0.49916E+08         0.00000E+00
    0.00000E+00         0.00000E+00        -0.49713E+08
 
   -0.49684E+08         0.22387E+06         0.00000E+00
    0.22387E+06        -0.49913E+08         0.00000E+00
    0.00000E+00         0.00000E+00        -0.49713E+08
 
   -0.49691E+08         0.22872E+06         0.00000E+00
    0.22872E+06        -0.49910E+08         0.00000E+00
    0.00000E+00         0.00000E+00        -0.49713E+08
 
   -0.49697E+08         0.23356E+06         0.00000E+00
    0.23356E+06        -0.49907E+08         0.00000E+00
    0.00000E+00         0.00000E+00        -0.49713E+08
 
   -0.49703E+08         0.23837E+06         0.00000E+00
    0.23837E+06        -0.49904E+08         0.00000E+00
    0.00000E+00         0.00000E+00        -0.49713E+08
 
   -0.49710E+08         0.24316E+06         0.00000E+00
    0.24316E+06        -0.49900E+08         0.00000E+00
    0.00000E+00         0.00000E+00        -0.49713E+08
 
   -0.49465E+08         0.28011E+04         0.00000E+00
    0.28011E+04        -0.50000E+08         0.00000E+00
    0.00000E+00         0.00000E+00        -0.49685E+08
 
   -0.49466E+08         0.83190E+04         0.00000E+00
    0.83190E+04        -0.50000E+08         0.00000E+00
    0.00000E+00         0.00000E+00        -0.49685E+08
 
   -0.49467E+08         0.13810E+05         0.00000E+00
    0.13810E+05        -0.50000E+08         0.00000E+00
    0.00000E+00         0.00000E+00        -0.49685E+08
 
   -0.49469E+08         0.19276E+05         0.00000E+00
    0.19276E+05        -0.49999E+08         0.00000E+00
    0.00000E+00         0.00000E+00        -0.49685E+08
 
   -0.49471E+08         0.24720E+05         0.00000E+00
    0.24720E+05        -0.49999E+08         0.00000E+00
    0.00000E+00         0.00000E+00        -0.49686E+08
 
   -0.49473E+08         0.30143E+05         0.00000E+00
    0.30143E+05        -0.49998E+08         0.00000E+00
    0.00000E+00         0.00000E+00        -0.49686E+08
 
   -0.49475E+08         0.35548E+05         0.00000E+00
    0.35548E+05        -0.49998E+08         0.00000E+00
    0.00000E+00         0.00000E+00        -0.49686E+08
 
   -0.49477E+08         0.40937E+05         0.00000E+00
    0.40937E+05        -0.49997E+08         0.00000E+00
    0.00000E+00         0.00000E+00        -0.49686E+08
 
   -0.49479E+08         0.46310E+05         0.00000E+00
    0.46310E+05        -0.49996E+08         0.00000E+00
    0.00000E+00         0.00000E+00        -0.49686E+08
 
   -0.49482E+08         0.51671E+05         0.00000E+00
    0.51671E+05        -0.49995E+08         0.00000E+00
    0.00000E+00         0.00000E+00        -0.49686E+08
 
   -0.49485E+08         0.57019E+05         0.00000E+00
    0.57019E+05        -0.49994E+08         0.00000E+00
    0.00000E+00         0.00000E+00        -0.49686E+08
 
   -0.49488E+08         0.62357E+05         0.00000E+00
    0.62357E+05        -0.49993E+08         0.00000E+00
    0.00000E+00         0.00000E+00        -0.49686E+08
 
   -0.49491E+08         0.67686E+05         0.00000E+00
    0.67686E+05        -0.49992E+08         0.00000E+00
    0.00000E+00         0.00000E+00        -0.49686E+08
 
   -0.49494E+08         0.73006E+05         0.00000E+00
    0.73006E+05        -0.49991E+08         0.00000E+00
    0.00000E+00         0.00000E+00        -0.49686E+08
 
   -0.49497E+08         0.78318E+05         0.00000E+00
    0.78318E+05        -0.49989E+08         0.00000E+00
    0.00000E+00         0.00000E+00        -0.49686E+08
 
   -0.49501E+08         0.83624E+05         0.00000E+00
    0.83624E+05        -0.49988E+08         0.00000E+00
    0.00000E+00         0.00000E+00        -0.49686E+08
 
   -0.49505E+08         0.88924E+05         0.00000E+00
    0.88924E+05        -0.49986E+08         0.00000E+00
    0.00000E+00         0.00000E+00        -0.49686E+08
 
   -0.49509E+08         0.94219E+05         0.00000E+00
    0.94219E+05        -0.49985E+08         0.00000E+00
    0.00000E+00         0.00000E+00        -0.49686E+08
 
   -0.49513E+08         0.99508E+05         0.00000E+00
    0.99508E+05        -0.49983E+08         0.00000E+00
    0.00000E+00         0.00000E+00        -0.49686E+08
 
   -0.49517E+08         0.10479E+06         0.00000E+00
    0.10479E+06        -0.49981E+08         0.00000E+00
    0.00000E+00         0.00000E+00        -0.49687E+08
 
   -0.49521E+08         0.11007E+06         0.00000E+00
    0.11007E+06        -0.49979E+08         0.00000E+00
    0.00000E+00         0.00000E+00        -0.49687E+08
 
   -0.49525E+08         0.11535E+06         0.00000E+00
    0.11535E+06        -0.49977E+08         0.00000E+00
    0.00000E+00         0.00000E+00        -0.49687E+08
 
   -0.49530E+08         0.12062E+06         0.00000E+00
    0.12062E+06        -0.49975E+08         0.00000E+00
    0.00000E+00         0.00000E+00        -0.49687E+08
 
   -0.49534E+08         0.12589E+06         0.00000E+00
    0.12589E+06        -0.49973E+08         0.00000E+00
    0.00000E+00         0.00000E+00        -0.49687E+08
 
   -0.49539E+08         0.13115E+06         0.00000E+00
    0.13115E+06        -0.49971E+08         0.00000E+00
    0.00000E+00         0.00000E+00        -0.49687E+08
 
   -0.49544E+08         0.13641E+06         0.00000E+00
    0.13641E+06        -0.49969E+08         0.00000E+00
    0.00000E+00         0.00000E+00        -0.49687E+08
 
   -0.49549E+08         0.14166E+06         0.00000E+00
    0.14166E+06        -0.49967E+08         0.00000E+00
    0.00000E+00         0.00000E+00        -0.49687E+08
 
   -0.49554E+08         0.14691E+06         0.00000E+00
    0.14691E+06        -0.49964E+08         0.00000E+00
    0.00000E+00         0.00000E+00        -0.49687E+08
 
   -0.49559E+08         0.15215E+06         0.00000E+00
    0.15215E+06        -0.49962E+08         0.00000E+00
    0.00000E+00         0.00000E+00        -0.49687E+08
 
   -0.49565E+08         0.15739E+06         0.00000E+00
    0.15739E+06        -0.49960E+08         0.00000E+00
    0.00000E+00         0.00000E+00        -0.49688E+08
 
   -0.49570E+08         0.16262E+06         0.00000E+00
    0.16262E+06        -0.49957E+08         0.00000E+00
    0.00000E+00         0.00000E+00        -0.49688E+08
 
   -0.49575E+08         0.16784E+06         0.00000E+00
    0.16784E+06        -0.49954E+08         0.00000E+00
    0.00000E+00         0.00000E+00        -0.49688E+08
 
   -0.49581E+08         0.17306E+06         0.00000E+00
    0.17306E+06        -0.49952E+08         0.00000E+00
    0.00000E+00         0.00000E+00        -0.49688E+08
 
   -0.49586E+08         0.17826E+06         0.00000E+00
    0.17826E+06        -0.49949E+08         0.00000E+00
    0.00000E+00         0.00000E+00        -0.49688E+08
 
   -0.49592E+08         0.18345E+06         0.00000E+00
    0.18345E+06        -0.49946E+08         0.00000E+00
    0.00000E+00         0.00000E+00        -0.49688E+08
 
   -0.49598E+08         0.18864E+06         0.00000E+00
    0.18864E+06        -0.49944E+08         0.00000E+00
    0.00000E+00         0.00000E+00        -0.49688E+08
 
   -0.49604E+08         0.19381E+06         0.00000E+00
    0.19381E+06        -0.49941E+08         0.00000E+00
    0.00000E+00         0.00000E+00        -0.49688E+08
 
   -0.49610E+08         0.19897E+06         0.00000E+00
    0.19897E+06        -0.49938E+08         0.00000E+00
    0.00000E+00         0.00000E+00        -0.49688E+08
 
   -0.49616E+08         0.20412E+06         0.00000E+00
    0.20412E+06        -0.49935E+08         0.00000E+00
    0.00000E+00         0.00000E+00        -0.49688E+08
 
   -0.49622E+08         0.20925E+06         0.00000E+00
    0.20925E+06        -0.49932E+08         0.00000E+00
    0.00000E+00         0.00000E+00        -0.49689E+08
 
   -0.49628E+08         0.21437E+06         0.00000E+00
    0.21437E+06        -0.49929E+08         0.00000E+00
    0.00000E+00         0.00000E+00        -0.49689E+08
 
   -0.49634E+08         0.21947E+06         0.00000E+00
    0.21947E+06        -0.49926E+08         0.00000E+00
    0.00000E+00         0.00000E+00        -0.49689E+08
 
   -0.49640E+08         0.22455E+06         0.00000E+00
    0.22455E+06        -0.49923E+08         0.00000E+00
    0.00000E+00         0.00000E+00        -0.49689E+08
 
   -0.49647E+08         0.22961E+06         0.00000E+00
    0.22961E+06        -0.49920E+08         0.00000E+00
    0.00000E+00         0.00000E+00        -0.49689E+08
 
   -0.49653E+08         0.23465E+06         0.00000E+00
    0.23465E+06        -0.49917E+08         0.00000E+00
    0.00000E+00         0.00000E+00        -0.49689E+08
 
   -0.49660E+08         0.23967E+06         0.00000E+00
    0.23967E+06        -0.49914E+08         0.00000E+00
    0.00000E+00         0.00000E+00        -0.49689E+08
 
   -0.49666E+08         0.24467E+06         0.00000E+00
    0.24467E+06        -0.49910E+08         0.00000E+00
    0.00000E+00         0.00000E+00        -0.49689E+08
 
   -0.49673E+08         0.24964E+06         0.00000E+00
    0.24964E+06        -0.49907E+08         0.00000E+00
    0.00000E+00         0.00000E+00        -0.49689E+08
 
   -0.49679E+08         0.25459E+06         0.00000E+00
    0.25459E+06        -0.49904E+08         0.00000E+00
    0.00000E+00         0.00000E+00        -0.49689E+08
 
   -0.49686E+08         0.25951E+06         0.00000E+00
    0.25951E+06        -0.49901E+08         0.00000E+00
    0.00000E+00         0.00000E+00        -0.49689E+08
 
   -0.49436E+08         0.30713E+04         0.00000E+00
    0.30713E+04        -0.50000E+08         0.00000E+00
    0.00000E+00         0.00000E+00        -0.49661E+08
 
   -0.49437E+08         0.91164E+04         0.00000E+00
    0.91164E+04        -0.50000E+08         0.00000E+00
    0.00000E+00         0.00000E+00        -0.49661E+08
 
   -0.49439E+08         0.15129E+05         0.00000E+00
    0.15129E+05        -0.50000E+08         0.00000E+00
    0.00000E+00         0.00000E+00        -0.49661E+08
 
   -0.49440E+08         0.21111E+05         0.00000E+00
    0.21111E+05        -0.49999E+08         0.00000E+00
    0.00000E+00         0.00000E+00        -0.49661E+08
 
   -0.49442E+08         0.27063E+05         0.00000E+00
    0.27063E+05        -0.49999E+08         0.00000E+00
    0.00000E+00         0.00000E+00        -0.49661E+08
 
   -0.49444E+08         0.32989E+05         0.00000E+00
    0.32989E+05        -0.49998E+08         0.00000E+00
    0.00000E+00         0.00000E+00        -0.49661E+08
 
   -0.49447E+08         0.38890E+05         0.00000E+00
    0.38890E+05        -0.49998E+08         0.00000E+00
    0.00000E+00         0.00000E+00        -0.49661E+08
 
   -0.49449E+08         0.44766E+05         0.00000E+00
    0.44766E+05        -0.49997E+08         0.00000E+00
    0.00000E+00         0.00000E+00        -0.49661E+08
 
   -0.49451E+08         0.50621E+05         0.00000E+00
    0.50621E+05        -0.49996E+08         0.00000E+00
    0.00000E+00         0.00000E+00        -0.49661E+08
 
   -0.49454E+08         0.56454E+05         0.00000E+00
    0.56454E+05        -0.49995E+08         0.00000E+00
    0.00000E+00         0.00000E+00        -0.49661E+08
 
   -0.49457E+08         0.62267E+05         0.00000E+00
    0.62267E+05        -0.49994E+08         0.00000E+00
    0.00000E+00         0.00000E+00        -0.49661E+08
 
   -0.49460E+08         0.68061E+05         0.00000E+00
    0.68061E+05        -0.49993E+08         0.00000E+00
    0.00000E+00         0.00000E+00        -0.49661E+08
 
   -0.49463E+08         0.73837E+05         0.00000E+00
    0.73837E+05        -0.49992E+08         0.00000E+00
    0.00000E+00         0.00000E+00        -0.49661E+08
 
   -0.49466E+08         0.79596E+05         0.00000E+00
    0.79596E+05        -0.49991E+08         0.00000E+00
    0.00000E+00         0.00000E+00        -0.49661E+08
 
   -0.49470E+08         0.85340E+05         0.00000E+00
    0.85340E+05        -0.49990E+08         0.00000E+00
    0.00000E+00         0.00000E+00        -0.49661E+08
 
   -0.49473E+08         0.91067E+05         0.00000E+00
    0.91067E+05        -0.49988E+08         0.00000E+00
    0.00000E+00         0.00000E+00        -0.49661E+08
 
   -0.49477E+08         0.96780E+05         0.00000E+00
    0.96780E+05        -0.49987E+08         0.00000E+00
    0.00000E+00         0.00000E+00        -0.49661E+08
 
   -0.49481E+08         0.10248E+06         0.00000E+00
    0.10248E+06        -0.49985E+08         0.00000E+00
    0.00000E+00         0.00000E+00        -0.49662E+08
 
   -0.49485E+08         0.10816E+06         0.00000E+00
    0.10816E+06        -0.49983E+08         0.00000E+00
    0.00000E+00         0.00000E+00        -0.49662E+08
 
   -0.49489E+08         0.11383E+06         0.00000E+00
    0.11383E+06        -0.49982E+08         0.00000E+00
    0.00000E+00         0.00000E+00        -0.49662E+08
 
   -0.49494E+08         0.11949E+06         0.00000E+00
    0.11949E+06        -0.49980E+08         0.00000E+00
    0.00000E+00         0.00000E+00        -0.49662E+08
 
   -0.49498E+08         0.12513E+06         0.00000E+00
    0.12513E+06        -0.49978E+08         0.00000E+00
    0.00000E+00         0.00000E+00        -0.49662E+08
 
   -0.49503E+08         0.13076E+06         0.00000E+00
    0.13076E+06        -0.49976E+08         0.00000E+00
    0.00000E+00         0.00000E+00        -0.49662E+08
 
   -0.49507E+08         0.13638E+06         0.00000E+00
    0.13638E+06        -0.49974E+08         0.00000E+00
    0.00000E+00         0.00000E+00        -0.49662E+08
 
   -0.49512E+08         0.14199E+06         0.00000E+00
    0.14199E+06        -0.49972E+08         0.00000E+00
    0.00000E+00         0.00000E+00        -0.49662E+08
 
   -0.49517E+08         0.14758E+06         0.00000E+00
    0.14758E+06        -0.49969E+08         0.00000E+00
    0.00000E+00         0.00000E+00        -0.49662E+08
 
   -0.49522E+08         0.15315E+06         0.00000E+00
    0.15315E+06        -0.49967E+08         0.00000E+00
    0.00000E+00         0.00000E+00        -0.49662E+08
 
   -0.49527E+08         0.15871E+06         0.00000E+00
    0.15871E+06        -0.49965E+08         0.00000E+00
    0.00000E+00         0.00000E+00        -0.49663E+08
 
   -0.49532E+08         0.16426E+06         0.00000E+00
    0.16426E+06        -0.49962E+08         0.00000E+00
    0.00000E+00         0.00000E+00        -0.49663E+08
 
   -0.49538E+08         0.16980E+06         0.00000E+00
    0.16980E+06        -0.49960E+08         0.00000E+00
    0.00000E+00         0.00000E+00        -0.49663E+08
 
   -0.49543E+08         0.17531E+06         0.00000E+00
    0.17531E+06        -0.49958E+08         0.00000E+00
    0.00000E+00         0.00000E+00        -0.49663E+08
 
   -0.49549E+08         0.18081E+06         0.00000E+00
    0.18081E+06        -0.49955E+08         0.00000E+00
    0.00000E+00         0.00000E+00        -0.49663E+08
 
   -0.49554E+08         0.18630E+06         0.00000E+00
    0.18630E+06        -0.49952E+08         0.00000E+00
    0.00000E+00         0.00000E+00        -0.49663E+08
 
   -0.49560E+08         0.19177E+06         0.00000E+00
    0.19177E+06        -0.49950E+08         0.00000E+00
    0.00000E+00         0.00000E+00        -0.49663E+08
 
   -0.49566E+08         0.19722E+06         0.00000E+00
    0.19722E+06        -0.49947E+08         0.00000E+00
    0.00000E+00         0.00000E+00        -0.49663E+08
 
   -0.49571E+08         0.20265E+06         0.00000E+00
    0.20265E+06        -0.49944E+08         0.00000E+00
    0.00000E+00         0.00000E+00        -0.49663E+08
 
   -0.49577E+08         0.20806E+06         0.00000E+00
    0.20806E+06        -0.49941E+08         0.00000E+00
    0.00000E+00         0.00000E+00        -0.49663E+08
 
   -0.49583E+08         0.21345E+06         0.00000E+00
    0.21345E+06        -0.49938E+08         0.00000E+00
    0.00000E+00         0.00000E+00        -0.49664E+08
 
   -0.49590E+08         0.21882E+06         0.00000E+00
    0.21882E+06        -0.49935E+08         0.00000E+00
    0.00000E+00         0.00000E+00        -0.49664E+08
 
   -0.49596E+08         0.22417E+06         0.00000E+00
    0.22417E+06        -0.49932E+08         0.00000E+00
    0.00000E+00         0.00000E+00        -0.49664E+08
 
   -0.49602E+08         0.22949E+06         0.00000E+00
    0.22949E+06        -0.49929E+08         0.00000E+00
    0.00000E+00         0.00000E+00        -0.49664E+08
 
   -0.49608E+08         0.23479E+06         0.00000E+00
    0.23479E+06        -0.49926E+08         0.00000E+00
    0.00000E+00         0.00000E+00        -0.49664E+08
 
   -0.49615E+08         0.24007E+06         0.00000E+00
    0.24007E+06        -0.49923E+08         0.00000E+00
    0.00000E+00         0.00000E+00        -0.49664E+08
 
   -0.49621E+08         0.24532E+06         0.00000E+00
    0.24532E+06        -0.49920E+08         0.00000E+00
    0.00000E+00         0.00000E+00        -0.49664E+08
 
   -0.49628E+08         0.25054E+06         0.00000E+00
    0.25054E+06        -0.49917E+08         0.00000E+00
    0.00000E+00         0.00000E+00        -0.49664E+08
 
   -0.49634E+08         0.25573E+06         0.00000E+00
    0.25573E+06        -0.49914E+08         0.00000E+00
    0.00000E+00         0.00000E+00        -0.49664E+08
 
   -0.49641E+08         0.26090E+06         0.00000E+00
    0.26090E+06        -0.49910E+08         0.00000E+00
    0.00000E+00         0.00000E+00        -0.49664E+08
 
   -0.49647E+08         0.26603E+06         0.00000E+00
    0.26603E+06        -0.49907E+08         0.00000E+00
    0.00000E+00         0.00000E+00        -0.49664E+08
 
   -0.49654E+08         0.27113E+06         0.00000E+00
    0.27113E+06        -0.49904E+08         0.00000E+00
    0.00000E+00         0.00000E+00        -0.49664E+08
 
   -0.49661E+08         0.27621E+06         0.00000E+00
    0.27621E+06        -0.49900E+08         0.00000E+00
    0.00000E+00         0.00000E+00        -0.49664E+08
 
   -0.49404E+08         0.33316E+04         0.00000E+00
    0.33316E+04        -0.50000E+08         0.00000E+00
    0.00000E+00         0.00000E+00        -0.49635E+08
 
   -0.49406E+08         0.98876E+04         0.00000E+00
    0.98876E+04        -0.50000E+08         0.00000E+00
    0.00000E+00         0.00000E+00        -0.49635E+08
 
   -0.49408E+08         0.16407E+05         0.00000E+00
    0.16407E+05        -0.50000E+08         0.00000E+00
    0.00000E+00         0.00000E+00        -0.49635E+08
 
   -0.49409E+08         0.22891E+05         0.00000E+00
    0.22891E+05        -0.49999E+08         0.00000E+00
    0.00000E+00         0.00000E+00        -0.49635E+08
 
   -0.49411E+08         0.29341E+05         0.00000E+00
    0.29341E+05        -0.49999E+08         0.00000E+00
    0.00000E+00         0.00000E+00        -0.49635E+08
 
   -0.49414E+08         0.35759E+05         0.00000E+00
    0.35759E+05        -0.49998E+08         0.00000E+00
    0.00000E+00         0.00000E+00        -0.49635E+08
 
   -0.49416E+08         0.42146E+05         0.00000E+00
    0.42146E+05        -0.49998E+08         0.00000E+00
    0.00000E+00         0.00000E+00        -0.49635E+08
 
   -0.49418E+08         0.48504E+05         0.00000E+00
    0.48504E+05        -0.49997E+08         0.00000E+00
    0.00000E+00         0.00000E+00        -0.49635E+08
 
   -0.49421E+08         0.54832E+05         0.00000E+00
    0.54832E+05        -0.49996E+08         0.00000E+00
    0.00000E+00         0.00000E+00        -0.49635E+08
 
   -0.49424E+08         0.61133E+05         0.00000E+00
    0.61133E+05        -0.49996E+08         0.00000E+00
    0.00000E+00         0.00000E+00        -0.49635E+08
 
   -0.49427E+08         0.67407E+05         0.00000E+00
    0.67407E+05        -0.49995E+08         0.00000E+00
    0.00000E+00         0.00000E+00        -0.49635E+08
 
   -0.49430E+08         0.73655E+05         0.00000E+00
    0.73655E+05        -0.49993E+08         0.00000E+00
    0.00000E+00         0.00000E+00        -0.49635E+08
 
   -0.49433E+08         0.79878E+05         0.00000E+00
    0.79878E+05        -0.49992E+08         0.00000E+00
    0.00000E+00         0.00000E+00        -0.49636E+08
 
   -0.49437E+08         0.86077E+05         0.00000E+00
    0.86077E+05        -0.49991E+08         0.00000E+00
    0.00000E+00         0.00000E+00        -0.49636E+08
 
   -0.49440E+08         0.92252E+05         0.00000E+00
    0.92252E+05        -0.49990E+08         0.00000E+00
    0.00000E+00         0.00000E+00        -0.49636E+08
 
   -0.49444E+08         0.98404E+05         0.00000E+00
    0.98404E+05        -0.49988E+08         0.00000E+00
    0.00000E+00         0.00000E+00        -0.49636E+08
 
   -0.49448E+08         0.10453E+06         0.00000E+00
    0.10453E+06        -0.49987E+08         0.00000E+00
    0.00000E+00         0.00000E+00        -0.49636E+08
 
   -0.49452E+08         0.11064E+06         0.00000E+00
    0.11064E+06        -0.49985E+08         0.00000E+00
    0.00000E+00         0.00000E+00        -0.49636E+08
 
   -0.49456E+08         0.11673E+06         0.00000E+00
    0.11673E+06        -0.49984E+08         0.00000E+00
    0.00000E+00         0.00000E+00        -0.49636E+08
 
   -0.49460E+08         0.12279E+06         0.00000E+00
    0.12279E+06        -0.49982E+08         0.00000E+00
    0.00000E+00         0.00000E+00        -0.49636E+08
 
   -0.49464E+08         0.12883E+06         0.00000E+00
    0.12883E+06        -0.49980E+08         0.00000E+00
    0.00000E+00         0.00000E+00        -0.49636E+08
 
   -0.49469E+08         0.13485E+06         0.00000E+00
    0.13485E+06        -0.49978E+08         0.00000E+00
    0.00000E+00         0.00000E+00        -0.49636E+08
 
   -0.49474E+08         0.14085E+06         0.00000E+00
    0.14085E+06        -0.49976E+08         0.00000E+00
    0.00000E+00         0.00000E+00        -0.49636E+08
 
   -0.49478E+08         0.14683E+06         0.00000E+00
    0.14683E+06        -0.49974E+08         0.00000E+00
    0.00000E+00         0.00000E+00        -0.49637E+08
 
   -0.49483E+08         0.15278E+06         0.00000E+00
    0.15278E+06        -0.49972E+08         0.00000E+00
    0.00000E+00         0.00000E+00        -0.49637E+08
 
   -0.49488E+08         0.15872E+06         0.00000E+00
    0.15872E+06        -0.49970E+08         0.00000E+00
    0.00000E+00         0.00000E+00        -0.49637E+08
 
   -0.49493E+08         0.16463E+06         0.00000E+00
    0.16463E+06        -0.49967E+08         0.00000E+00
    0.00000E+00         0.00000E+00        -0.49637E+08
 
   -0.49498E+08         0.17052E+06         0.00000E+00
    0.17052E+06        -0.49965E+08         0.00000E+00
    0.00000E+00         0.00000E+00        -0.49637E+08
 
   -0.49504E+08         0.17639E+06         0.00000E+00
    0.17639E+06        -0.49963E+08         0.00000E+00
    0.00000E+00         0.00000E+00        -0.49637E+08
 
   -0.49509E+08         0.18223E+06         0.00000E+00
    0.18223E+06        -0.49960E+08         0.00000E+00
    0.00000E+00         0.00000E+00        -0.49637E+08
 
   -0.49515E+08         0.18805E+06         0.00000E+00
    0.18805E+06        -0.49958E+08         0.00000E+00
    0.00000E+00         0.00000E+00        -0.49637E+08
 
   -0.49520E+08         0.19385E+06         0.00000E+00
    0.19385E+06        -0.49955E+08         0.00000E+00
    0.00000E+00         0.00000E+00        -0.49637E+08
 
   -0.49526E+08         0.19962E+06         0.00000E+00
    0.19962E+06        -0.49953E+08         0.00000E+00
    0.00000E+00         0.00000E+00        -0.49638E+08
 
   -0.49532E+08         0.20537E+06         0.00000E+00
    0.20537E+06        -0.49950E+08         0.00000E+00
    0.00000E+00         0.00000E+00        -0.49638E+08
 
   -0.49538E+08         0.21109E+06         0.00000E+00
    0.21109E+06        -0.49947E+08         0.00000E+00
    0.00000E+00         0.00000E+00        -0.49638E+08
 
   -0.49544E+08         0.21679E+06         0.00000E+00
    0.21679E+06        -0.49944E+08         0.00000E+00
    0.00000E+00         0.00000E+00        -0.49638E+08
 
   -0.49550E+08         0.22246E+06         0.00000E+00
    0.22246E+06        -0.49941E+08         0.00000E+00
    0.00000E+00         0.00000E+00        -0.49638E+08
 
   -0.49556E+08         0.22810E+06         0.00000E+00
    0.22810E+06        -0.49938E+08         0.00000E+00
    0.00000E+00         0.00000E+00        -0.49638E+08
 
   -0.49562E+08         0.23371E+06         0.00000E+00
    0.23371E+06        -0.49935E+08         0.00000E+00
    0.00000E+00         0.00000E+00        -0.49638E+08
 
   -0.49568E+08         0.23929E+06         0.00000E+00
    0.23929E+06        -0.49932E+08         0.00000E+00
    0.00000E+00         0.00000E+00        -0.49638E+08
 
   -0.49575E+08         0.24485E+06         0.00000E+00
    0.24485E+06        -0.49929E+08         0.00000E+00
    0.00000E+00         0.00000E+00        -0.49638E+08
 
   -0.49581E+08         0.25037E+06         0.00000E+00
    0.25037E+06        -0.49926E+08         0.00000E+00
    0.00000E+00         0.00000E+00        -0.49638E+08
 
   -0.49588E+08         0.25586E+06         0.00000E+00
    0.25586E+06        -0.49923E+08         0.00000E+00
    0.00000E+00         0.00000E+00        -0.49638E+08
 
   -0.49594E+08         0.26132E+06         0.00000E+00
    0.26132E+06        -0.49920E+08         0.00000E+00
    0.00000E+00         0.00000E+00        -0.49638E+08
 
   -0.49601E+08         0.26674E+06         0.00000E+00
    0.26674E+06        -0.49917E+08         0.00000E+00
    0.00000E+00         0.00000E+00        -0.49638E+08
 
   -0.49608E+08         0.27213E+06         0.00000E+00
    0.27213E+06        -0.49913E+08         0.00000E+00
    0.00000E+00         0.00000E+00        -0.49638E+08
 
   -0.49614E+08         0.27748E+06         0.00000E+00
    0.27748E+06        -0.49910E+08         0.00000E+00
    0.00000E+00         0.00000E+00        -0.49638E+08
 
   -0.49621E+08         0.28280E+06         0.00000E+00
    0.28280E+06        -0.49907E+08         0.00000E+00
    0.00000E+00         0.00000E+00        -0.49639E+08
 
   -0.49628E+08         0.28808E+06         0.00000E+00
    0.28808E+06        -0.49903E+08         0.00000E+00
    0.00000E+00         0.00000E+00        -0.49639E+08
 
   -0.49635E+08         0.29332E+06         0.00000E+00
    0.29332E+06        -0.49900E+08         0.00000E+00
    0.00000E+00         0.00000E+00        -0.49639E+08
 
   -0.49370E+08         0.35851E+04         0.00000E+00
    0.35851E+04        -0.50000E+08         0.00000E+00
    0.00000E+00         0.00000E+00        -0.49609E+08
 
   -0.49372E+08         0.10641E+05         0.00000E+00
    0.10641E+05        -0.50000E+08         0.00000E+00
    0.00000E+00         0.00000E+00        -0.49609E+08
 
   -0.49374E+08         0.17658E+05         0.00000E+00
    0.17658E+05        -0.50000E+08         0.00000E+00
    0.00000E+00         0.00000E+00        -0.49609E+08
 
   -0.49376E+08         0.24636E+05         0.00000E+00
    0.24636E+05        -0.49999E+08         0.00000E+00
    0.00000E+00         0.00000E+00        -0.49609E+08
 
   -0.49378E+08         0.31576E+05         0.00000E+00
    0.31576E+05        -0.49999E+08         0.00000E+00
    0.00000E+00         0.00000E+00        -0.49609E+08
 
   -0.49380E+08         0.38480E+05         0.00000E+00
    0.38480E+05        -0.49998E+08         0.00000E+00
    0.00000E+00         0.00000E+00        -0.49609E+08
 
   -0.49383E+08         0.45348E+05         0.00000E+00
    0.45348E+05        -0.49998E+08         0.00000E+00
    0.00000E+00         0.00000E+00        -0.49609E+08
 
   -0.49385E+08         0.52182E+05         0.00000E+00
    0.52182E+05        -0.49997E+08         0.00000E+00
    0.00000E+00         0.00000E+00        -0.49609E+08
 
   -0.49388E+08         0.58982E+05         0.00000E+00
    0.58982E+05        -0.49996E+08         0.00000E+00
    0.00000E+00         0.00000E+00        -0.49609E+08
 
   -0.49391E+08         0.65748E+05         0.00000E+00
    0.65748E+05        -0.49996E+08         0.00000E+00
    0.00000E+00         0.00000E+00        -0.49609E+08
 
   -0.49394E+08         0.72482E+05         0.00000E+00
    0.72482E+05        -0.49995E+08         0.00000E+00
    0.00000E+00         0.00000E+00        -0.49609E+08
 
   -0.49398E+08         0.79185E+05         0.00000E+00
    0.79185E+05        -0.49994E+08         0.00000E+00
    0.00000E+00         0.00000E+00        -0.49609E+08
 
   -0.49401E+08         0.85856E+05         0.00000E+00
    0.85856E+05        -0.49992E+08         0.00000E+00
    0.00000E+00         0.00000E+00        -0.49609E+08
 
   -0.49405E+08         0.92497E+05         0.00000E+00
    0.92497E+05        -0.49991E+08         0.00000E+00
    0.00000E+00         0.00000E+00        -0.49609E+08
 
   -0.49408E+08         0.99108E+05         0.00000E+00
    0.99108E+05        -0.49990E+08         0.00000E+00
    0.00000E+00         0.00000E+00        -0.49609E+08
 
   -0.49412E+08         0.10569E+06         0.00000E+00
    0.10569E+06        -0.49988E+08         0.00000E+00
    0.00000E+00         0.00000E+00        -0.49609E+08
 
   -0.49416E+08         0.11224E+06         0.00000E+00
    0.11224E+06        -0.49987E+08         0.00000E+00
    0.00000E+00         0.00000E+00        -0.49609E+08
 
   -0.49420E+08         0.11876E+06         0.00000E+00
    0.11876E+06        -0.49985E+08         0.00000E+00
    0.00000E+00         0.00000E+00        -0.49609E+08
 
   -0.49424E+08         0.12526E+06         0.00000E+00
    0.12526E+06        -0.49984E+08         0.00000E+00
    0.00000E+00         0.00000E+00        -0.49610E+08
 
   -0.49429E+08         0.13172E+06         0.00000E+00
    0.13172E+06        -0.49982E+08         0.00000E+00
    0.00000E+00         0.00000E+00        -0.49610E+08
 
   -0.49433E+08         0.13816E+06         0.00000E+00
    0.13816E+06        -0.49980E+08         0.00000E+00
    0.00000E+00         0.00000E+00        -0.49610E+08
 
   -0.49438E+08         0.14456E+06         0.00000E+00
    0.14456E+06        -0.49978E+08         0.00000E+00
    0.00000E+00         0.00000E+00        -0.49610E+08
 
   -0.49443E+08         0.15094E+06         0.00000E+00
    0.15094E+06        -0.49976E+08         0.00000E+00
    0.00000E+00         0.00000E+00        -0.49610E+08
 
   -0.49448E+08         0.15729E+06         0.00000E+00
    0.15729E+06        -0.49974E+08         0.00000E+00
    0.00000E+00         0.00000E+00        -0.49610E+08
 
   -0.49453E+08         0.16361E+06         0.00000E+00
    0.16361E+06        -0.49972E+08         0.00000E+00
    0.00000E+00         0.00000E+00        -0.49610E+08
 
   -0.49458E+08         0.16990E+06         0.00000E+00
    0.16990E+06        -0.49970E+08         0.00000E+00
    0.00000E+00         0.00000E+00        -0.49610E+08
 
   -0.49463E+08         0.17616E+06         0.00000E+00
    0.17616E+06        -0.49968E+08         0.00000E+00
    0.00000E+00         0.00000E+00        -0.49610E+08
 
   -0.49468E+08         0.18240E+06         0.00000E+00
    0.18240E+06        -0.49965E+08         0.00000E+00
    0.00000E+00         0.00000E+00        -0.49611E+08
 
   -0.49474E+08         0.18860E+06         0.00000E+00
    0.18860E+06        -0.49963E+08         0.00000E+00
    0.00000E+00         0.00000E+00        -0.49611E+08
 
   -0.49479E+08         0.19477E+06         0.00000E+00
    0.19477E+06        -0.49960E+08         0.00000E+00
    0.00000E+00         0.00000E+00        -0.49611E+08
 
   -0.49485E+08         0.20091E+06         0.00000E+00
    0.20091E+06        -0.49958E+08         0.00000E+00
    0.00000E+00         0.00000E+00        -0.49611E+08
 
   -0.49491E+08         0.20702E+06         0.00000E+00
    0.20702E+06        -0.49955E+08         0.00000E+00
    0.00000E+00         0.00000E+00        -0.49611E+08
 
   -0.49497E+08         0.21310E+06         0.00000E+00
    0.21310E+06        -0.49952E+08         0.00000E+00
    0.00000E+00         0.00000E+00        -0.49611E+08
 
   -0.49502E+08         0.21914E+06         0.00000E+00
    0.21914E+06        -0.49950E+08         0.00000E+00
    0.00000E+00         0.00000E+00        -0.49611E+08
 
   -0.49509E+08         0.22516E+06         0.00000E+00
    0.22516E+06        -0.49947E+08         0.00000E+00
    0.00000E+00         0.00000E+00        -0.49611E+08
 
   -0.49515E+08         0.23113E+06         0.00000E+00
    0.23113E+06        -0.49944E+08         0.00000E+00
    0.00000E+00         0.00000E+00        -0.49611E+08
 
   -0.49521E+08         0.23708E+06         0.00000E+00
    0.23708E+06        -0.49941E+08         0.00000E+00
    0.00000E+00         0.00000E+00        -0.49611E+08
 
   -0.49527E+08         0.24299E+06         0.00000E+00
    0.24299E+06        -0.49938E+08         0.00000E+00
    0.00000E+00         0.00000E+00        -0.49611E+08
 
   -0.49534E+08         0.24886E+06         0.00000E+00
    0.24886E+06        -0.49935E+08         0.00000E+00
    0.00000E+00         0.00000E+00        -0.49612E+08
 
   -0.49540E+08         0.25470E+06         0.00000E+00
    0.25470E+06        -0.49932E+08         0.00000E+00
    0.00000E+00         0.00000E+00        -0.49612E+08
 
   -0.49547E+08         0.26050E+06         0.00000E+00
    0.26050E+06        -0.49929E+08         0.00000E+00
    0.00000E+00         0.00000E+00        -0.49612E+08
 
   -0.49553E+08         0.26626E+06         0.00000E+00
    0.26626E+06        -0.49926E+08         0.00000E+00
    0.00000E+00         0.00000E+00        -0.49612E+08
 
   -0.49560E+08         0.27199E+06         0.00000E+00
    0.27199E+06        -0.49922E+08         0.00000E+00
    0.00000E+00         0.00000E+00        -0.49612E+08
 
   -0.49567E+08         0.27767E+06         0.00000E+00
    0.27767E+06        -0.49919E+08         0.00000E+00
    0.00000E+00         0.00000E+00        -0.49612E+08
 
   -0.49573E+08         0.28332E+06         0.00000E+00
    0.28332E+06        -0.49916E+08         0.00000E+00
    0.00000E+00         0.00000E+00        -0.49612E+08
 
   -0.49580E+08         0.28892E+06         0.00000E+00
    0.28892E+06        -0.49912E+08         0.00000E+00
    0.00000E+00         0.00000E+00        -0.49612E+08
 
   -0.49587E+08         0.29449E+06         0.00000E+00
    0.29449E+06        -0.49909E+08         0.00000E+00
    0.00000E+00         0.00000E+00        -0.49612E+08
 
   -0.49594E+08         0.30001E+06         0.00000E+00
    0.30001E+06        -0.49905E+08         0.00000E+00
    0.00000E+00         0.00000E+00        -0.49612E+08
 
   -0.49601E+08         0.30548E+06         0.00000E+00
    0.30548E+06        -0.49902E+08         0.00000E+00
    0.00000E+00         0.00000E+00        -0.49612E+08
 
   -0.49608E+08         0.31092E+06         0.00000E+00
    0.31092E+06        -0.49898E+08         0.00000E+00
    0.00000E+00         0.00000E+00        -0.49612E+08
 
   -0.49334E+08         0.38349E+04         0.00000E+00
    0.38349E+04        -0.50000E+08         0.00000E+00
    0.00000E+00         0.00000E+00        -0.49581E+08
 
   -0.49336E+08         0.11386E+05         0.00000E+00
    0.11386E+05        -0.50000E+08         0.00000E+00
    0.00000E+00         0.00000E+00        -0.49581E+08
 
   -0.49338E+08         0.18895E+05         0.00000E+00
    0.18895E+05        -0.50000E+08         0.00000E+00
    0.00000E+00         0.00000E+00        -0.49581E+08
 
   -0.49340E+08         0.26363E+05         0.00000E+00
    0.26363E+05        -0.49999E+08         0.00000E+00
    0.00000E+00         0.00000E+00        -0.49581E+08
 
   -0.49342E+08         0.33790E+05         0.00000E+00
    0.33790E+05        -0.49999E+08         0.00000E+00
    0.00000E+00         0.00000E+00        -0.49581E+08
 
   -0.49345E+08         0.41177E+05         0.00000E+00
    0.41177E+05        -0.49999E+08         0.00000E+00
    0.00000E+00         0.00000E+00        -0.49581E+08
 
   -0.49347E+08         0.48525E+05         0.00000E+00
    0.48525E+05        -0.49998E+08         0.00000E+00
    0.00000E+00         0.00000E+00        -0.49581E+08
 
   -0.49350E+08         0.55835E+05         0.00000E+00
    0.55835E+05        -0.49997E+08         0.00000E+00
    0.00000E+00         0.00000E+00        -0.49581E+08
 
   -0.49353E+08         0.63106E+05         0.00000E+00
    0.63106E+05        -0.49996E+08         0.00000E+00
    0.00000E+00         0.00000E+00        -0.49581E+08
 
   -0.49356E+08         0.70340E+05         0.00000E+00
    0.70340E+05        -0.49996E+08         0.00000E+00
    0.00000E+00         0.00000E+00        -0.49581E+08
 
   -0.49360E+08         0.77536E+05         0.00000E+00
    0.77536E+05        -0.49995E+08         0.00000E+00
    0.00000E+00         0.00000E+00        -0.49581E+08
 
   -0.49363E+08         0.84696E+05         0.00000E+00
    0.84696E+05        -0.49994E+08         0.00000E+00
    0.00000E+00         0.00000E+00        -0.49581E+08
 
   -0.49367E+08         0.91819E+05         0.00000E+00
    0.91819E+05        -0.49992E+08         0.00000E+00
    0.00000E+00         0.00000E+00        -0.49582E+08
 
   -0.49370E+08         0.98907E+05         0.00000E+00
    0.98907E+05        -0.49991E+08         0.00000E+00
    0.00000E+00         0.00000E+00        -0.49582E+08
 
   -0.49374E+08         0.10596E+06         0.00000E+00
    0.10596E+06        -0.49990E+08         0.00000E+00
    0.00000E+00         0.00000E+00        -0.49582E+08
 
   -0.49378E+08         0.11297E+06         0.00000E+00
    0.11297E+06        -0.49988E+08         0.00000E+00
    0.00000E+00         0.00000E+00        -0.49582E+08
 
   -0.49382E+08         0.11995E+06         0.00000E+00
    0.11995E+06        -0.49987E+08         0.00000E+00
    0.00000E+00         0.00000E+00        -0.49582E+08
 
   -0.49387E+08         0.12690E+06         0.00000E+00
    0.12690E+06        -0.49985E+08         0.00000E+00
    0.00000E+00         0.00000E+00        -0.49582E+08
 
   -0.49391E+08         0.13381E+06         0.00000E+00
    0.13381E+06        -0.49984E+08         0.00000E+00
    0.00000E+00         0.00000E+00        -0.49582E+08
 
   -0.49396E+08         0.14069E+06         0.00000E+00
    0.14069E+06        -0.49982E+08         0.00000E+00
    0.00000E+00         0.00000E+00        -0.49582E+08
 
   -0.49400E+08         0.14752E+06         0.00000E+00
    0.14752E+06        -0.49980E+08         0.00000E+00
    0.00000E+00         0.00000E+00        -0.49582E+08
 
   -0.49405E+08         0.15433E+06         0.00000E+00
    0.15433E+06        -0.49978E+08         0.00000E+00
    0.00000E+00         0.00000E+00        -0.49582E+08
 
   -0.49410E+08         0.16110E+06         0.00000E+00
    0.16110E+06        -0.49976E+08         0.00000E+00
    0.00000E+00         0.00000E+00        -0.49582E+08
 
   -0.49415E+08         0.16783E+06         0.00000E+00
    0.16783E+06        -0.49974E+08         0.00000E+00
    0.00000E+00         0.00000E+00        -0.49583E+08
 
   -0.49420E+08         0.17453E+06         0.00000E+00
    0.17453E+06        -0.49972E+08         0.00000E+00
    0.00000E+00         0.00000E+00        -0.49583E+08
 
   -0.49425E+08         0.18119E+06         0.00000E+00
    0.18119E+06        -0.49970E+08         0.00000E+00
    0.00000E+00         0.00000E+00        -0.49583E+08
 
   -0.49431E+08         0.18782E+06         0.00000E+00
    0.18782E+06        -0.49967E+08         0.00000E+00
    0.00000E+00         0.00000E+00        -0.49583E+08
 
   -0.49436E+08         0.19441E+06         0.00000E+00
    0.19441E+06        -0.49965E+08         0.00000E+00
    0.00000E+00         0.00000E+00        -0.49583E+08
 
   -0.49442E+08         0.20096E+06         0.00000E+00
    0.20096E+06        -0.49963E+08         0.00000E+00
    0.00000E+00         0.00000E+00        -0.49583E+08
 
   -0.49448E+08         0.20747E+06         0.00000E+00
    0.20747E+06        -0.49960E+08         0.00000E+00
    0.00000E+00         0.00000E+00        -0.49583E+08
 
   -0.49453E+08         0.21395E+06         0.00000E+00
    0.21395E+06        -0.49957E+08         0.00000E+00
    0.00000E+00         0.00000E+00        -0.49583E+08
 
   -0.49459E+08         0.22039E+06         0.00000E+00
    0.22039E+06        -0.49955E+08         0.00000E+00
    0.00000E+00         0.00000E+00        -0.49583E+08
 
   -0.49465E+08         0.22679E+06         0.00000E+00
    0.22679E+06        -0.49952E+08         0.00000E+00
    0.00000E+00         0.00000E+00        -0.49584E+08
 
   -0.49472E+08         0.23315E+06         0.00000E+00
    0.23315E+06        -0.49949E+08         0.00000E+00
    0.00000E+00         0.00000E+00        -0.49584E+08
 
   -0.49478E+08         0.23947E+06         0.00000E+00
    0.23947E+06        -0.49946E+08         0.00000E+00
    0.00000E+00         0.00000E+00        -0.49584E+08
 
   -0.49484E+08         0.24575E+06         0.00000E+00
    0.24575E+06        -0.49943E+08         0.00000E+00
    0.00000E+00         0.00000E+00        -0.49584E+08
 
   -0.49490E+08         0.25199E+06         0.00000E+00
    0.25199E+06        -0.49940E+08         0.00000E+00
    0.00000E+00         0.00000E+00        -0.49584E+08
 
   -0.49497E+08         0.25819E+06         0.00000E+00
    0.25819E+06        -0.49937E+08         0.00000E+00
    0.00000E+00         0.00000E+00        -0.49584E+08
 
   -0.49504E+08         0.26435E+06         0.00000E+00
    0.26435E+06        -0.49934E+08         0.00000E+00
    0.00000E+00         0.00000E+00        -0.49584E+08
 
   -0.49510E+08         0.27046E+06         0.00000E+00
    0.27046E+06        -0.49931E+08         0.00000E+00
    0.00000E+00         0.00000E+00        -0.49584E+08
 
   -0.49517E+08         0.27653E+06         0.00000E+00
    0.27653E+06        -0.49928E+08         0.00000E+00
    0.00000E+00         0.00000E+00        -0.49584E+08
 
   -0.49524E+08         0.28255E+06         0.00000E+00
    0.28255E+06        -0.49925E+08         0.00000E+00
    0.00000E+00         0.00000E+00        -0.49584E+08
 
   -0.49531E+08         0.28853E+06         0.00000E+00
    0.28853E+06        -0.49921E+08         0.00000E+00
    0.00000E+00         0.00000E+00        -0.49584E+08
 
   -0.49538E+08         0.29447E+06         0.00000E+00
    0.29447E+06        -0.49918E+08         0.00000E+00
    0.00000E+00         0.00000E+00        -0.49584E+08
 
   -0.49545E+08         0.30036E+06         0.00000E+00
    0.30036E+06        -0.49914E+08         0.00000E+00
    0.00000E+00         0.00000E+00        -0.49584E+08
 
   -0.49552E+08         0.30620E+06         0.00000E+00
    0.30620E+06        -0.49911E+08         0.00000E+00
    0.00000E+00         0.00000E+00        -0.49585E+08
 
   -0.49559E+08         0.31199E+06         0.00000E+00
    0.31199E+06        -0.49907E+08         0.00000E+00
    0.00000E+00         0.00000E+00        -0.49585E+08
 
   -0.49566E+08         0.31773E+06         0.00000E+00
    0.31773E+06        -0.49904E+08         0.00000E+00
    0.00000E+00         0.00000E+00        -0.49585E+08
 
   -0.49574E+08         0.32343E+06         0.00000E+00
    0.32343E+06        -0.49900E+08         0.00000E+00
    0.00000E+00         0.00000E+00        -0.49585E+08
 
   -0.49581E+08         0.32907E+06         0.00000E+00
    0.32907E+06        -0.49897E+08         0.00000E+00
    0.00000E+00         0.00000E+00        -0.49585E+08
 
   -0.49295E+08         0.40837E+04         0.00000E+00
    0.40837E+04        -0.50000E+08         0.00000E+00
    0.00000E+00         0.00000E+00        -0.49552E+08
 
   -0.49297E+08         0.12129E+05         0.00000E+00
    0.12129E+05        -0.50000E+08         0.00000E+00
    0.00000E+00         0.00000E+00        -0.49552E+08
 
   -0.49299E+08         0.20130E+05         0.00000E+00
    0.20130E+05        -0.50000E+08         0.00000E+00
    0.00000E+00         0.00000E+00        -0.49552E+08
 
   -0.49301E+08         0.28088E+05         0.00000E+00
    0.28088E+05        -0.49999E+08         0.00000E+00
    0.00000E+00         0.00000E+00        -0.49552E+08
 
   -0.49304E+08         0.36003E+05         0.00000E+00
    0.36003E+05        -0.49999E+08         0.00000E+00
    0.00000E+00         0.00000E+00        -0.49552E+08
 
   -0.49307E+08         0.43876E+05         0.00000E+00
    0.43876E+05        -0.49998E+08         0.00000E+00
    0.00000E+00         0.00000E+00        -0.49553E+08
 
   -0.49309E+08         0.51706E+05         0.00000E+00
    0.51706E+05        -0.49998E+08         0.00000E+00
    0.00000E+00         0.00000E+00        -0.49553E+08
 
   -0.49313E+08         0.59494E+05         0.00000E+00
    0.59494E+05        -0.49997E+08         0.00000E+00
    0.00000E+00         0.00000E+00        -0.49553E+08
 
   -0.49316E+08         0.67240E+05         0.00000E+00
    0.67240E+05        -0.49996E+08         0.00000E+00
    0.00000E+00         0.00000E+00        -0.49553E+08
 
   -0.49319E+08         0.74945E+05         0.00000E+00
    0.74945E+05        -0.49996E+08         0.00000E+00
    0.00000E+00         0.00000E+00        -0.49553E+08
 
   -0.49323E+08         0.82609E+05         0.00000E+00
    0.82609E+05        -0.49995E+08         0.00000E+00
    0.00000E+00         0.00000E+00        -0.49553E+08
 
   -0.49326E+08         0.90232E+05         0.00000E+00
    0.90232E+05        -0.49994E+08         0.00000E+00
    0.00000E+00         0.00000E+00        -0.49553E+08
 
   -0.49330E+08         0.97813E+05         0.00000E+00
    0.97813E+05        -0.49992E+08         0.00000E+00
    0.00000E+00         0.00000E+00        -0.49553E+08
 
   -0.49334E+08         0.10535E+06         0.00000E+00
    0.10535E+06        -0.49991E+08         0.00000E+00
    0.00000E+00         0.00000E+00        -0.49553E+08
 
   -0.49338E+08         0.11285E+06         0.00000E+00
    0.11285E+06        -0.49990E+08         0.00000E+00
    0.00000E+00         0.00000E+00        -0.49553E+08
 
   -0.49342E+08         0.12031E+06         0.00000E+00
    0.12031E+06        -0.49988E+08         0.00000E+00
    0.00000E+00         0.00000E+00        -0.49553E+08
 
   -0.49346E+08         0.12773E+06         0.00000E+00
    0.12773E+06        -0.49987E+08         0.00000E+00
    0.00000E+00         0.00000E+00        -0.49553E+08
 
   -0.49351E+08         0.13511E+06         0.00000E+00
    0.13511E+06        -0.49985E+08         0.00000E+00
    0.00000E+00         0.00000E+00        -0.49553E+08
 
   -0.49355E+08         0.14245E+06         0.00000E+00
    0.14245E+06        -0.49984E+08         0.00000E+00
    0.00000E+00         0.00000E+00        -0.49553E+08
 
   -0.49360E+08         0.14974E+06         0.00000E+00
    0.14974E+06        -0.49982E+08         0.00000E+00
    0.00000E+00         0.00000E+00        -0.49554E+08
 
   -0.49365E+08         0.15700E+06         0.00000E+00
    0.15700E+06        -0.49980E+08         0.00000E+00
    0.00000E+00         0.00000E+00        -0.49554E+08
 
   -0.49370E+08         0.16421E+06         0.00000E+00
    0.16421E+06        -0.49978E+08         0.00000E+00
    0.00000E+00         0.00000E+00        -0.49554E+08
 
   -0.49375E+08         0.17139E+06         0.00000E+00
    0.17139E+06        -0.49976E+08         0.00000E+00
    0.00000E+00         0.00000E+00        -0.49554E+08
 
   -0.49380E+08         0.17852E+06         0.00000E+00
    0.17852E+06        -0.49974E+08         0.00000E+00
    0.00000E+00         0.00000E+00        -0.49554E+08
 
   -0.49386E+08         0.18561E+06         0.00000E+00
    0.18561E+06        -0.49972E+08         0.00000E+00
    0.00000E+00         0.00000E+00        -0.49554E+08
 
   -0.49391E+08         0.19265E+06         0.00000E+00
    0.19265E+06        -0.49969E+08         0.00000E+00
    0.00000E+00         0.00000E+00        -0.49554E+08
 
   -0.49397E+08         0.19966E+06         0.00000E+00
    0.19966E+06        -0.49967E+08         0.00000E+00
    0.00000E+00         0.00000E+00        -0.49554E+08
 
   -0.49403E+08         0.20662E+06         0.00000E+00
    0.20662E+06        -0.49965E+08         0.00000E+00
    0.00000E+00         0.00000E+00        -0.49554E+08
 
   -0.49408E+08         0.21354E+06         0.00000E+00
    0.21354E+06        -0.49962E+08         0.00000E+00
    0.00000E+00         0.00000E+00        -0.49555E+08
 
   -0.49414E+08         0.22041E+06         0.00000E+00
    0.22041E+06        -0.49959E+08         0.00000E+00
    0.00000E+00         0.00000E+00        -0.49555E+08
 
   -0.49420E+08         0.22724E+06         0.00000E+00
    0.22724E+06        -0.49957E+08         0.00000E+00
    0.00000E+00         0.00000E+00        -0.49555E+08
 
   -0.49426E+08         0.23403E+06         0.00000E+00
    0.23403E+06        -0.49954E+08         0.00000E+00
    0.00000E+00         0.00000E+00        -0.49555E+08
 
   -0.49433E+08         0.24077E+06         0.00000E+00
    0.24077E+06        -0.49951E+08         0.00000E+00
    0.00000E+00         0.00000E+00        -0.49555E+08
 
   -0.49439E+08         0.24747E+06         0.00000E+00
    0.24747E+06        -0.49948E+08         0.00000E+00
    0.00000E+00         0.00000E+00        -0.49555E+08
 
   -0.49445E+08         0.25411E+06         0.00000E+00
    0.25411E+06        -0.49945E+08         0.00000E+00
    0.00000E+00         0.00000E+00        -0.49555E+08
 
   -0.49452E+08         0.26072E+06         0.00000E+00
    0.26072E+06        -0.49942E+08         0.00000E+00
    0.00000E+00         0.00000E+00        -0.49555E+08
 
   -0.49459E+08         0.26727E+06         0.00000E+00
    0.26727E+06        -0.49939E+08         0.00000E+00
    0.00000E+00         0.00000E+00        -0.49555E+08
 
   -0.49465E+08         0.27378E+06         0.00000E+00
    0.27378E+06        -0.49936E+08         0.00000E+00
    0.00000E+00         0.00000E+00        -0.49555E+08
 
   -0.49472E+08         0.28023E+06         0.00000E+00
    0.28023E+06        -0.49933E+08         0.00000E+00
    0.00000E+00         0.00000E+00        -0.49556E+08
 
   -0.49479E+08         0.28664E+06         0.00000E+00
    0.28664E+06        -0.49930E+08         0.00000E+00
    0.00000E+00         0.00000E+00        -0.49556E+08
 
   -0.49486E+08         0.29300E+06         0.00000E+00
    0.29300E+06        -0.49927E+08         0.00000E+00
    0.00000E+00         0.00000E+00        -0.49556E+08
 
   -0.49493E+08         0.29931E+06         0.00000E+00
    0.29931E+06        -0.49923E+08         0.00000E+00
    0.00000E+00         0.00000E+00        -0.49556E+08
 
   -0.49500E+08         0.30556E+06         0.00000E+00
    0.30556E+06        -0.49920E+08         0.00000E+00
    0.00000E+00         0.00000E+00        -0.49556E+08
 
   -0.49507E+08         0.31177E+06         0.00000E+00
    0.31177E+06        -0.49916E+08         0.00000E+00
    0.00000E+00         0.00000E+00        -0.49556E+08
 
   -0.49515E+08         0.31792E+06         0.00000E+00
    0.31792E+06        -0.49913E+08         0.00000E+00
    0.00000E+00         0.00000E+00        -0.49556E+08
 
   -0.49522E+08         0.32402E+06         0.00000E+00
    0.32402E+06        -0.49909E+08         0.00000E+00
    0.00000E+00         0.00000E+00        -0.49556E+08
 
   -0.49530E+08         0.33006E+06         0.00000E+00
    0.33006E+06        -0.49905E+08         0.00000E+00
    0.00000E+00         0.00000E+00        -0.49556E+08
 
   -0.49537E+08         0.33605E+06         0.00000E+00
    0.33605E+06        -0.49902E+08         0.00000E+00
    0.00000E+00         0.00000E+00        -0.49556E+08
 
   -0.49545E+08         0.34198E+06         0.00000E+00
    0.34198E+06        -0.49898E+08         0.00000E+00
    0.00000E+00         0.00000E+00        -0.49556E+08
 
   -0.49552E+08         0.34786E+06         0.00000E+00
    0.34786E+06        -0.49894E+08         0.00000E+00
    0.00000E+00         0.00000E+00        -0.49556E+08
 
   -0.49253E+08         0.43339E+04         0.00000E+00
    0.43339E+04        -0.50000E+08         0.00000E+00
    0.00000E+00         0.00000E+00        -0.49523E+08
 
   -0.49255E+08         0.12877E+05         0.00000E+00
    0.12877E+05        -0.50000E+08         0.00000E+00
    0.00000E+00         0.00000E+00        -0.49523E+08
 
   -0.49258E+08         0.21375E+05         0.00000E+00
    0.21375E+05        -0.50000E+08         0.00000E+00
    0.00000E+00         0.00000E+00        -0.49523E+08
 
   -0.49260E+08         0.29828E+05         0.00000E+00
    0.29828E+05        -0.49999E+08         0.00000E+00
    0.00000E+00         0.00000E+00        -0.49523E+08
 
   -0.49263E+08         0.38236E+05         0.00000E+00
    0.38236E+05        -0.49999E+08         0.00000E+00
    0.00000E+00         0.00000E+00        -0.49523E+08
 
   -0.49266E+08         0.46599E+05         0.00000E+00
    0.46599E+05        -0.49998E+08         0.00000E+00
    0.00000E+00         0.00000E+00        -0.49523E+08
 
   -0.49269E+08         0.54917E+05         0.00000E+00
    0.54917E+05        -0.49998E+08         0.00000E+00
    0.00000E+00         0.00000E+00        -0.49523E+08
 
   -0.49272E+08         0.63190E+05         0.00000E+00
    0.63190E+05        -0.49997E+08         0.00000E+00
    0.00000E+00         0.00000E+00        -0.49523E+08
 
   -0.49276E+08         0.71418E+05         0.00000E+00
    0.71418E+05        -0.49996E+08         0.00000E+00
    0.00000E+00         0.00000E+00        -0.49523E+08
 
   -0.49279E+08         0.79602E+05         0.00000E+00
    0.79602E+05        -0.49995E+08         0.00000E+00
    0.00000E+00         0.00000E+00        -0.49523E+08
 
   -0.49283E+08         0.87740E+05         0.00000E+00
    0.87740E+05        -0.49995E+08         0.00000E+00
    0.00000E+00         0.00000E+00        -0.49523E+08
 
   -0.49287E+08         0.95834E+05         0.00000E+00
    0.95834E+05        -0.49993E+08         0.00000E+00
    0.00000E+00         0.00000E+00        -0.49523E+08
 
   -0.49291E+08         0.10388E+06         0.00000E+00
    0.10388E+06        -0.49992E+08         0.00000E+00
    0.00000E+00         0.00000E+00        -0.49523E+08
 
   -0.49295E+08         0.11189E+06         0.00000E+00
    0.11189E+06        -0.49991E+08         0.00000E+00
    0.00000E+00         0.00000E+00        -0.49523E+08
 
   -0.49299E+08         0.11985E+06         0.00000E+00
    0.11985E+06        -0.49990E+08         0.00000E+00
    0.00000E+00         0.00000E+00        -0.49523E+08
 
   -0.49304E+08         0.12776E+06         0.00000E+00
    0.12776E+06        -0.49988E+08         0.00000E+00
    0.00000E+00         0.00000E+00        -0.49523E+08
 
   -0.49308E+08         0.13563E+06         0.00000E+00
    0.13563E+06        -0.49987E+08         0.00000E+00
    0.00000E+00         0.00000E+00        -0.49523E+08
 
   -0.49313E+08         0.14345E+06         0.00000E+00
    0.14345E+06        -0.49985E+08         0.00000E+00
    0.00000E+00         0.00000E+00        -0.49524E+08
 
   -0.49318E+08         0.15123E+06         0.00000E+00
    0.15123E+06        -0.49983E+08         0.00000E+00
    0.00000E+00         0.00000E+00        -0.49524E+08
 
   -0.49323E+08         0.15896E+06         0.00000E+00
    0.15896E+06        -0.49981E+08         0.00000E+00
    0.00000E+00         0.00000E+00        -0.49524E+08
 
   -0.49328E+08         0.16664E+06         0.00000E+00
    0.16664E+06        -0.49980E+08         0.00000E+00
    0.00000E+00         0.00000E+00        -0.49524E+08
 
   -0.49333E+08         0.17428E+06         0.00000E+00
    0.17428E+06        -0.49978E+08         0.00000E+00
    0.00000E+00         0.00000E+00        -0.49524E+08
 
   -0.49338E+08         0.18187E+06         0.00000E+00
    0.18187E+06        -0.49975E+08         0.00000E+00
    0.00000E+00         0.00000E+00        -0.49524E+08
 
   -0.49344E+08         0.18941E+06         0.00000E+00
    0.18941E+06        -0.49973E+08         0.00000E+00
    0.00000E+00         0.00000E+00        -0.49524E+08
 
   -0.49349E+08         0.19691E+06         0.00000E+00
    0.19691E+06        -0.49971E+08         0.00000E+00
    0.00000E+00         0.00000E+00        -0.49524E+08
 
   -0.49355E+08         0.20436E+06         0.00000E+00
    0.20436E+06        -0.49969E+08         0.00000E+00
    0.00000E+00         0.00000E+00        -0.49524E+08
 
   -0.49361E+08         0.21176E+06         0.00000E+00
    0.21176E+06        -0.49966E+08         0.00000E+00
    0.00000E+00         0.00000E+00        -0.49525E+08
 
   -0.49367E+08         0.21911E+06         0.00000E+00
    0.21911E+06        -0.49964E+08         0.00000E+00
    0.00000E+00         0.00000E+00        -0.49525E+08
 
   -0.49373E+08         0.22641E+06         0.00000E+00
    0.22641E+06        -0.49961E+08         0.00000E+00
    0.00000E+00         0.00000E+00        -0.49525E+08
 
   -0.49379E+08         0.23366E+06         0.00000E+00
    0.23366E+06        -0.49959E+08         0.00000E+00
    0.00000E+00         0.00000E+00        -0.49525E+08
 
   -0.49385E+08         0.24086E+06         0.00000E+00
    0.24086E+06        -0.49956E+08         0.00000E+00
    0.00000E+00         0.00000E+00        -0.49525E+08
 
   -0.49392E+08         0.24801E+06         0.00000E+00
    0.24801E+06        -0.49953E+08         0.00000E+00
    0.00000E+00         0.00000E+00        -0.49525E+08
 
   -0.49398E+08         0.25511E+06         0.00000E+00
    0.25511E+06        -0.49950E+08         0.00000E+00
    0.00000E+00         0.00000E+00        -0.49525E+08
 
   -0.49405E+08         0.26216E+06         0.00000E+00
    0.26216E+06        -0.49947E+08         0.00000E+00
    0.00000E+00         0.00000E+00        -0.49525E+08
 
   -0.49411E+08         0.26915E+06         0.00000E+00
    0.26915E+06        -0.49944E+08         0.00000E+00
    0.00000E+00         0.00000E+00        -0.49525E+08
 
   -0.49418E+08         0.27610E+06         0.00000E+00
    0.27610E+06        -0.49941E+08         0.00000E+00
    0.00000E+00         0.00000E+00        -0.49526E+08
 
   -0.49425E+08         0.28298E+06         0.00000E+00
    0.28298E+06        -0.49938E+08         0.00000E+00
    0.00000E+00         0.00000E+00        -0.49526E+08
 
   -0.49432E+08         0.28982E+06         0.00000E+00
    0.28982E+06        -0.49935E+08         0.00000E+00
    0.00000E+00         0.00000E+00        -0.49526E+08
 
   -0.49439E+08         0.29660E+06         0.00000E+00
    0.29660E+06        -0.49931E+08         0.00000E+00
    0.00000E+00         0.00000E+00        -0.49526E+08
 
   -0.49446E+08         0.30332E+06         0.00000E+00
    0.30332E+06        -0.49928E+08         0.00000E+00
    0.00000E+00         0.00000E+00        -0.49526E+08
 
   -0.49454E+08         0.30999E+06         0.00000E+00
    0.30999E+06        -0.49925E+08         0.00000E+00
    0.00000E+00         0.00000E+00        -0.49526E+08
 
   -0.49461E+08         0.31660E+06         0.00000E+00
    0.31660E+06        -0.49921E+08         0.00000E+00
    0.00000E+00         0.00000E+00        -0.49526E+08
 
   -0.49468E+08         0.32315E+06         0.00000E+00
    0.32315E+06        -0.49918E+08         0.00000E+00
    0.00000E+00         0.00000E+00        -0.49526E+08
 
   -0.49476E+08         0.32965E+06         0.00000E+00
    0.32965E+06        -0.49914E+08         0.00000E+00
    0.00000E+00         0.00000E+00        -0.49526E+08
 
   -0.49483E+08         0.33608E+06         0.00000E+00
    0.33608E+06        -0.49910E+08         0.00000E+00
    0.00000E+00         0.00000E+00        -0.49526E+08
 
   -0.49491E+08         0.34246E+06         0.00000E+00
    0.34246E+06        -0.49907E+08         0.00000E+00
    0.00000E+00         0.00000E+00        -0.49526E+08
 
   -0.49499E+08         0.34877E+06         0.00000E+00
    0.34877E+06        -0.49903E+08         0.00000E+00
    0.00000E+00         0.00000E+00        -0.49526E+08
 
   -0.49507E+08         0.35503E+06         0.00000E+00
    0.35503E+06        -0.49899E+08         0.00000E+00
    0.00000E+00         0.00000E+00        -0.49526E+08
 
   -0.49514E+08         0.36122E+06         0.00000E+00
    0.36122E+06        -0.49895E+08         0.00000E+00
    0.00000E+00         0.00000E+00        -0.49526E+08
 
   -0.49522E+08         0.36735E+06         0.00000E+00
    0.36735E+06        -0.49891E+08         0.00000E+00
    0.00000E+00         0.00000E+00        -0.49526E+08
 
   -0.49209E+08         0.45880E+04         0.00000E+00
    0.45880E+04        -0.50000E+08         0.00000E+00
    0.00000E+00         0.00000E+00        -0.49491E+08
 
   -0.49211E+08         0.13637E+05         0.00000E+00
    0.13637E+05        -0.50000E+08         0.00000E+00
    0.00000E+00         0.00000E+00        -0.49491E+08
 
   -0.49214E+08         0.22640E+05         0.00000E+00
    0.22640E+05        -0.50000E+08         0.00000E+00
    0.00000E+00         0.00000E+00        -0.49491E+08
 
   -0.49217E+08         0.31596E+05         0.00000E+00
    0.31596E+05        -0.49999E+08         0.00000E+00
    0.00000E+00         0.00000E+00        -0.49491E+08
 
   -0.49220E+08         0.40505E+05         0.00000E+00
    0.40505E+05        -0.49999E+08         0.00000E+00
    0.00000E+00         0.00000E+00        -0.49492E+08
 
   -0.49223E+08         0.49367E+05         0.00000E+00
    0.49367E+05        -0.49998E+08         0.00000E+00
    0.00000E+00         0.00000E+00        -0.49492E+08
 
   -0.49227E+08         0.58182E+05         0.00000E+00
    0.58182E+05        -0.49998E+08         0.00000E+00
    0.00000E+00         0.00000E+00        -0.49492E+08
 
   -0.49230E+08         0.66950E+05         0.00000E+00
    0.66950E+05        -0.49997E+08         0.00000E+00
    0.00000E+00         0.00000E+00        -0.49492E+08
 
   -0.49234E+08         0.75670E+05         0.00000E+00
    0.75670E+05        -0.49996E+08         0.00000E+00
    0.00000E+00         0.00000E+00        -0.49492E+08
 
   -0.49237E+08         0.84343E+05         0.00000E+00
    0.84343E+05        -0.49995E+08         0.00000E+00
    0.00000E+00         0.00000E+00        -0.49492E+08
 
   -0.49241E+08         0.92967E+05         0.00000E+00
    0.92967E+05        -0.49994E+08         0.00000E+00
    0.00000E+00         0.00000E+00        -0.49492E+08
 
   -0.49245E+08         0.10154E+06         0.00000E+00
    0.10154E+06        -0.49993E+08         0.00000E+00
    0.00000E+00         0.00000E+00        -0.49492E+08
 
   -0.49250E+08         0.11007E+06         0.00000E+00
    0.11007E+06        -0.49992E+08         0.00000E+00
    0.00000E+00         0.00000E+00        -0.49492E+08
 
   -0.49254E+08         0.11855E+06         0.00000E+00
    0.11855E+06        -0.49991E+08         0.00000E+00
    0.00000E+00         0.00000E+00        -0.49492E+08
 
   -0.49258E+08         0.12698E+06         0.00000E+00
    0.12698E+06        -0.49989E+08         0.00000E+00
    0.00000E+00         0.00000E+00        -0.49492E+08
 
   -0.49263E+08         0.13536E+06         0.00000E+00
    0.13536E+06        -0.49988E+08         0.00000E+00
    0.00000E+00         0.00000E+00        -0.49492E+08
 
   -0.49268E+08         0.14369E+06         0.00000E+00
    0.14369E+06        -0.49986E+08         0.00000E+00
    0.00000E+00         0.00000E+00        -0.49492E+08
 
   -0.49273E+08         0.15197E+06         0.00000E+00
    0.15197E+06        -0.49985E+08         0.00000E+00
    0.00000E+00         0.00000E+00        -0.49492E+08
 
   -0.49278E+08         0.16020E+06         0.00000E+00
    0.16020E+06        -0.49983E+08         0.00000E+00
    0.00000E+00         0.00000E+00        -0.49493E+08
 
   -0.49283E+08         0.16838E+06         0.00000E+00
    0.16838E+06        -0.49981E+08         0.00000E+00
    0.00000E+00         0.00000E+00        -0.49493E+08
 
   -0.49288E+08         0.17651E+06         0.00000E+00
    0.17651E+06        -0.49979E+08         0.00000E+00
    0.00000E+00         0.00000E+00        -0.49493E+08
 
   -0.49294E+08         0.18458E+06         0.00000E+00
    0.18458E+06        -0.49977E+08         0.00000E+00
    0.00000E+00         0.00000E+00        -0.49493E+08
 
   -0.49299E+08         0.19261E+06         0.00000E+00
    0.19261E+06        -0.49975E+08         0.00000E+00
    0.00000E+00         0.00000E+00        -0.49493E+08
 
   -0.49305E+08         0.20058E+06         0.00000E+00
    0.20058E+06        -0.49973E+08         0.00000E+00
    0.00000E+00         0.00000E+00        -0.49493E+08
 
   -0.49311E+08         0.20850E+06         0.00000E+00
    0.20850E+06        -0.49970E+08         0.00000E+00
    0.00000E+00         0.00000E+00        -0.49493E+08
 
   -0.49317E+08         0.21637E+06         0.00000E+00
    0.21637E+06        -0.49968E+08         0.00000E+00
    0.00000E+00         0.00000E+00        -0.49493E+08
 
   -0.49323E+08         0.22418E+06         0.00000E+00
    0.22418E+06        -0.49965E+08         0.00000E+00
    0.00000E+00         0.00000E+00        -0.49494E+08
 
   -0.49329E+08         0.23193E+06         0.00000E+00
    0.23193E+06        -0.49963E+08         0.00000E+00
    0.00000E+00         0.00000E+00        -0.49494E+08
 
   -0.49336E+08         0.23964E+06         0.00000E+00
    0.23964E+06        -0.49960E+08         0.00000E+00
    0.00000E+00         0.00000E+00        -0.49494E+08
 
   -0.49342E+08         0.24728E+06         0.00000E+00
    0.24728E+06        -0.49958E+08         0.00000E+00
    0.00000E+00         0.00000E+00        -0.49494E+08
 
   -0.49348E+08         0.25487E+06         0.00000E+00
    0.25487E+06        -0.49955E+08         0.00000E+00
    0.00000E+00         0.00000E+00        -0.49494E+08
 
   -0.49355E+08         0.26241E+06         0.00000E+00
    0.26241E+06        -0.49952E+08         0.00000E+00
    0.00000E+00         0.00000E+00        -0.49494E+08
 
   -0.49362E+08         0.26989E+06         0.00000E+00
    0.26989E+06        -0.49949E+08         0.00000E+00
    0.00000E+00         0.00000E+00        -0.49494E+08
 
   -0.49369E+08         0.27730E+06         0.00000E+00
    0.27730E+06        -0.49946E+08         0.00000E+00
    0.00000E+00         0.00000E+00        -0.49494E+08
 
   -0.49376E+08         0.28467E+06         0.00000E+00
    0.28467E+06        -0.49943E+08         0.00000E+00
    0.00000E+00         0.00000E+00        -0.49494E+08
 
   -0.49383E+08         0.29197E+06         0.00000E+00
    0.29197E+06        -0.49940E+08         0.00000E+00
    0.00000E+00         0.00000E+00        -0.49495E+08
 
   -0.49390E+08         0.29921E+06         0.00000E+00
    0.29921E+06        -0.49936E+08         0.00000E+00
    0.00000E+00         0.00000E+00        -0.49495E+08
 
   -0.49397E+08         0.30639E+06         0.00000E+00
    0.30639E+06        -0.49933E+08         0.00000E+00
    0.00000E+00         0.00000E+00        -0.49495E+08
 
   -0.49405E+08         0.31351E+06         0.00000E+00
    0.31351E+06        -0.49930E+08         0.00000E+00
    0.00000E+00         0.00000E+00        -0.49495E+08
 
   -0.49412E+08         0.32057E+06         0.00000E+00
    0.32057E+06        -0.49926E+08         0.00000E+00
    0.00000E+00         0.00000E+00        -0.49495E+08
 
   -0.49420E+08         0.32757E+06         0.00000E+00
    0.32757E+06        -0.49923E+08         0.00000E+00
    0.00000E+00         0.00000E+00        -0.49495E+08
 
   -0.49427E+08         0.33450E+06         0.00000E+00
    0.33450E+06        -0.49919E+08         0.00000E+00
    0.00000E+00         0.00000E+00        -0.49495E+08
 
   -0.49435E+08         0.34137E+06         0.00000E+00
    0.34137E+06        -0.49915E+08         0.00000E+00
    0.00000E+00         0.00000E+00        -0.49495E+08
 
   -0.49443E+08         0.34818E+06         0.00000E+00
    0.34818E+06        -0.49911E+08         0.00000E+00
    0.00000E+00         0.00000E+00        -0.49495E+08
 
   -0.49451E+08         0.35492E+06         0.00000E+00
    0.35492E+06        -0.49908E+08         0.00000E+00
    0.00000E+00         0.00000E+00        -0.49495E+08
 
   -0.49459E+08         0.36160E+06         0.00000E+00
    0.36160E+06        -0.49904E+08         0.00000E+00
    0.00000E+00         0.00000E+00        -0.49495E+08
 
   -0.49467E+08         0.36821E+06         0.00000E+00
    0.36821E+06        -0.49900E+08         0.00000E+00
    0.00000E+00         0.00000E+00        -0.49495E+08
 
   -0.49475E+08         0.37475E+06         0.00000E+00
    0.37475E+06        -0.49896E+08         0.00000E+00
    0.00000E+00         0.00000E+00        -0.49495E+08
 
   -0.49483E+08         0.38122E+06         0.00000E+00
    0.38122E+06        -0.49892E+08         0.00000E+00
    0.00000E+00         0.00000E+00        -0.49495E+08
 
   -0.49491E+08         0.38763E+06         0.00000E+00
    0.38763E+06        -0.49888E+08         0.00000E+00
    0.00000E+00         0.00000E+00        -0.49495E+08
 
   -0.49162E+08         0.48478E+04         0.00000E+00
    0.48478E+04        -0.50000E+08         0.00000E+00
    0.00000E+00         0.00000E+00        -0.49459E+08
 
   -0.49165E+08         0.14414E+05         0.00000E+00
    0.14414E+05        -0.50000E+08         0.00000E+00
    0.00000E+00         0.00000E+00        -0.49459E+08
 
   -0.49168E+08         0.23934E+05         0.00000E+00
    0.23934E+05        -0.50000E+08         0.00000E+00
    0.00000E+00         0.00000E+00        -0.49459E+08
 
   -0.49171E+08         0.33405E+05         0.00000E+00
    0.33405E+05        -0.49999E+08         0.00000E+00
    0.00000E+00         0.00000E+00        -0.49459E+08
 
   -0.49174E+08         0.42828E+05         0.00000E+00
    0.42828E+05        -0.49999E+08         0.00000E+00
    0.00000E+00         0.00000E+00        -0.49459E+08
 
   -0.49178E+08         0.52202E+05         0.00000E+00
    0.52202E+05        -0.49998E+08         0.00000E+00
    0.00000E+00         0.00000E+00        -0.49459E+08
 
   -0.49181E+08         0.61526E+05         0.00000E+00
    0.61526E+05        -0.49998E+08         0.00000E+00
    0.00000E+00         0.00000E+00        -0.49459E+08
 
   -0.49185E+08         0.70801E+05         0.00000E+00
    0.70801E+05        -0.49997E+08         0.00000E+00
    0.00000E+00         0.00000E+00        -0.49459E+08
 
   -0.49189E+08         0.80026E+05         0.00000E+00
    0.80026E+05        -0.49996E+08         0.00000E+00
    0.00000E+00         0.00000E+00        -0.49459E+08
 
   -0.49193E+08         0.89201E+05         0.00000E+00
    0.89201E+05        -0.49995E+08         0.00000E+00
    0.00000E+00         0.00000E+00        -0.49459E+08
 
   -0.49197E+08         0.98324E+05         0.00000E+00
    0.98324E+05        -0.49994E+08         0.00000E+00
    0.00000E+00         0.00000E+00        -0.49459E+08
 
   -0.49201E+08         0.10740E+06         0.00000E+00
    0.10740E+06        -0.49993E+08         0.00000E+00
    0.00000E+00         0.00000E+00        -0.49459E+08
 
   -0.49206E+08         0.11642E+06         0.00000E+00
    0.11642E+06        -0.49992E+08         0.00000E+00
    0.00000E+00         0.00000E+00        -0.49459E+08
 
   -0.49210E+08         0.12538E+06         0.00000E+00
    0.12538E+06        -0.49991E+08         0.00000E+00
    0.00000E+00         0.00000E+00        -0.49460E+08
 
   -0.49215E+08         0.13430E+06         0.00000E+00
    0.13430E+06        -0.49989E+08         0.00000E+00
    0.00000E+00         0.00000E+00        -0.49460E+08
 
   -0.49220E+08         0.14316E+06         0.00000E+00
    0.14316E+06        -0.49988E+08         0.00000E+00
    0.00000E+00         0.00000E+00        -0.49460E+08
 
   -0.49225E+08         0.15197E+06         0.00000E+00
    0.15197E+06        -0.49986E+08         0.00000E+00
    0.00000E+00         0.00000E+00        -0.49460E+08
 
   -0.49230E+08         0.16072E+06         0.00000E+00
    0.16072E+06        -0.49984E+08         0.00000E+00
    0.00000E+00         0.00000E+00        -0.49460E+08
 
   -0.49236E+08         0.16942E+06         0.00000E+00
    0.16942E+06        -0.49982E+08         0.00000E+00
    0.00000E+00         0.00000E+00        -0.49460E+08
 
   -0.49241E+08         0.17807E+06         0.00000E+00
    0.17807E+06        -0.49980E+08         0.00000E+00
    0.00000E+00         0.00000E+00        -0.49460E+08
 
   -0.49247E+08         0.18665E+06         0.00000E+00
    0.18665E+06        -0.49978E+08         0.00000E+00
    0.00000E+00         0.00000E+00        -0.49460E+08
 
   -0.49252E+08         0.19519E+06         0.00000E+00
    0.19519E+06        -0.49976E+08         0.00000E+00
    0.00000E+00         0.00000E+00        -0.49460E+08
 
   -0.49258E+08         0.20366E+06         0.00000E+00
    0.20366E+06        -0.49974E+08         0.00000E+00
    0.00000E+00         0.00000E+00        -0.49461E+08
 
   -0.49264E+08         0.21208E+06         0.00000E+00
    0.21208E+06        -0.49972E+08         0.00000E+00
    0.00000E+00         0.00000E+00        -0.49461E+08
 
   -0.49270E+08         0.22044E+06         0.00000E+00
    0.22044E+06        -0.49969E+08         0.00000E+00
    0.00000E+00         0.00000E+00        -0.49461E+08
 
   -0.49277E+08         0.22874E+06         0.00000E+00
    0.22874E+06        -0.49967E+08         0.00000E+00
    0.00000E+00         0.00000E+00        -0.49461E+08
 
   -0.49283E+08         0.23698E+06         0.00000E+00
    0.23698E+06        -0.49964E+08         0.00000E+00
    0.00000E+00         0.00000E+00        -0.49461E+08
 
   -0.49290E+08         0.24516E+06         0.00000E+00
    0.24516E+06        -0.49962E+08         0.00000E+00
    0.00000E+00         0.00000E+00        -0.49461E+08
 
   -0.49296E+08         0.25329E+06         0.00000E+00
    0.25329E+06        -0.49959E+08         0.00000E+00
    0.00000E+00         0.00000E+00        -0.49461E+08
 
   -0.49303E+08         0.26135E+06         0.00000E+00
    0.26135E+06        -0.49956E+08         0.00000E+00
    0.00000E+00         0.00000E+00        -0.49461E+08
 
   -0.49310E+08         0.26935E+06         0.00000E+00
    0.26935E+06        -0.49953E+08         0.00000E+00
    0.00000E+00         0.00000E+00        -0.49462E+08
 
   -0.49317E+08         0.27728E+06         0.00000E+00
    0.27728E+06        -0.49950E+08         0.00000E+00
    0.00000E+00         0.00000E+00        -0.49462E+08
 
   -0.49324E+08         0.28516E+06         0.00000E+00
    0.28516E+06        -0.49947E+08         0.00000E+00
    0.00000E+00         0.00000E+00        -0.49462E+08
 
   -0.49331E+08         0.29297E+06         0.00000E+00
    0.29297E+06        -0.49944E+08         0.00000E+00
    0.00000E+00         0.00000E+00        -0.49462E+08
 
   -0.49338E+08         0.30072E+06         0.00000E+00
    0.30072E+06        -0.49941E+08         0.00000E+00
    0.00000E+00         0.00000E+00        -0.49462E+08
 
   -0.49345E+08         0.30840E+06         0.00000E+00
    0.30840E+06        -0.49938E+08         0.00000E+00
    0.00000E+00         0.00000E+00        -0.49462E+08
 
   -0.49353E+08         0.31602E+06         0.00000E+00
    0.31602E+06        -0.49934E+08         0.00000E+00
    0.00000E+00         0.00000E+00        -0.49462E+08
 
   -0.49361E+08         0.32357E+06         0.00000E+00
    0.32357E+06        -0.49931E+08         0.00000E+00
    0.00000E+00         0.00000E+00        -0.49462E+08
 
   -0.49368E+08         0.33105E+06         0.00000E+00
    0.33105E+06        -0.49927E+08         0.00000E+00
    0.00000E+00         0.00000E+00        -0.49462E+08
 
   -0.49376E+08         0.33847E+06         0.00000E+00
    0.33847E+06        -0.49924E+08         0.00000E+00
    0.00000E+00         0.00000E+00        -0.49462E+08
 
   -0.49384E+08         0.34581E+06         0.00000E+00
    0.34581E+06        -0.49920E+08         0.00000E+00
    0.00000E+00         0.00000E+00        -0.49463E+08
 
   -0.49392E+08         0.35309E+06         0.00000E+00
    0.35309E+06        -0.49916E+08         0.00000E+00
    0.00000E+00         0.00000E+00        -0.49463E+08
 
   -0.49400E+08         0.36030E+06         0.00000E+00
    0.36030E+06        -0.49912E+08         0.00000E+00
    0.00000E+00         0.00000E+00        -0.49463E+08
 
   -0.49408E+08         0.36744E+06         0.00000E+00
    0.36744E+06        -0.49908E+08         0.00000E+00
    0.00000E+00         0.00000E+00        -0.49463E+08
 
   -0.49416E+08         0.37451E+06         0.00000E+00
    0.37451E+06        -0.49904E+08         0.00000E+00
    0.00000E+00         0.00000E+00        -0.49463E+08
 
   -0.49425E+08         0.38151E+06         0.00000E+00
    0.38151E+06        -0.49900E+08         0.00000E+00
    0.00000E+00         0.00000E+00        -0.49463E+08
 
   -0.49433E+08         0.38843E+06         0.00000E+00
    0.38843E+06        -0.49896E+08         0.00000E+00
    0.00000E+00         0.00000E+00        -0.49463E+08
 
   -0.49441E+08         0.39528E+06         0.00000E+00
    0.39528E+06        -0.49892E+08         0.00000E+00
    0.00000E+00         0.00000E+00        -0.49463E+08
 
   -0.49450E+08         0.40206E+06         0.00000E+00
    0.40206E+06        -0.49888E+08         0.00000E+00
    0.00000E+00         0.00000E+00        -0.49463E+08
 
   -0.49459E+08         0.40876E+06         0.00000E+00
    0.40876E+06        -0.49884E+08         0.00000E+00
    0.00000E+00         0.00000E+00        -0.49463E+08
 
   -0.49113E+08         0.51153E+04         0.00000E+00
    0.51153E+04        -0.50000E+08         0.00000E+00
    0.00000E+00         0.00000E+00        -0.49425E+08
 
   -0.49116E+08         0.15215E+05         0.00000E+00
    0.15215E+05        -0.50000E+08         0.00000E+00
    0.00000E+00         0.00000E+00        -0.49425E+08
 
   -0.49119E+08         0.25266E+05         0.00000E+00
    0.25266E+05        -0.50000E+08         0.00000E+00
    0.00000E+00         0.00000E+00        -0.49425E+08
 
   -0.49122E+08         0.35267E+05         0.00000E+00
    0.35267E+05        -0.49999E+08         0.00000E+00
    0.00000E+00         0.00000E+00        -0.49425E+08
 
   -0.49126E+08         0.45219E+05         0.00000E+00
    0.45219E+05        -0.49999E+08         0.00000E+00
    0.00000E+00         0.00000E+00        -0.49425E+08
 
   -0.49130E+08         0.55120E+05         0.00000E+00
    0.55120E+05        -0.49998E+08         0.00000E+00
    0.00000E+00         0.00000E+00        -0.49425E+08
 
   -0.49133E+08         0.64969E+05         0.00000E+00
    0.64969E+05        -0.49998E+08         0.00000E+00
    0.00000E+00         0.00000E+00        -0.49425E+08
 
   -0.49137E+08         0.74767E+05         0.00000E+00
    0.74767E+05        -0.49997E+08         0.00000E+00
    0.00000E+00         0.00000E+00        -0.49425E+08
 
   -0.49142E+08         0.84513E+05         0.00000E+00
    0.84513E+05        -0.49996E+08         0.00000E+00
    0.00000E+00         0.00000E+00        -0.49425E+08
 
   -0.49146E+08         0.94205E+05         0.00000E+00
    0.94205E+05        -0.49995E+08         0.00000E+00
    0.00000E+00         0.00000E+00        -0.49425E+08
 
   -0.49150E+08         0.10384E+06         0.00000E+00
    0.10384E+06        -0.49994E+08         0.00000E+00
    0.00000E+00         0.00000E+00        -0.49425E+08
 
   -0.49155E+08         0.11343E+06         0.00000E+00
    0.11343E+06        -0.49993E+08         0.00000E+00
    0.00000E+00         0.00000E+00        -0.49425E+08
 
   -0.49160E+08         0.12296E+06         0.00000E+00
    0.12296E+06        -0.49992E+08         0.00000E+00
    0.00000E+00         0.00000E+00        -0.49425E+08
 
   -0.49165E+08         0.13243E+06         0.00000E+00
    0.13243E+06        -0.49990E+08         0.00000E+00
    0.00000E+00         0.00000E+00        -0.49426E+08
 
   -0.49170E+08         0.14185E+06         0.00000E+00
    0.14185E+06        -0.49989E+08         0.00000E+00
    0.00000E+00         0.00000E+00        -0.49426E+08
 
   -0.49175E+08         0.15121E+06         0.00000E+00
    0.15121E+06        -0.49987E+08         0.00000E+00
    0.00000E+00         0.00000E+00        -0.49426E+08
 
   -0.49180E+08         0.16051E+06         0.00000E+00
    0.16051E+06        -0.49985E+08         0.00000E+00
    0.00000E+00         0.00000E+00        -0.49426E+08
 
   -0.49186E+08         0.16975E+06         0.00000E+00
    0.16975E+06        -0.49984E+08         0.00000E+00
    0.00000E+00         0.00000E+00        -0.49426E+08
 
   -0.49191E+08         0.17894E+06         0.00000E+00
    0.17894E+06        -0.49982E+08         0.00000E+00
    0.00000E+00         0.00000E+00        -0.49426E+08
 
   -0.49197E+08         0.18807E+06         0.00000E+00
    0.18807E+06        -0.49980E+08         0.00000E+00
    0.00000E+00         0.00000E+00        -0.49426E+08
 
   -0.49203E+08         0.19713E+06         0.00000E+00
    0.19713E+06        -0.49978E+08         0.00000E+00
    0.00000E+00         0.00000E+00        -0.49426E+08
 
   -0.49209E+08         0.20614E+06         0.00000E+00
    0.20614E+06        -0.49976E+08         0.00000E+00
    0.00000E+00         0.00000E+00        -0.49426E+08
 
   -0.49215E+08         0.21508E+06         0.00000E+00
    0.21508E+06        -0.49973E+08         0.00000E+00
    0.00000E+00         0.00000E+00        -0.49427E+08
 
   -0.49221E+08         0.22396E+06         0.00000E+00
    0.22396E+06        -0.49971E+08         0.00000E+00
    0.00000E+00         0.00000E+00        -0.49427E+08
 
   -0.49228E+08         0.23278E+06         0.00000E+00
    0.23278E+06        -0.49968E+08         0.00000E+00
    0.00000E+00         0.00000E+00        -0.49427E+08
 
   -0.49234E+08         0.24154E+06         0.00000E+00
    0.24154E+06        -0.49966E+08         0.00000E+00
    0.00000E+00         0.00000E+00        -0.49427E+08
 
   -0.49241E+08         0.25023E+06         0.00000E+00
    0.25023E+06        -0.49963E+08         0.00000E+00
    0.00000E+00         0.00000E+00        -0.49427E+08
 
   -0.49248E+08         0.25886E+06         0.00000E+00
    0.25886E+06        -0.49960E+08         0.00000E+00
    0.00000E+00         0.00000E+00        -0.49427E+08
 
   -0.49255E+08         0.26742E+06         0.00000E+00
    0.26742E+06        -0.49958E+08         0.00000E+00
    0.00000E+00         0.00000E+00        -0.49427E+08
 
   -0.49262E+08         0.27592E+06         0.00000E+00
    0.27592E+06        -0.49955E+08         0.00000E+00
    0.00000E+00         0.00000E+00        -0.49427E+08
 
   -0.49269E+08         0.28434E+06         0.00000E+00
    0.28434E+06        -0.49952E+08         0.00000E+00
    0.00000E+00         0.00000E+00        -0.49428E+08
 
   -0.49276E+08         0.29271E+06         0.00000E+00
    0.29271E+06        -0.49949E+08         0.00000E+00
    0.00000E+00         0.00000E+00        -0.49428E+08
 
   -0.49283E+08         0.30100E+06         0.00000E+00
    0.30100E+06        -0.49945E+08         0.00000E+00
    0.00000E+00         0.00000E+00        -0.49428E+08
 
   -0.49291E+08         0.30922E+06         0.00000E+00
    0.30922E+06        -0.49942E+08         0.00000E+00
    0.00000E+00         0.00000E+00        -0.49428E+08
 
   -0.49299E+08         0.31738E+06         0.00000E+00
    0.31738E+06        -0.49939E+08         0.00000E+00
    0.00000E+00         0.00000E+00        -0.49428E+08
 
   -0.49306E+08         0.32546E+06         0.00000E+00
    0.32546E+06        -0.49935E+08         0.00000E+00
    0.00000E+00         0.00000E+00        -0.49428E+08
 
   -0.49314E+08         0.33347E+06         0.00000E+00
    0.33347E+06        -0.49932E+08         0.00000E+00
    0.00000E+00         0.00000E+00        -0.49428E+08
 
   -0.49322E+08         0.34141E+06         0.00000E+00
    0.34141E+06        -0.49928E+08         0.00000E+00
    0.00000E+00         0.00000E+00        -0.49428E+08
 
   -0.49330E+08         0.34928E+06         0.00000E+00
    0.34928E+06        -0.49925E+08         0.00000E+00
    0.00000E+00         0.00000E+00        -0.49428E+08
 
   -0.49338E+08         0.35708E+06         0.00000E+00
    0.35708E+06        -0.49921E+08         0.00000E+00
    0.00000E+00         0.00000E+00        -0.49429E+08
 
   -0.49346E+08         0.36480E+06         0.00000E+00
    0.36480E+06        -0.49917E+08         0.00000E+00
    0.00000E+00         0.00000E+00        -0.49429E+08
 
   -0.49355E+08         0.37244E+06         0.00000E+00
    0.37244E+06        -0.49913E+08         0.00000E+00
    0.00000E+00         0.00000E+00        -0.49429E+08
 
   -0.49363E+08         0.38001E+06         0.00000E+00
    0.38001E+06        -0.49909E+08         0.00000E+00
    0.00000E+00         0.00000E+00        -0.49429E+08
 
   -0.49372E+08         0.38751E+06         0.00000E+00
    0.38751E+06        -0.49905E+08         0.00000E+00
    0.00000E+00         0.00000E+00        -0.49429E+08
 
   -0.49380E+08         0.39492E+06         0.00000E+00
    0.39492E+06        -0.49901E+08         0.00000E+00
    0.00000E+00         0.00000E+00        -0.49429E+08
 
   -0.49389E+08         0.40226E+06         0.00000E+00
    0.40226E+06        -0.49897E+08         0.00000E+00
    0.00000E+00         0.00000E+00        -0.49429E+08
 
   -0.49398E+08         0.40952E+06         0.00000E+00
    0.40952E+06        -0.49892E+08         0.00000E+00
    0.00000E+00         0.00000E+00        -0.49429E+08
 
   -0.49407E+08         0.41670E+06         0.00000E+00
    0.41670E+06        -0.49888E+08         0.00000E+00
    0.00000E+00         0.00000E+00        -0.49429E+08
 
   -0.49416E+08         0.42381E+06         0.00000E+00
    0.42381E+06        -0.49884E+08         0.00000E+00
    0.00000E+00         0.00000E+00        -0.49429E+08
 
   -0.49425E+08         0.43083E+06         0.00000E+00
    0.43083E+06        -0.49879E+08         0.00000E+00
    0.00000E+00         0.00000E+00        -0.49429E+08
 
   -0.49061E+08         0.53922E+04         0.00000E+00
    0.53922E+04        -0.50000E+08         0.00000E+00
    0.00000E+00         0.00000E+00        -0.49389E+08
 
   -0.49064E+08         0.16043E+05         0.00000E+00
    0.16043E+05        -0.50000E+08         0.00000E+00
    0.00000E+00         0.00000E+00        -0.49389E+08
 
   -0.49068E+08         0.26644E+05         0.00000E+00
    0.26644E+05        -0.50000E+08         0.00000E+00
    0.00000E+00         0.00000E+00        -0.49389E+08
 
   -0.49071E+08         0.37194E+05         0.00000E+00
    0.37194E+05        -0.49999E+08         0.00000E+00
    0.00000E+00         0.00000E+00        -0.49389E+08
 
   -0.49075E+08         0.47692E+05         0.00000E+00
    0.47692E+05        -0.49999E+08         0.00000E+00
    0.00000E+00         0.00000E+00        -0.49389E+08
 
   -0.49079E+08         0.58138E+05         0.00000E+00
    0.58138E+05        -0.49998E+08         0.00000E+00
    0.00000E+00         0.00000E+00        -0.49389E+08
 
   -0.49083E+08         0.68531E+05         0.00000E+00
    0.68531E+05        -0.49998E+08         0.00000E+00
    0.00000E+00         0.00000E+00        -0.49389E+08
 
   -0.49087E+08         0.78870E+05         0.00000E+00
    0.78870E+05        -0.49997E+08         0.00000E+00
    0.00000E+00         0.00000E+00        -0.49389E+08
 
   -0.49092E+08         0.89154E+05         0.00000E+00
    0.89154E+05        -0.49996E+08         0.00000E+00
    0.00000E+00         0.00000E+00        -0.49389E+08
 
   -0.49096E+08         0.99383E+05         0.00000E+00
    0.99383E+05        -0.49995E+08         0.00000E+00
    0.00000E+00         0.00000E+00        -0.49389E+08
 
   -0.49101E+08         0.10955E+06         0.00000E+00
    0.10955E+06        -0.49994E+08         0.00000E+00
    0.00000E+00         0.00000E+00        -0.49390E+08
 
   -0.49106E+08         0.11967E+06         0.00000E+00
    0.11967E+06        -0.49993E+08         0.00000E+00
    0.00000E+00         0.00000E+00        -0.49390E+08
 
   -0.49111E+08         0.12973E+06         0.00000E+00
    0.12973E+06        -0.49991E+08         0.00000E+00
    0.00000E+00         0.00000E+00        -0.49390E+08
 
   -0.49116E+08         0.13972E+06         0.00000E+00
    0.13972E+06        -0.49990E+08         0.00000E+00
    0.00000E+00         0.00000E+00        -0.49390E+08
 
   -0.49121E+08         0.14966E+06         0.00000E+00
    0.14966E+06        -0.49988E+08         0.00000E+00
    0.00000E+00         0.00000E+00        -0.49390E+08
 
   -0.49127E+08         0.15954E+06         0.00000E+00
    0.15954E+06        -0.49987E+08         0.00000E+00
    0.00000E+00         0.00000E+00        -0.49390E+08
 
   -0.49132E+08         0.16936E+06         0.00000E+00
    0.16936E+06        -0.49985E+08         0.00000E+00
    0.00000E+00         0.00000E+00        -0.49390E+08
 
   -0.49138E+08         0.17911E+06         0.00000E+00
    0.17911E+06        -0.49983E+08         0.00000E+00
    0.00000E+00         0.00000E+00        -0.49390E+08
 
   -0.49144E+08         0.18880E+06         0.00000E+00
    0.18880E+06        -0.49981E+08         0.00000E+00
    0.00000E+00         0.00000E+00        -0.49390E+08
 
   -0.49150E+08         0.19843E+06         0.00000E+00
    0.19843E+06        -0.49979E+08         0.00000E+00
    0.00000E+00         0.00000E+00        -0.49391E+08
 
   -0.49156E+08         0.20800E+06         0.00000E+00
    0.20800E+06        -0.49977E+08         0.00000E+00
    0.00000E+00         0.00000E+00        -0.49391E+08
 
   -0.49163E+08         0.21749E+06         0.00000E+00
    0.21749E+06        -0.49975E+08         0.00000E+00
    0.00000E+00         0.00000E+00        -0.49391E+08
 
   -0.49169E+08         0.22693E+06         0.00000E+00
    0.22693E+06        -0.49972E+08         0.00000E+00
    0.00000E+00         0.00000E+00        -0.49391E+08
 
   -0.49176E+08         0.23629E+06         0.00000E+00
    0.23629E+06        -0.49970E+08         0.00000E+00
    0.00000E+00         0.00000E+00        -0.49391E+08
 
   -0.49183E+08         0.24559E+06         0.00000E+00
    0.24559E+06        -0.49967E+08         0.00000E+00
    0.00000E+00         0.00000E+00        -0.49391E+08
 
   -0.49189E+08         0.25482E+06         0.00000E+00
    0.25482E+06        -0.49965E+08         0.00000E+00
    0.00000E+00         0.00000E+00        -0.49391E+08
 
   -0.49196E+08         0.26399E+06         0.00000E+00
    0.26399E+06        -0.49962E+08         0.00000E+00
    0.00000E+00         0.00000E+00        -0.49391E+08
 
   -0.49204E+08         0.27308E+06         0.00000E+00
    0.27308E+06        -0.49959E+08         0.00000E+00
    0.00000E+00         0.00000E+00        -0.49392E+08
 
   -0.49211E+08         0.28210E+06         0.00000E+00
    0.28210E+06        -0.49956E+08         0.00000E+00
    0.00000E+00         0.00000E+00        -0.49392E+08
 
   -0.49218E+08         0.29105E+06         0.00000E+00
    0.29105E+06        -0.49953E+08         0.00000E+00
    0.00000E+00         0.00000E+00        -0.49392E+08
 
   -0.49226E+08         0.29993E+06         0.00000E+00
    0.29993E+06        -0.49950E+08         0.00000E+00
    0.00000E+00         0.00000E+00        -0.49392E+08
 
   -0.49233E+08         0.30874E+06         0.00000E+00
    0.30874E+06        -0.49947E+08         0.00000E+00
    0.00000E+00         0.00000E+00        -0.49392E+08
 
   -0.49241E+08         0.31747E+06         0.00000E+00
    0.31747E+06        -0.49943E+08         0.00000E+00
    0.00000E+00         0.00000E+00        -0.49392E+08
 
   -0.49249E+08         0.32613E+06         0.00000E+00
    0.32613E+06        -0.49940E+08         0.00000E+00
    0.00000E+00         0.00000E+00        -0.49392E+08
 
   -0.49257E+08         0.33471E+06         0.00000E+00
    0.33471E+06        -0.49936E+08         0.00000E+00
    0.00000E+00         0.00000E+00        -0.49392E+08
 
   -0.49265E+08         0.34322E+06         0.00000E+00
    0.34322E+06        -0.49933E+08         0.00000E+00
    0.00000E+00         0.00000E+00        -0.49393E+08
 
   -0.49273E+08         0.35165E+06         0.00000E+00
    0.35165E+06        -0.49929E+08         0.00000E+00
    0.00000E+00         0.00000E+00        -0.49393E+08
 
   -0.49281E+08         0.36000E+06         0.00000E+00
    0.36000E+06        -0.49925E+08         0.00000E+00
    0.00000E+00         0.00000E+00        -0.49393E+08
 
   -0.49290E+08         0.36828E+06         0.00000E+00
    0.36828E+06        -0.49922E+08         0.00000E+00
    0.00000E+00         0.00000E+00        -0.49393E+08
 
   -0.49298E+08         0.37647E+06         0.00000E+00
    0.37647E+06        -0.49918E+08         0.00000E+00
    0.00000E+00         0.00000E+00        -0.49393E+08
 
   -0.49307E+08         0.38459E+06         0.00000E+00
    0.38459E+06        -0.49914E+08         0.00000E+00
    0.00000E+00         0.00000E+00        -0.49393E+08
 
   -0.49316E+08         0.39262E+06         0.00000E+00
    0.39262E+06        -0.49910E+08         0.00000E+00
    0.00000E+00         0.00000E+00        -0.49393E+08
 
   -0.49325E+08         0.40057E+06         0.00000E+00
    0.40057E+06        -0.49905E+08         0.00000E+00
    0.00000E+00         0.00000E+00        -0.49393E+08
 
   -0.49333E+08         0.40845E+06         0.00000E+00
    0.40845E+06        -0.49901E+08         0.00000E+00
    0.00000E+00         0.00000E+00        -0.49393E+08
 
   -0.49342E+08         0.41623E+06         0.00000E+00
    0.41623E+06        -0.49897E+08         0.00000E+00
    0.00000E+00         0.00000E+00        -0.49393E+08
 
   -0.49352E+08         0.42394E+06         0.00000E+00
    0.42394E+06        -0.49892E+08         0.00000E+00
    0.00000E+00         0.00000E+00        -0.49393E+08
 
   -0.49361E+08         0.43156E+06         0.00000E+00
    0.43156E+06        -0.49888E+08         0.00000E+00
    0.00000E+00         0.00000E+00        -0.49393E+08
 
   -0.49370E+08         0.43909E+06         0.00000E+00
    0.43909E+06        -0.49883E+08         0.00000E+00
    0.00000E+00         0.00000E+00        -0.49393E+08
 
   -0.49379E+08         0.44654E+06         0.00000E+00
    0.44654E+06        -0.49879E+08         0.00000E+00
    0.00000E+00         0.00000E+00        -0.49394E+08
 
   -0.49389E+08         0.45390E+06         0.00000E+00
    0.45390E+06        -0.49874E+08         0.00000E+00
    0.00000E+00         0.00000E+00        -0.49394E+08
 
   -0.49006E+08         0.56798E+04         0.00000E+00
    0.56798E+04        -0.50000E+08         0.00000E+00
    0.00000E+00         0.00000E+00        -0.49352E+08
 
   -0.49010E+08         0.16903E+05         0.00000E+00
    0.16903E+05        -0.50000E+08         0.00000E+00
    0.00000E+00         0.00000E+00        -0.49352E+08
 
   -0.49013E+08         0.28075E+05         0.00000E+00
    0.28075E+05        -0.50000E+08         0.00000E+00
    0.00000E+00         0.00000E+00        -0.49352E+08
 
   -0.49017E+08         0.39194E+05         0.00000E+00
    0.39194E+05        -0.49999E+08         0.00000E+00
    0.00000E+00         0.00000E+00        -0.49352E+08
 
   -0.49021E+08         0.50261E+05         0.00000E+00
    0.50261E+05        -0.49999E+08         0.00000E+00
    0.00000E+00         0.00000E+00        -0.49352E+08
 
   -0.49025E+08         0.61273E+05         0.00000E+00
    0.61273E+05        -0.49998E+08         0.00000E+00
    0.00000E+00         0.00000E+00        -0.49352E+08
 
   -0.49030E+08         0.72230E+05         0.00000E+00
    0.72230E+05        -0.49998E+08         0.00000E+00
    0.00000E+00         0.00000E+00        -0.49352E+08
 
   -0.49034E+08         0.83131E+05         0.00000E+00
    0.83131E+05        -0.49997E+08         0.00000E+00
    0.00000E+00         0.00000E+00        -0.49352E+08
 
   -0.49039E+08         0.93975E+05         0.00000E+00
    0.93975E+05        -0.49996E+08         0.00000E+00
    0.00000E+00         0.00000E+00        -0.49352E+08
 
   -0.49044E+08         0.10476E+06         0.00000E+00
    0.10476E+06        -0.49995E+08         0.00000E+00
    0.00000E+00         0.00000E+00        -0.49352E+08
 
   -0.49049E+08         0.11549E+06         0.00000E+00
    0.11549E+06        -0.49994E+08         0.00000E+00
    0.00000E+00         0.00000E+00        -0.49352E+08
 
   -0.49054E+08         0.12615E+06         0.00000E+00
    0.12615E+06        -0.49992E+08         0.00000E+00
    0.00000E+00         0.00000E+00        -0.49352E+08
 
   -0.49059E+08         0.13676E+06         0.00000E+00
    0.13676E+06        -0.49991E+08         0.00000E+00
    0.00000E+00         0.00000E+00        -0.49352E+08
 
   -0.49065E+08         0.14730E+06         0.00000E+00
    0.14730E+06        -0.49989E+08         0.00000E+00
    0.00000E+00         0.00000E+00        -0.49352E+08
 
   -0.49070E+08         0.15778E+06         0.00000E+00
    0.15778E+06        -0.49988E+08         0.00000E+00
    0.00000E+00         0.00000E+00        -0.49353E+08
 
   -0.49076E+08         0.16820E+06         0.00000E+00
    0.16820E+06        -0.49986E+08         0.00000E+00
    0.00000E+00         0.00000E+00        -0.49353E+08
 
   -0.49082E+08         0.17855E+06         0.00000E+00
    0.17855E+06        -0.49984E+08         0.00000E+00
    0.00000E+00         0.00000E+00        -0.49353E+08
 
   -0.49088E+08         0.18883E+06         0.00000E+00
    0.18883E+06        -0.49982E+08         0.00000E+00
    0.00000E+00         0.00000E+00        -0.49353E+08
 
   -0.49094E+08         0.19905E+06         0.00000E+00
    0.19905E+06        -0.49980E+08         0.00000E+00
    0.00000E+00         0.00000E+00        -0.49353E+08
 
   -0.49101E+08         0.20921E+06         0.00000E+00
    0.20921E+06        -0.49978E+08         0.00000E+00
    0.00000E+00         0.00000E+00        -0.49353E+08
 
   -0.49107E+08         0.21929E+06         0.00000E+00
    0.21929E+06        -0.49976E+08         0.00000E+00
    0.00000E+00         0.00000E+00        -0.49353E+08
 
   -0.49114E+08         0.22930E+06         0.00000E+00
    0.22930E+06        -0.49974E+08         0.00000E+00
    0.00000E+00         0.00000E+00        -0.49353E+08
 
   -0.49121E+08         0.23925E+06         0.00000E+00
    0.23925E+06        -0.49971E+08         0.00000E+00
    0.00000E+00         0.00000E+00        -0.49354E+08
 
   -0.49128E+08         0.24912E+06         0.00000E+00
    0.24912E+06        -0.49969E+08         0.00000E+00
    0.00000E+00         0.00000E+00        -0.49354E+08
 
   -0.49135E+08         0.25892E+06         0.00000E+00
    0.25892E+06        -0.49966E+08         0.00000E+00
    0.00000E+00         0.00000E+00        -0.49354E+08
 
   -0.49142E+08         0.26865E+06         0.00000E+00
    0.26865E+06        -0.49963E+08         0.00000E+00
    0.00000E+00         0.00000E+00        -0.49354E+08
 
   -0.49150E+08         0.27831E+06         0.00000E+00
    0.27831E+06        -0.49960E+08         0.00000E+00
    0.00000E+00         0.00000E+00        -0.49354E+08
 
   -0.49157E+08         0.28789E+06         0.00000E+00
    0.28789E+06        -0.49957E+08         0.00000E+00
    0.00000E+00         0.00000E+00        -0.49354E+08
 
   -0.49165E+08         0.29739E+06         0.00000E+00
    0.29739E+06        -0.49954E+08         0.00000E+00
    0.00000E+00         0.00000E+00        -0.49354E+08
 
   -0.49172E+08         0.30682E+06         0.00000E+00
    0.30682E+06        -0.49951E+08         0.00000E+00
    0.00000E+00         0.00000E+00        -0.49355E+08
 
   -0.49180E+08         0.31617E+06         0.00000E+00
    0.31617E+06        -0.49948E+08         0.00000E+00
    0.00000E+00         0.00000E+00        -0.49355E+08
 
   -0.49188E+08         0.32544E+06         0.00000E+00
    0.32544E+06        -0.49944E+08         0.00000E+00
    0.00000E+00         0.00000E+00        -0.49355E+08
 
   -0.49196E+08         0.33464E+06         0.00000E+00
    0.33464E+06        -0.49941E+08         0.00000E+00
    0.00000E+00         0.00000E+00        -0.49355E+08
 
   -0.49205E+08         0.34375E+06         0.00000E+00
    0.34375E+06        -0.49937E+08         0.00000E+00
    0.00000E+00         0.00000E+00        -0.49355E+08
 
   -0.49213E+08         0.35279E+06         0.00000E+00
    0.35279E+06        -0.49934E+08         0.00000E+00
    0.00000E+00         0.00000E+00        -0.49355E+08
 
   -0.49222E+08         0.36174E+06         0.00000E+00
    0.36174E+06        -0.49930E+08         0.00000E+00
    0.00000E+00         0.00000E+00        -0.49355E+08
 
   -0.49230E+08         0.37061E+06         0.00000E+00
    0.37061E+06        -0.49926E+08         0.00000E+00
    0.00000E+00         0.00000E+00        -0.49355E+08
 
   -0.49239E+08         0.37940E+06         0.00000E+00
    0.37940E+06        -0.49922E+08         0.00000E+00
    0.00000E+00         0.00000E+00        -0.49356E+08
 
   -0.49248E+08         0.38811E+06         0.00000E+00
    0.38811E+06        -0.49918E+08         0.00000E+00
    0.00000E+00         0.00000E+00        -0.49356E+08
 
   -0.49257E+08         0.39672E+06         0.00000E+00
    0.39672E+06        -0.49914E+08         0.00000E+00
    0.00000E+00         0.00000E+00        -0.49356E+08
 
   -0.49266E+08         0.40526E+06         0.00000E+00
    0.40526E+06        -0.49910E+08         0.00000E+00
    0.00000E+00         0.00000E+00        -0.49356E+08
 
   -0.49275E+08         0.41370E+06         0.00000E+00
    0.41370E+06        -0.49906E+08         0.00000E+00
    0.00000E+00         0.00000E+00        -0.49356E+08
 
   -0.49284E+08         0.42206E+06         0.00000E+00
    0.42206E+06        -0.49901E+08         0.00000E+00
    0.00000E+00         0.00000E+00        -0.49356E+08
 
   -0.49293E+08         0.43034E+06         0.00000E+00
    0.43034E+06        -0.49897E+08         0.00000E+00
    0.00000E+00         0.00000E+00        -0.49356E+08
 
   -0.49303E+08         0.43852E+06         0.00000E+00
    0.43852E+06        -0.49892E+08         0.00000E+00
    0.00000E+00         0.00000E+00        -0.49356E+08
 
   -0.49312E+08         0.44661E+06         0.00000E+00
    0.44661E+06        -0.49888E+08         0.00000E+00
    0.00000E+00         0.00000E+00        -0.49356E+08
 
   -0.49322E+08         0.45461E+06         0.00000E+00
    0.45461E+06        -0.49883E+08         0.00000E+00
    0.00000E+00         0.00000E+00        -0.49356E+08
 
   -0.49332E+08         0.46252E+06         0.00000E+00
    0.46252E+06        -0.49878E+08         0.00000E+00
    0.00000E+00         0.00000E+00        -0.49356E+08
 
   -0.49341E+08         0.47034E+06         0.00000E+00
    0.47034E+06        -0.49874E+08         0.00000E+00
    0.00000E+00         0.00000E+00        -0.49356E+08
 
   -0.49351E+08         0.47807E+06         0.00000E+00
    0.47807E+06        -0.49869E+08         0.00000E+00
    0.00000E+00         0.00000E+00        -0.49356E+08
 
   -0.48948E+08         0.59796E+04         0.00000E+00
    0.59796E+04        -0.50000E+08         0.00000E+00
    0.00000E+00         0.00000E+00        -0.49312E+08
 
   -0.48952E+08         0.17799E+05         0.00000E+00
    0.17799E+05        -0.50000E+08         0.00000E+00
    0.00000E+00         0.00000E+00        -0.49312E+08
 
   -0.48956E+08         0.29566E+05         0.00000E+00
    0.29566E+05        -0.50000E+08         0.00000E+00
    0.00000E+00         0.00000E+00        -0.49312E+08
 
   -0.48960E+08         0.41279E+05         0.00000E+00
    0.41279E+05        -0.49999E+08         0.00000E+00
    0.00000E+00         0.00000E+00        -0.49312E+08
 
   -0.48965E+08         0.52937E+05         0.00000E+00
    0.52937E+05        -0.49999E+08         0.00000E+00
    0.00000E+00         0.00000E+00        -0.49312E+08
 
   -0.48969E+08         0.64538E+05         0.00000E+00
    0.64538E+05        -0.49998E+08         0.00000E+00
    0.00000E+00         0.00000E+00        -0.49313E+08
 
   -0.48974E+08         0.76083E+05         0.00000E+00
    0.76083E+05        -0.49997E+08         0.00000E+00
    0.00000E+00         0.00000E+00        -0.49313E+08
 
   -0.48978E+08         0.87569E+05         0.00000E+00
    0.87569E+05        -0.49997E+08         0.00000E+00
    0.00000E+00         0.00000E+00        -0.49313E+08
 
   -0.48983E+08         0.98995E+05         0.00000E+00
    0.98995E+05        -0.49996E+08         0.00000E+00
    0.00000E+00         0.00000E+00        -0.49313E+08
 
   -0.48989E+08         0.11036E+06         0.00000E+00
    0.11036E+06        -0.49995E+08         0.00000E+00
    0.00000E+00         0.00000E+00        -0.49313E+08
 
   -0.48994E+08         0.12166E+06         0.00000E+00
    0.12166E+06        -0.49993E+08         0.00000E+00
    0.00000E+00         0.00000E+00        -0.49313E+08
 
   -0.48999E+08         0.13291E+06         0.00000E+00
    0.13291E+06        -0.49992E+08         0.00000E+00
    0.00000E+00         0.00000E+00        -0.49313E+08
 
   -0.49005E+08         0.14408E+06         0.00000E+00
    0.14408E+06        -0.49991E+08         0.00000E+00
    0.00000E+00         0.00000E+00        -0.49313E+08
 
   -0.49011E+08         0.15519E+06         0.00000E+00
    0.15519E+06        -0.49989E+08         0.00000E+00
    0.00000E+00         0.00000E+00        -0.49313E+08
 
   -0.49017E+08         0.16624E+06         0.00000E+00
    0.16624E+06        -0.49987E+08         0.00000E+00
    0.00000E+00         0.00000E+00        -0.49313E+08
 
   -0.49023E+08         0.17722E+06         0.00000E+00
    0.17722E+06        -0.49986E+08         0.00000E+00
    0.00000E+00         0.00000E+00        -0.49313E+08
 
   -0.49029E+08         0.18813E+06         0.00000E+00
    0.18813E+06        -0.49984E+08         0.00000E+00
    0.00000E+00         0.00000E+00        -0.49314E+08
 
   -0.49036E+08         0.19897E+06         0.00000E+00
    0.19897E+06        -0.49982E+08         0.00000E+00
    0.00000E+00         0.00000E+00        -0.49314E+08
 
   -0.49042E+08         0.20974E+06         0.00000E+00
    0.20974E+06        -0.49980E+08         0.00000E+00
    0.00000E+00         0.00000E+00        -0.49314E+08
 
   -0.49049E+08         0.22043E+06         0.00000E+00
    0.22043E+06        -0.49977E+08         0.00000E+00
    0.00000E+00         0.00000E+00        -0.49314E+08
 
   -0.49056E+08         0.23106E+06         0.00000E+00
    0.23106E+06        -0.49975E+08         0.00000E+00
    0.00000E+00         0.00000E+00        -0.49314E+08
 
   -0.49063E+08         0.24161E+06         0.00000E+00
    0.24161E+06        -0.49972E+08         0.00000E+00
    0.00000E+00         0.00000E+00        -0.49314E+08
 
   -0.49070E+08         0.25209E+06         0.00000E+00
    0.25209E+06        -0.49970E+08         0.00000E+00
    0.00000E+00         0.00000E+00        -0.49314E+08
 
   -0.49077E+08         0.26250E+06         0.00000E+00
    0.26250E+06        -0.49967E+08         0.00000E+00
    0.00000E+00         0.00000E+00        -0.49315E+08
 
   -0.49085E+08         0.27282E+06         0.00000E+00
    0.27282E+06        -0.49964E+08         0.00000E+00
    0.00000E+00         0.00000E+00        -0.49315E+08
 
   -0.49092E+08         0.28307E+06         0.00000E+00
    0.28307E+06        -0.49962E+08         0.00000E+00
    0.00000E+00         0.00000E+00        -0.49315E+08
 
   -0.49100E+08         0.29324E+06         0.00000E+00
    0.29324E+06        -0.49959E+08         0.00000E+00
    0.00000E+00         0.00000E+00        -0.49315E+08
 
   -0.49108E+08         0.30333E+06         0.00000E+00
    0.30333E+06        -0.49955E+08         0.00000E+00
    0.00000E+00         0.00000E+00        -0.49315E+08
 
   -0.49116E+08         0.31335E+06         0.00000E+00
    0.31335E+06        -0.49952E+08         0.00000E+00
    0.00000E+00         0.00000E+00        -0.49315E+08
 
   -0.49124E+08         0.32328E+06         0.00000E+00
    0.32328E+06        -0.49949E+08         0.00000E+00
    0.00000E+00         0.00000E+00        -0.49315E+08
 
   -0.49132E+08         0.33312E+06         0.00000E+00
    0.33312E+06        -0.49945E+08         0.00000E+00
    0.00000E+00         0.00000E+00        -0.49316E+08
 
   -0.49141E+08         0.34289E+06         0.00000E+00
    0.34289E+06        -0.49942E+08         0.00000E+00
    0.00000E+00         0.00000E+00        -0.49316E+08
 
   -0.49149E+08         0.35257E+06         0.00000E+00
    0.35257E+06        -0.49938E+08         0.00000E+00
    0.00000E+00         0.00000E+00        -0.49316E+08
 
   -0.49158E+08         0.36217E+06         0.00000E+00
    0.36217E+06        -0.49935E+08         0.00000E+00
    0.00000E+00         0.00000E+00        -0.49316E+08
 
   -0.49167E+08         0.37168E+06         0.00000E+00
    0.37168E+06        -0.49931E+08         0.00000E+00
    0.00000E+00         0.00000E+00        -0.49316E+08
 
   -0.49176E+08         0.38110E+06         0.00000E+00
    0.38110E+06        -0.49927E+08         0.00000E+00
    0.00000E+00         0.00000E+00        -0.49316E+08
 
   -0.49185E+08         0.39043E+06         0.00000E+00
    0.39043E+06        -0.49923E+08         0.00000E+00
    0.00000E+00         0.00000E+00        -0.49316E+08
 
   -0.49194E+08         0.39968E+06         0.00000E+00
    0.39968E+06        -0.49919E+08         0.00000E+00
    0.00000E+00         0.00000E+00        -0.49316E+08
 
   -0.49203E+08         0.40884E+06         0.00000E+00
    0.40884E+06        -0.49915E+08         0.00000E+00
    0.00000E+00         0.00000E+00        -0.49316E+08
 
   -0.49213E+08         0.41790E+06         0.00000E+00
    0.41790E+06        -0.49910E+08         0.00000E+00
    0.00000E+00         0.00000E+00        -0.49317E+08
 
   -0.49222E+08         0.42688E+06         0.00000E+00
    0.42688E+06        -0.49906E+08         0.00000E+00
    0.00000E+00         0.00000E+00        -0.49317E+08
 
   -0.49232E+08         0.43576E+06         0.00000E+00
    0.43576E+06        -0.49901E+08         0.00000E+00
    0.00000E+00         0.00000E+00        -0.49317E+08
 
   -0.49241E+08         0.44455E+06         0.00000E+00
    0.44455E+06        -0.49897E+08         0.00000E+00
    0.00000E+00         0.00000E+00        -0.49317E+08
 
   -0.49251E+08         0.45325E+06         0.00000E+00
    0.45325E+06        -0.49892E+08         0.00000E+00
    0.00000E+00         0.00000E+00        -0.49317E+08
 
   -0.49261E+08         0.46185E+06         0.00000E+00
    0.46185E+06        -0.49888E+08         0.00000E+00
    0.00000E+00         0.00000E+00        -0.49317E+08
 
   -0.49271E+08         0.47035E+06         0.00000E+00
    0.47035E+06        -0.49883E+08         0.00000E+00
    0.00000E+00         0.00000E+00        -0.49317E+08
 
   -0.49281E+08         0.47876E+06         0.00000E+00
    0.47876E+06        -0.49878E+08         0.00000E+00
    0.00000E+00         0.00000E+00        -0.49317E+08
 
   -0.49291E+08         0.48707E+06         0.00000E+00
    0.48707E+06        -0.49873E+08         0.00000E+00
    0.00000E+00         0.00000E+00        -0.49317E+08
 
   -0.49302E+08         0.49529E+06         0.00000E+00
    0.49529E+06        -0.49868E+08         0.00000E+00
    0.00000E+00         0.00000E+00        -0.49317E+08
 
   -0.49312E+08         0.50340E+06         0.00000E+00
    0.50340E+06        -0.49863E+08         0.00000E+00
    0.00000E+00         0.00000E+00        -0.49317E+08
 
   -0.48888E+08         0.62930E+04         0.00000E+00
    0.62930E+04        -0.50000E+08         0.00000E+00
    0.00000E+00         0.00000E+00        -0.49271E+08
 
   -0.48892E+08         0.18735E+05         0.00000E+00
    0.18735E+05        -0.50000E+08         0.00000E+00
    0.00000E+00         0.00000E+00        -0.49271E+08
 
   -0.48896E+08         0.31123E+05         0.00000E+00
    0.31123E+05        -0.50000E+08         0.00000E+00
    0.00000E+00         0.00000E+00        -0.49271E+08
 
   -0.48900E+08         0.43455E+05         0.00000E+00
    0.43455E+05        -0.49999E+08         0.00000E+00
    0.00000E+00         0.00000E+00        -0.49271E+08
 
   -0.48905E+08         0.55731E+05         0.00000E+00
    0.55731E+05        -0.49999E+08         0.00000E+00
    0.00000E+00         0.00000E+00        -0.49271E+08
 
   -0.48910E+08         0.67948E+05         0.00000E+00
    0.67948E+05        -0.49998E+08         0.00000E+00
    0.00000E+00         0.00000E+00        -0.49271E+08
 
   -0.48915E+08         0.80105E+05         0.00000E+00
    0.80105E+05        -0.49997E+08         0.00000E+00
    0.00000E+00         0.00000E+00        -0.49271E+08
 
   -0.48920E+08         0.92202E+05         0.00000E+00
    0.92202E+05        -0.49996E+08         0.00000E+00
    0.00000E+00         0.00000E+00        -0.49271E+08
 
   -0.48925E+08         0.10424E+06         0.00000E+00
    0.10424E+06        -0.49995E+08         0.00000E+00
    0.00000E+00         0.00000E+00        -0.49271E+08
 
   -0.48930E+08         0.11621E+06         0.00000E+00
    0.11621E+06        -0.49994E+08         0.00000E+00
    0.00000E+00         0.00000E+00        -0.49272E+08
 
   -0.48936E+08         0.12811E+06         0.00000E+00
    0.12811E+06        -0.49993E+08         0.00000E+00
    0.00000E+00         0.00000E+00        -0.49272E+08
 
   -0.48942E+08         0.13995E+06         0.00000E+00
    0.13995E+06        -0.49992E+08         0.00000E+00
    0.00000E+00         0.00000E+00        -0.49272E+08
 
   -0.48948E+08         0.15173E+06         0.00000E+00
    0.15173E+06        -0.49990E+08         0.00000E+00
    0.00000E+00         0.00000E+00        -0.49272E+08
 
   -0.48954E+08         0.16343E+06         0.00000E+00
    0.16343E+06        -0.49989E+08         0.00000E+00
    0.00000E+00         0.00000E+00        -0.49272E+08
 
   -0.48960E+08         0.17507E+06         0.00000E+00
    0.17507E+06        -0.49987E+08         0.00000E+00
    0.00000E+00         0.00000E+00        -0.49272E+08
 
   -0.48967E+08         0.18663E+06         0.00000E+00
    0.18663E+06        -0.49985E+08         0.00000E+00
    0.00000E+00         0.00000E+00        -0.49272E+08
 
   -0.48973E+08         0.19813E+06         0.00000E+00
    0.19813E+06        -0.49983E+08         0.00000E+00
    0.00000E+00         0.00000E+00        -0.49272E+08
 
   -0.48980E+08         0.20955E+06         0.00000E+00
    0.20955E+06        -0.49981E+08         0.00000E+00
    0.00000E+00         0.00000E+00        -0.49272E+08
 
   -0.48987E+08         0.22089E+06         0.00000E+00
    0.22089E+06        -0.49979E+08         0.00000E+00
    0.00000E+00         0.00000E+00        -0.49273E+08
 
   -0.48994E+08         0.23216E+06         0.00000E+00
    0.23216E+06        -0.49976E+08         0.00000E+00
    0.00000E+00         0.00000E+00        -0.49273E+08
 
   -0.49001E+08         0.24335E+06         0.00000E+00
    0.24335E+06        -0.49974E+08         0.00000E+00
    0.00000E+00         0.00000E+00        -0.49273E+08
 
   -0.49009E+08         0.25447E+06         0.00000E+00
    0.25447E+06        -0.49971E+08         0.00000E+00
    0.00000E+00         0.00000E+00        -0.49273E+08
 
   -0.49016E+08         0.26551E+06         0.00000E+00
    0.26551E+06        -0.49969E+08         0.00000E+00
    0.00000E+00         0.00000E+00        -0.49273E+08
 
   -0.49024E+08         0.27647E+06         0.00000E+00
    0.27647E+06        -0.49966E+08         0.00000E+00
    0.00000E+00         0.00000E+00        -0.49273E+08
 
   -0.49032E+08         0.28734E+06         0.00000E+00
    0.28734E+06        -0.49963E+08         0.00000E+00
    0.00000E+00         0.00000E+00        -0.49273E+08
 
   -0.49040E+08         0.29814E+06         0.00000E+00
    0.29814E+06        -0.49960E+08         0.00000E+00
    0.00000E+00         0.00000E+00        -0.49274E+08
 
   -0.49048E+08         0.30885E+06         0.00000E+00
    0.30885E+06        -0.49957E+08         0.00000E+00
    0.00000E+00         0.00000E+00        -0.49274E+08
 
   -0.49056E+08         0.31948E+06         0.00000E+00
    0.31948E+06        -0.49953E+08         0.00000E+00
    0.00000E+00         0.00000E+00        -0.49274E+08
 
   -0.49065E+08         0.33002E+06         0.00000E+00
    0.33002E+06        -0.49950E+08         0.00000E+00
    0.00000E+00         0.00000E+00        -0.49274E+08
 
   -0.49073E+08         0.34048E+06         0.00000E+00
    0.34048E+06        -0.49947E+08         0.00000E+00
    0.00000E+00         0.00000E+00        -0.49274E+08
 
   -0.49082E+08         0.35085E+06         0.00000E+00
    0.35085E+06        -0.49943E+08         0.00000E+00
    0.00000E+00         0.00000E+00        -0.49274E+08
 
   -0.49091E+08         0.36113E+06         0.00000E+00
    0.36113E+06        -0.49939E+08         0.00000E+00
    0.00000E+00         0.00000E+00        -0.49275E+08
 
   -0.49100E+08         0.37132E+06         0.00000E+00
    0.37132E+06        -0.49936E+08         0.00000E+00
    0.00000E+00         0.00000E+00        -0.49275E+08
 
   -0.49109E+08         0.38142E+06         0.00000E+00
    0.38142E+06        -0.49932E+08         0.00000E+00
    0.00000E+00         0.00000E+00        -0.49275E+08
 
   -0.49118E+08         0.39143E+06         0.00000E+00
    0.39143E+06        -0.49928E+08         0.00000E+00
    0.00000E+00         0.00000E+00        -0.49275E+08
 
   -0.49128E+08         0.40135E+06         0.00000E+00
    0.40135E+06        -0.49924E+08         0.00000E+00
    0.00000E+00         0.00000E+00        -0.49275E+08
 
   -0.49137E+08         0.41118E+06         0.00000E+00
    0.41118E+06        -0.49919E+08         0.00000E+00
    0.00000E+00         0.00000E+00        -0.49275E+08
 
   -0.49147E+08         0.42091E+06         0.00000E+00
    0.42091E+06        -0.49915E+08         0.00000E+00
    0.00000E+00         0.00000E+00        -0.49275E+08
 
   -0.49156E+08         0.43054E+06         0.00000E+00
    0.43054E+06        -0.49911E+08         0.00000E+00
    0.00000E+00         0.00000E+00        -0.49275E+08
 
   -0.49166E+08         0.44008E+06         0.00000E+00
    0.44008E+06        -0.49906E+08         0.00000E+00
    0.00000E+00         0.00000E+00        -0.49275E+08
 
   -0.49176E+08         0.44952E+06         0.00000E+00
    0.44952E+06        -0.49902E+08         0.00000E+00
    0.00000E+00         0.00000E+00        -0.49276E+08
 
   -0.49186E+08         0.45887E+06         0.00000E+00
    0.45887E+06        -0.49897E+08         0.00000E+00
    0.00000E+00         0.00000E+00        -0.49276E+08
 
   -0.49197E+08         0.46811E+06         0.00000E+00
    0.46811E+06        -0.49892E+08         0.00000E+00
    0.00000E+00         0.00000E+00        -0.49276E+08
 
   -0.49207E+08         0.47726E+06         0.00000E+00
    0.47726E+06        -0.49887E+08         0.00000E+00
    0.00000E+00         0.00000E+00        -0.49276E+08
 
   -0.49217E+08         0.48630E+06         0.00000E+00
    0.48630E+06        -0.49882E+08         0.00000E+00
    0.00000E+00         0.00000E+00        -0.49276E+08
 
   -0.49228E+08         0.49524E+06         0.00000E+00
    0.49524E+06        -0.49877E+08         0.00000E+00
    0.00000E+00         0.00000E+00        -0.49276E+08
 
   -0.49238E+08         0.50408E+06         0.00000E+00
    0.50408E+06        -0.49872E+08         0.00000E+00
    0.00000E+00         0.00000E+00        -0.49276E+08
 
   -0.49249E+08         0.51282E+06         0.00000E+00
    0.51282E+06        -0.49867E+08         0.00000E+00
    0.00000E+00         0.00000E+00        -0.49276E+08
 
   -0.49260E+08         0.52145E+06         0.00000E+00
    0.52145E+06        -0.49862E+08         0.00000E+00
    0.00000E+00         0.00000E+00        -0.49276E+08
 
   -0.49271E+08         0.52997E+06         0.00000E+00
    0.52997E+06        -0.49856E+08         0.00000E+00
    0.00000E+00         0.00000E+00        -0.49276E+08
 
   -0.48824E+08         0.66210E+04         0.00000E+00
    0.66210E+04        -0.50000E+08         0.00000E+00
    0.00000E+00         0.00000E+00        -0.49228E+08
 
   -0.48828E+08         0.19715E+05         0.00000E+00
    0.19715E+05        -0.50000E+08         0.00000E+00
    0.00000E+00         0.00000E+00        -0.49228E+08
 
   -0.48832E+08         0.32752E+05         0.00000E+00
    0.32752E+05        -0.50000E+08         0.00000E+00
    0.00000E+00         0.00000E+00        -0.49228E+08
 
   -0.48837E+08         0.45732E+05         0.00000E+00
    0.45732E+05        -0.49999E+08         0.00000E+00
    0.00000E+00         0.00000E+00        -0.49228E+08
 
   -0.48842E+08         0.58653E+05         0.00000E+00
    0.58653E+05        -0.49999E+08         0.00000E+00
    0.00000E+00         0.00000E+00        -0.49228E+08
 
   -0.48847E+08         0.71514E+05         0.00000E+00
    0.71514E+05        -0.49998E+08         0.00000E+00
    0.00000E+00         0.00000E+00        -0.49228E+08
 
   -0.48852E+08         0.84313E+05         0.00000E+00
    0.84313E+05        -0.49997E+08         0.00000E+00
    0.00000E+00         0.00000E+00        -0.49228E+08
 
   -0.48858E+08         0.97048E+05         0.00000E+00
    0.97048E+05        -0.49996E+08         0.00000E+00
    0.00000E+00         0.00000E+00        -0.49228E+08
 
   -0.48863E+08         0.10972E+06         0.00000E+00
    0.10972E+06        -0.49995E+08         0.00000E+00
    0.00000E+00         0.00000E+00        -0.49228E+08
 
   -0.48869E+08         0.12232E+06         0.00000E+00
    0.12232E+06        -0.49994E+08         0.00000E+00
    0.00000E+00         0.00000E+00        -0.49228E+08
 
   -0.48875E+08         0.13486E+06         0.00000E+00
    0.13486E+06        -0.49993E+08         0.00000E+00
    0.00000E+00         0.00000E+00        -0.49228E+08
 
   -0.48881E+08         0.14733E+06         0.00000E+00
    0.14733E+06        -0.49991E+08         0.00000E+00
    0.00000E+00         0.00000E+00        -0.49228E+08
 
   -0.48888E+08         0.15972E+06         0.00000E+00
    0.15972E+06        -0.49990E+08         0.00000E+00
    0.00000E+00         0.00000E+00        -0.49229E+08
 
   -0.48894E+08         0.17205E+06         0.00000E+00
    0.17205E+06        -0.49988E+08         0.00000E+00
    0.00000E+00         0.00000E+00        -0.49229E+08
 
   -0.48901E+08         0.18430E+06         0.00000E+00
    0.18430E+06        -0.49986E+08         0.00000E+00
    0.00000E+00         0.00000E+00        -0.49229E+08
 
   -0.48908E+08         0.19648E+06         0.00000E+00
    0.19648E+06        -0.49984E+08         0.00000E+00
    0.00000E+00         0.00000E+00        -0.49229E+08
 
   -0.48915E+08         0.20858E+06         0.00000E+00
    0.20858E+06        -0.49982E+08         0.00000E+00
    0.00000E+00         0.00000E+00        -0.49229E+08
 
   -0.48922E+08         0.22061E+06         0.00000E+00
    0.22061E+06        -0.49980E+08         0.00000E+00
    0.00000E+00         0.00000E+00        -0.49229E+08
 
   -0.48929E+08         0.23256E+06         0.00000E+00
    0.23256E+06        -0.49978E+08         0.00000E+00
    0.00000E+00         0.00000E+00        -0.49229E+08
 
   -0.48937E+08         0.24443E+06         0.00000E+00
    0.24443E+06        -0.49975E+08         0.00000E+00
    0.00000E+00         0.00000E+00        -0.49229E+08
 
   -0.48944E+08         0.25621E+06         0.00000E+00
    0.25621E+06        -0.49973E+08         0.00000E+00
    0.00000E+00         0.00000E+00        -0.49230E+08
 
   -0.48952E+08         0.26792E+06         0.00000E+00
    0.26792E+06        -0.49970E+08         0.00000E+00
    0.00000E+00         0.00000E+00        -0.49230E+08
 
   -0.48960E+08         0.27954E+06         0.00000E+00
    0.27954E+06        -0.49967E+08         0.00000E+00
    0.00000E+00         0.00000E+00        -0.49230E+08
 
   -0.48968E+08         0.29108E+06         0.00000E+00
    0.29108E+06        -0.49964E+08         0.00000E+00
    0.00000E+00         0.00000E+00        -0.49230E+08
 
   -0.48976E+08         0.30254E+06         0.00000E+00
    0.30254E+06        -0.49961E+08         0.00000E+00
    0.00000E+00         0.00000E+00        -0.49230E+08
 
   -0.48985E+08         0.31390E+06         0.00000E+00
    0.31390E+06        -0.49958E+08         0.00000E+00
    0.00000E+00         0.00000E+00        -0.49230E+08
 
   -0.48993E+08         0.32518E+06         0.00000E+00
    0.32518E+06        -0.49955E+08         0.00000E+00
    0.00000E+00         0.00000E+00        -0.49231E+08
 
   -0.49002E+08         0.33637E+06         0.00000E+00
    0.33637E+06        -0.49951E+08         0.00000E+00
    0.00000E+00         0.00000E+00        -0.49231E+08
 
   -0.49011E+08         0.34747E+06         0.00000E+00
    0.34747E+06        -0.49948E+08         0.00000E+00
    0.00000E+00         0.00000E+00        -0.49231E+08
 
   -0.49020E+08         0.35848E+06         0.00000E+00
    0.35848E+06        -0.49944E+08         0.00000E+00
    0.00000E+00         0.00000E+00        -0.49231E+08
 
   -0.49029E+08         0.36940E+06         0.00000E+00
    0.36940E+06        -0.49940E+08         0.00000E+00
    0.00000E+00         0.00000E+00        -0.49231E+08
 
   -0.49038E+08         0.38022E+06         0.00000E+00
    0.38022E+06        -0.49937E+08         0.00000E+00
    0.00000E+00         0.00000E+00        -0.49231E+08
 
   -0.49048E+08         0.39095E+06         0.00000E+00
    0.39095E+06        -0.49933E+08         0.00000E+00
    0.00000E+00         0.00000E+00        -0.49231E+08
 
   -0.49057E+08         0.40159E+06         0.00000E+00
    0.40159E+06        -0.49928E+08         0.00000E+00
    0.00000E+00         0.00000E+00        -0.49232E+08
 
   -0.49067E+08         0.41212E+06         0.00000E+00
    0.41212E+06        -0.49924E+08         0.00000E+00
    0.00000E+00         0.00000E+00        -0.49232E+08
 
   -0.49077E+08         0.42256E+06         0.00000E+00
    0.42256E+06        -0.49920E+08         0.00000E+00
    0.00000E+00         0.00000E+00        -0.49232E+08
 
   -0.49087E+08         0.43291E+06         0.00000E+00
    0.43291E+06        -0.49916E+08         0.00000E+00
    0.00000E+00         0.00000E+00        -0.49232E+08
 
   -0.49097E+08         0.44315E+06         0.00000E+00
    0.44315E+06        -0.49911E+08         0.00000E+00
    0.00000E+00         0.00000E+00        -0.49232E+08
 
   -0.49107E+08         0.45329E+06         0.00000E+00
    0.45329E+06        -0.49906E+08         0.00000E+00
    0.00000E+00         0.00000E+00        -0.49232E+08
 
   -0.49118E+08         0.46332E+06         0.00000E+00
    0.46332E+06        -0.49902E+08         0.00000E+00
    0.00000E+00         0.00000E+00        -0.49232E+08
 
   -0.49128E+08         0.47326E+06         0.00000E+00
    0.47326E+06        -0.49897E+08         0.00000E+00
    0.00000E+00         0.00000E+00        -0.49232E+08
 
   -0.49139E+08         0.48309E+06         0.00000E+00
    0.48309E+06        -0.49892E+08         0.00000E+00
    0.00000E+00         0.00000E+00        -0.49233E+08
 
   -0.49149E+08         0.49282E+06         0.00000E+00
    0.49282E+06        -0.49887E+08         0.00000E+00
    0.00000E+00         0.00000E+00        -0.49233E+08
 
   -0.49160E+08         0.50244E+06         0.00000E+00
    0.50244E+06        -0.49882E+08         0.00000E+00
    0.00000E+00         0.00000E+00        -0.49233E+08
 
   -0.49171E+08         0.51195E+06         0.00000E+00
    0.51195E+06        -0.49877E+08         0.00000E+00
    0.00000E+00         0.00000E+00        -0.49233E+08
 
   -0.49182E+08         0.52135E+06         0.00000E+00
    0.52135E+06        -0.49871E+08         0.00000E+00
    0.00000E+00         0.00000E+00        -0.49233E+08
 
   -0.49193E+08         0.53065E+06         0.00000E+00
    0.53065E+06        -0.49866E+08         0.00000E+00
    0.00000E+00         0.00000E+00        -0.49233E+08
 
   -0.49204E+08         0.53984E+06         0.00000E+00
    0.53984E+06        -0.49861E+08         0.00000E+00
    0.00000E+00         0.00000E+00        -0.49233E+08
 
   -0.49216E+08         0.54891E+06         0.00000E+00
    0.54891E+06        -0.49855E+08         0.00000E+00
    0.00000E+00         0.00000E+00        -0.49233E+08
 
   -0.49227E+08         0.55787E+06         0.00000E+00
    0.55787E+06        -0.49849E+08         0.00000E+00
    0.00000E+00         0.00000E+00        -0.49233E+08
 
   -0.48756E+08         0.69649E+04         0.00000E+00
    0.69649E+04        -0.50000E+08         0.00000E+00
    0.00000E+00         0.00000E+00        -0.49182E+08
 
   -0.48761E+08         0.20741E+05         0.00000E+00
    0.20741E+05        -0.50000E+08         0.00000E+00
    0.00000E+00         0.00000E+00        -0.49182E+08
 
   -0.48766E+08         0.34459E+05         0.00000E+00
    0.34459E+05        -0.50000E+08         0.00000E+00
    0.00000E+00         0.00000E+00        -0.49182E+08
 
   -0.48771E+08         0.48118E+05         0.00000E+00
    0.48118E+05        -0.49999E+08         0.00000E+00
    0.00000E+00         0.00000E+00        -0.49182E+08
 
   -0.48776E+08         0.61715E+05         0.00000E+00
    0.61715E+05        -0.49999E+08         0.00000E+00
    0.00000E+00         0.00000E+00        -0.49182E+08
 
   -0.48781E+08         0.75249E+05         0.00000E+00
    0.75249E+05        -0.49998E+08         0.00000E+00
    0.00000E+00         0.00000E+00        -0.49182E+08
 
   -0.48787E+08         0.88719E+05         0.00000E+00
    0.88719E+05        -0.49997E+08         0.00000E+00
    0.00000E+00         0.00000E+00        -0.49182E+08
 
   -0.48793E+08         0.10212E+06         0.00000E+00
    0.10212E+06        -0.49996E+08         0.00000E+00
    0.00000E+00         0.00000E+00        -0.49182E+08
 
   -0.48799E+08         0.11546E+06         0.00000E+00
    0.11546E+06        -0.49995E+08         0.00000E+00
    0.00000E+00         0.00000E+00        -0.49183E+08
 
   -0.48805E+08         0.12873E+06         0.00000E+00
    0.12873E+06        -0.49994E+08         0.00000E+00
    0.00000E+00         0.00000E+00        -0.49183E+08
 
   -0.48811E+08         0.14192E+06         0.00000E+00
    0.14192E+06        -0.49992E+08         0.00000E+00
    0.00000E+00         0.00000E+00        -0.49183E+08
 
   -0.48817E+08         0.15505E+06         0.00000E+00
    0.15505E+06        -0.49991E+08         0.00000E+00
    0.00000E+00         0.00000E+00        -0.49183E+08
 
   -0.48824E+08         0.16810E+06         0.00000E+00
    0.16810E+06        -0.49989E+08         0.00000E+00
    0.00000E+00         0.00000E+00        -0.49183E+08
 
   -0.48831E+08         0.18107E+06         0.00000E+00
    0.18107E+06        -0.49987E+08         0.00000E+00
    0.00000E+00         0.00000E+00        -0.49183E+08
 
   -0.48838E+08         0.19397E+06         0.00000E+00
    0.19397E+06        -0.49985E+08         0.00000E+00
    0.00000E+00         0.00000E+00        -0.49183E+08
 
   -0.48845E+08         0.20679E+06         0.00000E+00
    0.20679E+06        -0.49983E+08         0.00000E+00
    0.00000E+00         0.00000E+00        -0.49183E+08
 
   -0.48853E+08         0.21953E+06         0.00000E+00
    0.21953E+06        -0.49981E+08         0.00000E+00
    0.00000E+00         0.00000E+00        -0.49183E+08
 
   -0.48860E+08         0.23219E+06         0.00000E+00
    0.23219E+06        -0.49979E+08         0.00000E+00
    0.00000E+00         0.00000E+00        -0.49184E+08
 
   -0.48868E+08         0.24477E+06         0.00000E+00
    0.24477E+06        -0.49977E+08         0.00000E+00
    0.00000E+00         0.00000E+00        -0.49184E+08
 
   -0.48876E+08         0.25727E+06         0.00000E+00
    0.25727E+06        -0.49974E+08         0.00000E+00
    0.00000E+00         0.00000E+00        -0.49184E+08
 
   -0.48884E+08         0.26968E+06         0.00000E+00
    0.26968E+06        -0.49971E+08         0.00000E+00
    0.00000E+00         0.00000E+00        -0.49184E+08
 
   -0.48892E+08         0.28200E+06         0.00000E+00
    0.28200E+06        -0.49968E+08         0.00000E+00
    0.00000E+00         0.00000E+00        -0.49184E+08
 
   -0.48901E+08         0.29424E+06         0.00000E+00
    0.29424E+06        -0.49966E+08         0.00000E+00
    0.00000E+00         0.00000E+00        -0.49184E+08
 
   -0.48909E+08         0.30639E+06         0.00000E+00
    0.30639E+06        -0.49962E+08         0.00000E+00
    0.00000E+00         0.00000E+00        -0.49185E+08
 
   -0.48918E+08         0.31845E+06         0.00000E+00
    0.31845E+06        -0.49959E+08         0.00000E+00
    0.00000E+00         0.00000E+00        -0.49185E+08
 
   -0.48927E+08         0.33042E+06         0.00000E+00
    0.33042E+06        -0.49956E+08         0.00000E+00
    0.00000E+00         0.00000E+00        -0.49185E+08
 
   -0.48936E+08         0.34229E+06         0.00000E+00
    0.34229E+06        -0.49952E+08         0.00000E+00
    0.00000E+00         0.00000E+00        -0.49185E+08
 
   -0.48945E+08         0.35407E+06         0.00000E+00
    0.35407E+06        -0.49949E+08         0.00000E+00
    0.00000E+00         0.00000E+00        -0.49185E+08
 
   -0.48954E+08         0.36576E+06         0.00000E+00
    0.36576E+06        -0.49945E+08         0.00000E+00
    0.00000E+00         0.00000E+00        -0.49185E+08
 
   -0.48964E+08         0.37735E+06         0.00000E+00
    0.37735E+06        -0.49941E+08         0.00000E+00
    0.00000E+00         0.00000E+00        -0.49186E+08
 
   -0.48973E+08         0.38884E+06         0.00000E+00
    0.38884E+06        -0.49938E+08         0.00000E+00
    0.00000E+00         0.00000E+00        -0.49186E+08
 
   -0.48983E+08         0.40024E+06         0.00000E+00
    0.40024E+06        -0.49933E+08         0.00000E+00
    0.00000E+00         0.00000E+00        -0.49186E+08
 
   -0.48993E+08         0.41153E+06         0.00000E+00
    0.41153E+06        -0.49929E+08         0.00000E+00
    0.00000E+00         0.00000E+00        -0.49186E+08
 
   -0.49003E+08         0.42272E+06         0.00000E+00
    0.42272E+06        -0.49925E+08         0.00000E+00
    0.00000E+00         0.00000E+00        -0.49186E+08
 
   -0.49013E+08         0.43382E+06         0.00000E+00
    0.43382E+06        -0.49921E+08         0.00000E+00
    0.00000E+00         0.00000E+00        -0.49186E+08
 
   -0.49024E+08         0.44480E+06         0.00000E+00
    0.44480E+06        -0.49916E+08         0.00000E+00
    0.00000E+00         0.00000E+00        -0.49186E+08
 
   -0.49034E+08         0.45569E+06         0.00000E+00
    0.45569E+06        -0.49912E+08         0.00000E+00
    0.00000E+00         0.00000E+00        -0.49187E+08
 
   -0.49045E+08         0.46647E+06         0.00000E+00
    0.46647E+06        -0.49907E+08         0.00000E+00
    0.00000E+00         0.00000E+00        -0.49187E+08
 
   -0.49056E+08         0.47714E+06         0.00000E+00
    0.47714E+06        -0.49902E+08         0.00000E+00
    0.00000E+00         0.00000E+00        -0.49187E+08
 
   -0.49066E+08         0.48770E+06         0.00000E+00
    0.48770E+06        -0.49897E+08         0.00000E+00
    0.00000E+00         0.00000E+00        -0.49187E+08
 
   -0.49077E+08         0.49816E+06         0.00000E+00
    0.49816E+06        -0.49892E+08         0.00000E+00
    0.00000E+00         0.00000E+00        -0.49187E+08
 
   -0.49088E+08         0.50850E+06         0.00000E+00
    0.50850E+06        -0.49887E+08         0.00000E+00
    0.00000E+00         0.00000E+00        -0.49187E+08
 
   -0.49100E+08         0.51874E+06         0.00000E+00
    0.51874E+06        -0.49882E+08         0.00000E+00
    0.00000E+00         0.00000E+00        -0.49187E+08
 
   -0.49111E+08         0.52886E+06         0.00000E+00
    0.52886E+06        -0.49876E+08         0.00000E+00
    0.00000E+00         0.00000E+00        -0.49187E+08
 
   -0.49123E+08         0.53887E+06         0.00000E+00
    0.53887E+06        -0.49871E+08         0.00000E+00
    0.00000E+00         0.00000E+00        -0.49187E+08
 
   -0.49134E+08         0.54876E+06         0.00000E+00
    0.54876E+06        -0.49865E+08         0.00000E+00
    0.00000E+00         0.00000E+00        -0.49187E+08
 
   -0.49146E+08         0.55854E+06         0.00000E+00
    0.55854E+06        -0.49860E+08         0.00000E+00
    0.00000E+00         0.00000E+00        -0.49187E+08
 
   -0.49158E+08         0.56820E+06         0.00000E+00
    0.56820E+06        -0.49854E+08         0.00000E+00
    0.00000E+00         0.00000E+00        -0.49187E+08
 
   -0.49169E+08         0.57775E+06         0.00000E+00
    0.57775E+06        -0.49848E+08         0.00000E+00
    0.00000E+00         0.00000E+00        -0.49188E+08
 
   -0.49181E+08         0.58718E+06         0.00000E+00
    0.58718E+06        -0.49842E+08         0.00000E+00
    0.00000E+00         0.00000E+00        -0.49188E+08
 
   -0.48686E+08         0.73258E+04         0.00000E+00
    0.73258E+04        -0.50000E+08         0.00000E+00
    0.00000E+00         0.00000E+00        -0.49134E+08
 
   -0.48690E+08         0.21818E+05         0.00000E+00
    0.21818E+05        -0.50000E+08         0.00000E+00
    0.00000E+00         0.00000E+00        -0.49134E+08
 
   -0.48696E+08         0.36250E+05         0.00000E+00
    0.36250E+05        -0.50000E+08         0.00000E+00
    0.00000E+00         0.00000E+00        -0.49134E+08
 
   -0.48701E+08         0.50620E+05         0.00000E+00
    0.50620E+05        -0.49999E+08         0.00000E+00
    0.00000E+00         0.00000E+00        -0.49134E+08
 
   -0.48706E+08         0.64926E+05         0.00000E+00
    0.64926E+05        -0.49999E+08         0.00000E+00
    0.00000E+00         0.00000E+00        -0.49134E+08
 
   -0.48712E+08         0.79166E+05         0.00000E+00
    0.79166E+05        -0.49998E+08         0.00000E+00
    0.00000E+00         0.00000E+00        -0.49134E+08
 
   -0.48718E+08         0.93339E+05         0.00000E+00
    0.93339E+05        -0.49997E+08         0.00000E+00
    0.00000E+00         0.00000E+00        -0.49134E+08
 
   -0.48724E+08         0.10744E+06         0.00000E+00
    0.10744E+06        -0.49996E+08         0.00000E+00
    0.00000E+00         0.00000E+00        -0.49134E+08
 
   -0.48730E+08         0.12148E+06         0.00000E+00
    0.12148E+06        -0.49995E+08         0.00000E+00
    0.00000E+00         0.00000E+00        -0.49135E+08
 
   -0.48737E+08         0.13544E+06         0.00000E+00
    0.13544E+06        -0.49993E+08         0.00000E+00
    0.00000E+00         0.00000E+00        -0.49135E+08
 
   -0.48743E+08         0.14933E+06         0.00000E+00
    0.14933E+06        -0.49992E+08         0.00000E+00
    0.00000E+00         0.00000E+00        -0.49135E+08
 
   -0.48750E+08         0.16314E+06         0.00000E+00
    0.16314E+06        -0.49990E+08         0.00000E+00
    0.00000E+00         0.00000E+00        -0.49135E+08
 
   -0.48757E+08         0.17687E+06         0.00000E+00
    0.17687E+06        -0.49989E+08         0.00000E+00
    0.00000E+00         0.00000E+00        -0.49135E+08
 
   -0.48765E+08         0.19053E+06         0.00000E+00
    0.19053E+06        -0.49987E+08         0.00000E+00
    0.00000E+00         0.00000E+00        -0.49135E+08
 
   -0.48772E+08         0.20410E+06         0.00000E+00
    0.20410E+06        -0.49985E+08         0.00000E+00
    0.00000E+00         0.00000E+00        -0.49135E+08
 
   -0.48780E+08         0.21760E+06         0.00000E+00
    0.21760E+06        -0.49983E+08         0.00000E+00
    0.00000E+00         0.00000E+00        -0.49135E+08
 
   -0.48787E+08         0.23101E+06         0.00000E+00
    0.23101E+06        -0.49980E+08         0.00000E+00
    0.00000E+00         0.00000E+00        -0.49136E+08
 
   -0.48795E+08         0.24434E+06         0.00000E+00
    0.24434E+06        -0.49978E+08         0.00000E+00
    0.00000E+00         0.00000E+00        -0.49136E+08
 
   -0.48804E+08         0.25758E+06         0.00000E+00
    0.25758E+06        -0.49975E+08         0.00000E+00
    0.00000E+00         0.00000E+00        -0.49136E+08
 
   -0.48812E+08         0.27073E+06         0.00000E+00
    0.27073E+06        -0.49973E+08         0.00000E+00
    0.00000E+00         0.00000E+00        -0.49136E+08
 
   -0.48820E+08         0.28379E+06         0.00000E+00
    0.28379E+06        -0.49970E+08         0.00000E+00
    0.00000E+00         0.00000E+00        -0.49136E+08
 
   -0.48829E+08         0.29677E+06         0.00000E+00
    0.29677E+06        -0.49967E+08         0.00000E+00
    0.00000E+00         0.00000E+00        -0.49136E+08
 
   -0.48838E+08         0.30965E+06         0.00000E+00
    0.30965E+06        -0.49964E+08         0.00000E+00
    0.00000E+00         0.00000E+00        -0.49137E+08
 
   -0.48847E+08         0.32244E+06         0.00000E+00
    0.32244E+06        -0.49961E+08         0.00000E+00
    0.00000E+00         0.00000E+00        -0.49137E+08
 
   -0.48856E+08         0.33513E+06         0.00000E+00
    0.33513E+06        -0.49957E+08         0.00000E+00
    0.00000E+00         0.00000E+00        -0.49137E+08
 
   -0.48866E+08         0.34773E+06         0.00000E+00
    0.34773E+06        -0.49954E+08         0.00000E+00
    0.00000E+00         0.00000E+00        -0.49137E+08
 
   -0.48875E+08         0.36023E+06         0.00000E+00
    0.36023E+06        -0.49950E+08         0.00000E+00
    0.00000E+00         0.00000E+00        -0.49137E+08
 
   -0.48885E+08         0.37263E+06         0.00000E+00
    0.37263E+06        -0.49946E+08         0.00000E+00
    0.00000E+00         0.00000E+00        -0.49137E+08
 
   -0.48895E+08         0.38493E+06         0.00000E+00
    0.38493E+06        -0.49943E+08         0.00000E+00
    0.00000E+00         0.00000E+00        -0.49138E+08
 
   -0.48905E+08         0.39713E+06         0.00000E+00
    0.39713E+06        -0.49939E+08         0.00000E+00
    0.00000E+00         0.00000E+00        -0.49138E+08
 
   -0.48915E+08         0.40923E+06         0.00000E+00
    0.40923E+06        -0.49934E+08         0.00000E+00
    0.00000E+00         0.00000E+00        -0.49138E+08
 
   -0.48925E+08         0.42122E+06         0.00000E+00
    0.42122E+06        -0.49930E+08         0.00000E+00
    0.00000E+00         0.00000E+00        -0.49138E+08
 
   -0.48935E+08         0.43311E+06         0.00000E+00
    0.43311E+06        -0.49926E+08         0.00000E+00
    0.00000E+00         0.00000E+00        -0.49138E+08
 
   -0.48946E+08         0.44489E+06         0.00000E+00
    0.44489E+06        -0.49921E+08         0.00000E+00
    0.00000E+00         0.00000E+00        -0.49138E+08
 
   -0.48957E+08         0.45657E+06         0.00000E+00
    0.45657E+06        -0.49917E+08         0.00000E+00
    0.00000E+00         0.00000E+00        -0.49138E+08
 
   -0.48968E+08         0.46813E+06         0.00000E+00
    0.46813E+06        -0.49912E+08         0.00000E+00
    0.00000E+00         0.00000E+00        -0.49139E+08
 
   -0.48979E+08         0.47959E+06         0.00000E+00
    0.47959E+06        -0.49907E+08         0.00000E+00
    0.00000E+00         0.00000E+00        -0.49139E+08
 
   -0.48990E+08         0.49093E+06         0.00000E+00
    0.49093E+06        -0.49902E+08         0.00000E+00
    0.00000E+00         0.00000E+00        -0.49139E+08
 
   -0.49001E+08         0.50217E+06         0.00000E+00
    0.50217E+06        -0.49897E+08         0.00000E+00
    0.00000E+00         0.00000E+00        -0.49139E+08
 
   -0.49012E+08         0.51328E+06         0.00000E+00
    0.51328E+06        -0.49892E+08         0.00000E+00
    0.00000E+00         0.00000E+00        -0.49139E+08
 
   -0.49024E+08         0.52429E+06         0.00000E+00
    0.52429E+06        -0.49887E+08         0.00000E+00
    0.00000E+00         0.00000E+00        -0.49139E+08
 
   -0.49036E+08         0.53517E+06         0.00000E+00
    0.53517E+06        -0.49881E+08         0.00000E+00
    0.00000E+00         0.00000E+00        -0.49139E+08
 
   -0.49047E+08         0.54595E+06         0.00000E+00
    0.54595E+06        -0.49876E+08         0.00000E+00
    0.00000E+00         0.00000E+00        -0.49139E+08
 
   -0.49059E+08         0.55660E+06         0.00000E+00
    0.55660E+06        -0.49870E+08         0.00000E+00
    0.00000E+00         0.00000E+00        -0.49140E+08
 
   -0.49071E+08         0.56713E+06         0.00000E+00
    0.56713E+06        -0.49864E+08         0.00000E+00
    0.00000E+00         0.00000E+00        -0.49140E+08
 
   -0.49084E+08         0.57754E+06         0.00000E+00
    0.57754E+06        -0.49859E+08         0.00000E+00
    0.00000E+00         0.00000E+00        -0.49140E+08
 
   -0.49096E+08         0.58783E+06         0.00000E+00
    0.58783E+06        -0.49853E+08         0.00000E+00
    0.00000E+00         0.00000E+00        -0.49140E+08
 
   -0.49108E+08         0.59800E+06         0.00000E+00
    0.59800E+06        -0.49847E+08         0.00000E+00
    0.00000E+00         0.00000E+00        -0.49140E+08
 
   -0.49121E+08         0.60804E+06         0.00000E+00
    0.60804E+06        -0.49840E+08         0.00000E+00
    0.00000E+00         0.00000E+00        -0.49140E+08
 
   -0.49133E+08         0.61796E+06         0.00000E+00
    0.61796E+06        -0.49834E+08         0.00000E+00
    0.00000E+00         0.00000E+00        -0.49140E+08
 
   -0.48611E+08         0.77046E+04         0.00000E+00
    0.77046E+04        -0.50000E+08         0.00000E+00
    0.00000E+00         0.00000E+00        -0.49084E+08
 
   -0.48616E+08         0.22948E+05         0.00000E+00
    0.22948E+05        -0.50000E+08         0.00000E+00
    0.00000E+00         0.00000E+00        -0.49084E+08
 
   -0.48622E+08         0.38129E+05         0.00000E+00
    0.38129E+05        -0.50000E+08         0.00000E+00
    0.00000E+00         0.00000E+00        -0.49084E+08
 
   -0.48627E+08         0.53245E+05         0.00000E+00
    0.53245E+05        -0.49999E+08         0.00000E+00
    0.00000E+00         0.00000E+00        -0.49084E+08
 
   -0.48633E+08         0.68294E+05         0.00000E+00
    0.68294E+05        -0.49998E+08         0.00000E+00
    0.00000E+00         0.00000E+00        -0.49084E+08
 
   -0.48639E+08         0.83275E+05         0.00000E+00
    0.83275E+05        -0.49998E+08         0.00000E+00
    0.00000E+00         0.00000E+00        -0.49084E+08
 
   -0.48645E+08         0.98186E+05         0.00000E+00
    0.98186E+05        -0.49997E+08         0.00000E+00
    0.00000E+00         0.00000E+00        -0.49084E+08
 
   -0.48652E+08         0.11302E+06         0.00000E+00
    0.11302E+06        -0.49996E+08         0.00000E+00
    0.00000E+00         0.00000E+00        -0.49084E+08
 
   -0.48658E+08         0.12779E+06         0.00000E+00
    0.12779E+06        -0.49994E+08         0.00000E+00
    0.00000E+00         0.00000E+00        -0.49084E+08
 
   -0.48665E+08         0.14248E+06         0.00000E+00
    0.14248E+06        -0.49993E+08         0.00000E+00
    0.00000E+00         0.00000E+00        -0.49084E+08
 
   -0.48672E+08         0.15709E+06         0.00000E+00
    0.15709E+06        -0.49992E+08         0.00000E+00
    0.00000E+00         0.00000E+00        -0.49084E+08
 
   -0.48680E+08         0.17162E+06         0.00000E+00
    0.17162E+06        -0.49990E+08         0.00000E+00
    0.00000E+00         0.00000E+00        -0.49084E+08
 
   -0.48687E+08         0.18608E+06         0.00000E+00
    0.18608E+06        -0.49988E+08         0.00000E+00
    0.00000E+00         0.00000E+00        -0.49085E+08
 
   -0.48695E+08         0.20045E+06         0.00000E+00
    0.20045E+06        -0.49986E+08         0.00000E+00
    0.00000E+00         0.00000E+00        -0.49085E+08
 
   -0.48703E+08         0.21473E+06         0.00000E+00
    0.21473E+06        -0.49984E+08         0.00000E+00
    0.00000E+00         0.00000E+00        -0.49085E+08
 
   -0.48711E+08         0.22893E+06         0.00000E+00
    0.22893E+06        -0.49982E+08         0.00000E+00
    0.00000E+00         0.00000E+00        -0.49085E+08
 
   -0.48719E+08         0.24305E+06         0.00000E+00
    0.24305E+06        -0.49979E+08         0.00000E+00
    0.00000E+00         0.00000E+00        -0.49085E+08
 
   -0.48727E+08         0.25707E+06         0.00000E+00
    0.25707E+06        -0.49977E+08         0.00000E+00
    0.00000E+00         0.00000E+00        -0.49085E+08
 
   -0.48736E+08         0.27100E+06         0.00000E+00
    0.27100E+06        -0.49974E+08         0.00000E+00
    0.00000E+00         0.00000E+00        -0.49085E+08
 
   -0.48745E+08         0.28485E+06         0.00000E+00
    0.28485E+06        -0.49971E+08         0.00000E+00
    0.00000E+00         0.00000E+00        -0.49086E+08
 
   -0.48754E+08         0.29859E+06         0.00000E+00
    0.29859E+06        -0.49968E+08         0.00000E+00
    0.00000E+00         0.00000E+00        -0.49086E+08
 
   -0.48763E+08         0.31225E+06         0.00000E+00
    0.31225E+06        -0.49965E+08         0.00000E+00
    0.00000E+00         0.00000E+00        -0.49086E+08
 
   -0.48772E+08         0.32580E+06         0.00000E+00
    0.32580E+06        -0.49962E+08         0.00000E+00
    0.00000E+00         0.00000E+00        -0.49086E+08
 
   -0.48782E+08         0.33926E+06         0.00000E+00
    0.33926E+06        -0.49959E+08         0.00000E+00
    0.00000E+00         0.00000E+00        -0.49086E+08
 
   -0.48791E+08         0.35262E+06         0.00000E+00
    0.35262E+06        -0.49955E+08         0.00000E+00
    0.00000E+00         0.00000E+00        -0.49087E+08
 
   -0.48801E+08         0.36588E+06         0.00000E+00
    0.36588E+06        -0.49952E+08         0.00000E+00
    0.00000E+00         0.00000E+00        -0.49087E+08
 
   -0.48811E+08         0.37904E+06         0.00000E+00
    0.37904E+06        -0.49948E+08         0.00000E+00
    0.00000E+00         0.00000E+00        -0.49087E+08
 
   -0.48821E+08         0.39209E+06         0.00000E+00
    0.39209E+06        -0.49944E+08         0.00000E+00
    0.00000E+00         0.00000E+00        -0.49087E+08
 
   -0.48832E+08         0.40504E+06         0.00000E+00
    0.40504E+06        -0.49940E+08         0.00000E+00
    0.00000E+00         0.00000E+00        -0.49087E+08
 
   -0.48842E+08         0.41788E+06         0.00000E+00
    0.41788E+06        -0.49936E+08         0.00000E+00
    0.00000E+00         0.00000E+00        -0.49087E+08
 
   -0.48853E+08         0.43061E+06         0.00000E+00
    0.43061E+06        -0.49931E+08         0.00000E+00
    0.00000E+00         0.00000E+00        -0.49088E+08
 
   -0.48864E+08         0.44324E+06         0.00000E+00
    0.44324E+06        -0.49927E+08         0.00000E+00
    0.00000E+00         0.00000E+00        -0.49088E+08
 
   -0.48875E+08         0.45575E+06         0.00000E+00
    0.45575E+06        -0.49922E+08         0.00000E+00
    0.00000E+00         0.00000E+00        -0.49088E+08
 
   -0.48886E+08         0.46815E+06         0.00000E+00
    0.46815E+06        -0.49918E+08         0.00000E+00
    0.00000E+00         0.00000E+00        -0.49088E+08
 
   -0.48897E+08         0.48044E+06         0.00000E+00
    0.48044E+06        -0.49913E+08         0.00000E+00
    0.00000E+00         0.00000E+00        -0.49088E+08
 
   -0.48909E+08         0.49262E+06         0.00000E+00
    0.49262E+06        -0.49908E+08         0.00000E+00
    0.00000E+00         0.00000E+00        -0.49088E+08
 
   -0.48920E+08         0.50467E+06         0.00000E+00
    0.50467E+06        -0.49903E+08         0.00000E+00
    0.00000E+00         0.00000E+00        -0.49088E+08
 
   -0.48932E+08         0.51661E+06         0.00000E+00
    0.51661E+06        -0.49897E+08         0.00000E+00
    0.00000E+00         0.00000E+00        -0.49089E+08
 
   -0.48944E+08         0.52844E+06         0.00000E+00
    0.52844E+06        -0.49892E+08         0.00000E+00
    0.00000E+00         0.00000E+00        -0.49089E+08
 
   -0.48956E+08         0.54014E+06         0.00000E+00
    0.54014E+06        -0.49887E+08         0.00000E+00
    0.00000E+00         0.00000E+00        -0.49089E+08
 
   -0.48968E+08         0.55172E+06         0.00000E+00
    0.55172E+06        -0.49881E+08         0.00000E+00
    0.00000E+00         0.00000E+00        -0.49089E+08
 
   -0.48980E+08         0.56318E+06         0.00000E+00
    0.56318E+06        -0.49875E+08         0.00000E+00
    0.00000E+00         0.00000E+00        -0.49089E+08
 
   -0.48993E+08         0.57452E+06         0.00000E+00
    0.57452E+06        -0.49870E+08         0.00000E+00
    0.00000E+00         0.00000E+00        -0.49089E+08
 
   -0.49005E+08         0.58573E+06         0.00000E+00
    0.58573E+06        -0.49864E+08         0.00000E+00
    0.00000E+00         0.00000E+00        -0.49089E+08
 
   -0.49018E+08         0.59682E+06         0.00000E+00
    0.59682E+06        -0.49858E+08         0.00000E+00
    0.00000E+00         0.00000E+00        -0.49089E+08
 
   -0.49031E+08         0.60777E+06         0.00000E+00
    0.60777E+06        -0.49852E+08         0.00000E+00
    0.00000E+00         0.00000E+00        -0.49089E+08
 
   -0.49043E+08         0.61861E+06         0.00000E+00
    0.61861E+06        -0.49845E+08         0.00000E+00
    0.00000E+00         0.00000E+00        -0.49089E+08
 
   -0.49056E+08         0.62931E+06         0.00000E+00
    0.62931E+06        -0.49839E+08         0.00000E+00
    0.00000E+00         0.00000E+00        -0.49089E+08
 
   -0.49070E+08         0.63988E+06         0.00000E+00
    0.63988E+06        -0.49832E+08         0.00000E+00
    0.00000E+00         0.00000E+00        -0.49090E+08
 
   -0.49083E+08         0.65032E+06         0.00000E+00
    0.65032E+06        -0.49826E+08         0.00000E+00
    0.00000E+00         0.00000E+00        -0.49090E+08
 
   -0.48533E+08         0.81026E+04         0.00000E+00
    0.81026E+04        -0.50000E+08         0.00000E+00
    0.00000E+00         0.00000E+00        -0.49031E+08
 
   -0.48538E+08         0.24135E+05         0.00000E+00
    0.24135E+05        -0.50000E+08         0.00000E+00
    0.00000E+00         0.00000E+00        -0.49031E+08
 
   -0.48544E+08         0.40102E+05         0.00000E+00
    0.40102E+05        -0.49999E+08         0.00000E+00
    0.00000E+00         0.00000E+00        -0.49031E+08
 
   -0.48550E+08         0.56001E+05         0.00000E+00
    0.56001E+05        -0.49999E+08         0.00000E+00
    0.00000E+00         0.00000E+00        -0.49031E+08
 
   -0.48556E+08         0.71830E+05         0.00000E+00
    0.71830E+05        -0.49998E+08         0.00000E+00
    0.00000E+00         0.00000E+00        -0.49031E+08
 
   -0.48562E+08         0.87588E+05         0.00000E+00
    0.87588E+05        -0.49998E+08         0.00000E+00
    0.00000E+00         0.00000E+00        -0.49031E+08
 
   -0.48569E+08         0.10327E+06         0.00000E+00
    0.10327E+06        -0.49997E+08         0.00000E+00
    0.00000E+00         0.00000E+00        -0.49031E+08
 
   -0.48576E+08         0.11888E+06         0.00000E+00
    0.11888E+06        -0.49995E+08         0.00000E+00
    0.00000E+00         0.00000E+00        -0.49031E+08
 
   -0.48583E+08         0.13441E+06         0.00000E+00
    0.13441E+06        -0.49994E+08         0.00000E+00
    0.00000E+00         0.00000E+00        -0.49031E+08
 
   -0.48590E+08         0.14987E+06         0.00000E+00
    0.14987E+06        -0.49993E+08         0.00000E+00
    0.00000E+00         0.00000E+00        -0.49031E+08
 
   -0.48598E+08         0.16524E+06         0.00000E+00
    0.16524E+06        -0.49991E+08         0.00000E+00
    0.00000E+00         0.00000E+00        -0.49031E+08
 
   -0.48605E+08         0.18053E+06         0.00000E+00
    0.18053E+06        -0.49989E+08         0.00000E+00
    0.00000E+00         0.00000E+00        -0.49031E+08
 
   -0.48613E+08         0.19573E+06         0.00000E+00
    0.19573E+06        -0.49988E+08         0.00000E+00
    0.00000E+00         0.00000E+00        -0.49031E+08
 
   -0.48621E+08         0.21085E+06         0.00000E+00
    0.21085E+06        -0.49985E+08         0.00000E+00
    0.00000E+00         0.00000E+00        -0.49032E+08
 
   -0.48630E+08         0.22588E+06         0.00000E+00
    0.22588E+06        -0.49983E+08         0.00000E+00
    0.00000E+00         0.00000E+00        -0.49032E+08
 
   -0.48638E+08         0.24082E+06         0.00000E+00
    0.24082E+06        -0.49981E+08         0.00000E+00
    0.00000E+00         0.00000E+00        -0.49032E+08
 
   -0.48647E+08         0.25567E+06         0.00000E+00
    0.25567E+06        -0.49978E+08         0.00000E+00
    0.00000E+00         0.00000E+00        -0.49032E+08
 
   -0.48656E+08         0.27043E+06         0.00000E+00
    0.27043E+06        -0.49976E+08         0.00000E+00
    0.00000E+00         0.00000E+00        -0.49032E+08
 
   -0.48665E+08         0.28509E+06         0.00000E+00
    0.28509E+06        -0.49973E+08         0.00000E+00
    0.00000E+00         0.00000E+00        -0.49032E+08
 
   -0.48674E+08         0.29966E+06         0.00000E+00
    0.29966E+06        -0.49970E+08         0.00000E+00
    0.00000E+00         0.00000E+00        -0.49033E+08
 
   -0.48683E+08         0.31412E+06         0.00000E+00
    0.31412E+06        -0.49967E+08         0.00000E+00
    0.00000E+00         0.00000E+00        -0.49033E+08
 
   -0.48693E+08         0.32849E+06         0.00000E+00
    0.32849E+06        -0.49964E+08         0.00000E+00
    0.00000E+00         0.00000E+00        -0.49033E+08
 
   -0.48703E+08         0.34276E+06         0.00000E+00
    0.34276E+06        -0.49960E+08         0.00000E+00
    0.00000E+00         0.00000E+00        -0.49033E+08
 
   -0.48713E+08         0.35692E+06         0.00000E+00
    0.35692E+06        -0.49957E+08         0.00000E+00
    0.00000E+00         0.00000E+00        -0.49033E+08
 
   -0.48723E+08         0.37098E+06         0.00000E+00
    0.37098E+06        -0.49953E+08         0.00000E+00
    0.00000E+00         0.00000E+00        -0.49034E+08
 
   -0.48733E+08         0.38493E+06         0.00000E+00
    0.38493E+06        -0.49949E+08         0.00000E+00
    0.00000E+00         0.00000E+00        -0.49034E+08
 
   -0.48744E+08         0.39878E+06         0.00000E+00
    0.39878E+06        -0.49945E+08         0.00000E+00
    0.00000E+00         0.00000E+00        -0.49034E+08
 
   -0.48755E+08         0.41252E+06         0.00000E+00
    0.41252E+06        -0.49941E+08         0.00000E+00
    0.00000E+00         0.00000E+00        -0.49034E+08
 
   -0.48766E+08         0.42614E+06         0.00000E+00
    0.42614E+06        -0.49937E+08         0.00000E+00
    0.00000E+00         0.00000E+00        -0.49034E+08
 
   -0.48777E+08         0.43966E+06         0.00000E+00
    0.43966E+06        -0.49932E+08         0.00000E+00
    0.00000E+00         0.00000E+00        -0.49034E+08
 
   -0.48788E+08         0.45306E+06         0.00000E+00
    0.45306E+06        -0.49928E+08         0.00000E+00
    0.00000E+00         0.00000E+00        -0.49035E+08
 
   -0.48799E+08         0.46635E+06         0.00000E+00
    0.46635E+06        -0.49923E+08         0.00000E+00
    0.00000E+00         0.00000E+00        -0.49035E+08
 
   -0.48811E+08         0.47952E+06         0.00000E+00
    0.47952E+06        -0.49918E+08         0.00000E+00
    0.00000E+00         0.00000E+00        -0.49035E+08
 
   -0.48822E+08         0.49257E+06         0.00000E+00
    0.49257E+06        -0.49913E+08         0.00000E+00
    0.00000E+00         0.00000E+00        -0.49035E+08
 
   -0.48834E+08         0.50550E+06         0.00000E+00
    0.50550E+06        -0.49908E+08         0.00000E+00
    0.00000E+00         0.00000E+00        -0.49035E+08
 
   -0.48846E+08         0.51832E+06         0.00000E+00
    0.51832E+06        -0.49903E+08         0.00000E+00
    0.00000E+00         0.00000E+00        -0.49035E+08
 
   -0.48859E+08         0.53101E+06         0.00000E+00
    0.53101E+06        -0.49898E+08         0.00000E+00
    0.00000E+00         0.00000E+00        -0.49036E+08
 
   -0.48871E+08         0.54358E+06         0.00000E+00
    0.54358E+06        -0.49892E+08         0.00000E+00
    0.00000E+00         0.00000E+00        -0.49036E+08
 
   -0.48883E+08         0.55602E+06         0.00000E+00
    0.55602E+06        -0.49887E+08         0.00000E+00
    0.00000E+00         0.00000E+00        -0.49036E+08
 
   -0.48896E+08         0.56834E+06         0.00000E+00
    0.56834E+06        -0.49881E+08         0.00000E+00
    0.00000E+00         0.00000E+00        -0.49036E+08
 
   -0.48909E+08         0.58053E+06         0.00000E+00
    0.58053E+06        -0.49875E+08         0.00000E+00
    0.00000E+00         0.00000E+00        -0.49036E+08
 
   -0.48922E+08         0.59259E+06         0.00000E+00
    0.59259E+06        -0.49869E+08         0.00000E+00
    0.00000E+00         0.00000E+00        -0.49036E+08
 
   -0.48935E+08         0.60453E+06         0.00000E+00
    0.60453E+06        -0.49863E+08         0.00000E+00
    0.00000E+00         0.00000E+00        -0.49036E+08
 
   -0.48948E+08         0.61633E+06         0.00000E+00
    0.61633E+06        -0.49857E+08         0.00000E+00
    0.00000E+00         0.00000E+00        -0.49036E+08
 
   -0.48961E+08         0.62800E+06         0.00000E+00
    0.62800E+06        -0.49851E+08         0.00000E+00
    0.00000E+00         0.00000E+00        -0.49036E+08
 
   -0.48975E+08         0.63954E+06         0.00000E+00
    0.63954E+06        -0.49844E+08         0.00000E+00
    0.00000E+00         0.00000E+00        -0.49036E+08
 
   -0.48988E+08         0.65094E+06         0.00000E+00
    0.65094E+06        -0.49838E+08         0.00000E+00
    0.00000E+00         0.00000E+00        -0.49037E+08
 
   -0.49002E+08         0.66221E+06         0.00000E+00
    0.66221E+06        -0.49831E+08         0.00000E+00
    0.00000E+00         0.00000E+00        -0.49037E+08
 
   -0.49016E+08         0.67333E+06         0.00000E+00
    0.67333E+06        -0.49824E+08         0.00000E+00
    0.00000E+00         0.00000E+00        -0.49037E+08
 
   -0.49030E+08         0.68432E+06         0.00000E+00
    0.68432E+06        -0.49817E+08         0.00000E+00
    0.00000E+00         0.00000E+00        -0.49037E+08
 
   -0.48450E+08         0.85206E+04         0.00000E+00
    0.85206E+04        -0.50000E+08         0.00000E+00
    0.00000E+00         0.00000E+00        -0.48975E+08
 
   -0.48456E+08         0.25381E+05         0.00000E+00
    0.25381E+05        -0.50000E+08         0.00000E+00
    0.00000E+00         0.00000E+00        -0.48975E+08
 
   -0.48462E+08         0.42173E+05         0.00000E+00
    0.42173E+05        -0.49999E+08         0.00000E+00
    0.00000E+00         0.00000E+00        -0.48975E+08
 
   -0.48469E+08         0.58894E+05         0.00000E+00
    0.58894E+05        -0.49999E+08         0.00000E+00
    0.00000E+00         0.00000E+00        -0.48975E+08
 
   -0.48475E+08         0.75543E+05         0.00000E+00
    0.75543E+05        -0.49998E+08         0.00000E+00
    0.00000E+00         0.00000E+00        -0.48975E+08
 
   -0.48482E+08         0.92116E+05         0.00000E+00
    0.92116E+05        -0.49997E+08         0.00000E+00
    0.00000E+00         0.00000E+00        -0.48975E+08
 
   -0.48489E+08         0.10861E+06         0.00000E+00
    0.10861E+06        -0.49996E+08         0.00000E+00
    0.00000E+00         0.00000E+00        -0.48975E+08
 
   -0.48496E+08         0.12503E+06         0.00000E+00
    0.12503E+06        -0.49995E+08         0.00000E+00
    0.00000E+00         0.00000E+00        -0.48975E+08
 
   -0.48503E+08         0.14137E+06         0.00000E+00
    0.14137E+06        -0.49994E+08         0.00000E+00
    0.00000E+00         0.00000E+00        -0.48975E+08
 
   -0.48511E+08         0.15762E+06         0.00000E+00
    0.15762E+06        -0.49992E+08         0.00000E+00
    0.00000E+00         0.00000E+00        -0.48975E+08
 
   -0.48519E+08         0.17379E+06         0.00000E+00
    0.17379E+06        -0.49991E+08         0.00000E+00
    0.00000E+00         0.00000E+00        -0.48975E+08
 
   -0.48527E+08         0.18988E+06         0.00000E+00
    0.18988E+06        -0.49989E+08         0.00000E+00
    0.00000E+00         0.00000E+00        -0.48975E+08
 
   -0.48535E+08         0.20587E+06         0.00000E+00
    0.20587E+06        -0.49987E+08         0.00000E+00
    0.00000E+00         0.00000E+00        -0.48976E+08
 
   -0.48544E+08         0.22177E+06         0.00000E+00
    0.22177E+06        -0.49985E+08         0.00000E+00
    0.00000E+00         0.00000E+00        -0.48976E+08
 
   -0.48553E+08         0.23759E+06         0.00000E+00
    0.23759E+06        -0.49982E+08         0.00000E+00
    0.00000E+00         0.00000E+00        -0.48976E+08
 
   -0.48562E+08         0.25330E+06         0.00000E+00
    0.25330E+06        -0.49980E+08         0.00000E+00
    0.00000E+00         0.00000E+00        -0.48976E+08
 
   -0.48571E+08         0.26893E+06         0.00000E+00
    0.26893E+06        -0.49977E+08         0.00000E+00
    0.00000E+00         0.00000E+00        -0.48976E+08
 
   -0.48580E+08         0.28445E+06         0.00000E+00
    0.28445E+06        -0.49975E+08         0.00000E+00
    0.00000E+00         0.00000E+00        -0.48976E+08
 
   -0.48590E+08         0.29988E+06         0.00000E+00
    0.29988E+06        -0.49972E+08         0.00000E+00
    0.00000E+00         0.00000E+00        -0.48977E+08
 
   -0.48599E+08         0.31520E+06         0.00000E+00
    0.31520E+06        -0.49968E+08         0.00000E+00
    0.00000E+00         0.00000E+00        -0.48977E+08
 
   -0.48609E+08         0.33042E+06         0.00000E+00
    0.33042E+06        -0.49965E+08         0.00000E+00
    0.00000E+00         0.00000E+00        -0.48977E+08
 
   -0.48620E+08         0.34554E+06         0.00000E+00
    0.34554E+06        -0.49962E+08         0.00000E+00
    0.00000E+00         0.00000E+00        -0.48977E+08
 
   -0.48630E+08         0.36055E+06         0.00000E+00
    0.36055E+06        -0.49958E+08         0.00000E+00
    0.00000E+00         0.00000E+00        -0.48977E+08
 
   -0.48640E+08         0.37545E+06         0.00000E+00
    0.37545E+06        -0.49954E+08         0.00000E+00
    0.00000E+00         0.00000E+00        -0.48978E+08
 
   -0.48651E+08         0.39025E+06         0.00000E+00
    0.39025E+06        -0.49951E+08         0.00000E+00
    0.00000E+00         0.00000E+00        -0.48978E+08
 
   -0.48662E+08         0.40493E+06         0.00000E+00
    0.40493E+06        -0.49947E+08         0.00000E+00
    0.00000E+00         0.00000E+00        -0.48978E+08
 
   -0.48673E+08         0.41950E+06         0.00000E+00
    0.41950E+06        -0.49942E+08         0.00000E+00
    0.00000E+00         0.00000E+00        -0.48978E+08
 
   -0.48684E+08         0.43395E+06         0.00000E+00
    0.43395E+06        -0.49938E+08         0.00000E+00
    0.00000E+00         0.00000E+00        -0.48978E+08
 
   -0.48696E+08         0.44829E+06         0.00000E+00
    0.44829E+06        -0.49934E+08         0.00000E+00
    0.00000E+00         0.00000E+00        -0.48978E+08
 
   -0.48708E+08         0.46252E+06         0.00000E+00
    0.46252E+06        -0.49929E+08         0.00000E+00
    0.00000E+00         0.00000E+00        -0.48979E+08
 
   -0.48719E+08         0.47662E+06         0.00000E+00
    0.47662E+06        -0.49924E+08         0.00000E+00
    0.00000E+00         0.00000E+00        -0.48979E+08
 
   -0.48731E+08         0.49060E+06         0.00000E+00
    0.49060E+06        -0.49919E+08         0.00000E+00
    0.00000E+00         0.00000E+00        -0.48979E+08
 
   -0.48743E+08         0.50446E+06         0.00000E+00
    0.50446E+06        -0.49914E+08         0.00000E+00
    0.00000E+00         0.00000E+00        -0.48979E+08
 
   -0.48756E+08         0.51820E+06         0.00000E+00
    0.51820E+06        -0.49909E+08         0.00000E+00
    0.00000E+00         0.00000E+00        -0.48979E+08
 
   -0.48768E+08         0.53181E+06         0.00000E+00
    0.53181E+06        -0.49904E+08         0.00000E+00
    0.00000E+00         0.00000E+00        -0.48980E+08
 
   -0.48781E+08         0.54530E+06         0.00000E+00
    0.54530E+06        -0.49898E+08         0.00000E+00
    0.00000E+00         0.00000E+00        -0.48980E+08
 
   -0.48794E+08         0.55866E+06         0.00000E+00
    0.55866E+06        -0.49893E+08         0.00000E+00
    0.00000E+00         0.00000E+00        -0.48980E+08
 
   -0.48807E+08         0.57189E+06         0.00000E+00
    0.57189E+06        -0.49887E+08         0.00000E+00
    0.00000E+00         0.00000E+00        -0.48980E+08
 
   -0.48820E+08         0.58499E+06         0.00000E+00
    0.58499E+06        -0.49881E+08         0.00000E+00
    0.00000E+00         0.00000E+00        -0.48980E+08
 
   -0.48833E+08         0.59796E+06         0.00000E+00
    0.59796E+06        -0.49875E+08         0.00000E+00
    0.00000E+00         0.00000E+00        -0.48980E+08
 
   -0.48847E+08         0.61079E+06         0.00000E+00
    0.61079E+06        -0.49869E+08         0.00000E+00
    0.00000E+00         0.00000E+00        -0.48980E+08
 
   -0.48860E+08         0.62349E+06         0.00000E+00
    0.62349E+06        -0.49863E+08         0.00000E+00
    0.00000E+00         0.00000E+00        -0.48980E+08
 
   -0.48874E+08         0.63605E+06         0.00000E+00
    0.63605E+06        -0.49856E+08         0.00000E+00
    0.00000E+00         0.00000E+00        -0.48981E+08
 
   -0.48888E+08         0.64848E+06         0.00000E+00
    0.64848E+06        -0.49850E+08         0.00000E+00
    0.00000E+00         0.00000E+00        -0.48981E+08
 
   -0.48902E+08         0.66076E+06         0.00000E+00
    0.66076E+06        -0.49843E+08         0.00000E+00
    0.00000E+00         0.00000E+00        -0.48981E+08
 
   -0.48916E+08         0.67291E+06         0.00000E+00
    0.67291E+06        -0.49836E+08         0.00000E+00
    0.00000E+00         0.00000E+00        -0.48981E+08
 
   -0.48930E+08         0.68491E+06         0.00000E+00
    0.68491E+06        -0.49829E+08         0.00000E+00
    0.00000E+00         0.00000E+00        -0.48981E+08
 
   -0.48944E+08         0.69678E+06         0.00000E+00
    0.69678E+06        -0.49822E+08         0.00000E+00
    0.00000E+00         0.00000E+00        -0.48981E+08
 
   -0.48959E+08         0.70850E+06         0.00000E+00
    0.70850E+06        -0.49815E+08         0.00000E+00
    0.00000E+00         0.00000E+00        -0.48981E+08
 
   -0.48974E+08         0.72007E+06         0.00000E+00
    0.72007E+06        -0.49808E+08         0.00000E+00
    0.00000E+00         0.00000E+00        -0.48981E+08
 
   -0.48364E+08         0.89599E+04         0.00000E+00
    0.89599E+04        -0.50000E+08         0.00000E+00
    0.00000E+00         0.00000E+00        -0.48916E+08
 
   -0.48370E+08         0.26690E+05         0.00000E+00
    0.26690E+05        -0.50000E+08         0.00000E+00
    0.00000E+00         0.00000E+00        -0.48916E+08
 
   -0.48376E+08         0.44349E+05         0.00000E+00
    0.44349E+05        -0.49999E+08         0.00000E+00
    0.00000E+00         0.00000E+00        -0.48916E+08
 
   -0.48383E+08         0.61933E+05         0.00000E+00
    0.61933E+05        -0.49999E+08         0.00000E+00
    0.00000E+00         0.00000E+00        -0.48916E+08
 
   -0.48390E+08         0.79441E+05         0.00000E+00
    0.79441E+05        -0.49998E+08         0.00000E+00
    0.00000E+00         0.00000E+00        -0.48916E+08
 
   -0.48397E+08         0.96871E+05         0.00000E+00
    0.96871E+05        -0.49997E+08         0.00000E+00
    0.00000E+00         0.00000E+00        -0.48916E+08
 
   -0.48404E+08         0.11422E+06         0.00000E+00
    0.11422E+06        -0.49996E+08         0.00000E+00
    0.00000E+00         0.00000E+00        -0.48916E+08
 
   -0.48412E+08         0.13149E+06         0.00000E+00
    0.13149E+06        -0.49995E+08         0.00000E+00
    0.00000E+00         0.00000E+00        -0.48916E+08
 
   -0.48420E+08         0.14867E+06         0.00000E+00
    0.14867E+06        -0.49994E+08         0.00000E+00
    0.00000E+00         0.00000E+00        -0.48916E+08
 
   -0.48428E+08         0.16576E+06         0.00000E+00
    0.16576E+06        -0.49992E+08         0.00000E+00
    0.00000E+00         0.00000E+00        -0.48916E+08
 
   -0.48436E+08         0.18277E+06         0.00000E+00
    0.18277E+06        -0.49990E+08         0.00000E+00
    0.00000E+00         0.00000E+00        -0.48917E+08
 
   -0.48445E+08         0.19969E+06         0.00000E+00
    0.19969E+06        -0.49988E+08         0.00000E+00
    0.00000E+00         0.00000E+00        -0.48917E+08
 
   -0.48454E+08         0.21651E+06         0.00000E+00
    0.21651E+06        -0.49986E+08         0.00000E+00
    0.00000E+00         0.00000E+00        -0.48917E+08
 
   -0.48463E+08         0.23324E+06         0.00000E+00
    0.23324E+06        -0.49984E+08         0.00000E+00
    0.00000E+00         0.00000E+00        -0.48917E+08
 
   -0.48472E+08         0.24987E+06         0.00000E+00
    0.24987E+06        -0.49982E+08         0.00000E+00
    0.00000E+00         0.00000E+00        -0.48917E+08
 
   -0.48481E+08         0.26640E+06         0.00000E+00
    0.26640E+06        -0.49979E+08         0.00000E+00
    0.00000E+00         0.00000E+00        -0.48917E+08
 
   -0.48491E+08         0.28284E+06         0.00000E+00
    0.28284E+06        -0.49976E+08         0.00000E+00
    0.00000E+00         0.00000E+00        -0.48917E+08
 
   -0.48501E+08         0.29917E+06         0.00000E+00
    0.29917E+06        -0.49973E+08         0.00000E+00
    0.00000E+00         0.00000E+00        -0.48918E+08
 
   -0.48511E+08         0.31539E+06         0.00000E+00
    0.31539E+06        -0.49970E+08         0.00000E+00
    0.00000E+00         0.00000E+00        -0.48918E+08
 
   -0.48521E+08         0.33151E+06         0.00000E+00
    0.33151E+06        -0.49967E+08         0.00000E+00
    0.00000E+00         0.00000E+00        -0.48918E+08
 
   -0.48532E+08         0.34753E+06         0.00000E+00
    0.34753E+06        -0.49963E+08         0.00000E+00
    0.00000E+00         0.00000E+00        -0.48918E+08
 
   -0.48542E+08         0.36343E+06         0.00000E+00
    0.36343E+06        -0.49960E+08         0.00000E+00
    0.00000E+00         0.00000E+00        -0.48918E+08
 
   -0.48553E+08         0.37922E+06         0.00000E+00
    0.37922E+06        -0.49956E+08         0.00000E+00
    0.00000E+00         0.00000E+00        -0.48919E+08
 
   -0.48564E+08         0.39490E+06         0.00000E+00
    0.39490E+06        -0.49952E+08         0.00000E+00
    0.00000E+00         0.00000E+00        -0.48919E+08
 
   -0.48576E+08         0.41047E+06         0.00000E+00
    0.41047E+06        -0.49948E+08         0.00000E+00
    0.00000E+00         0.00000E+00        -0.48919E+08
 
   -0.48587E+08         0.42591E+06         0.00000E+00
    0.42591E+06        -0.49944E+08         0.00000E+00
    0.00000E+00         0.00000E+00        -0.48919E+08
 
   -0.48599E+08         0.44124E+06         0.00000E+00
    0.44124E+06        -0.49940E+08         0.00000E+00
    0.00000E+00         0.00000E+00        -0.48919E+08
 
   -0.48611E+08         0.45645E+06         0.00000E+00
    0.45645E+06        -0.49935E+08         0.00000E+00
    0.00000E+00         0.00000E+00        -0.48920E+08
 
   -0.48623E+08         0.47154E+06         0.00000E+00
    0.47154E+06        -0.49930E+08         0.00000E+00
    0.00000E+00         0.00000E+00        -0.48920E+08
 
   -0.48635E+08         0.48651E+06         0.00000E+00
    0.48651E+06        -0.49925E+08         0.00000E+00
    0.00000E+00         0.00000E+00        -0.48920E+08
 
   -0.48647E+08         0.50135E+06         0.00000E+00
    0.50135E+06        -0.49921E+08         0.00000E+00
    0.00000E+00         0.00000E+00        -0.48920E+08
 
   -0.48660E+08         0.51607E+06         0.00000E+00
    0.51607E+06        -0.49915E+08         0.00000E+00
    0.00000E+00         0.00000E+00        -0.48920E+08
 
   -0.48673E+08         0.53065E+06         0.00000E+00
    0.53065E+06        -0.49910E+08         0.00000E+00
    0.00000E+00         0.00000E+00        -0.48920E+08
 
   -0.48686E+08         0.54511E+06         0.00000E+00
    0.54511E+06        -0.49905E+08         0.00000E+00
    0.00000E+00         0.00000E+00        -0.48921E+08
 
   -0.48699E+08         0.55944E+06         0.00000E+00
    0.55944E+06        -0.49899E+08         0.00000E+00
    0.00000E+00         0.00000E+00        -0.48921E+08
 
   -0.48712E+08         0.57363E+06         0.00000E+00
    0.57363E+06        -0.49893E+08         0.00000E+00
    0.00000E+00         0.00000E+00        -0.48921E+08
 
   -0.48726E+08         0.58769E+06         0.00000E+00
    0.58769E+06        -0.49887E+08         0.00000E+00
    0.00000E+00         0.00000E+00        -0.48921E+08
 
   -0.48739E+08         0.60162E+06         0.00000E+00
    0.60162E+06        -0.49881E+08         0.00000E+00
    0.00000E+00         0.00000E+00        -0.48921E+08
 
   -0.48753E+08         0.61541E+06         0.00000E+00
    0.61541E+06        -0.49875E+08         0.00000E+00
    0.00000E+00         0.00000E+00        -0.48921E+08
 
   -0.48767E+08         0.62906E+06         0.00000E+00
    0.62906E+06        -0.49869E+08         0.00000E+00
    0.00000E+00         0.00000E+00        -0.48922E+08
 
   -0.48781E+08         0.64257E+06         0.00000E+00
    0.64257E+06        -0.49862E+08         0.00000E+00
    0.00000E+00         0.00000E+00        -0.48922E+08
 
   -0.48795E+08         0.65594E+06         0.00000E+00
    0.65594E+06        -0.49856E+08         0.00000E+00
    0.00000E+00         0.00000E+00        -0.48922E+08
 
   -0.48810E+08         0.66916E+06         0.00000E+00
    0.66916E+06        -0.49849E+08         0.00000E+00
    0.00000E+00         0.00000E+00        -0.48922E+08
 
   -0.48824E+08         0.68225E+06         0.00000E+00
    0.68225E+06        -0.49842E+08         0.00000E+00
    0.00000E+00         0.00000E+00        -0.48922E+08
 
   -0.48839E+08         0.69518E+06         0.00000E+00
    0.69518E+06        -0.49835E+08         0.00000E+00
    0.00000E+00         0.00000E+00        -0.48922E+08
 
   -0.48854E+08         0.70797E+06         0.00000E+00
    0.70797E+06        -0.49828E+08         0.00000E+00
    0.00000E+00         0.00000E+00        -0.48922E+08
 
   -0.48869E+08         0.72061E+06         0.00000E+00
    0.72061E+06        -0.49821E+08         0.00000E+00
    0.00000E+00         0.00000E+00        -0.48922E+08
 
   -0.48884E+08         0.73311E+06         0.00000E+00
    0.73311E+06        -0.49814E+08         0.00000E+00
    0.00000E+00         0.00000E+00        -0.48922E+08
 
   -0.48899E+08         0.74545E+06         0.00000E+00
    0.74545E+06        -0.49806E+08         0.00000E+00
    0.00000E+00         0.00000E+00        -0.48922E+08
 
   -0.48915E+08         0.75764E+06         0.00000E+00
    0.75764E+06        -0.49798E+08         0.00000E+00
    0.00000E+00         0.00000E+00        -0.48922E+08
 
   -0.48273E+08         0.94213E+04         0.00000E+00
    0.94213E+04        -0.50000E+08         0.00000E+00
    0.00000E+00         0.00000E+00        -0.48854E+08
 
   -0.48279E+08         0.28065E+05         0.00000E+00
    0.28065E+05        -0.50000E+08         0.00000E+00
    0.00000E+00         0.00000E+00        -0.48854E+08
 
   -0.48286E+08         0.46633E+05         0.00000E+00
    0.46633E+05        -0.49999E+08         0.00000E+00
    0.00000E+00         0.00000E+00        -0.48854E+08
 
   -0.48293E+08         0.65124E+05         0.00000E+00
    0.65124E+05        -0.49999E+08         0.00000E+00
    0.00000E+00         0.00000E+00        -0.48854E+08
 
   -0.48300E+08         0.83535E+05         0.00000E+00
    0.83535E+05        -0.49998E+08         0.00000E+00
    0.00000E+00         0.00000E+00        -0.48854E+08
 
   -0.48308E+08         0.10186E+06         0.00000E+00
    0.10186E+06        -0.49997E+08         0.00000E+00
    0.00000E+00         0.00000E+00        -0.48854E+08
 
   -0.48316E+08         0.12011E+06         0.00000E+00
    0.12011E+06        -0.49996E+08         0.00000E+00
    0.00000E+00         0.00000E+00        -0.48854E+08
 
   -0.48324E+08         0.13826E+06         0.00000E+00
    0.13826E+06        -0.49995E+08         0.00000E+00
    0.00000E+00         0.00000E+00        -0.48854E+08
 
   -0.48332E+08         0.15633E+06         0.00000E+00
    0.15633E+06        -0.49993E+08         0.00000E+00
    0.00000E+00         0.00000E+00        -0.48854E+08
 
   -0.48341E+08         0.17431E+06         0.00000E+00
    0.17431E+06        -0.49992E+08         0.00000E+00
    0.00000E+00         0.00000E+00        -0.48854E+08
 
   -0.48349E+08         0.19220E+06         0.00000E+00
    0.19220E+06        -0.49990E+08         0.00000E+00
    0.00000E+00         0.00000E+00        -0.48855E+08
 
   -0.48358E+08         0.20998E+06         0.00000E+00
    0.20998E+06        -0.49988E+08         0.00000E+00
    0.00000E+00         0.00000E+00        -0.48855E+08
 
   -0.48368E+08         0.22768E+06         0.00000E+00
    0.22768E+06        -0.49986E+08         0.00000E+00
    0.00000E+00         0.00000E+00        -0.48855E+08
 
   -0.48377E+08         0.24527E+06         0.00000E+00
    0.24527E+06        -0.49983E+08         0.00000E+00
    0.00000E+00         0.00000E+00        -0.48855E+08
 
   -0.48387E+08         0.26276E+06         0.00000E+00
    0.26276E+06        -0.49981E+08         0.00000E+00
    0.00000E+00         0.00000E+00        -0.48855E+08
 
   -0.48397E+08         0.28015E+06         0.00000E+00
    0.28015E+06        -0.49978E+08         0.00000E+00
    0.00000E+00         0.00000E+00        -0.48855E+08
 
   -0.48407E+08         0.29743E+06         0.00000E+00
    0.29743E+06        -0.49975E+08         0.00000E+00
    0.00000E+00         0.00000E+00        -0.48855E+08
 
   -0.48417E+08         0.31461E+06         0.00000E+00
    0.31461E+06        -0.49972E+08         0.00000E+00
    0.00000E+00         0.00000E+00        -0.48856E+08
 
   -0.48428E+08         0.33168E+06         0.00000E+00
    0.33168E+06        -0.49969E+08         0.00000E+00
    0.00000E+00         0.00000E+00        -0.48856E+08
 
   -0.48439E+08         0.34863E+06         0.00000E+00
    0.34863E+06        -0.49965E+08         0.00000E+00
    0.00000E+00         0.00000E+00        -0.48856E+08
 
   -0.48450E+08         0.36548E+06         0.00000E+00
    0.36548E+06        -0.49962E+08         0.00000E+00
    0.00000E+00         0.00000E+00        -0.48856E+08
 
   -0.48461E+08         0.38221E+06         0.00000E+00
    0.38221E+06        -0.49958E+08         0.00000E+00
    0.00000E+00         0.00000E+00        -0.48856E+08
 
   -0.48472E+08         0.39882E+06         0.00000E+00
    0.39882E+06        -0.49954E+08         0.00000E+00
    0.00000E+00         0.00000E+00        -0.48857E+08
 
   -0.48484E+08         0.41531E+06         0.00000E+00
    0.41531E+06        -0.49950E+08         0.00000E+00
    0.00000E+00         0.00000E+00        -0.48857E+08
 
   -0.48496E+08         0.43169E+06         0.00000E+00
    0.43169E+06        -0.49946E+08         0.00000E+00
    0.00000E+00         0.00000E+00        -0.48857E+08
 
   -0.48508E+08         0.44794E+06         0.00000E+00
    0.44794E+06        -0.49941E+08         0.00000E+00
    0.00000E+00         0.00000E+00        -0.48857E+08
 
   -0.48520E+08         0.46407E+06         0.00000E+00
    0.46407E+06        -0.49937E+08         0.00000E+00
    0.00000E+00         0.00000E+00        -0.48857E+08
 
   -0.48533E+08         0.48007E+06         0.00000E+00
    0.48007E+06        -0.49932E+08         0.00000E+00
    0.00000E+00         0.00000E+00        -0.48858E+08
 
   -0.48546E+08         0.49595E+06         0.00000E+00
    0.49595E+06        -0.49927E+08         0.00000E+00
    0.00000E+00         0.00000E+00        -0.48858E+08
 
   -0.48558E+08         0.51169E+06         0.00000E+00
    0.51169E+06        -0.49922E+08         0.00000E+00
    0.00000E+00         0.00000E+00        -0.48858E+08
 
   -0.48572E+08         0.52731E+06         0.00000E+00
    0.52731E+06        -0.49917E+08         0.00000E+00
    0.00000E+00         0.00000E+00        -0.48858E+08
 
   -0.48585E+08         0.54280E+06         0.00000E+00
    0.54280E+06        -0.49911E+08         0.00000E+00
    0.00000E+00         0.00000E+00        -0.48858E+08
 
   -0.48598E+08         0.55815E+06         0.00000E+00
    0.55815E+06        -0.49906E+08         0.00000E+00
    0.00000E+00         0.00000E+00        -0.48859E+08
 
   -0.48612E+08         0.57336E+06         0.00000E+00
    0.57336E+06        -0.49900E+08         0.00000E+00
    0.00000E+00         0.00000E+00        -0.48859E+08
 
   -0.48626E+08         0.58844E+06         0.00000E+00
    0.58844E+06        -0.49894E+08         0.00000E+00
    0.00000E+00         0.00000E+00        -0.48859E+08
 
   -0.48640E+08         0.60338E+06         0.00000E+00
    0.60338E+06        -0.49888E+08         0.00000E+00
    0.00000E+00         0.00000E+00        -0.48859E+08
 
   -0.48654E+08         0.61818E+06         0.00000E+00
    0.61818E+06        -0.49882E+08         0.00000E+00
    0.00000E+00         0.00000E+00        -0.48859E+08
 
   -0.48668E+08         0.63284E+06         0.00000E+00
    0.63284E+06        -0.49876E+08         0.00000E+00
    0.00000E+00         0.00000E+00        -0.48859E+08
 
   -0.48683E+08         0.64735E+06         0.00000E+00
    0.64735E+06        -0.49869E+08         0.00000E+00
    0.00000E+00         0.00000E+00        -0.48860E+08
 
   -0.48697E+08         0.66172E+06         0.00000E+00
    0.66172E+06        -0.49862E+08         0.00000E+00
    0.00000E+00         0.00000E+00        -0.48860E+08
 
   -0.48712E+08         0.67594E+06         0.00000E+00
    0.67594E+06        -0.49856E+08         0.00000E+00
    0.00000E+00         0.00000E+00        -0.48860E+08
 
   -0.48727E+08         0.69002E+06         0.00000E+00
    0.69002E+06        -0.49849E+08         0.00000E+00
    0.00000E+00         0.00000E+00        -0.48860E+08
 
   -0.48742E+08         0.70394E+06         0.00000E+00
    0.70394E+06        -0.49842E+08         0.00000E+00
    0.00000E+00         0.00000E+00        -0.48860E+08
 
   -0.48757E+08         0.71772E+06         0.00000E+00
    0.71772E+06        -0.49834E+08         0.00000E+00
    0.00000E+00         0.00000E+00        -0.48860E+08
 
   -0.48773E+08         0.73134E+06         0.00000E+00
    0.73134E+06        -0.49827E+08         0.00000E+00
    0.00000E+00         0.00000E+00        -0.48860E+08
 
   -0.48789E+08         0.74481E+06         0.00000E+00
    0.74481E+06        -0.49820E+08         0.00000E+00
    0.00000E+00         0.00000E+00        -0.48860E+08
 
   -0.48804E+08         0.75812E+06         0.00000E+00
    0.75812E+06        -0.49812E+08         0.00000E+00
    0.00000E+00         0.00000E+00        -0.48860E+08
 
   -0.48820E+08         0.77128E+06         0.00000E+00
    0.77128E+06        -0.49804E+08         0.00000E+00
    0.00000E+00         0.00000E+00        -0.48860E+08
 
   -0.48836E+08         0.78428E+06         0.00000E+00
    0.78428E+06        -0.49796E+08         0.00000E+00
    0.00000E+00         0.00000E+00        -0.48861E+08
 
   -0.48852E+08         0.79711E+06         0.00000E+00
    0.79711E+06        -0.49788E+08         0.00000E+00
    0.00000E+00         0.00000E+00        -0.48861E+08
 
   -0.48177E+08         0.99059E+04         0.00000E+00
    0.99059E+04        -0.50000E+08         0.00000E+00
    0.00000E+00         0.00000E+00        -0.48788E+08
 
   -0.48184E+08         0.29509E+05         0.00000E+00
    0.29509E+05        -0.50000E+08         0.00000E+00
    0.00000E+00         0.00000E+00        -0.48788E+08
 
   -0.48191E+08         0.49032E+05         0.00000E+00
    0.49032E+05        -0.49999E+08         0.00000E+00
    0.00000E+00         0.00000E+00        -0.48788E+08
 
   -0.48198E+08         0.68474E+05         0.00000E+00
    0.68474E+05        -0.49999E+08         0.00000E+00
    0.00000E+00         0.00000E+00        -0.48789E+08
 
   -0.48206E+08         0.87832E+05         0.00000E+00
    0.87832E+05        -0.49998E+08         0.00000E+00
    0.00000E+00         0.00000E+00        -0.48789E+08
 
   -0.48214E+08         0.10710E+06         0.00000E+00
    0.10710E+06        -0.49997E+08         0.00000E+00
    0.00000E+00         0.00000E+00        -0.48789E+08
 
   -0.48222E+08         0.12629E+06         0.00000E+00
    0.12629E+06        -0.49996E+08         0.00000E+00
    0.00000E+00         0.00000E+00        -0.48789E+08
 
   -0.48231E+08         0.14538E+06         0.00000E+00
    0.14538E+06        -0.49994E+08         0.00000E+00
    0.00000E+00         0.00000E+00        -0.48789E+08
 
   -0.48240E+08         0.16438E+06         0.00000E+00
    0.16438E+06        -0.49993E+08         0.00000E+00
    0.00000E+00         0.00000E+00        -0.48789E+08
 
   -0.48249E+08         0.18328E+06         0.00000E+00
    0.18328E+06        -0.49991E+08         0.00000E+00
    0.00000E+00         0.00000E+00        -0.48789E+08
 
   -0.48258E+08         0.20209E+06         0.00000E+00
    0.20209E+06        -0.49989E+08         0.00000E+00
    0.00000E+00         0.00000E+00        -0.48789E+08
 
   -0.48267E+08         0.22079E+06         0.00000E+00
    0.22079E+06        -0.49987E+08         0.00000E+00
    0.00000E+00         0.00000E+00        -0.48789E+08
 
   -0.48277E+08         0.23940E+06         0.00000E+00
    0.23940E+06        -0.49985E+08         0.00000E+00
    0.00000E+00         0.00000E+00        -0.48790E+08
 
   -0.48287E+08         0.25790E+06         0.00000E+00
    0.25790E+06        -0.49982E+08         0.00000E+00
    0.00000E+00         0.00000E+00        -0.48790E+08
 
   -0.48297E+08         0.27629E+06         0.00000E+00
    0.27629E+06        -0.49980E+08         0.00000E+00
    0.00000E+00         0.00000E+00        -0.48790E+08
 
   -0.48308E+08         0.29458E+06         0.00000E+00
    0.29458E+06        -0.49977E+08         0.00000E+00
    0.00000E+00         0.00000E+00        -0.48790E+08
 
   -0.48319E+08         0.31275E+06         0.00000E+00
    0.31275E+06        -0.49974E+08         0.00000E+00
    0.00000E+00         0.00000E+00        -0.48790E+08
 
   -0.48329E+08         0.33082E+06         0.00000E+00
    0.33082E+06        -0.49971E+08         0.00000E+00
    0.00000E+00         0.00000E+00        -0.48790E+08
 
   -0.48341E+08         0.34877E+06         0.00000E+00
    0.34877E+06        -0.49967E+08         0.00000E+00
    0.00000E+00         0.00000E+00        -0.48791E+08
 
   -0.48352E+08         0.36660E+06         0.00000E+00
    0.36660E+06        -0.49964E+08         0.00000E+00
    0.00000E+00         0.00000E+00        -0.48791E+08
 
   -0.48364E+08         0.38432E+06         0.00000E+00
    0.38432E+06        -0.49960E+08         0.00000E+00
    0.00000E+00         0.00000E+00        -0.48791E+08
 
   -0.48376E+08         0.40191E+06         0.00000E+00
    0.40191E+06        -0.49956E+08         0.00000E+00
    0.00000E+00         0.00000E+00        -0.48791E+08
 
   -0.48388E+08         0.41939E+06         0.00000E+00
    0.41939E+06        -0.49952E+08         0.00000E+00
    0.00000E+00         0.00000E+00        -0.48791E+08
 
   -0.48400E+08         0.43673E+06         0.00000E+00
    0.43673E+06        -0.49947E+08         0.00000E+00
    0.00000E+00         0.00000E+00        -0.48792E+08
 
   -0.48412E+08         0.45396E+06         0.00000E+00
    0.45396E+06        -0.49943E+08         0.00000E+00
    0.00000E+00         0.00000E+00        -0.48792E+08
 
   -0.48425E+08         0.47105E+06         0.00000E+00
    0.47105E+06        -0.49938E+08         0.00000E+00
    0.00000E+00         0.00000E+00        -0.48792E+08
 
   -0.48438E+08         0.48802E+06         0.00000E+00
    0.48802E+06        -0.49933E+08         0.00000E+00
    0.00000E+00         0.00000E+00        -0.48792E+08
 
   -0.48451E+08         0.50486E+06         0.00000E+00
    0.50486E+06        -0.49928E+08         0.00000E+00
    0.00000E+00         0.00000E+00        -0.48792E+08
 
   -0.48464E+08         0.52156E+06         0.00000E+00
    0.52156E+06        -0.49923E+08         0.00000E+00
    0.00000E+00         0.00000E+00        -0.48793E+08
 
   -0.48478E+08         0.53813E+06         0.00000E+00
    0.53813E+06        -0.49918E+08         0.00000E+00
    0.00000E+00         0.00000E+00        -0.48793E+08
 
   -0.48492E+08         0.55456E+06         0.00000E+00
    0.55456E+06        -0.49912E+08         0.00000E+00
    0.00000E+00         0.00000E+00        -0.48793E+08
 
   -0.48506E+08         0.57085E+06         0.00000E+00
    0.57085E+06        -0.49907E+08         0.00000E+00
    0.00000E+00         0.00000E+00        -0.48793E+08
 
   -0.48520E+08         0.58701E+06         0.00000E+00
    0.58701E+06        -0.49901E+08         0.00000E+00
    0.00000E+00         0.00000E+00        -0.48793E+08
 
   -0.48534E+08         0.60302E+06         0.00000E+00
    0.60302E+06        -0.49895E+08         0.00000E+00
    0.00000E+00         0.00000E+00        -0.48794E+08
 
   -0.48549E+08         0.61888E+06         0.00000E+00
    0.61888E+06        -0.49889E+08         0.00000E+00
    0.00000E+00         0.00000E+00        -0.48794E+08
 
   -0.48563E+08         0.63461E+06         0.00000E+00
    0.63461E+06        -0.49882E+08         0.00000E+00
    0.00000E+00         0.00000E+00        -0.48794E+08
 
   -0.48578E+08         0.65018E+06         0.00000E+00
    0.65018E+06        -0.49876E+08         0.00000E+00
    0.00000E+00         0.00000E+00        -0.48794E+08
 
   -0.48593E+08         0.66561E+06         0.00000E+00
    0.66561E+06        -0.49869E+08         0.00000E+00
    0.00000E+00         0.00000E+00        -0.48794E+08
 
   -0.48608E+08         0.68089E+06         0.00000E+00
    0.68089E+06        -0.49863E+08         0.00000E+00
    0.00000E+00         0.00000E+00        -0.48795E+08
 
   -0.48624E+08         0.69602E+06         0.00000E+00
    0.69602E+06        -0.49856E+08         0.00000E+00
    0.00000E+00         0.00000E+00        -0.48795E+08
 
   -0.48639E+08         0.71099E+06         0.00000E+00
    0.71099E+06        -0.49849E+08         0.00000E+00
    0.00000E+00         0.00000E+00        -0.48795E+08
 
   -0.48655E+08         0.72581E+06         0.00000E+00
    0.72581E+06        -0.49841E+08         0.00000E+00
    0.00000E+00         0.00000E+00        -0.48795E+08
 
   -0.48671E+08         0.74047E+06         0.00000E+00
    0.74047E+06        -0.49834E+08         0.00000E+00
    0.00000E+00         0.00000E+00        -0.48795E+08
 
   -0.48687E+08         0.75497E+06         0.00000E+00
    0.75497E+06        -0.49826E+08         0.00000E+00
    0.00000E+00         0.00000E+00        -0.48795E+08
 
   -0.48703E+08         0.76932E+06         0.00000E+00
    0.76932E+06        -0.49819E+08         0.00000E+00
    0.00000E+00         0.00000E+00        -0.48795E+08
 
   -0.48720E+08         0.78350E+06         0.00000E+00
    0.78350E+06        -0.49811E+08         0.00000E+00
    0.00000E+00         0.00000E+00        -0.48795E+08
 
   -0.48736E+08         0.79752E+06         0.00000E+00
    0.79752E+06        -0.49803E+08         0.00000E+00
    0.00000E+00         0.00000E+00        -0.48795E+08
 
   -0.48753E+08         0.81138E+06         0.00000E+00
    0.81138E+06        -0.49795E+08         0.00000E+00
    0.00000E+00         0.00000E+00        -0.48795E+08
 
   -0.48770E+08         0.82507E+06         0.00000E+00
    0.82507E+06        -0.49786E+08         0.00000E+00
    0.00000E+00         0.00000E+00        -0.48795E+08
 
   -0.48787E+08         0.83860E+06         0.00000E+00
    0.83860E+06        -0.49778E+08         0.00000E+00
    0.00000E+00         0.00000E+00        -0.48795E+08
 
   -0.48076E+08         0.10415E+05         0.00000E+00
    0.10415E+05        -0.50000E+08         0.00000E+00
    0.00000E+00         0.00000E+00        -0.48720E+08
 
   -0.48083E+08         0.31024E+05         0.00000E+00
    0.31024E+05        -0.50000E+08         0.00000E+00
    0.00000E+00         0.00000E+00        -0.48720E+08
 
   -0.48091E+08         0.51550E+05         0.00000E+00
    0.51550E+05        -0.49999E+08         0.00000E+00
    0.00000E+00         0.00000E+00        -0.48720E+08
 
   -0.48099E+08         0.71990E+05         0.00000E+00
    0.71990E+05        -0.49999E+08         0.00000E+00
    0.00000E+00         0.00000E+00        -0.48720E+08
 
   -0.48107E+08         0.92342E+05         0.00000E+00
    0.92342E+05        -0.49998E+08         0.00000E+00
    0.00000E+00         0.00000E+00        -0.48720E+08
 
   -0.48115E+08         0.11260E+06         0.00000E+00
    0.11260E+06        -0.49997E+08         0.00000E+00
    0.00000E+00         0.00000E+00        -0.48720E+08
 
   -0.48124E+08         0.13277E+06         0.00000E+00
    0.13277E+06        -0.49996E+08         0.00000E+00
    0.00000E+00         0.00000E+00        -0.48720E+08
 
   -0.48133E+08         0.15284E+06         0.00000E+00
    0.15284E+06        -0.49994E+08         0.00000E+00
    0.00000E+00         0.00000E+00        -0.48720E+08
 
   -0.48142E+08         0.17282E+06         0.00000E+00
    0.17282E+06        -0.49993E+08         0.00000E+00
    0.00000E+00         0.00000E+00        -0.48720E+08
 
   -0.48152E+08         0.19269E+06         0.00000E+00
    0.19269E+06        -0.49991E+08         0.00000E+00
    0.00000E+00         0.00000E+00        -0.48720E+08
 
   -0.48162E+08         0.21247E+06         0.00000E+00
    0.21247E+06        -0.49989E+08         0.00000E+00
    0.00000E+00         0.00000E+00        -0.48720E+08
 
   -0.48172E+08         0.23213E+06         0.00000E+00
    0.23213E+06        -0.49987E+08         0.00000E+00
    0.00000E+00         0.00000E+00        -0.48721E+08
 
   -0.48182E+08         0.25170E+06         0.00000E+00
    0.25170E+06        -0.49984E+08         0.00000E+00
    0.00000E+00         0.00000E+00        -0.48721E+08
 
   -0.48193E+08         0.27115E+06         0.00000E+00
    0.27115E+06        -0.49981E+08         0.00000E+00
    0.00000E+00         0.00000E+00        -0.48721E+08
 
   -0.48203E+08         0.29049E+06         0.00000E+00
    0.29049E+06        -0.49979E+08         0.00000E+00
    0.00000E+00         0.00000E+00        -0.48721E+08
 
   -0.48214E+08         0.30972E+06         0.00000E+00
    0.30972E+06        -0.49976E+08         0.00000E+00
    0.00000E+00         0.00000E+00        -0.48721E+08
 
   -0.48226E+08         0.32883E+06         0.00000E+00
    0.32883E+06        -0.49972E+08         0.00000E+00
    0.00000E+00         0.00000E+00        -0.48722E+08
 
   -0.48237E+08         0.34782E+06         0.00000E+00
    0.34782E+06        -0.49969E+08         0.00000E+00
    0.00000E+00         0.00000E+00        -0.48722E+08
 
   -0.48249E+08         0.36670E+06         0.00000E+00
    0.36670E+06        -0.49965E+08         0.00000E+00
    0.00000E+00         0.00000E+00        -0.48722E+08
 
   -0.48261E+08         0.38545E+06         0.00000E+00
    0.38545E+06        -0.49962E+08         0.00000E+00
    0.00000E+00         0.00000E+00        -0.48722E+08
 
   -0.48273E+08         0.40408E+06         0.00000E+00
    0.40408E+06        -0.49958E+08         0.00000E+00
    0.00000E+00         0.00000E+00        -0.48722E+08
 
   -0.48286E+08         0.42259E+06         0.00000E+00
    0.42259E+06        -0.49954E+08         0.00000E+00
    0.00000E+00         0.00000E+00        -0.48723E+08
 
   -0.48298E+08         0.44096E+06         0.00000E+00
    0.44096E+06        -0.49949E+08         0.00000E+00
    0.00000E+00         0.00000E+00        -0.48723E+08
 
   -0.48311E+08         0.45921E+06         0.00000E+00
    0.45921E+06        -0.49945E+08         0.00000E+00
    0.00000E+00         0.00000E+00        -0.48723E+08
 
   -0.48324E+08         0.47733E+06         0.00000E+00
    0.47733E+06        -0.49940E+08         0.00000E+00
    0.00000E+00         0.00000E+00        -0.48723E+08
 
   -0.48338E+08         0.49531E+06         0.00000E+00
    0.49531E+06        -0.49935E+08         0.00000E+00
    0.00000E+00         0.00000E+00        -0.48723E+08
 
   -0.48351E+08         0.51315E+06         0.00000E+00
    0.51315E+06        -0.49930E+08         0.00000E+00
    0.00000E+00         0.00000E+00        -0.48724E+08
 
   -0.48365E+08         0.53086E+06         0.00000E+00
    0.53086E+06        -0.49925E+08         0.00000E+00
    0.00000E+00         0.00000E+00        -0.48724E+08
 
   -0.48379E+08         0.54843E+06         0.00000E+00
    0.54843E+06        -0.49920E+08         0.00000E+00
    0.00000E+00         0.00000E+00        -0.48724E+08
 
   -0.48393E+08         0.56586E+06         0.00000E+00
    0.56586E+06        -0.49914E+08         0.00000E+00
    0.00000E+00         0.00000E+00        -0.48724E+08
 
   -0.48408E+08         0.58315E+06         0.00000E+00
    0.58315E+06        -0.49908E+08         0.00000E+00
    0.00000E+00         0.00000E+00        -0.48724E+08
 
   -0.48422E+08         0.60029E+06         0.00000E+00
    0.60029E+06        -0.49902E+08         0.00000E+00
    0.00000E+00         0.00000E+00        -0.48725E+08
 
   -0.48437E+08         0.61729E+06         0.00000E+00
    0.61729E+06        -0.49896E+08         0.00000E+00
    0.00000E+00         0.00000E+00        -0.48725E+08
 
   -0.48452E+08         0.63414E+06         0.00000E+00
    0.63414E+06        -0.49890E+08         0.00000E+00
    0.00000E+00         0.00000E+00        -0.48725E+08
 
   -0.48468E+08         0.65084E+06         0.00000E+00
    0.65084E+06        -0.49883E+08         0.00000E+00
    0.00000E+00         0.00000E+00        -0.48725E+08
 
   -0.48483E+08         0.66738E+06         0.00000E+00
    0.66738E+06        -0.49877E+08         0.00000E+00
    0.00000E+00         0.00000E+00        -0.48725E+08
 
   -0.48499E+08         0.68378E+06         0.00000E+00
    0.68378E+06        -0.49870E+08         0.00000E+00
    0.00000E+00         0.00000E+00        -0.48726E+08
 
   -0.48514E+08         0.70001E+06         0.00000E+00
    0.70001E+06        -0.49863E+08         0.00000E+00
    0.00000E+00         0.00000E+00        -0.48726E+08
 
   -0.48530E+08         0.71610E+06         0.00000E+00
    0.71610E+06        -0.49856E+08         0.00000E+00
    0.00000E+00         0.00000E+00        -0.48726E+08
 
   -0.48547E+08         0.73202E+06         0.00000E+00
    0.73202E+06        -0.49849E+08         0.00000E+00
    0.00000E+00         0.00000E+00        -0.48726E+08
 
   -0.48563E+08         0.74778E+06         0.00000E+00
    0.74778E+06        -0.49841E+08         0.00000E+00
    0.00000E+00         0.00000E+00        -0.48726E+08
 
   -0.48580E+08         0.76338E+06         0.00000E+00
    0.76338E+06        -0.49833E+08         0.00000E+00
    0.00000E+00         0.00000E+00        -0.48726E+08
 
   -0.48596E+08         0.77882E+06         0.00000E+00
    0.77882E+06        -0.49826E+08         0.00000E+00
    0.00000E+00         0.00000E+00        -0.48726E+08
 
   -0.48613E+08         0.79409E+06         0.00000E+00
    0.79409E+06        -0.49818E+08         0.00000E+00
    0.00000E+00         0.00000E+00        -0.48727E+08
 
   -0.48630E+08         0.80920E+06         0.00000E+00
    0.80920E+06        -0.49810E+08         0.00000E+00
    0.00000E+00         0.00000E+00        -0.48727E+08
 
   -0.48647E+08         0.82414E+06         0.00000E+00
    0.82414E+06        -0.49801E+08         0.00000E+00
    0.00000E+00         0.00000E+00        -0.48727E+08
 
   -0.48665E+08         0.83891E+06         0.00000E+00
    0.83891E+06        -0.49793E+08         0.00000E+00
    0.00000E+00         0.00000E+00        -0.48727E+08
 
   -0.48682E+08         0.85350E+06         0.00000E+00
    0.85350E+06        -0.49784E+08         0.00000E+00
    0.00000E+00         0.00000E+00        -0.48727E+08
 
   -0.48700E+08         0.86793E+06         0.00000E+00
    0.86793E+06        -0.49776E+08         0.00000E+00
    0.00000E+00         0.00000E+00        -0.48727E+08
 
   -0.48718E+08         0.88218E+06         0.00000E+00
    0.88218E+06        -0.49767E+08         0.00000E+00
    0.00000E+00         0.00000E+00        -0.48727E+08
 
   -0.47970E+08         0.10949E+05         0.00000E+00
    0.10949E+05        -0.50000E+08         0.00000E+00
    0.00000E+00         0.00000E+00        -0.48647E+08
 
   -0.47978E+08         0.32615E+05         0.00000E+00
    0.32615E+05        -0.50000E+08         0.00000E+00
    0.00000E+00         0.00000E+00        -0.48647E+08
 
   -0.47986E+08         0.54193E+05         0.00000E+00
    0.54193E+05        -0.49999E+08         0.00000E+00
    0.00000E+00         0.00000E+00        -0.48647E+08
 
   -0.47994E+08         0.75680E+05         0.00000E+00
    0.75680E+05        -0.49999E+08         0.00000E+00
    0.00000E+00         0.00000E+00        -0.48647E+08
 
   -0.48003E+08         0.97075E+05         0.00000E+00
    0.97075E+05        -0.49998E+08         0.00000E+00
    0.00000E+00         0.00000E+00        -0.48647E+08
 
   -0.48012E+08         0.11837E+06         0.00000E+00
    0.11837E+06        -0.49997E+08         0.00000E+00
    0.00000E+00         0.00000E+00        -0.48647E+08
 
   -0.48021E+08         0.13958E+06         0.00000E+00
    0.13958E+06        -0.49995E+08         0.00000E+00
    0.00000E+00         0.00000E+00        -0.48648E+08
 
   -0.48030E+08         0.16068E+06         0.00000E+00
    0.16068E+06        -0.49994E+08         0.00000E+00
    0.00000E+00         0.00000E+00        -0.48648E+08
 
   -0.48040E+08         0.18168E+06         0.00000E+00
    0.18168E+06        -0.49992E+08         0.00000E+00
    0.00000E+00         0.00000E+00        -0.48648E+08
 
   -0.48050E+08         0.20257E+06         0.00000E+00
    0.20257E+06        -0.49990E+08         0.00000E+00
    0.00000E+00         0.00000E+00        -0.48648E+08
 
   -0.48061E+08         0.22336E+06         0.00000E+00
    0.22336E+06        -0.49988E+08         0.00000E+00
    0.00000E+00         0.00000E+00        -0.48648E+08
 
   -0.48071E+08         0.24403E+06         0.00000E+00
    0.24403E+06        -0.49986E+08         0.00000E+00
    0.00000E+00         0.00000E+00        -0.48648E+08
 
   -0.48082E+08         0.26460E+06         0.00000E+00
    0.26460E+06        -0.49983E+08         0.00000E+00
    0.00000E+00         0.00000E+00        -0.48648E+08
 
   -0.48093E+08         0.28505E+06         0.00000E+00
    0.28505E+06        -0.49981E+08         0.00000E+00
    0.00000E+00         0.00000E+00        -0.48649E+08
 
   -0.48104E+08         0.30538E+06         0.00000E+00
    0.30538E+06        -0.49978E+08         0.00000E+00
    0.00000E+00         0.00000E+00        -0.48649E+08
 
   -0.48116E+08         0.32559E+06         0.00000E+00
    0.32559E+06        -0.49974E+08         0.00000E+00
    0.00000E+00         0.00000E+00        -0.48649E+08
 
   -0.48128E+08         0.34569E+06         0.00000E+00
    0.34569E+06        -0.49971E+08         0.00000E+00
    0.00000E+00         0.00000E+00        -0.48649E+08
 
   -0.48140E+08         0.36566E+06         0.00000E+00
    0.36566E+06        -0.49968E+08         0.00000E+00
    0.00000E+00         0.00000E+00        -0.48649E+08
 
   -0.48152E+08         0.38551E+06         0.00000E+00
    0.38551E+06        -0.49964E+08         0.00000E+00
    0.00000E+00         0.00000E+00        -0.48650E+08
 
   -0.48165E+08         0.40522E+06         0.00000E+00
    0.40522E+06        -0.49960E+08         0.00000E+00
    0.00000E+00         0.00000E+00        -0.48650E+08
 
   -0.48178E+08         0.42481E+06         0.00000E+00
    0.42481E+06        -0.49956E+08         0.00000E+00
    0.00000E+00         0.00000E+00        -0.48650E+08
 
   -0.48191E+08         0.44427E+06         0.00000E+00
    0.44427E+06        -0.49951E+08         0.00000E+00
    0.00000E+00         0.00000E+00        -0.48650E+08
 
   -0.48204E+08         0.46359E+06         0.00000E+00
    0.46359E+06        -0.49947E+08         0.00000E+00
    0.00000E+00         0.00000E+00        -0.48650E+08
 
   -0.48218E+08         0.48278E+06         0.00000E+00
    0.48278E+06        -0.49942E+08         0.00000E+00
    0.00000E+00         0.00000E+00        -0.48651E+08
 
   -0.48232E+08         0.50184E+06         0.00000E+00
    0.50184E+06        -0.49937E+08         0.00000E+00
    0.00000E+00         0.00000E+00        -0.48651E+08
 
   -0.48246E+08         0.52075E+06         0.00000E+00
    0.52075E+06        -0.49932E+08         0.00000E+00
    0.00000E+00         0.00000E+00        -0.48651E+08
 
   -0.48260E+08         0.53952E+06         0.00000E+00
    0.53952E+06        -0.49927E+08         0.00000E+00
    0.00000E+00         0.00000E+00        -0.48651E+08
 
   -0.48275E+08         0.55814E+06         0.00000E+00
    0.55814E+06        -0.49921E+08         0.00000E+00
    0.00000E+00         0.00000E+00        -0.48651E+08
 
   -0.48289E+08         0.57663E+06         0.00000E+00
    0.57663E+06        -0.49916E+08         0.00000E+00
    0.00000E+00         0.00000E+00        -0.48652E+08
 
   -0.48304E+08         0.59496E+06         0.00000E+00
    0.59496E+06        -0.49910E+08         0.00000E+00
    0.00000E+00         0.00000E+00        -0.48652E+08
 
   -0.48319E+08         0.61315E+06         0.00000E+00
    0.61315E+06        -0.49904E+08         0.00000E+00
    0.00000E+00         0.00000E+00        -0.48652E+08
 
   -0.48335E+08         0.63118E+06         0.00000E+00
    0.63118E+06        -0.49897E+08         0.00000E+00
    0.00000E+00         0.00000E+00        -0.48652E+08
 
   -0.48350E+08         0.64906E+06         0.00000E+00
    0.64906E+06        -0.49891E+08         0.00000E+00
    0.00000E+00         0.00000E+00        -0.48653E+08
 
   -0.48366E+08         0.66679E+06         0.00000E+00
    0.66679E+06        -0.49884E+08         0.00000E+00
    0.00000E+00         0.00000E+00        -0.48653E+08
 
   -0.48382E+08         0.68436E+06         0.00000E+00
    0.68436E+06        -0.49878E+08         0.00000E+00
    0.00000E+00         0.00000E+00        -0.48653E+08
 
   -0.48399E+08         0.70177E+06         0.00000E+00
    0.70177E+06        -0.49871E+08         0.00000E+00
    0.00000E+00         0.00000E+00        -0.48653E+08
 
   -0.48415E+08         0.71903E+06         0.00000E+00
    0.71903E+06        -0.49864E+08         0.00000E+00
    0.00000E+00         0.00000E+00        -0.48653E+08
 
   -0.48432E+08         0.73612E+06         0.00000E+00
    0.73612E+06        -0.49856E+08         0.00000E+00
    0.00000E+00         0.00000E+00        -0.48653E+08
 
   -0.48448E+08         0.75304E+06         0.00000E+00
    0.75304E+06        -0.49849E+08         0.00000E+00
    0.00000E+00         0.00000E+00        -0.48654E+08
 
   -0.48465E+08         0.76980E+06         0.00000E+00
    0.76980E+06        -0.49841E+08         0.00000E+00
    0.00000E+00         0.00000E+00        -0.48654E+08
 
   -0.48483E+08         0.78640E+06         0.00000E+00
    0.78640E+06        -0.49833E+08         0.00000E+00
    0.00000E+00         0.00000E+00        -0.48654E+08
 
   -0.48500E+08         0.80282E+06         0.00000E+00
    0.80282E+06        -0.49825E+08         0.00000E+00
    0.00000E+00         0.00000E+00        -0.48654E+08
 
   -0.48517E+08         0.81908E+06         0.00000E+00
    0.81908E+06        -0.49817E+08         0.00000E+00
    0.00000E+00         0.00000E+00        -0.48654E+08
 
   -0.48535E+08         0.83516E+06         0.00000E+00
    0.83516E+06        -0.49809E+08         0.00000E+00
    0.00000E+00         0.00000E+00        -0.48654E+08
 
   -0.48553E+08         0.85107E+06         0.00000E+00
    0.85107E+06        -0.49800E+08         0.00000E+00
    0.00000E+00         0.00000E+00        -0.48654E+08
 
   -0.48571E+08         0.86680E+06         0.00000E+00
    0.86680E+06        -0.49792E+08         0.00000E+00
    0.00000E+00         0.00000E+00        -0.48654E+08
 
   -0.48589E+08         0.88236E+06         0.00000E+00
    0.88236E+06        -0.49783E+08         0.00000E+00
    0.00000E+00         0.00000E+00        -0.48655E+08
 
   -0.48608E+08         0.89774E+06         0.00000E+00
    0.89774E+06        -0.49774E+08         0.00000E+00
    0.00000E+00         0.00000E+00        -0.48655E+08
 
   -0.48626E+08         0.91293E+06         0.00000E+00
    0.91293E+06        -0.49765E+08         0.00000E+00
    0.00000E+00         0.00000E+00        -0.48655E+08
 
   -0.48645E+08         0.92795E+06         0.00000E+00
    0.92795E+06        -0.49755E+08         0.00000E+00
    0.00000E+00         0.00000E+00        -0.48655E+08
 
   -0.47859E+08         0.11509E+05         0.00000E+00
    0.11509E+05        -0.50000E+08         0.00000E+00
    0.00000E+00         0.00000E+00        -0.48571E+08
 
   -0.47867E+08         0.34283E+05         0.00000E+00
    0.34283E+05        -0.50000E+08         0.00000E+00
    0.00000E+00         0.00000E+00        -0.48571E+08
 
   -0.47876E+08         0.56965E+05         0.00000E+00
    0.56965E+05        -0.49999E+08         0.00000E+00
    0.00000E+00         0.00000E+00        -0.48571E+08
 
   -0.47884E+08         0.79551E+05         0.00000E+00
    0.79551E+05        -0.49999E+08         0.00000E+00
    0.00000E+00         0.00000E+00        -0.48571E+08
 
   -0.47893E+08         0.10204E+06         0.00000E+00
    0.10204E+06        -0.49998E+08         0.00000E+00
    0.00000E+00         0.00000E+00        -0.48571E+08
 
   -0.47903E+08         0.12443E+06         0.00000E+00
    0.12443E+06        -0.49997E+08         0.00000E+00
    0.00000E+00         0.00000E+00        -0.48571E+08
 
   -0.47913E+08         0.14671E+06         0.00000E+00
    0.14671E+06        -0.49995E+08         0.00000E+00
    0.00000E+00         0.00000E+00        -0.48571E+08
 
   -0.47923E+08         0.16889E+06         0.00000E+00
    0.16889E+06        -0.49994E+08         0.00000E+00
    0.00000E+00         0.00000E+00        -0.48571E+08
 
   -0.47933E+08         0.19096E+06         0.00000E+00
    0.19096E+06        -0.49992E+08         0.00000E+00
    0.00000E+00         0.00000E+00        -0.48571E+08
 
   -0.47943E+08         0.21292E+06         0.00000E+00
    0.21292E+06        -0.49990E+08         0.00000E+00
    0.00000E+00         0.00000E+00        -0.48572E+08
 
   -0.47954E+08         0.23477E+06         0.00000E+00
    0.23477E+06        -0.49988E+08         0.00000E+00
    0.00000E+00         0.00000E+00        -0.48572E+08
 
   -0.47965E+08         0.25651E+06         0.00000E+00
    0.25651E+06        -0.49985E+08         0.00000E+00
    0.00000E+00         0.00000E+00        -0.48572E+08
 
   -0.47977E+08         0.27812E+06         0.00000E+00
    0.27812E+06        -0.49982E+08         0.00000E+00
    0.00000E+00         0.00000E+00        -0.48572E+08
 
   -0.47988E+08         0.29962E+06         0.00000E+00
    0.29962E+06        -0.49980E+08         0.00000E+00
    0.00000E+00         0.00000E+00        -0.48572E+08
 
   -0.48000E+08         0.32099E+06         0.00000E+00
    0.32099E+06        -0.49977E+08         0.00000E+00
    0.00000E+00         0.00000E+00        -0.48572E+08
 
   -0.48013E+08         0.34224E+06         0.00000E+00
    0.34224E+06        -0.49973E+08         0.00000E+00
    0.00000E+00         0.00000E+00        -0.48573E+08
 
   -0.48025E+08         0.36337E+06         0.00000E+00
    0.36337E+06        -0.49970E+08         0.00000E+00
    0.00000E+00         0.00000E+00        -0.48573E+08
 
   -0.48038E+08         0.38436E+06         0.00000E+00
    0.38436E+06        -0.49966E+08         0.00000E+00
    0.00000E+00         0.00000E+00        -0.48573E+08
 
   -0.48051E+08         0.40522E+06         0.00000E+00
    0.40522E+06        -0.49962E+08         0.00000E+00
    0.00000E+00         0.00000E+00        -0.48573E+08
 
   -0.48064E+08         0.42595E+06         0.00000E+00
    0.42595E+06        -0.49958E+08         0.00000E+00
    0.00000E+00         0.00000E+00        -0.48573E+08
 
   -0.48078E+08         0.44655E+06         0.00000E+00
    0.44655E+06        -0.49954E+08         0.00000E+00
    0.00000E+00         0.00000E+00        -0.48574E+08
 
   -0.48092E+08         0.46701E+06         0.00000E+00
    0.46701E+06        -0.49949E+08         0.00000E+00
    0.00000E+00         0.00000E+00        -0.48574E+08
 
   -0.48106E+08         0.48733E+06         0.00000E+00
    0.48733E+06        -0.49944E+08         0.00000E+00
    0.00000E+00         0.00000E+00        -0.48574E+08
 
   -0.48120E+08         0.50750E+06         0.00000E+00
    0.50750E+06        -0.49939E+08         0.00000E+00
    0.00000E+00         0.00000E+00        -0.48574E+08
 
   -0.48134E+08         0.52754E+06         0.00000E+00
    0.52754E+06        -0.49934E+08         0.00000E+00
    0.00000E+00         0.00000E+00        -0.48575E+08
 
   -0.48149E+08         0.54742E+06         0.00000E+00
    0.54742E+06        -0.49929E+08         0.00000E+00
    0.00000E+00         0.00000E+00        -0.48575E+08
 
   -0.48164E+08         0.56716E+06         0.00000E+00
    0.56716E+06        -0.49923E+08         0.00000E+00
    0.00000E+00         0.00000E+00        -0.48575E+08
 
   -0.48179E+08         0.58675E+06         0.00000E+00
    0.58675E+06        -0.49917E+08         0.00000E+00
    0.00000E+00         0.00000E+00        -0.48575E+08
 
   -0.48195E+08         0.60619E+06         0.00000E+00
    0.60619E+06        -0.49911E+08         0.00000E+00
    0.00000E+00         0.00000E+00        -0.48575E+08
 
   -0.48211E+08         0.62547E+06         0.00000E+00
    0.62547E+06        -0.49905E+08         0.00000E+00
    0.00000E+00         0.00000E+00        -0.48576E+08
 
   -0.48227E+08         0.64460E+06         0.00000E+00
    0.64460E+06        -0.49899E+08         0.00000E+00
    0.00000E+00         0.00000E+00        -0.48576E+08
 
   -0.48243E+08         0.66358E+06         0.00000E+00
    0.66358E+06        -0.49892E+08         0.00000E+00
    0.00000E+00         0.00000E+00        -0.48576E+08
 
   -0.48259E+08         0.68239E+06         0.00000E+00
    0.68239E+06        -0.49886E+08         0.00000E+00
    0.00000E+00         0.00000E+00        -0.48576E+08
 
   -0.48276E+08         0.70104E+06         0.00000E+00
    0.70104E+06        -0.49879E+08         0.00000E+00
    0.00000E+00         0.00000E+00        -0.48577E+08
 
   -0.48293E+08         0.71953E+06         0.00000E+00
    0.71953E+06        -0.49872E+08         0.00000E+00
    0.00000E+00         0.00000E+00        -0.48577E+08
 
   -0.48310E+08         0.73785E+06         0.00000E+00
    0.73785E+06        -0.49864E+08         0.00000E+00
    0.00000E+00         0.00000E+00        -0.48577E+08
 
   -0.48327E+08         0.75600E+06         0.00000E+00
    0.75600E+06        -0.49857E+08         0.00000E+00
    0.00000E+00         0.00000E+00        -0.48577E+08
 
   -0.48344E+08         0.77399E+06         0.00000E+00
    0.77399E+06        -0.49849E+08         0.00000E+00
    0.00000E+00         0.00000E+00        -0.48577E+08
 
   -0.48362E+08         0.79181E+06         0.00000E+00
    0.79181E+06        -0.49841E+08         0.00000E+00
    0.00000E+00         0.00000E+00        -0.48577E+08
 
   -0.48380E+08         0.80945E+06         0.00000E+00
    0.80945E+06        -0.49833E+08         0.00000E+00
    0.00000E+00         0.00000E+00        -0.48578E+08
 
   -0.48398E+08         0.82692E+06         0.00000E+00
    0.82692E+06        -0.49825E+08         0.00000E+00
    0.00000E+00         0.00000E+00        -0.48578E+08
 
   -0.48416E+08         0.84421E+06         0.00000E+00
    0.84421E+06        -0.49817E+08         0.00000E+00
    0.00000E+00         0.00000E+00        -0.48578E+08
 
   -0.48434E+08         0.86133E+06         0.00000E+00
    0.86133E+06        -0.49808E+08         0.00000E+00
    0.00000E+00         0.00000E+00        -0.48578E+08
 
   -0.48453E+08         0.87826E+06         0.00000E+00
    0.87826E+06        -0.49799E+08         0.00000E+00
    0.00000E+00         0.00000E+00        -0.48578E+08
 
   -0.48472E+08         0.89502E+06         0.00000E+00
    0.89502E+06        -0.49791E+08         0.00000E+00
    0.00000E+00         0.00000E+00        -0.48578E+08
 
   -0.48491E+08         0.91159E+06         0.00000E+00
    0.91159E+06        -0.49781E+08         0.00000E+00
    0.00000E+00         0.00000E+00        -0.48578E+08
 
   -0.48510E+08         0.92797E+06         0.00000E+00
    0.92797E+06        -0.49772E+08         0.00000E+00
    0.00000E+00         0.00000E+00        -0.48578E+08
 
   -0.48529E+08         0.94417E+06         0.00000E+00
    0.94417E+06        -0.49763E+08         0.00000E+00
    0.00000E+00         0.00000E+00        -0.48578E+08
 
   -0.48549E+08         0.96018E+06         0.00000E+00
    0.96018E+06        -0.49753E+08         0.00000E+00
    0.00000E+00         0.00000E+00        -0.48578E+08
 
   -0.48569E+08         0.97601E+06         0.00000E+00
    0.97601E+06        -0.49743E+08         0.00000E+00
    0.00000E+00         0.00000E+00        -0.48578E+08
 
   -0.47742E+08         0.12097E+05         0.00000E+00
    0.12097E+05        -0.50000E+08         0.00000E+00
    0.00000E+00         0.00000E+00        -0.48490E+08
 
   -0.47751E+08         0.36033E+05         0.00000E+00
    0.36033E+05        -0.50000E+08         0.00000E+00
    0.00000E+00         0.00000E+00        -0.48490E+08
 
   -0.47760E+08         0.59871E+05         0.00000E+00
    0.59871E+05        -0.49999E+08         0.00000E+00
    0.00000E+00         0.00000E+00        -0.48490E+08
 
   -0.47769E+08         0.83608E+05         0.00000E+00
    0.83608E+05        -0.49999E+08         0.00000E+00
    0.00000E+00         0.00000E+00        -0.48490E+08
 
   -0.47778E+08         0.10724E+06         0.00000E+00
    0.10724E+06        -0.49998E+08         0.00000E+00
    0.00000E+00         0.00000E+00        -0.48491E+08
 
   -0.47788E+08         0.13077E+06         0.00000E+00
    0.13077E+06        -0.49996E+08         0.00000E+00
    0.00000E+00         0.00000E+00        -0.48491E+08
 
   -0.47799E+08         0.15419E+06         0.00000E+00
    0.15419E+06        -0.49995E+08         0.00000E+00
    0.00000E+00         0.00000E+00        -0.48491E+08
 
   -0.47809E+08         0.17750E+06         0.00000E+00
    0.17750E+06        -0.49993E+08         0.00000E+00
    0.00000E+00         0.00000E+00        -0.48491E+08
 
   -0.47820E+08         0.20070E+06         0.00000E+00
    0.20070E+06        -0.49991E+08         0.00000E+00
    0.00000E+00         0.00000E+00        -0.48491E+08
 
   -0.47831E+08         0.22378E+06         0.00000E+00
    0.22378E+06        -0.49989E+08         0.00000E+00
    0.00000E+00         0.00000E+00        -0.48491E+08
 
   -0.47843E+08         0.24674E+06         0.00000E+00
    0.24674E+06        -0.49987E+08         0.00000E+00
    0.00000E+00         0.00000E+00        -0.48491E+08
 
   -0.47854E+08         0.26958E+06         0.00000E+00
    0.26958E+06        -0.49984E+08         0.00000E+00
    0.00000E+00         0.00000E+00        -0.48491E+08
 
   -0.47866E+08         0.29230E+06         0.00000E+00
    0.29230E+06        -0.49982E+08         0.00000E+00
    0.00000E+00         0.00000E+00        -0.48492E+08
 
   -0.47879E+08         0.31489E+06         0.00000E+00
    0.31489E+06        -0.49979E+08         0.00000E+00
    0.00000E+00         0.00000E+00        -0.48492E+08
 
   -0.47891E+08         0.33736E+06         0.00000E+00
    0.33736E+06        -0.49975E+08         0.00000E+00
    0.00000E+00         0.00000E+00        -0.48492E+08
 
   -0.47904E+08         0.35969E+06         0.00000E+00
    0.35969E+06        -0.49972E+08         0.00000E+00
    0.00000E+00         0.00000E+00        -0.48492E+08
 
   -0.47917E+08         0.38189E+06         0.00000E+00
    0.38189E+06        -0.49968E+08         0.00000E+00
    0.00000E+00         0.00000E+00        -0.48492E+08
 
   -0.47931E+08         0.40396E+06         0.00000E+00
    0.40396E+06        -0.49964E+08         0.00000E+00
    0.00000E+00         0.00000E+00        -0.48493E+08
 
   -0.47944E+08         0.42589E+06         0.00000E+00
    0.42589E+06        -0.49960E+08         0.00000E+00
    0.00000E+00         0.00000E+00        -0.48493E+08
 
   -0.47958E+08         0.44768E+06         0.00000E+00
    0.44768E+06        -0.49956E+08         0.00000E+00
    0.00000E+00         0.00000E+00        -0.48493E+08
 
   -0.47973E+08         0.46933E+06         0.00000E+00
    0.46933E+06        -0.49951E+08         0.00000E+00
    0.00000E+00         0.00000E+00        -0.48493E+08
 
   -0.47987E+08         0.49084E+06         0.00000E+00
    0.49084E+06        -0.49947E+08         0.00000E+00
    0.00000E+00         0.00000E+00        -0.48494E+08
 
   -0.48002E+08         0.51220E+06         0.00000E+00
    0.51220E+06        -0.49942E+08         0.00000E+00
    0.00000E+00         0.00000E+00        -0.48494E+08
 
   -0.48017E+08         0.53341E+06         0.00000E+00
    0.53341E+06        -0.49936E+08         0.00000E+00
    0.00000E+00         0.00000E+00        -0.48494E+08
 
   -0.48032E+08         0.55447E+06         0.00000E+00
    0.55447E+06        -0.49931E+08         0.00000E+00
    0.00000E+00         0.00000E+00        -0.48494E+08
 
   -0.48048E+08         0.57538E+06         0.00000E+00
    0.57538E+06        -0.49925E+08         0.00000E+00
    0.00000E+00         0.00000E+00        -0.48494E+08
 
   -0.48063E+08         0.59614E+06         0.00000E+00
    0.59614E+06        -0.49920E+08         0.00000E+00
    0.00000E+00         0.00000E+00        -0.48495E+08
 
   -0.48079E+08         0.61674E+06         0.00000E+00
    0.61674E+06        -0.49913E+08         0.00000E+00
    0.00000E+00         0.00000E+00        -0.48495E+08
 
   -0.48096E+08         0.63718E+06         0.00000E+00
    0.63718E+06        -0.49907E+08         0.00000E+00
    0.00000E+00         0.00000E+00        -0.48495E+08
 
   -0.48112E+08         0.65746E+06         0.00000E+00
    0.65746E+06        -0.49901E+08         0.00000E+00
    0.00000E+00         0.00000E+00        -0.48495E+08
 
   -0.48129E+08         0.67758E+06         0.00000E+00
    0.67758E+06        -0.49894E+08         0.00000E+00
    0.00000E+00         0.00000E+00        -0.48496E+08
 
   -0.48146E+08         0.69754E+06         0.00000E+00
    0.69754E+06        -0.49887E+08         0.00000E+00
    0.00000E+00         0.00000E+00        -0.48496E+08
 
   -0.48163E+08         0.71732E+06         0.00000E+00
    0.71732E+06        -0.49880E+08         0.00000E+00
    0.00000E+00         0.00000E+00        -0.48496E+08
 
   -0.48180E+08         0.73694E+06         0.00000E+00
    0.73694E+06        -0.49873E+08         0.00000E+00
    0.00000E+00         0.00000E+00        -0.48496E+08
 
   -0.48198E+08         0.75639E+06         0.00000E+00
    0.75639E+06        -0.49866E+08         0.00000E+00
    0.00000E+00         0.00000E+00        -0.48496E+08
 
   -0.48216E+08         0.77567E+06         0.00000E+00
    0.77567E+06        -0.49858E+08         0.00000E+00
    0.00000E+00         0.00000E+00        -0.48497E+08
 
   -0.48234E+08         0.79478E+06         0.00000E+00
    0.79478E+06        -0.49850E+08         0.00000E+00
    0.00000E+00         0.00000E+00        -0.48497E+08
 
   -0.48252E+08         0.81371E+06         0.00000E+00
    0.81371E+06        -0.49842E+08         0.00000E+00
    0.00000E+00         0.00000E+00        -0.48497E+08
 
   -0.48271E+08         0.83246E+06         0.00000E+00
    0.83246E+06        -0.49834E+08         0.00000E+00
    0.00000E+00         0.00000E+00        -0.48497E+08
 
   -0.48290E+08         0.85103E+06         0.00000E+00
    0.85103E+06        -0.49825E+08         0.00000E+00
    0.00000E+00         0.00000E+00        -0.48497E+08
 
   -0.48309E+08         0.86942E+06         0.00000E+00
    0.86942E+06        -0.49817E+08         0.00000E+00
    0.00000E+00         0.00000E+00        -0.48498E+08
 
   -0.48328E+08         0.88762E+06         0.00000E+00
    0.88762E+06        -0.49808E+08         0.00000E+00
    0.00000E+00         0.00000E+00        -0.48498E+08
 
   -0.48347E+08         0.90564E+06         0.00000E+00
    0.90564E+06        -0.49799E+08         0.00000E+00
    0.00000E+00         0.00000E+00        -0.48498E+08
 
   -0.48367E+08         0.92348E+06         0.00000E+00
    0.92348E+06        -0.49790E+08         0.00000E+00
    0.00000E+00         0.00000E+00        -0.48498E+08
 
   -0.48386E+08         0.94112E+06         0.00000E+00
    0.94112E+06        -0.49780E+08         0.00000E+00
    0.00000E+00         0.00000E+00        -0.48498E+08
 
   -0.48406E+08         0.95858E+06         0.00000E+00
    0.95858E+06        -0.49771E+08         0.00000E+00
    0.00000E+00         0.00000E+00        -0.48498E+08
 
   -0.48426E+08         0.97584E+06         0.00000E+00
    0.97584E+06        -0.49761E+08         0.00000E+00
    0.00000E+00         0.00000E+00        -0.48498E+08
 
   -0.48447E+08         0.99290E+06         0.00000E+00
    0.99290E+06        -0.49751E+08         0.00000E+00
    0.00000E+00         0.00000E+00        -0.48498E+08
 
   -0.48467E+08         0.10098E+07         0.00000E+00
    0.10098E+07        -0.49741E+08         0.00000E+00
    0.00000E+00         0.00000E+00        -0.48498E+08
 
   -0.48488E+08         0.10264E+07         0.00000E+00
    0.10264E+07        -0.49731E+08         0.00000E+00
    0.00000E+00         0.00000E+00        -0.48498E+08
 
   -0.47619E+08         0.12713E+05         0.00000E+00
    0.12713E+05        -0.50000E+08         0.00000E+00
    0.00000E+00         0.00000E+00        -0.48406E+08
 
   -0.47628E+08         0.37867E+05         0.00000E+00
    0.37867E+05        -0.50000E+08         0.00000E+00
    0.00000E+00         0.00000E+00        -0.48406E+08
 
   -0.47638E+08         0.62917E+05         0.00000E+00
    0.62917E+05        -0.49999E+08         0.00000E+00
    0.00000E+00         0.00000E+00        -0.48406E+08
 
   -0.47647E+08         0.87861E+05         0.00000E+00
    0.87861E+05        -0.49998E+08         0.00000E+00
    0.00000E+00         0.00000E+00        -0.48406E+08
 
   -0.47658E+08         0.11270E+06         0.00000E+00
    0.11270E+06        -0.49997E+08         0.00000E+00
    0.00000E+00         0.00000E+00        -0.48406E+08
 
   -0.47668E+08         0.13742E+06         0.00000E+00
    0.13742E+06        -0.49996E+08         0.00000E+00
    0.00000E+00         0.00000E+00        -0.48406E+08
 
   -0.47679E+08         0.16203E+06         0.00000E+00
    0.16203E+06        -0.49995E+08         0.00000E+00
    0.00000E+00         0.00000E+00        -0.48406E+08
 
   -0.47690E+08         0.18652E+06         0.00000E+00
    0.18652E+06        -0.49993E+08         0.00000E+00
    0.00000E+00         0.00000E+00        -0.48406E+08
 
   -0.47701E+08         0.21090E+06         0.00000E+00
    0.21090E+06        -0.49991E+08         0.00000E+00
    0.00000E+00         0.00000E+00        -0.48406E+08
 
   -0.47713E+08         0.23515E+06         0.00000E+00
    0.23515E+06        -0.49989E+08         0.00000E+00
    0.00000E+00         0.00000E+00        -0.48406E+08
 
   -0.47725E+08         0.25928E+06         0.00000E+00
    0.25928E+06        -0.49986E+08         0.00000E+00
    0.00000E+00         0.00000E+00        -0.48406E+08
 
   -0.47737E+08         0.28328E+06         0.00000E+00
    0.28328E+06        -0.49984E+08         0.00000E+00
    0.00000E+00         0.00000E+00        -0.48407E+08
 
   -0.47750E+08         0.30715E+06         0.00000E+00
    0.30715E+06        -0.49981E+08         0.00000E+00
    0.00000E+00         0.00000E+00        -0.48407E+08
 
   -0.47763E+08         0.33089E+06         0.00000E+00
    0.33089E+06        -0.49978E+08         0.00000E+00
    0.00000E+00         0.00000E+00        -0.48407E+08
 
   -0.47776E+08         0.35450E+06         0.00000E+00
    0.35450E+06        -0.49974E+08         0.00000E+00
    0.00000E+00         0.00000E+00        -0.48407E+08
 
   -0.47790E+08         0.37797E+06         0.00000E+00
    0.37797E+06        -0.49971E+08         0.00000E+00
    0.00000E+00         0.00000E+00        -0.48407E+08
 
   -0.47804E+08         0.40130E+06         0.00000E+00
    0.40130E+06        -0.49967E+08         0.00000E+00
    0.00000E+00         0.00000E+00        -0.48408E+08
 
   -0.47818E+08         0.42449E+06         0.00000E+00
    0.42449E+06        -0.49963E+08         0.00000E+00
    0.00000E+00         0.00000E+00        -0.48408E+08
 
   -0.47832E+08         0.44754E+06         0.00000E+00
    0.44754E+06        -0.49958E+08         0.00000E+00
    0.00000E+00         0.00000E+00        -0.48408E+08
 
   -0.47847E+08         0.47044E+06         0.00000E+00
    0.47044E+06        -0.49954E+08         0.00000E+00
    0.00000E+00         0.00000E+00        -0.48408E+08
 
   -0.47862E+08         0.49320E+06         0.00000E+00
    0.49320E+06        -0.49949E+08         0.00000E+00
    0.00000E+00         0.00000E+00        -0.48409E+08
 
   -0.47877E+08         0.51580E+06         0.00000E+00
    0.51580E+06        -0.49944E+08         0.00000E+00
    0.00000E+00         0.00000E+00        -0.48409E+08
 
   -0.47893E+08         0.53825E+06         0.00000E+00
    0.53825E+06        -0.49939E+08         0.00000E+00
    0.00000E+00         0.00000E+00        -0.48409E+08
 
   -0.47908E+08         0.56055E+06         0.00000E+00
    0.56055E+06        -0.49933E+08         0.00000E+00
    0.00000E+00         0.00000E+00        -0.48409E+08
 
   -0.47924E+08         0.58269E+06         0.00000E+00
    0.58269E+06        -0.49928E+08         0.00000E+00
    0.00000E+00         0.00000E+00        -0.48410E+08
 
   -0.47941E+08         0.60467E+06         0.00000E+00
    0.60467E+06        -0.49922E+08         0.00000E+00
    0.00000E+00         0.00000E+00        -0.48410E+08
 
   -0.47957E+08         0.62650E+06         0.00000E+00
    0.62650E+06        -0.49916E+08         0.00000E+00
    0.00000E+00         0.00000E+00        -0.48410E+08
 
   -0.47974E+08         0.64816E+06         0.00000E+00
    0.64816E+06        -0.49909E+08         0.00000E+00
    0.00000E+00         0.00000E+00        -0.48410E+08
 
   -0.47991E+08         0.66965E+06         0.00000E+00
    0.66965E+06        -0.49903E+08         0.00000E+00
    0.00000E+00         0.00000E+00        -0.48411E+08
 
   -0.48009E+08         0.69098E+06         0.00000E+00
    0.69098E+06        -0.49896E+08         0.00000E+00
    0.00000E+00         0.00000E+00        -0.48411E+08
 
   -0.48026E+08         0.71214E+06         0.00000E+00
    0.71214E+06        -0.49889E+08         0.00000E+00
    0.00000E+00         0.00000E+00        -0.48411E+08
 
   -0.48044E+08         0.73312E+06         0.00000E+00
    0.73312E+06        -0.49882E+08         0.00000E+00
    0.00000E+00         0.00000E+00        -0.48411E+08
 
   -0.48062E+08         0.75394E+06         0.00000E+00
    0.75394E+06        -0.49875E+08         0.00000E+00
    0.00000E+00         0.00000E+00        -0.48411E+08
 
   -0.48080E+08         0.77458E+06         0.00000E+00
    0.77458E+06        -0.49867E+08         0.00000E+00
    0.00000E+00         0.00000E+00        -0.48412E+08
 
   -0.48099E+08         0.79504E+06         0.00000E+00
    0.79504E+06        -0.49859E+08         0.00000E+00
    0.00000E+00         0.00000E+00        -0.48412E+08
 
   -0.48118E+08         0.81532E+06         0.00000E+00
    0.81532E+06        -0.49851E+08         0.00000E+00
    0.00000E+00         0.00000E+00        -0.48412E+08
 
   -0.48137E+08         0.83542E+06         0.00000E+00
    0.83542E+06        -0.49843E+08         0.00000E+00
    0.00000E+00         0.00000E+00        -0.48412E+08
 
   -0.48156E+08         0.85534E+06         0.00000E+00
    0.85534E+06        -0.49835E+08         0.00000E+00
    0.00000E+00         0.00000E+00        -0.48412E+08
 
   -0.48175E+08         0.87507E+06         0.00000E+00
    0.87507E+06        -0.49826E+08         0.00000E+00
    0.00000E+00         0.00000E+00        -0.48413E+08
 
   -0.48195E+08         0.89462E+06         0.00000E+00
    0.89462E+06        -0.49817E+08         0.00000E+00
    0.00000E+00         0.00000E+00        -0.48413E+08
 
   -0.48215E+08         0.91398E+06         0.00000E+00
    0.91398E+06        -0.49808E+08         0.00000E+00
    0.00000E+00         0.00000E+00        -0.48413E+08
 
   -0.48235E+08         0.93314E+06         0.00000E+00
    0.93314E+06        -0.49799E+08         0.00000E+00
    0.00000E+00         0.00000E+00        -0.48413E+08
 
   -0.48255E+08         0.95212E+06         0.00000E+00
    0.95212E+06        -0.49789E+08         0.00000E+00
    0.00000E+00         0.00000E+00        -0.48413E+08
 
   -0.48276E+08         0.97090E+06         0.00000E+00
    0.97090E+06        -0.49780E+08         0.00000E+00
    0.00000E+00         0.00000E+00        -0.48413E+08
 
   -0.48296E+08         0.98948E+06         0.00000E+00
    0.98948E+06        -0.49770E+08         0.00000E+00
    0.00000E+00         0.00000E+00        -0.48413E+08
 
   -0.48317E+08         0.10079E+07         0.00000E+00
    0.10079E+07        -0.49760E+08         0.00000E+00
    0.00000E+00         0.00000E+00        -0.48413E+08
 
   -0.48338E+08         0.10260E+07         0.00000E+00
    0.10260E+07        -0.49750E+08         0.00000E+00
    0.00000E+00         0.00000E+00        -0.48414E+08
 
   -0.48360E+08         0.10440E+07         0.00000E+00
    0.10440E+07        -0.49739E+08         0.00000E+00
    0.00000E+00         0.00000E+00        -0.48414E+08
 
   -0.48381E+08         0.10618E+07         0.00000E+00
    0.10618E+07        -0.49729E+08         0.00000E+00
    0.00000E+00         0.00000E+00        -0.48414E+08
 
   -0.48403E+08         0.10794E+07         0.00000E+00
    0.10794E+07        -0.49718E+08         0.00000E+00
    0.00000E+00         0.00000E+00        -0.48414E+08
 
   -0.47490E+08         0.13359E+05         0.00000E+00
    0.13359E+05        -0.50000E+08         0.00000E+00
    0.00000E+00         0.00000E+00        -0.48316E+08
 
   -0.47499E+08         0.39787E+05         0.00000E+00
    0.39787E+05        -0.50000E+08         0.00000E+00
    0.00000E+00         0.00000E+00        -0.48316E+08
 
   -0.47509E+08         0.66107E+05         0.00000E+00
    0.66107E+05        -0.49999E+08         0.00000E+00
    0.00000E+00         0.00000E+00        -0.48316E+08
 
   -0.47520E+08         0.92314E+05         0.00000E+00
    0.92314E+05        -0.49998E+08         0.00000E+00
    0.00000E+00         0.00000E+00        -0.48316E+08
 
   -0.47531E+08         0.11841E+06         0.00000E+00
    0.11841E+06        -0.49997E+08         0.00000E+00
    0.00000E+00         0.00000E+00        -0.48316E+08
 
   -0.47542E+08         0.14438E+06         0.00000E+00
    0.14438E+06        -0.49996E+08         0.00000E+00
    0.00000E+00         0.00000E+00        -0.48316E+08
 
   -0.47553E+08         0.17024E+06         0.00000E+00
    0.17024E+06        -0.49994E+08         0.00000E+00
    0.00000E+00         0.00000E+00        -0.48317E+08
 
   -0.47565E+08         0.19597E+06         0.00000E+00
    0.19597E+06        -0.49993E+08         0.00000E+00
    0.00000E+00         0.00000E+00        -0.48317E+08
 
   -0.47577E+08         0.22158E+06         0.00000E+00
    0.22158E+06        -0.49991E+08         0.00000E+00
    0.00000E+00         0.00000E+00        -0.48317E+08
 
   -0.47589E+08         0.24706E+06         0.00000E+00
    0.24706E+06        -0.49988E+08         0.00000E+00
    0.00000E+00         0.00000E+00        -0.48317E+08
 
   -0.47602E+08         0.27241E+06         0.00000E+00
    0.27241E+06        -0.49986E+08         0.00000E+00
    0.00000E+00         0.00000E+00        -0.48317E+08
 
   -0.47615E+08         0.29762E+06         0.00000E+00
    0.29762E+06        -0.49983E+08         0.00000E+00
    0.00000E+00         0.00000E+00        -0.48317E+08
 
   -0.47628E+08         0.32270E+06         0.00000E+00
    0.32270E+06        -0.49980E+08         0.00000E+00
    0.00000E+00         0.00000E+00        -0.48318E+08
 
   -0.47642E+08         0.34764E+06         0.00000E+00
    0.34764E+06        -0.49977E+08         0.00000E+00
    0.00000E+00         0.00000E+00        -0.48318E+08
 
   -0.47656E+08         0.37245E+06         0.00000E+00
    0.37245E+06        -0.49973E+08         0.00000E+00
    0.00000E+00         0.00000E+00        -0.48318E+08
 
   -0.47670E+08         0.39711E+06         0.00000E+00
    0.39711E+06        -0.49969E+08         0.00000E+00
    0.00000E+00         0.00000E+00        -0.48318E+08
 
   -0.47684E+08         0.42162E+06         0.00000E+00
    0.42162E+06        -0.49965E+08         0.00000E+00
    0.00000E+00         0.00000E+00        -0.48318E+08
 
   -0.47699E+08         0.44599E+06         0.00000E+00
    0.44599E+06        -0.49961E+08         0.00000E+00
    0.00000E+00         0.00000E+00        -0.48319E+08
 
   -0.47714E+08         0.47021E+06         0.00000E+00
    0.47021E+06        -0.49956E+08         0.00000E+00
    0.00000E+00         0.00000E+00        -0.48319E+08
 
   -0.47730E+08         0.49427E+06         0.00000E+00
    0.49427E+06        -0.49952E+08         0.00000E+00
    0.00000E+00         0.00000E+00        -0.48319E+08
 
   -0.47746E+08         0.51818E+06         0.00000E+00
    0.51818E+06        -0.49947E+08         0.00000E+00
    0.00000E+00         0.00000E+00        -0.48319E+08
 
   -0.47762E+08         0.54194E+06         0.00000E+00
    0.54194E+06        -0.49941E+08         0.00000E+00
    0.00000E+00         0.00000E+00        -0.48320E+08
 
   -0.47778E+08         0.56553E+06         0.00000E+00
    0.56553E+06        -0.49936E+08         0.00000E+00
    0.00000E+00         0.00000E+00        -0.48320E+08
 
   -0.47794E+08         0.58897E+06         0.00000E+00
    0.58897E+06        -0.49930E+08         0.00000E+00
    0.00000E+00         0.00000E+00        -0.48320E+08
 
   -0.47811E+08         0.61224E+06         0.00000E+00
    0.61224E+06        -0.49924E+08         0.00000E+00
    0.00000E+00         0.00000E+00        -0.48320E+08
 
   -0.47828E+08         0.63535E+06         0.00000E+00
    0.63535E+06        -0.49918E+08         0.00000E+00
    0.00000E+00         0.00000E+00        -0.48321E+08
 
   -0.47846E+08         0.65829E+06         0.00000E+00
    0.65829E+06        -0.49912E+08         0.00000E+00
    0.00000E+00         0.00000E+00        -0.48321E+08
 
   -0.47864E+08         0.68106E+06         0.00000E+00
    0.68106E+06        -0.49905E+08         0.00000E+00
    0.00000E+00         0.00000E+00        -0.48321E+08
 
   -0.47881E+08         0.70366E+06         0.00000E+00
    0.70366E+06        -0.49898E+08         0.00000E+00
    0.00000E+00         0.00000E+00        -0.48321E+08
 
   -0.47900E+08         0.72608E+06         0.00000E+00
    0.72608E+06        -0.49891E+08         0.00000E+00
    0.00000E+00         0.00000E+00        -0.48322E+08
 
   -0.47918E+08         0.74833E+06         0.00000E+00
    0.74833E+06        -0.49884E+08         0.00000E+00
    0.00000E+00         0.00000E+00        -0.48322E+08
 
   -0.47937E+08         0.77040E+06         0.00000E+00
    0.77040E+06        -0.49876E+08         0.00000E+00
    0.00000E+00         0.00000E+00        -0.48322E+08
 
   -0.47956E+08         0.79229E+06         0.00000E+00
    0.79229E+06        -0.49869E+08         0.00000E+00
    0.00000E+00         0.00000E+00        -0.48322E+08
 
   -0.47975E+08         0.81399E+06         0.00000E+00
    0.81399E+06        -0.49861E+08         0.00000E+00
    0.00000E+00         0.00000E+00        -0.48322E+08
 
   -0.47994E+08         0.83552E+06         0.00000E+00
    0.83552E+06        -0.49853E+08         0.00000E+00
    0.00000E+00         0.00000E+00        -0.48323E+08
 
   -0.48014E+08         0.85685E+06         0.00000E+00
    0.85685E+06        -0.49844E+08         0.00000E+00
    0.00000E+00         0.00000E+00        -0.48323E+08
 
   -0.48034E+08         0.87800E+06         0.00000E+00
    0.87800E+06        -0.49836E+08         0.00000E+00
    0.00000E+00         0.00000E+00        -0.48323E+08
 
   -0.48054E+08         0.89896E+06         0.00000E+00
    0.89896E+06        -0.49827E+08         0.00000E+00
    0.00000E+00         0.00000E+00        -0.48323E+08
 
   -0.48074E+08         0.91973E+06         0.00000E+00
    0.91973E+06        -0.49818E+08         0.00000E+00
    0.00000E+00         0.00000E+00        -0.48323E+08
 
   -0.48095E+08         0.94030E+06         0.00000E+00
    0.94030E+06        -0.49808E+08         0.00000E+00
    0.00000E+00         0.00000E+00        -0.48324E+08
 
   -0.48116E+08         0.96067E+06         0.00000E+00
    0.96067E+06        -0.49799E+08         0.00000E+00
    0.00000E+00         0.00000E+00        -0.48324E+08
 
   -0.48137E+08         0.98085E+06         0.00000E+00
    0.98085E+06        -0.49789E+08         0.00000E+00
    0.00000E+00         0.00000E+00        -0.48324E+08
 
   -0.48158E+08         0.10008E+07         0.00000E+00
    0.10008E+07        -0.49779E+08         0.00000E+00
    0.00000E+00         0.00000E+00        -0.48324E+08
 
   -0.48180E+08         0.10206E+07         0.00000E+00
    0.10206E+07        -0.49769E+08         0.00000E+00
    0.00000E+00         0.00000E+00        -0.48324E+08
 
   -0.48201E+08         0.10402E+07         0.00000E+00
    0.10402E+07        -0.49759E+08         0.00000E+00
    0.00000E+00         0.00000E+00        -0.48324E+08
 
   -0.48223E+08         0.10595E+07         0.00000E+00
    0.10595E+07        -0.49749E+08         0.00000E+00
    0.00000E+00         0.00000E+00        -0.48324E+08
 
   -0.48245E+08         0.10787E+07         0.00000E+00
    0.10787E+07        -0.49738E+08         0.00000E+00
    0.00000E+00         0.00000E+00        -0.48324E+08
 
   -0.48268E+08         0.10976E+07         0.00000E+00
    0.10976E+07        -0.49727E+08         0.00000E+00
    0.00000E+00         0.00000E+00        -0.48324E+08
 
   -0.48290E+08         0.11164E+07         0.00000E+00
    0.11164E+07        -0.49716E+08         0.00000E+00
    0.00000E+00         0.00000E+00        -0.48324E+08
 
   -0.48313E+08         0.11349E+07         0.00000E+00
    0.11349E+07        -0.49705E+08         0.00000E+00
    0.00000E+00         0.00000E+00        -0.48324E+08
 
   -0.47354E+08         0.14035E+05         0.00000E+00
    0.14035E+05        -0.50000E+08         0.00000E+00
    0.00000E+00         0.00000E+00        -0.48222E+08
 
   -0.47364E+08         0.41798E+05         0.00000E+00
    0.41798E+05        -0.50000E+08         0.00000E+00
    0.00000E+00         0.00000E+00        -0.48222E+08
 
   -0.47375E+08         0.69446E+05         0.00000E+00
    0.69446E+05        -0.49999E+08         0.00000E+00
    0.00000E+00         0.00000E+00        -0.48222E+08
 
   -0.47386E+08         0.96975E+05         0.00000E+00
    0.96975E+05        -0.49998E+08         0.00000E+00
    0.00000E+00         0.00000E+00        -0.48222E+08
 
   -0.47397E+08         0.12438E+06         0.00000E+00
    0.12438E+06        -0.49997E+08         0.00000E+00
    0.00000E+00         0.00000E+00        -0.48222E+08
 
   -0.47409E+08         0.15167E+06         0.00000E+00
    0.15167E+06        -0.49996E+08         0.00000E+00
    0.00000E+00         0.00000E+00        -0.48222E+08
 
   -0.47421E+08         0.17883E+06         0.00000E+00
    0.17883E+06        -0.49994E+08         0.00000E+00
    0.00000E+00         0.00000E+00        -0.48222E+08
 
   -0.47433E+08         0.20586E+06         0.00000E+00
    0.20586E+06        -0.49992E+08         0.00000E+00
    0.00000E+00         0.00000E+00        -0.48223E+08
 
   -0.47446E+08         0.23275E+06         0.00000E+00
    0.23275E+06        -0.49990E+08         0.00000E+00
    0.00000E+00         0.00000E+00        -0.48223E+08
 
   -0.47459E+08         0.25952E+06         0.00000E+00
    0.25952E+06        -0.49988E+08         0.00000E+00
    0.00000E+00         0.00000E+00        -0.48223E+08
 
   -0.47472E+08         0.28614E+06         0.00000E+00
    0.28614E+06        -0.49985E+08         0.00000E+00
    0.00000E+00         0.00000E+00        -0.48223E+08
 
   -0.47486E+08         0.31263E+06         0.00000E+00
    0.31263E+06        -0.49982E+08         0.00000E+00
    0.00000E+00         0.00000E+00        -0.48223E+08
 
   -0.47500E+08         0.33897E+06         0.00000E+00
    0.33897E+06        -0.49979E+08         0.00000E+00
    0.00000E+00         0.00000E+00        -0.48223E+08
 
   -0.47514E+08         0.36517E+06         0.00000E+00
    0.36517E+06        -0.49975E+08         0.00000E+00
    0.00000E+00         0.00000E+00        -0.48224E+08
 
   -0.47529E+08         0.39123E+06         0.00000E+00
    0.39123E+06        -0.49972E+08         0.00000E+00
    0.00000E+00         0.00000E+00        -0.48224E+08
 
   -0.47544E+08         0.41713E+06         0.00000E+00
    0.41713E+06        -0.49968E+08         0.00000E+00
    0.00000E+00         0.00000E+00        -0.48224E+08
 
   -0.47559E+08         0.44288E+06         0.00000E+00
    0.44288E+06        -0.49964E+08         0.00000E+00
    0.00000E+00         0.00000E+00        -0.48224E+08
 
   -0.47575E+08         0.46848E+06         0.00000E+00
    0.46848E+06        -0.49959E+08         0.00000E+00
    0.00000E+00         0.00000E+00        -0.48224E+08
 
   -0.47591E+08         0.49392E+06         0.00000E+00
    0.49392E+06        -0.49954E+08         0.00000E+00
    0.00000E+00         0.00000E+00        -0.48225E+08
 
   -0.47607E+08         0.51921E+06         0.00000E+00
    0.51921E+06        -0.49949E+08         0.00000E+00
    0.00000E+00         0.00000E+00        -0.48225E+08
 
   -0.47623E+08         0.54433E+06         0.00000E+00
    0.54433E+06        -0.49944E+08         0.00000E+00
    0.00000E+00         0.00000E+00        -0.48225E+08
 
   -0.47640E+08         0.56929E+06         0.00000E+00
    0.56929E+06        -0.49939E+08         0.00000E+00
    0.00000E+00         0.00000E+00        -0.48225E+08
 
   -0.47657E+08         0.59408E+06         0.00000E+00
    0.59408E+06        -0.49933E+08         0.00000E+00
    0.00000E+00         0.00000E+00        -0.48226E+08
 
   -0.47675E+08         0.61871E+06         0.00000E+00
    0.61871E+06        -0.49927E+08         0.00000E+00
    0.00000E+00         0.00000E+00        -0.48226E+08
 
   -0.47692E+08         0.64317E+06         0.00000E+00
    0.64317E+06        -0.49921E+08         0.00000E+00
    0.00000E+00         0.00000E+00        -0.48226E+08
 
   -0.47710E+08         0.66745E+06         0.00000E+00
    0.66745E+06        -0.49914E+08         0.00000E+00
    0.00000E+00         0.00000E+00        -0.48226E+08
 
   -0.47729E+08         0.69156E+06         0.00000E+00
    0.69156E+06        -0.49908E+08         0.00000E+00
    0.00000E+00         0.00000E+00        -0.48227E+08
 
   -0.47747E+08         0.71549E+06         0.00000E+00
    0.71549E+06        -0.49901E+08         0.00000E+00
    0.00000E+00         0.00000E+00        -0.48227E+08
 
   -0.47766E+08         0.73925E+06         0.00000E+00
    0.73925E+06        -0.49894E+08         0.00000E+00
    0.00000E+00         0.00000E+00        -0.48227E+08
 
   -0.47785E+08         0.76282E+06         0.00000E+00
    0.76282E+06        -0.49886E+08         0.00000E+00
    0.00000E+00         0.00000E+00        -0.48227E+08
 
   -0.47804E+08         0.78621E+06         0.00000E+00
    0.78621E+06        -0.49879E+08         0.00000E+00
    0.00000E+00         0.00000E+00        -0.48228E+08
 
   -0.47824E+08         0.80942E+06         0.00000E+00
    0.80942E+06        -0.49871E+08         0.00000E+00
    0.00000E+00         0.00000E+00        -0.48228E+08
 
   -0.47844E+08         0.83243E+06         0.00000E+00
    0.83243E+06        -0.49863E+08         0.00000E+00
    0.00000E+00         0.00000E+00        -0.48228E+08
 
   -0.47864E+08         0.85526E+06         0.00000E+00
    0.85526E+06        -0.49854E+08         0.00000E+00
    0.00000E+00         0.00000E+00        -0.48228E+08
 
   -0.47884E+08         0.87790E+06         0.00000E+00
    0.87790E+06        -0.49846E+08         0.00000E+00
    0.00000E+00         0.00000E+00        -0.48229E+08
 
   -0.47905E+08         0.90035E+06         0.00000E+00
    0.90035E+06        -0.49837E+08         0.00000E+00
    0.00000E+00         0.00000E+00        -0.48229E+08
 
   -0.47926E+08         0.92259E+06         0.00000E+00
    0.92259E+06        -0.49828E+08         0.00000E+00
    0.00000E+00         0.00000E+00        -0.48229E+08
 
   -0.47947E+08         0.94464E+06         0.00000E+00
    0.94464E+06        -0.49819E+08         0.00000E+00
    0.00000E+00         0.00000E+00        -0.48229E+08
 
   -0.47968E+08         0.96650E+06         0.00000E+00
    0.96650E+06        -0.49809E+08         0.00000E+00
    0.00000E+00         0.00000E+00        -0.48229E+08
 
   -0.47990E+08         0.98814E+06         0.00000E+00
    0.98814E+06        -0.49800E+08         0.00000E+00
    0.00000E+00         0.00000E+00        -0.48230E+08
 
   -0.48012E+08         0.10096E+07         0.00000E+00
    0.10096E+07        -0.49790E+08         0.00000E+00
    0.00000E+00         0.00000E+00        -0.48230E+08
 
   -0.48034E+08         0.10308E+07         0.00000E+00
    0.10308E+07        -0.49780E+08         0.00000E+00
    0.00000E+00         0.00000E+00        -0.48230E+08
 
   -0.48056E+08         0.10519E+07         0.00000E+00
    0.10519E+07        -0.49769E+08         0.00000E+00
    0.00000E+00         0.00000E+00        -0.48230E+08
 
   -0.48079E+08         0.10727E+07         0.00000E+00
    0.10727E+07        -0.49759E+08         0.00000E+00
    0.00000E+00         0.00000E+00        -0.48230E+08
 
   -0.48102E+08         0.10933E+07         0.00000E+00
    0.10933E+07        -0.49748E+08         0.00000E+00
    0.00000E+00         0.00000E+00        -0.48230E+08
 
   -0.48125E+08         0.11137E+07         0.00000E+00
    0.11137E+07        -0.49737E+08         0.00000E+00
    0.00000E+00         0.00000E+00        -0.48230E+08
 
   -0.48148E+08         0.11339E+07         0.00000E+00
    0.11339E+07        -0.49726E+08         0.00000E+00
    0.00000E+00         0.00000E+00        -0.48230E+08
 
   -0.48171E+08         0.11538E+07         0.00000E+00
    0.11538E+07        -0.49714E+08         0.00000E+00
    0.00000E+00         0.00000E+00        -0.48230E+08
 
   -0.48195E+08         0.11736E+07         0.00000E+00
    0.11736E+07        -0.49703E+08         0.00000E+00
    0.00000E+00         0.00000E+00        -0.48230E+08
 
   -0.48219E+08         0.11931E+07         0.00000E+00
    0.11931E+07        -0.49691E+08         0.00000E+00
    0.00000E+00         0.00000E+00        -0.48231E+08
 
   -0.47211E+08         0.14742E+05         0.00000E+00
    0.14742E+05        -0.50000E+08         0.00000E+00
    0.00000E+00         0.00000E+00        -0.48123E+08
 
   -0.47222E+08         0.43901E+05         0.00000E+00
    0.43901E+05        -0.50000E+08         0.00000E+00
    0.00000E+00         0.00000E+00        -0.48123E+08
 
   -0.47233E+08         0.72939E+05         0.00000E+00
    0.72939E+05        -0.49999E+08         0.00000E+00
    0.00000E+00         0.00000E+00        -0.48123E+08
 
   -0.47245E+08         0.10185E+06         0.00000E+00
    0.10185E+06        -0.49998E+08         0.00000E+00
    0.00000E+00         0.00000E+00        -0.48123E+08
 
   -0.47257E+08         0.13063E+06         0.00000E+00
    0.13063E+06        -0.49997E+08         0.00000E+00
    0.00000E+00         0.00000E+00        -0.48123E+08
 
   -0.47269E+08         0.15929E+06         0.00000E+00
    0.15929E+06        -0.49996E+08         0.00000E+00
    0.00000E+00         0.00000E+00        -0.48123E+08
 
   -0.47282E+08         0.18781E+06         0.00000E+00
    0.18781E+06        -0.49994E+08         0.00000E+00
    0.00000E+00         0.00000E+00        -0.48123E+08
 
   -0.47295E+08         0.21619E+06         0.00000E+00
    0.21619E+06        -0.49992E+08         0.00000E+00
    0.00000E+00         0.00000E+00        -0.48123E+08
 
   -0.47308E+08         0.24444E+06         0.00000E+00
    0.24444E+06        -0.49990E+08         0.00000E+00
    0.00000E+00         0.00000E+00        -0.48123E+08
 
   -0.47322E+08         0.27255E+06         0.00000E+00
    0.27255E+06        -0.49987E+08         0.00000E+00
    0.00000E+00         0.00000E+00        -0.48124E+08
 
   -0.47336E+08         0.30051E+06         0.00000E+00
    0.30051E+06        -0.49984E+08         0.00000E+00
    0.00000E+00         0.00000E+00        -0.48124E+08
 
   -0.47350E+08         0.32832E+06         0.00000E+00
    0.32832E+06        -0.49981E+08         0.00000E+00
    0.00000E+00         0.00000E+00        -0.48124E+08
 
   -0.47365E+08         0.35599E+06         0.00000E+00
    0.35599E+06        -0.49978E+08         0.00000E+00
    0.00000E+00         0.00000E+00        -0.48124E+08
 
   -0.47380E+08         0.38350E+06         0.00000E+00
    0.38350E+06        -0.49974E+08         0.00000E+00
    0.00000E+00         0.00000E+00        -0.48124E+08
 
   -0.47396E+08         0.41086E+06         0.00000E+00
    0.41086E+06        -0.49971E+08         0.00000E+00
    0.00000E+00         0.00000E+00        -0.48125E+08
 
   -0.47412E+08         0.43807E+06         0.00000E+00
    0.43807E+06        -0.49966E+08         0.00000E+00
    0.00000E+00         0.00000E+00        -0.48125E+08
 
   -0.47428E+08         0.46512E+06         0.00000E+00
    0.46512E+06        -0.49962E+08         0.00000E+00
    0.00000E+00         0.00000E+00        -0.48125E+08
 
   -0.47444E+08         0.49200E+06         0.00000E+00
    0.49200E+06        -0.49957E+08         0.00000E+00
    0.00000E+00         0.00000E+00        -0.48125E+08
 
   -0.47461E+08         0.51873E+06         0.00000E+00
    0.51873E+06        -0.49952E+08         0.00000E+00
    0.00000E+00         0.00000E+00        -0.48126E+08
 
   -0.47478E+08         0.54528E+06         0.00000E+00
    0.54528E+06        -0.49947E+08         0.00000E+00
    0.00000E+00         0.00000E+00        -0.48126E+08
 
   -0.47495E+08         0.57167E+06         0.00000E+00
    0.57167E+06        -0.49942E+08         0.00000E+00
    0.00000E+00         0.00000E+00        -0.48126E+08
 
   -0.47513E+08         0.59789E+06         0.00000E+00
    0.59789E+06        -0.49936E+08         0.00000E+00
    0.00000E+00         0.00000E+00        -0.48126E+08
 
   -0.47531E+08         0.62394E+06         0.00000E+00
    0.62394E+06        -0.49930E+08         0.00000E+00
    0.00000E+00         0.00000E+00        -0.48127E+08
 
   -0.47549E+08         0.64981E+06         0.00000E+00
    0.64981E+06        -0.49924E+08         0.00000E+00
    0.00000E+00         0.00000E+00        -0.48127E+08
 
   -0.47568E+08         0.67551E+06         0.00000E+00
    0.67551E+06        -0.49917E+08         0.00000E+00
    0.00000E+00         0.00000E+00        -0.48127E+08
 
   -0.47586E+08         0.70102E+06         0.00000E+00
    0.70102E+06        -0.49911E+08         0.00000E+00
    0.00000E+00         0.00000E+00        -0.48127E+08
 
   -0.47606E+08         0.72636E+06         0.00000E+00
    0.72636E+06        -0.49904E+08         0.00000E+00
    0.00000E+00         0.00000E+00        -0.48128E+08
 
   -0.47625E+08         0.75151E+06         0.00000E+00
    0.75151E+06        -0.49896E+08         0.00000E+00
    0.00000E+00         0.00000E+00        -0.48128E+08
 
   -0.47645E+08         0.77648E+06         0.00000E+00
    0.77648E+06        -0.49889E+08         0.00000E+00
    0.00000E+00         0.00000E+00        -0.48128E+08
 
   -0.47665E+08         0.80125E+06         0.00000E+00
    0.80125E+06        -0.49881E+08         0.00000E+00
    0.00000E+00         0.00000E+00        -0.48128E+08
 
   -0.47685E+08         0.82584E+06         0.00000E+00
    0.82584E+06        -0.49873E+08         0.00000E+00
    0.00000E+00         0.00000E+00        -0.48129E+08
 
   -0.47706E+08         0.85024E+06         0.00000E+00
    0.85024E+06        -0.49865E+08         0.00000E+00
    0.00000E+00         0.00000E+00        -0.48129E+08
 
   -0.47726E+08         0.87444E+06         0.00000E+00
    0.87444E+06        -0.49856E+08         0.00000E+00
    0.00000E+00         0.00000E+00        -0.48129E+08
 
   -0.47747E+08         0.89845E+06         0.00000E+00
    0.89845E+06        -0.49848E+08         0.00000E+00
    0.00000E+00         0.00000E+00        -0.48129E+08
 
   -0.47769E+08         0.92225E+06         0.00000E+00
    0.92225E+06        -0.49839E+08         0.00000E+00
    0.00000E+00         0.00000E+00        -0.48130E+08
 
   -0.47790E+08         0.94586E+06         0.00000E+00
    0.94586E+06        -0.49830E+08         0.00000E+00
    0.00000E+00         0.00000E+00        -0.48130E+08
 
   -0.47812E+08         0.96926E+06         0.00000E+00
    0.96926E+06        -0.49820E+08         0.00000E+00
    0.00000E+00         0.00000E+00        -0.48130E+08
 
   -0.47834E+08         0.99246E+06         0.00000E+00
    0.99246E+06        -0.49810E+08         0.00000E+00
    0.00000E+00         0.00000E+00        -0.48130E+08
 
   -0.47857E+08         0.10155E+07         0.00000E+00
    0.10155E+07        -0.49801E+08         0.00000E+00
    0.00000E+00         0.00000E+00        -0.48130E+08
 
   -0.47879E+08         0.10382E+07         0.00000E+00
    0.10382E+07        -0.49790E+08         0.00000E+00
    0.00000E+00         0.00000E+00        -0.48130E+08
 
   -0.47902E+08         0.10608E+07         0.00000E+00
    0.10608E+07        -0.49780E+08         0.00000E+00
    0.00000E+00         0.00000E+00        -0.48131E+08
 
   -0.47925E+08         0.10832E+07         0.00000E+00
    0.10832E+07        -0.49769E+08         0.00000E+00
    0.00000E+00         0.00000E+00        -0.48131E+08
 
   -0.47949E+08         0.11053E+07         0.00000E+00
    0.11053E+07        -0.49759E+08         0.00000E+00
    0.00000E+00         0.00000E+00        -0.48131E+08
 
   -0.47972E+08         0.11272E+07         0.00000E+00
    0.11272E+07        -0.49748E+08         0.00000E+00
    0.00000E+00         0.00000E+00        -0.48131E+08
 
   -0.47996E+08         0.11489E+07         0.00000E+00
    0.11489E+07        -0.49736E+08         0.00000E+00
    0.00000E+00         0.00000E+00        -0.48131E+08
 
   -0.48020E+08         0.11704E+07         0.00000E+00
    0.11704E+07        -0.49725E+08         0.00000E+00
    0.00000E+00         0.00000E+00        -0.48131E+08
 
   -0.48045E+08         0.11917E+07         0.00000E+00
    0.11917E+07        -0.49713E+08         0.00000E+00
    0.00000E+00         0.00000E+00        -0.48131E+08
 
   -0.48069E+08         0.12127E+07         0.00000E+00
    0.12127E+07        -0.49701E+08         0.00000E+00
    0.00000E+00         0.00000E+00        -0.48131E+08
 
   -0.48094E+08         0.12335E+07         0.00000E+00
    0.12335E+07        -0.49689E+08         0.00000E+00
    0.00000E+00         0.00000E+00        -0.48131E+08
 
   -0.48119E+08         0.12541E+07         0.00000E+00
    0.12541E+07        -0.49677E+08         0.00000E+00
    0.00000E+00         0.00000E+00        -0.48131E+08
 
   -0.47062E+08         0.15482E+05         0.00000E+00
    0.15482E+05        -0.50000E+08         0.00000E+00
    0.00000E+00         0.00000E+00        -0.48018E+08
 
   -0.47073E+08         0.46100E+05         0.00000E+00
    0.46100E+05        -0.50000E+08         0.00000E+00
    0.00000E+00         0.00000E+00        -0.48018E+08
 
   -0.47085E+08         0.76589E+05         0.00000E+00
    0.76589E+05        -0.49999E+08         0.00000E+00
    0.00000E+00         0.00000E+00        -0.48018E+08
 
   -0.47097E+08         0.10695E+06         0.00000E+00
    0.10695E+06        -0.49998E+08         0.00000E+00
    0.00000E+00         0.00000E+00        -0.48018E+08
 
   -0.47110E+08         0.13717E+06         0.00000E+00
    0.13717E+06        -0.49997E+08         0.00000E+00
    0.00000E+00         0.00000E+00        -0.48018E+08
 
   -0.47123E+08         0.16725E+06         0.00000E+00
    0.16725E+06        -0.49995E+08         0.00000E+00
    0.00000E+00         0.00000E+00        -0.48018E+08
 
   -0.47136E+08         0.19720E+06         0.00000E+00
    0.19720E+06        -0.49994E+08         0.00000E+00
    0.00000E+00         0.00000E+00        -0.48019E+08
 
   -0.47150E+08         0.22700E+06         0.00000E+00
    0.22700E+06        -0.49992E+08         0.00000E+00
    0.00000E+00         0.00000E+00        -0.48019E+08
 
   -0.47164E+08         0.25665E+06         0.00000E+00
    0.25665E+06        -0.49989E+08         0.00000E+00
    0.00000E+00         0.00000E+00        -0.48019E+08
 
   -0.47178E+08         0.28616E+06         0.00000E+00
    0.28616E+06        -0.49987E+08         0.00000E+00
    0.00000E+00         0.00000E+00        -0.48019E+08
 
   -0.47193E+08         0.31552E+06         0.00000E+00
    0.31552E+06        -0.49984E+08         0.00000E+00
    0.00000E+00         0.00000E+00        -0.48019E+08
 
   -0.47208E+08         0.34472E+06         0.00000E+00
    0.34472E+06        -0.49981E+08         0.00000E+00
    0.00000E+00         0.00000E+00        -0.48019E+08
 
   -0.47224E+08         0.37377E+06         0.00000E+00
    0.37377E+06        -0.49977E+08         0.00000E+00
    0.00000E+00         0.00000E+00        -0.48020E+08
 
   -0.47240E+08         0.40265E+06         0.00000E+00
    0.40265E+06        -0.49973E+08         0.00000E+00
    0.00000E+00         0.00000E+00        -0.48020E+08
 
   -0.47256E+08         0.43138E+06         0.00000E+00
    0.43138E+06        -0.49969E+08         0.00000E+00
    0.00000E+00         0.00000E+00        -0.48020E+08
 
   -0.47273E+08         0.45995E+06         0.00000E+00
    0.45995E+06        -0.49965E+08         0.00000E+00
    0.00000E+00         0.00000E+00        -0.48020E+08
 
   -0.47289E+08         0.48835E+06         0.00000E+00
    0.48835E+06        -0.49960E+08         0.00000E+00
    0.00000E+00         0.00000E+00        -0.48020E+08
 
   -0.47307E+08         0.51658E+06         0.00000E+00
    0.51658E+06        -0.49955E+08         0.00000E+00
    0.00000E+00         0.00000E+00        -0.48021E+08
 
   -0.47324E+08         0.54464E+06         0.00000E+00
    0.54464E+06        -0.49950E+08         0.00000E+00
    0.00000E+00         0.00000E+00        -0.48021E+08
 
   -0.47342E+08         0.57253E+06         0.00000E+00
    0.57253E+06        -0.49945E+08         0.00000E+00
    0.00000E+00         0.00000E+00        -0.48021E+08
 
   -0.47360E+08         0.60024E+06         0.00000E+00
    0.60024E+06        -0.49939E+08         0.00000E+00
    0.00000E+00         0.00000E+00        -0.48021E+08
 
   -0.47379E+08         0.62778E+06         0.00000E+00
    0.62778E+06        -0.49933E+08         0.00000E+00
    0.00000E+00         0.00000E+00        -0.48022E+08
 
   -0.47398E+08         0.65514E+06         0.00000E+00
    0.65514E+06        -0.49927E+08         0.00000E+00
    0.00000E+00         0.00000E+00        -0.48022E+08
 
   -0.47417E+08         0.68232E+06         0.00000E+00
    0.68232E+06        -0.49920E+08         0.00000E+00
    0.00000E+00         0.00000E+00        -0.48022E+08
 
   -0.47436E+08         0.70931E+06         0.00000E+00
    0.70931E+06        -0.49914E+08         0.00000E+00
    0.00000E+00         0.00000E+00        -0.48023E+08
 
   -0.47456E+08         0.73611E+06         0.00000E+00
    0.73611E+06        -0.49907E+08         0.00000E+00
    0.00000E+00         0.00000E+00        -0.48023E+08
 
   -0.47476E+08         0.76273E+06         0.00000E+00
    0.76273E+06        -0.49899E+08         0.00000E+00
    0.00000E+00         0.00000E+00        -0.48023E+08
 
   -0.47496E+08         0.78916E+06         0.00000E+00
    0.78916E+06        -0.49892E+08         0.00000E+00
    0.00000E+00         0.00000E+00        -0.48023E+08
 
   -0.47517E+08         0.81539E+06         0.00000E+00
    0.81539E+06        -0.49884E+08         0.00000E+00
    0.00000E+00         0.00000E+00        -0.48024E+08
 
   -0.47538E+08         0.84143E+06         0.00000E+00
    0.84143E+06        -0.49876E+08         0.00000E+00
    0.00000E+00         0.00000E+00        -0.48024E+08
 
   -0.47559E+08         0.86728E+06         0.00000E+00
    0.86728E+06        -0.49867E+08         0.00000E+00
    0.00000E+00         0.00000E+00        -0.48024E+08
 
   -0.47581E+08         0.89292E+06         0.00000E+00
    0.89292E+06        -0.49859E+08         0.00000E+00
    0.00000E+00         0.00000E+00        -0.48024E+08
 
   -0.47603E+08         0.91836E+06         0.00000E+00
    0.91836E+06        -0.49850E+08         0.00000E+00
    0.00000E+00         0.00000E+00        -0.48025E+08
 
   -0.47625E+08         0.94360E+06         0.00000E+00
    0.94360E+06        -0.49841E+08         0.00000E+00
    0.00000E+00         0.00000E+00        -0.48025E+08
 
   -0.47647E+08         0.96863E+06         0.00000E+00
    0.96863E+06        -0.49831E+08         0.00000E+00
    0.00000E+00         0.00000E+00        -0.48025E+08
 
   -0.47670E+08         0.99346E+06         0.00000E+00
    0.99346E+06        -0.49822E+08         0.00000E+00
    0.00000E+00         0.00000E+00        -0.48025E+08
 
   -0.47693E+08         0.10181E+07         0.00000E+00
    0.10181E+07        -0.49812E+08         0.00000E+00
    0.00000E+00         0.00000E+00        -0.48025E+08
 
   -0.47716E+08         0.10425E+07         0.00000E+00
    0.10425E+07        -0.49802E+08         0.00000E+00
    0.00000E+00         0.00000E+00        -0.48026E+08
 
   -0.47739E+08         0.10667E+07         0.00000E+00
    0.10667E+07        -0.49792E+08         0.00000E+00
    0.00000E+00         0.00000E+00        -0.48026E+08
 
   -0.47763E+08         0.10906E+07         0.00000E+00
    0.10906E+07        -0.49781E+08         0.00000E+00
    0.00000E+00         0.00000E+00        -0.48026E+08
 
   -0.47787E+08         0.11144E+07         0.00000E+00
    0.11144E+07        -0.49770E+08         0.00000E+00
    0.00000E+00         0.00000E+00        -0.48026E+08
 
   -0.47811E+08         0.11379E+07         0.00000E+00
    0.11379E+07        -0.49759E+08         0.00000E+00
    0.00000E+00         0.00000E+00        -0.48026E+08
 
   -0.47836E+08         0.11612E+07         0.00000E+00
    0.11612E+07        -0.49748E+08         0.00000E+00
    0.00000E+00         0.00000E+00        -0.48026E+08
 
   -0.47861E+08         0.11843E+07         0.00000E+00
    0.11843E+07        -0.49736E+08         0.00000E+00
    0.00000E+00         0.00000E+00        -0.48027E+08
 
   -0.47885E+08         0.12072E+07         0.00000E+00
    0.12072E+07        -0.49724E+08         0.00000E+00
    0.00000E+00         0.00000E+00        -0.48027E+08
 
   -0.47911E+08         0.12298E+07         0.00000E+00
    0.12298E+07        -0.49712E+08         0.00000E+00
    0.00000E+00         0.00000E+00        -0.48027E+08
 
   -0.47936E+08         0.12522E+07         0.00000E+00
    0.12522E+07        -0.49700E+08         0.00000E+00
    0.00000E+00         0.00000E+00        -0.48027E+08
 
   -0.47962E+08         0.12743E+07         0.00000E+00
    0.12743E+07        -0.49688E+08         0.00000E+00
    0.00000E+00         0.00000E+00        -0.48027E+08
 
   -0.47988E+08         0.12963E+07         0.00000E+00
    0.12963E+07        -0.49675E+08         0.00000E+00
    0.00000E+00         0.00000E+00        -0.48027E+08
 
   -0.48014E+08         0.13180E+07         0.00000E+00
    0.13180E+07        -0.49662E+08         0.00000E+00
    0.00000E+00         0.00000E+00        -0.48027E+08
 
   -0.46904E+08         0.16254E+05         0.00000E+00
    0.16254E+05        -0.50000E+08         0.00000E+00
    0.00000E+00         0.00000E+00        -0.47908E+08
 
   -0.46917E+08         0.48396E+05         0.00000E+00
    0.48396E+05        -0.50000E+08         0.00000E+00
    0.00000E+00         0.00000E+00        -0.47908E+08
 
   -0.46929E+08         0.80401E+05         0.00000E+00
    0.80401E+05        -0.49999E+08         0.00000E+00
    0.00000E+00         0.00000E+00        -0.47908E+08
 
   -0.46942E+08         0.11227E+06         0.00000E+00
    0.11227E+06        -0.49998E+08         0.00000E+00
    0.00000E+00         0.00000E+00        -0.47908E+08
 
   -0.46955E+08         0.14399E+06         0.00000E+00
    0.14399E+06        -0.49997E+08         0.00000E+00
    0.00000E+00         0.00000E+00        -0.47908E+08
 
   -0.46969E+08         0.17557E+06         0.00000E+00
    0.17557E+06        -0.49995E+08         0.00000E+00
    0.00000E+00         0.00000E+00        -0.47908E+08
 
   -0.46983E+08         0.20700E+06         0.00000E+00
    0.20700E+06        -0.49993E+08         0.00000E+00
    0.00000E+00         0.00000E+00        -0.47908E+08
 
   -0.46997E+08         0.23828E+06         0.00000E+00
    0.23828E+06        -0.49991E+08         0.00000E+00
    0.00000E+00         0.00000E+00        -0.47908E+08
 
   -0.47012E+08         0.26940E+06         0.00000E+00
    0.26940E+06        -0.49989E+08         0.00000E+00
    0.00000E+00         0.00000E+00        -0.47909E+08
 
   -0.47028E+08         0.30037E+06         0.00000E+00
    0.30037E+06        -0.49986E+08         0.00000E+00
    0.00000E+00         0.00000E+00        -0.47909E+08
 
   -0.47043E+08         0.33119E+06         0.00000E+00
    0.33119E+06        -0.49983E+08         0.00000E+00
    0.00000E+00         0.00000E+00        -0.47909E+08
 
   -0.47059E+08         0.36184E+06         0.00000E+00
    0.36184E+06        -0.49980E+08         0.00000E+00
    0.00000E+00         0.00000E+00        -0.47909E+08
 
   -0.47075E+08         0.39233E+06         0.00000E+00
    0.39233E+06        -0.49976E+08         0.00000E+00
    0.00000E+00         0.00000E+00        -0.47909E+08
 
   -0.47092E+08         0.42265E+06         0.00000E+00
    0.42265E+06        -0.49972E+08         0.00000E+00
    0.00000E+00         0.00000E+00        -0.47910E+08
 
   -0.47109E+08         0.45280E+06         0.00000E+00
    0.45280E+06        -0.49968E+08         0.00000E+00
    0.00000E+00         0.00000E+00        -0.47910E+08
 
   -0.47127E+08         0.48279E+06         0.00000E+00
    0.48279E+06        -0.49963E+08         0.00000E+00
    0.00000E+00         0.00000E+00        -0.47910E+08
 
   -0.47144E+08         0.51260E+06         0.00000E+00
    0.51260E+06        -0.49959E+08         0.00000E+00
    0.00000E+00         0.00000E+00        -0.47910E+08
 
   -0.47162E+08         0.54224E+06         0.00000E+00
    0.54224E+06        -0.49953E+08         0.00000E+00
    0.00000E+00         0.00000E+00        -0.47911E+08
 
   -0.47181E+08         0.57170E+06         0.00000E+00
    0.57170E+06        -0.49948E+08         0.00000E+00
    0.00000E+00         0.00000E+00        -0.47911E+08
 
   -0.47200E+08         0.60098E+06         0.00000E+00
    0.60098E+06        -0.49942E+08         0.00000E+00
    0.00000E+00         0.00000E+00        -0.47911E+08
 
   -0.47219E+08         0.63008E+06         0.00000E+00
    0.63008E+06        -0.49936E+08         0.00000E+00
    0.00000E+00         0.00000E+00        -0.47911E+08
 
   -0.47238E+08         0.65899E+06         0.00000E+00
    0.65899E+06        -0.49930E+08         0.00000E+00
    0.00000E+00         0.00000E+00        -0.47912E+08
 
   -0.47258E+08         0.68772E+06         0.00000E+00
    0.68772E+06        -0.49924E+08         0.00000E+00
    0.00000E+00         0.00000E+00        -0.47912E+08
 
   -0.47278E+08         0.71626E+06         0.00000E+00
    0.71626E+06        -0.49917E+08         0.00000E+00
    0.00000E+00         0.00000E+00        -0.47912E+08
 
   -0.47298E+08         0.74461E+06         0.00000E+00
    0.74461E+06        -0.49910E+08         0.00000E+00
    0.00000E+00         0.00000E+00        -0.47912E+08
 
   -0.47319E+08         0.77276E+06         0.00000E+00
    0.77276E+06        -0.49902E+08         0.00000E+00
    0.00000E+00         0.00000E+00        -0.47913E+08
 
   -0.47340E+08         0.80072E+06         0.00000E+00
    0.80072E+06        -0.49895E+08         0.00000E+00
    0.00000E+00         0.00000E+00        -0.47913E+08
 
   -0.47362E+08         0.82848E+06         0.00000E+00
    0.82848E+06        -0.49887E+08         0.00000E+00
    0.00000E+00         0.00000E+00        -0.47913E+08
 
   -0.47383E+08         0.85605E+06         0.00000E+00
    0.85605E+06        -0.49879E+08         0.00000E+00
    0.00000E+00         0.00000E+00        -0.47913E+08
 
   -0.47405E+08         0.88341E+06         0.00000E+00
    0.88341E+06        -0.49870E+08         0.00000E+00
    0.00000E+00         0.00000E+00        -0.47914E+08
 
   -0.47427E+08         0.91056E+06         0.00000E+00
    0.91056E+06        -0.49862E+08         0.00000E+00
    0.00000E+00         0.00000E+00        -0.47914E+08
 
   -0.47450E+08         0.93751E+06         0.00000E+00
    0.93751E+06        -0.49853E+08         0.00000E+00
    0.00000E+00         0.00000E+00        -0.47914E+08
 
   -0.47473E+08         0.96426E+06         0.00000E+00
    0.96426E+06        -0.49843E+08         0.00000E+00
    0.00000E+00         0.00000E+00        -0.47914E+08
 
   -0.47496E+08         0.99079E+06         0.00000E+00
    0.99079E+06        -0.49834E+08         0.00000E+00
    0.00000E+00         0.00000E+00        -0.47915E+08
 
   -0.47519E+08         0.10171E+07         0.00000E+00
    0.10171E+07        -0.49824E+08         0.00000E+00
    0.00000E+00         0.00000E+00        -0.47915E+08
 
   -0.47543E+08         0.10432E+07         0.00000E+00
    0.10432E+07        -0.49814E+08         0.00000E+00
    0.00000E+00         0.00000E+00        -0.47915E+08
 
   -0.47567E+08         0.10691E+07         0.00000E+00
    0.10691E+07        -0.49804E+08         0.00000E+00
    0.00000E+00         0.00000E+00        -0.47915E+08
 
   -0.47591E+08         0.10948E+07         0.00000E+00
    0.10948E+07        -0.49793E+08         0.00000E+00
    0.00000E+00         0.00000E+00        -0.47916E+08
 
   -0.47616E+08         0.11202E+07         0.00000E+00
    0.11202E+07        -0.49782E+08         0.00000E+00
    0.00000E+00         0.00000E+00        -0.47916E+08
 
   -0.47641E+08         0.11454E+07         0.00000E+00
    0.11454E+07        -0.49771E+08         0.00000E+00
    0.00000E+00         0.00000E+00        -0.47916E+08
 
   -0.47666E+08         0.11704E+07         0.00000E+00
    0.11704E+07        -0.49760E+08         0.00000E+00
    0.00000E+00         0.00000E+00        -0.47916E+08
 
   -0.47691E+08         0.11952E+07         0.00000E+00
    0.11952E+07        -0.49748E+08         0.00000E+00
    0.00000E+00         0.00000E+00        -0.47916E+08
 
   -0.47717E+08         0.12197E+07         0.00000E+00
    0.12197E+07        -0.49737E+08         0.00000E+00
    0.00000E+00         0.00000E+00        -0.47916E+08
 
   -0.47743E+08         0.12440E+07         0.00000E+00
    0.12440E+07        -0.49724E+08         0.00000E+00
    0.00000E+00         0.00000E+00        -0.47916E+08
 
   -0.47769E+08         0.12681E+07         0.00000E+00
    0.12681E+07        -0.49712E+08         0.00000E+00
    0.00000E+00         0.00000E+00        -0.47917E+08
 
   -0.47795E+08         0.12919E+07         0.00000E+00
    0.12919E+07        -0.49700E+08         0.00000E+00
    0.00000E+00         0.00000E+00        -0.47917E+08
 
   -0.47822E+08         0.13155E+07         0.00000E+00
    0.13155E+07        -0.49687E+08         0.00000E+00
    0.00000E+00         0.00000E+00        -0.47917E+08
 
   -0.47849E+08         0.13389E+07         0.00000E+00
    0.13389E+07        -0.49674E+08         0.00000E+00
    0.00000E+00         0.00000E+00        -0.47917E+08
 
   -0.47876E+08         0.13620E+07         0.00000E+00
    0.13620E+07        -0.49660E+08         0.00000E+00
    0.00000E+00         0.00000E+00        -0.47917E+08
 
   -0.47903E+08         0.13848E+07         0.00000E+00
    0.13848E+07        -0.49647E+08         0.00000E+00
    0.00000E+00         0.00000E+00        -0.47917E+08
 
   -0.46739E+08         0.17060E+05         0.00000E+00
    0.17060E+05        -0.50000E+08         0.00000E+00
    0.00000E+00         0.00000E+00        -0.47792E+08
 
   -0.46752E+08         0.50792E+05         0.00000E+00
    0.50792E+05        -0.50000E+08         0.00000E+00
    0.00000E+00         0.00000E+00        -0.47792E+08
 
   -0.46765E+08         0.84379E+05         0.00000E+00
    0.84379E+05        -0.49999E+08         0.00000E+00
    0.00000E+00         0.00000E+00        -0.47792E+08
 
   -0.46779E+08         0.11782E+06         0.00000E+00
    0.11782E+06        -0.49998E+08         0.00000E+00
    0.00000E+00         0.00000E+00        -0.47792E+08
 
   -0.46793E+08         0.15111E+06         0.00000E+00
    0.15111E+06        -0.49997E+08         0.00000E+00
    0.00000E+00         0.00000E+00        -0.47792E+08
 
   -0.46808E+08         0.18424E+06         0.00000E+00
    0.18424E+06        -0.49995E+08         0.00000E+00
    0.00000E+00         0.00000E+00        -0.47792E+08
 
   -0.46822E+08         0.21722E+06         0.00000E+00
    0.21722E+06        -0.49993E+08         0.00000E+00
    0.00000E+00         0.00000E+00        -0.47792E+08
 
   -0.46838E+08         0.25004E+06         0.00000E+00
    0.25004E+06        -0.49991E+08         0.00000E+00
    0.00000E+00         0.00000E+00        -0.47792E+08
 
   -0.46853E+08         0.28270E+06         0.00000E+00
    0.28270E+06        -0.49988E+08         0.00000E+00
    0.00000E+00         0.00000E+00        -0.47792E+08
 
   -0.46869E+08         0.31520E+06         0.00000E+00
    0.31520E+06        -0.49985E+08         0.00000E+00
    0.00000E+00         0.00000E+00        -0.47793E+08
 
   -0.46886E+08         0.34753E+06         0.00000E+00
    0.34753E+06        -0.49982E+08         0.00000E+00
    0.00000E+00         0.00000E+00        -0.47793E+08
 
   -0.46903E+08         0.37969E+06         0.00000E+00
    0.37969E+06        -0.49979E+08         0.00000E+00
    0.00000E+00         0.00000E+00        -0.47793E+08
 
   -0.46920E+08         0.41169E+06         0.00000E+00
    0.41169E+06        -0.49975E+08         0.00000E+00
    0.00000E+00         0.00000E+00        -0.47793E+08
 
   -0.46937E+08         0.44351E+06         0.00000E+00
    0.44351E+06        -0.49971E+08         0.00000E+00
    0.00000E+00         0.00000E+00        -0.47793E+08
 
   -0.46955E+08         0.47515E+06         0.00000E+00
    0.47515E+06        -0.49966E+08         0.00000E+00
    0.00000E+00         0.00000E+00        -0.47794E+08
 
   -0.46973E+08         0.50662E+06         0.00000E+00
    0.50662E+06        -0.49962E+08         0.00000E+00
    0.00000E+00         0.00000E+00        -0.47794E+08
 
   -0.46992E+08         0.53790E+06         0.00000E+00
    0.53790E+06        -0.49957E+08         0.00000E+00
    0.00000E+00         0.00000E+00        -0.47794E+08
 
   -0.47011E+08         0.56901E+06         0.00000E+00
    0.56901E+06        -0.49951E+08         0.00000E+00
    0.00000E+00         0.00000E+00        -0.47794E+08
 
   -0.47030E+08         0.59993E+06         0.00000E+00
    0.59993E+06        -0.49946E+08         0.00000E+00
    0.00000E+00         0.00000E+00        -0.47795E+08
 
   -0.47050E+08         0.63066E+06         0.00000E+00
    0.63066E+06        -0.49940E+08         0.00000E+00
    0.00000E+00         0.00000E+00        -0.47795E+08
 
   -0.47070E+08         0.66120E+06         0.00000E+00
    0.66120E+06        -0.49934E+08         0.00000E+00
    0.00000E+00         0.00000E+00        -0.47795E+08
 
   -0.47090E+08         0.69155E+06         0.00000E+00
    0.69155E+06        -0.49927E+08         0.00000E+00
    0.00000E+00         0.00000E+00        -0.47795E+08
 
   -0.47111E+08         0.72171E+06         0.00000E+00
    0.72171E+06        -0.49920E+08         0.00000E+00
    0.00000E+00         0.00000E+00        -0.47796E+08
 
   -0.47132E+08         0.75168E+06         0.00000E+00
    0.75168E+06        -0.49913E+08         0.00000E+00
    0.00000E+00         0.00000E+00        -0.47796E+08
 
   -0.47154E+08         0.78144E+06         0.00000E+00
    0.78144E+06        -0.49906E+08         0.00000E+00
    0.00000E+00         0.00000E+00        -0.47796E+08
 
   -0.47175E+08         0.81101E+06         0.00000E+00
    0.81101E+06        -0.49898E+08         0.00000E+00
    0.00000E+00         0.00000E+00        -0.47797E+08
 
   -0.47197E+08         0.84037E+06         0.00000E+00
    0.84037E+06        -0.49890E+08         0.00000E+00
    0.00000E+00         0.00000E+00        -0.47797E+08
 
   -0.47220E+08         0.86953E+06         0.00000E+00
    0.86953E+06        -0.49882E+08         0.00000E+00
    0.00000E+00         0.00000E+00        -0.47797E+08
 
   -0.47242E+08         0.89848E+06         0.00000E+00
    0.89848E+06        -0.49874E+08         0.00000E+00
    0.00000E+00         0.00000E+00        -0.47797E+08
 
   -0.47265E+08         0.92722E+06         0.00000E+00
    0.92722E+06        -0.49865E+08         0.00000E+00
    0.00000E+00         0.00000E+00        -0.47798E+08
 
   -0.47289E+08         0.95575E+06         0.00000E+00
    0.95575E+06        -0.49856E+08         0.00000E+00
    0.00000E+00         0.00000E+00        -0.47798E+08
 
   -0.47312E+08         0.98407E+06         0.00000E+00
    0.98407E+06        -0.49846E+08         0.00000E+00
    0.00000E+00         0.00000E+00        -0.47798E+08
 
   -0.47336E+08         0.10122E+07         0.00000E+00
    0.10122E+07        -0.49837E+08         0.00000E+00
    0.00000E+00         0.00000E+00        -0.47798E+08
 
   -0.47360E+08         0.10401E+07         0.00000E+00
    0.10401E+07        -0.49827E+08         0.00000E+00
    0.00000E+00         0.00000E+00        -0.47799E+08
 
   -0.47385E+08         0.10677E+07         0.00000E+00
    0.10677E+07        -0.49816E+08         0.00000E+00
    0.00000E+00         0.00000E+00        -0.47799E+08
 
   -0.47410E+08         0.10952E+07         0.00000E+00
    0.10952E+07        -0.49806E+08         0.00000E+00
    0.00000E+00         0.00000E+00        -0.47799E+08
 
   -0.47435E+08         0.11224E+07         0.00000E+00
    0.11224E+07        -0.49795E+08         0.00000E+00
    0.00000E+00         0.00000E+00        -0.47799E+08
 
   -0.47460E+08         0.11494E+07         0.00000E+00
    0.11494E+07        -0.49784E+08         0.00000E+00
    0.00000E+00         0.00000E+00        -0.47799E+08
 
   -0.47486E+08         0.11761E+07         0.00000E+00
    0.11761E+07        -0.49773E+08         0.00000E+00
    0.00000E+00         0.00000E+00        -0.47800E+08
 
   -0.47512E+08         0.12027E+07         0.00000E+00
    0.12027E+07        -0.49761E+08         0.00000E+00
    0.00000E+00         0.00000E+00        -0.47800E+08
 
   -0.47538E+08         0.12290E+07         0.00000E+00
    0.12290E+07        -0.49750E+08         0.00000E+00
    0.00000E+00         0.00000E+00        -0.47800E+08
 
   -0.47565E+08         0.12550E+07         0.00000E+00
    0.12550E+07        -0.49737E+08         0.00000E+00
    0.00000E+00         0.00000E+00        -0.47800E+08
 
   -0.47591E+08         0.12809E+07         0.00000E+00
    0.12809E+07        -0.49725E+08         0.00000E+00
    0.00000E+00         0.00000E+00        -0.47800E+08
 
   -0.47619E+08         0.13064E+07         0.00000E+00
    0.13064E+07        -0.49712E+08         0.00000E+00
    0.00000E+00         0.00000E+00        -0.47800E+08
 
   -0.47646E+08         0.13318E+07         0.00000E+00
    0.13318E+07        -0.49700E+08         0.00000E+00
    0.00000E+00         0.00000E+00        -0.47800E+08
 
   -0.47673E+08         0.13569E+07         0.00000E+00
    0.13569E+07        -0.49686E+08         0.00000E+00
    0.00000E+00         0.00000E+00        -0.47801E+08
 
   -0.47701E+08         0.13817E+07         0.00000E+00
    0.13817E+07        -0.49673E+08         0.00000E+00
    0.00000E+00         0.00000E+00        -0.47801E+08
 
   -0.47729E+08         0.14063E+07         0.00000E+00
    0.14063E+07        -0.49659E+08         0.00000E+00
    0.00000E+00         0.00000E+00        -0.47801E+08
 
   -0.47758E+08         0.14307E+07         0.00000E+00
    0.14307E+07        -0.49645E+08         0.00000E+00
    0.00000E+00         0.00000E+00        -0.47801E+08
 
   -0.47786E+08         0.14548E+07         0.00000E+00
    0.14548E+07        -0.49631E+08         0.00000E+00
    0.00000E+00         0.00000E+00        -0.47801E+08
 
   -0.46566E+08         0.17901E+05         0.00000E+00
    0.17901E+05        -0.50000E+08         0.00000E+00
    0.00000E+00         0.00000E+00        -0.47669E+08
 
   -0.46580E+08         0.53290E+05         0.00000E+00
    0.53290E+05        -0.50000E+08         0.00000E+00
    0.00000E+00         0.00000E+00        -0.47669E+08
 
   -0.46594E+08         0.88525E+05         0.00000E+00
    0.88525E+05        -0.49999E+08         0.00000E+00
    0.00000E+00         0.00000E+00        -0.47669E+08
 
   -0.46608E+08         0.12360E+06         0.00000E+00
    0.12360E+06        -0.49998E+08         0.00000E+00
    0.00000E+00         0.00000E+00        -0.47669E+08
 
   -0.46623E+08         0.15852E+06         0.00000E+00
    0.15852E+06        -0.49997E+08         0.00000E+00
    0.00000E+00         0.00000E+00        -0.47669E+08
 
   -0.46638E+08         0.19328E+06         0.00000E+00
    0.19328E+06        -0.49995E+08         0.00000E+00
    0.00000E+00         0.00000E+00        -0.47670E+08
 
   -0.46654E+08         0.22788E+06         0.00000E+00
    0.22788E+06        -0.49993E+08         0.00000E+00
    0.00000E+00         0.00000E+00        -0.47670E+08
 
   -0.46670E+08         0.26230E+06         0.00000E+00
    0.26230E+06        -0.49991E+08         0.00000E+00
    0.00000E+00         0.00000E+00        -0.47670E+08
 
   -0.46686E+08         0.29656E+06         0.00000E+00
    0.29656E+06        -0.49988E+08         0.00000E+00
    0.00000E+00         0.00000E+00        -0.47670E+08
 
   -0.46703E+08         0.33065E+06         0.00000E+00
    0.33065E+06        -0.49985E+08         0.00000E+00
    0.00000E+00         0.00000E+00        -0.47670E+08
 
   -0.46721E+08         0.36456E+06         0.00000E+00
    0.36456E+06        -0.49982E+08         0.00000E+00
    0.00000E+00         0.00000E+00        -0.47670E+08
 
   -0.46738E+08         0.39830E+06         0.00000E+00
    0.39830E+06        -0.49978E+08         0.00000E+00
    0.00000E+00         0.00000E+00        -0.47671E+08
 
   -0.46756E+08         0.43186E+06         0.00000E+00
    0.43186E+06        -0.49974E+08         0.00000E+00
    0.00000E+00         0.00000E+00        -0.47671E+08
 
   -0.46775E+08         0.46524E+06         0.00000E+00
    0.46524E+06        -0.49970E+08         0.00000E+00
    0.00000E+00         0.00000E+00        -0.47671E+08
 
   -0.46793E+08         0.49844E+06         0.00000E+00
    0.49844E+06        -0.49965E+08         0.00000E+00
    0.00000E+00         0.00000E+00        -0.47671E+08
 
   -0.46813E+08         0.53145E+06         0.00000E+00
    0.53145E+06        -0.49960E+08         0.00000E+00
    0.00000E+00         0.00000E+00        -0.47671E+08
 
   -0.46832E+08         0.56427E+06         0.00000E+00
    0.56427E+06        -0.49955E+08         0.00000E+00
    0.00000E+00         0.00000E+00        -0.47672E+08
 
   -0.46852E+08         0.59690E+06         0.00000E+00
    0.59690E+06        -0.49949E+08         0.00000E+00
    0.00000E+00         0.00000E+00        -0.47672E+08
 
   -0.46872E+08         0.62934E+06         0.00000E+00
    0.62934E+06        -0.49944E+08         0.00000E+00
    0.00000E+00         0.00000E+00        -0.47672E+08
 
   -0.46893E+08         0.66159E+06         0.00000E+00
    0.66159E+06        -0.49937E+08         0.00000E+00
    0.00000E+00         0.00000E+00        -0.47672E+08
 
   -0.46914E+08         0.69364E+06         0.00000E+00
    0.69364E+06        -0.49931E+08         0.00000E+00
    0.00000E+00         0.00000E+00        -0.47673E+08
 
   -0.46935E+08         0.72549E+06         0.00000E+00
    0.72549E+06        -0.49924E+08         0.00000E+00
    0.00000E+00         0.00000E+00        -0.47673E+08
 
   -0.46957E+08         0.75715E+06         0.00000E+00
    0.75715E+06        -0.49917E+08         0.00000E+00
    0.00000E+00         0.00000E+00        -0.47673E+08
 
   -0.46979E+08         0.78860E+06         0.00000E+00
    0.78860E+06        -0.49910E+08         0.00000E+00
    0.00000E+00         0.00000E+00        -0.47674E+08
 
   -0.47002E+08         0.81984E+06         0.00000E+00
    0.81984E+06        -0.49902E+08         0.00000E+00
    0.00000E+00         0.00000E+00        -0.47674E+08
 
   -0.47024E+08         0.85088E+06         0.00000E+00
    0.85088E+06        -0.49894E+08         0.00000E+00
    0.00000E+00         0.00000E+00        -0.47674E+08
 
   -0.47047E+08         0.88171E+06         0.00000E+00
    0.88171E+06        -0.49886E+08         0.00000E+00
    0.00000E+00         0.00000E+00        -0.47674E+08
 
   -0.47071E+08         0.91232E+06         0.00000E+00
    0.91232E+06        -0.49877E+08         0.00000E+00
    0.00000E+00         0.00000E+00        -0.47675E+08
 
   -0.47095E+08         0.94273E+06         0.00000E+00
    0.94273E+06        -0.49868E+08         0.00000E+00
    0.00000E+00         0.00000E+00        -0.47675E+08
 
   -0.47119E+08         0.97291E+06         0.00000E+00
    0.97291E+06        -0.49859E+08         0.00000E+00
    0.00000E+00         0.00000E+00        -0.47675E+08
 
   -0.47143E+08         0.10029E+07         0.00000E+00
    0.10029E+07        -0.49850E+08         0.00000E+00
    0.00000E+00         0.00000E+00        -0.47675E+08
 
   -0.47168E+08         0.10326E+07         0.00000E+00
    0.10326E+07        -0.49840E+08         0.00000E+00
    0.00000E+00         0.00000E+00        -0.47676E+08
 
   -0.47193E+08         0.10622E+07         0.00000E+00
    0.10622E+07        -0.49830E+08         0.00000E+00
    0.00000E+00         0.00000E+00        -0.47676E+08
 
   -0.47218E+08         0.10915E+07         0.00000E+00
    0.10915E+07        -0.49819E+08         0.00000E+00
    0.00000E+00         0.00000E+00        -0.47676E+08
 
   -0.47244E+08         0.11205E+07         0.00000E+00
    0.11205E+07        -0.49809E+08         0.00000E+00
    0.00000E+00         0.00000E+00        -0.47676E+08
 
   -0.47270E+08         0.11494E+07         0.00000E+00
    0.11494E+07        -0.49798E+08         0.00000E+00
    0.00000E+00         0.00000E+00        -0.47677E+08
 
   -0.47296E+08         0.11780E+07         0.00000E+00
    0.11780E+07        -0.49787E+08         0.00000E+00
    0.00000E+00         0.00000E+00        -0.47677E+08
 
   -0.47322E+08         0.12064E+07         0.00000E+00
    0.12064E+07        -0.49775E+08         0.00000E+00
    0.00000E+00         0.00000E+00        -0.47677E+08
 
   -0.47349E+08         0.12345E+07         0.00000E+00
    0.12345E+07        -0.49763E+08         0.00000E+00
    0.00000E+00         0.00000E+00        -0.47677E+08
 
   -0.47376E+08         0.12624E+07         0.00000E+00
    0.12624E+07        -0.49751E+08         0.00000E+00
    0.00000E+00         0.00000E+00        -0.47677E+08
 
   -0.47404E+08         0.12901E+07         0.00000E+00
    0.12901E+07        -0.49739E+08         0.00000E+00
    0.00000E+00         0.00000E+00        -0.47678E+08
 
   -0.47432E+08         0.13175E+07         0.00000E+00
    0.13175E+07        -0.49726E+08         0.00000E+00
    0.00000E+00         0.00000E+00        -0.47678E+08
 
   -0.47460E+08         0.13447E+07         0.00000E+00
    0.13447E+07        -0.49713E+08         0.00000E+00
    0.00000E+00         0.00000E+00        -0.47678E+08
 
   -0.47488E+08         0.13717E+07         0.00000E+00
    0.13717E+07        -0.49700E+08         0.00000E+00
    0.00000E+00         0.00000E+00        -0.47678E+08
 
   -0.47516E+08         0.13983E+07         0.00000E+00
    0.13983E+07        -0.49687E+08         0.00000E+00
    0.00000E+00         0.00000E+00        -0.47678E+08
 
   -0.47545E+08         0.14248E+07         0.00000E+00
    0.14248E+07        -0.49673E+08         0.00000E+00
    0.00000E+00         0.00000E+00        -0.47678E+08
 
   -0.47574E+08         0.14510E+07         0.00000E+00
    0.14510E+07        -0.49659E+08         0.00000E+00
    0.00000E+00         0.00000E+00        -0.47678E+08
 
   -0.47604E+08         0.14769E+07         0.00000E+00
    0.14769E+07        -0.49645E+08         0.00000E+00
    0.00000E+00         0.00000E+00        -0.47678E+08
 
   -0.47633E+08         0.15025E+07         0.00000E+00
    0.15025E+07        -0.49630E+08         0.00000E+00
    0.00000E+00         0.00000E+00        -0.47678E+08
 
   -0.47663E+08         0.15279E+07         0.00000E+00
    0.15279E+07        -0.49615E+08         0.00000E+00
    0.00000E+00         0.00000E+00        -0.47678E+08
 
   -0.46385E+08         0.18776E+05         0.00000E+00
    0.18776E+05        -0.50000E+08         0.00000E+00
    0.00000E+00         0.00000E+00        -0.47540E+08
 
   -0.46399E+08         0.55890E+05         0.00000E+00
    0.55890E+05        -0.50000E+08         0.00000E+00
    0.00000E+00         0.00000E+00        -0.47540E+08
 
   -0.46414E+08         0.92841E+05         0.00000E+00
    0.92841E+05        -0.49999E+08         0.00000E+00
    0.00000E+00         0.00000E+00        -0.47540E+08
 
   -0.46429E+08         0.12963E+06         0.00000E+00
    0.12963E+06        -0.49998E+08         0.00000E+00
    0.00000E+00         0.00000E+00        -0.47540E+08
 
   -0.46445E+08         0.16624E+06         0.00000E+00
    0.16624E+06        -0.49996E+08         0.00000E+00
    0.00000E+00         0.00000E+00        -0.47540E+08
 
   -0.46461E+08         0.20269E+06         0.00000E+00
    0.20269E+06        -0.49995E+08         0.00000E+00
    0.00000E+00         0.00000E+00        -0.47540E+08
 
   -0.46477E+08         0.23897E+06         0.00000E+00
    0.23897E+06        -0.49993E+08         0.00000E+00
    0.00000E+00         0.00000E+00        -0.47541E+08
 
   -0.46494E+08         0.27507E+06         0.00000E+00
    0.27507E+06        -0.49990E+08         0.00000E+00
    0.00000E+00         0.00000E+00        -0.47541E+08
 
   -0.46511E+08         0.31099E+06         0.00000E+00
    0.31099E+06        -0.49987E+08         0.00000E+00
    0.00000E+00         0.00000E+00        -0.47541E+08
 
   -0.46529E+08         0.34673E+06         0.00000E+00
    0.34673E+06        -0.49984E+08         0.00000E+00
    0.00000E+00         0.00000E+00        -0.47541E+08
 
   -0.46547E+08         0.38229E+06         0.00000E+00
    0.38229E+06        -0.49981E+08         0.00000E+00
    0.00000E+00         0.00000E+00        -0.47541E+08
 
   -0.46566E+08         0.41767E+06         0.00000E+00
    0.41767E+06        -0.49977E+08         0.00000E+00
    0.00000E+00         0.00000E+00        -0.47541E+08
 
   -0.46585E+08         0.45286E+06         0.00000E+00
    0.45286E+06        -0.49973E+08         0.00000E+00
    0.00000E+00         0.00000E+00        -0.47542E+08
 
   -0.46604E+08         0.48786E+06         0.00000E+00
    0.48786E+06        -0.49968E+08         0.00000E+00
    0.00000E+00         0.00000E+00        -0.47542E+08
 
   -0.46624E+08         0.52268E+06         0.00000E+00
    0.52268E+06        -0.49964E+08         0.00000E+00
    0.00000E+00         0.00000E+00        -0.47542E+08
 
   -0.46644E+08         0.55729E+06         0.00000E+00
    0.55729E+06        -0.49959E+08         0.00000E+00
    0.00000E+00         0.00000E+00        -0.47542E+08
 
   -0.46665E+08         0.59172E+06         0.00000E+00
    0.59172E+06        -0.49953E+08         0.00000E+00
    0.00000E+00         0.00000E+00        -0.47543E+08
 
   -0.46685E+08         0.62594E+06         0.00000E+00
    0.62594E+06        -0.49947E+08         0.00000E+00
    0.00000E+00         0.00000E+00        -0.47543E+08
 
   -0.46707E+08         0.65997E+06         0.00000E+00
    0.65997E+06        -0.49941E+08         0.00000E+00
    0.00000E+00         0.00000E+00        -0.47543E+08
 
   -0.46728E+08         0.69380E+06         0.00000E+00
    0.69380E+06        -0.49935E+08         0.00000E+00
    0.00000E+00         0.00000E+00        -0.47543E+08
 
   -0.46750E+08         0.72742E+06         0.00000E+00
    0.72742E+06        -0.49928E+08         0.00000E+00
    0.00000E+00         0.00000E+00        -0.47544E+08
 
   -0.46773E+08         0.76084E+06         0.00000E+00
    0.76084E+06        -0.49921E+08         0.00000E+00
    0.00000E+00         0.00000E+00        -0.47544E+08
 
   -0.46796E+08         0.79405E+06         0.00000E+00
    0.79405E+06        -0.49914E+08         0.00000E+00
    0.00000E+00         0.00000E+00        -0.47544E+08
 
   -0.46819E+08         0.82705E+06         0.00000E+00
    0.82705E+06        -0.49906E+08         0.00000E+00
    0.00000E+00         0.00000E+00        -0.47544E+08
 
   -0.46842E+08         0.85984E+06         0.00000E+00
    0.85984E+06        -0.49898E+08         0.00000E+00
    0.00000E+00         0.00000E+00        -0.47545E+08
 
   -0.46866E+08         0.89241E+06         0.00000E+00
    0.89241E+06        -0.49890E+08         0.00000E+00
    0.00000E+00         0.00000E+00        -0.47545E+08
 
   -0.46890E+08         0.92477E+06         0.00000E+00
    0.92477E+06        -0.49881E+08         0.00000E+00
    0.00000E+00         0.00000E+00        -0.47545E+08
 
   -0.46914E+08         0.95691E+06         0.00000E+00
    0.95691E+06        -0.49872E+08         0.00000E+00
    0.00000E+00         0.00000E+00        -0.47546E+08
 
   -0.46939E+08         0.98883E+06         0.00000E+00
    0.98883E+06        -0.49863E+08         0.00000E+00
    0.00000E+00         0.00000E+00        -0.47546E+08
 
   -0.46964E+08         0.10205E+07         0.00000E+00
    0.10205E+07        -0.49853E+08         0.00000E+00
    0.00000E+00         0.00000E+00        -0.47546E+08
 
   -0.46990E+08         0.10520E+07         0.00000E+00
    0.10520E+07        -0.49843E+08         0.00000E+00
    0.00000E+00         0.00000E+00        -0.47546E+08
 
   -0.47016E+08         0.10832E+07         0.00000E+00
    0.10832E+07        -0.49833E+08         0.00000E+00
    0.00000E+00         0.00000E+00        -0.47547E+08
 
   -0.47042E+08         0.11143E+07         0.00000E+00
    0.11143E+07        -0.49823E+08         0.00000E+00
    0.00000E+00         0.00000E+00        -0.47547E+08
 
   -0.47068E+08         0.11451E+07         0.00000E+00
    0.11451E+07        -0.49812E+08         0.00000E+00
    0.00000E+00         0.00000E+00        -0.47547E+08
 
   -0.47095E+08         0.11756E+07         0.00000E+00
    0.11756E+07        -0.49801E+08         0.00000E+00
    0.00000E+00         0.00000E+00        -0.47547E+08
 
   -0.47122E+08         0.12059E+07         0.00000E+00
    0.12059E+07        -0.49790E+08         0.00000E+00
    0.00000E+00         0.00000E+00        -0.47547E+08
 
   -0.47150E+08         0.12360E+07         0.00000E+00
    0.12360E+07        -0.49778E+08         0.00000E+00
    0.00000E+00         0.00000E+00        -0.47548E+08
 
   -0.47177E+08         0.12658E+07         0.00000E+00
    0.12658E+07        -0.49766E+08         0.00000E+00
    0.00000E+00         0.00000E+00        -0.47548E+08
 
   -0.47206E+08         0.12954E+07         0.00000E+00
    0.12954E+07        -0.49754E+08         0.00000E+00
    0.00000E+00         0.00000E+00        -0.47548E+08
 
   -0.47234E+08         0.13248E+07         0.00000E+00
    0.13248E+07        -0.49741E+08         0.00000E+00
    0.00000E+00         0.00000E+00        -0.47548E+08
 
   -0.47263E+08         0.13539E+07         0.00000E+00
    0.13539E+07        -0.49728E+08         0.00000E+00
    0.00000E+00         0.00000E+00        -0.47548E+08
 
   -0.47291E+08         0.13828E+07         0.00000E+00
    0.13828E+07        -0.49715E+08         0.00000E+00
    0.00000E+00         0.00000E+00        -0.47549E+08
 
   -0.47321E+08         0.14114E+07         0.00000E+00
    0.14114E+07        -0.49701E+08         0.00000E+00
    0.00000E+00         0.00000E+00        -0.47549E+08
 
   -0.47350E+08         0.14397E+07         0.00000E+00
    0.14397E+07        -0.49688E+08         0.00000E+00
    0.00000E+00         0.00000E+00        -0.47549E+08
 
   -0.47380E+08         0.14678E+07         0.00000E+00
    0.14678E+07        -0.49674E+08         0.00000E+00
    0.00000E+00         0.00000E+00        -0.47549E+08
 
   -0.47410E+08         0.14957E+07         0.00000E+00
    0.14957E+07        -0.49659E+08         0.00000E+00
    0.00000E+00         0.00000E+00        -0.47549E+08
 
   -0.47441E+08         0.15232E+07         0.00000E+00
    0.15232E+07        -0.49645E+08         0.00000E+00
    0.00000E+00         0.00000E+00        -0.47549E+08
 
   -0.47471E+08         0.15506E+07         0.00000E+00
    0.15506E+07        -0.49630E+08         0.00000E+00
    0.00000E+00         0.00000E+00        -0.47549E+08
 
   -0.47502E+08         0.15776E+07         0.00000E+00
    0.15776E+07        -0.49615E+08         0.00000E+00
    0.00000E+00         0.00000E+00        -0.47549E+08
 
   -0.47534E+08         0.16044E+07         0.00000E+00
    0.16044E+07        -0.49599E+08         0.00000E+00
    0.00000E+00         0.00000E+00        -0.47549E+08
 
   -0.46194E+08         0.19687E+05         0.00000E+00
    0.19687E+05        -0.50000E+08         0.00000E+00
    0.00000E+00         0.00000E+00        -0.47404E+08
 
   -0.46209E+08         0.58595E+05         0.00000E+00
    0.58595E+05        -0.50000E+08         0.00000E+00
    0.00000E+00         0.00000E+00        -0.47404E+08
 
   -0.46225E+08         0.97330E+05         0.00000E+00
    0.97330E+05        -0.49999E+08         0.00000E+00
    0.00000E+00         0.00000E+00        -0.47404E+08
 
   -0.46241E+08         0.13589E+06         0.00000E+00
    0.13589E+06        -0.49998E+08         0.00000E+00
    0.00000E+00         0.00000E+00        -0.47404E+08
 
   -0.46258E+08         0.17427E+06         0.00000E+00
    0.17427E+06        -0.49996E+08         0.00000E+00
    0.00000E+00         0.00000E+00        -0.47404E+08
 
   -0.46274E+08         0.21248E+06         0.00000E+00
    0.21248E+06        -0.49994E+08         0.00000E+00
    0.00000E+00         0.00000E+00        -0.47404E+08
 
   -0.46292E+08         0.25050E+06         0.00000E+00
    0.25050E+06        -0.49992E+08         0.00000E+00
    0.00000E+00         0.00000E+00        -0.47404E+08
 
   -0.46310E+08         0.28834E+06         0.00000E+00
    0.28834E+06        -0.49990E+08         0.00000E+00
    0.00000E+00         0.00000E+00        -0.47405E+08
 
   -0.46328E+08         0.32599E+06         0.00000E+00
    0.32599E+06        -0.49987E+08         0.00000E+00
    0.00000E+00         0.00000E+00        -0.47405E+08
 
   -0.46347E+08         0.36346E+06         0.00000E+00
    0.36346E+06        -0.49984E+08         0.00000E+00
    0.00000E+00         0.00000E+00        -0.47405E+08
 
   -0.46366E+08         0.40073E+06         0.00000E+00
    0.40073E+06        -0.49980E+08         0.00000E+00
    0.00000E+00         0.00000E+00        -0.47405E+08
 
   -0.46385E+08         0.43781E+06         0.00000E+00
    0.43781E+06        -0.49976E+08         0.00000E+00
    0.00000E+00         0.00000E+00        -0.47405E+08
 
   -0.46405E+08         0.47470E+06         0.00000E+00
    0.47470E+06        -0.49972E+08         0.00000E+00
    0.00000E+00         0.00000E+00        -0.47406E+08
 
   -0.46425E+08         0.51139E+06         0.00000E+00
    0.51139E+06        -0.49967E+08         0.00000E+00
    0.00000E+00         0.00000E+00        -0.47406E+08
 
   -0.46446E+08         0.54788E+06         0.00000E+00
    0.54788E+06        -0.49962E+08         0.00000E+00
    0.00000E+00         0.00000E+00        -0.47406E+08
 
   -0.46467E+08         0.58417E+06         0.00000E+00
    0.58417E+06        -0.49957E+08         0.00000E+00
    0.00000E+00         0.00000E+00        -0.47406E+08
 
   -0.46489E+08         0.62026E+06         0.00000E+00
    0.62026E+06        -0.49951E+08         0.00000E+00
    0.00000E+00         0.00000E+00        -0.47406E+08
 
   -0.46511E+08         0.65615E+06         0.00000E+00
    0.65615E+06        -0.49945E+08         0.00000E+00
    0.00000E+00         0.00000E+00        -0.47407E+08
 
   -0.46533E+08         0.69182E+06         0.00000E+00
    0.69182E+06        -0.49939E+08         0.00000E+00
    0.00000E+00         0.00000E+00        -0.47407E+08
 
   -0.46556E+08         0.72729E+06         0.00000E+00
    0.72729E+06        -0.49932E+08         0.00000E+00
    0.00000E+00         0.00000E+00        -0.47407E+08
 
   -0.46579E+08         0.76255E+06         0.00000E+00
    0.76255E+06        -0.49925E+08         0.00000E+00
    0.00000E+00         0.00000E+00        -0.47408E+08
 
   -0.46602E+08         0.79760E+06         0.00000E+00
    0.79760E+06        -0.49918E+08         0.00000E+00
    0.00000E+00         0.00000E+00        -0.47408E+08
 
   -0.46626E+08         0.83243E+06         0.00000E+00
    0.83243E+06        -0.49910E+08         0.00000E+00
    0.00000E+00         0.00000E+00        -0.47408E+08
 
   -0.46650E+08         0.86705E+06         0.00000E+00
    0.86705E+06        -0.49902E+08         0.00000E+00
    0.00000E+00         0.00000E+00        -0.47408E+08
 
   -0.46675E+08         0.90145E+06         0.00000E+00
    0.90145E+06        -0.49894E+08         0.00000E+00
    0.00000E+00         0.00000E+00        -0.47409E+08
 
   -0.46700E+08         0.93562E+06         0.00000E+00
    0.93562E+06        -0.49885E+08         0.00000E+00
    0.00000E+00         0.00000E+00        -0.47409E+08
 
   -0.46725E+08         0.96958E+06         0.00000E+00
    0.96958E+06        -0.49876E+08         0.00000E+00
    0.00000E+00         0.00000E+00        -0.47409E+08
 
   -0.46750E+08         0.10033E+07         0.00000E+00
    0.10033E+07        -0.49867E+08         0.00000E+00
    0.00000E+00         0.00000E+00        -0.47409E+08
 
   -0.46776E+08         0.10368E+07         0.00000E+00
    0.10368E+07        -0.49857E+08         0.00000E+00
    0.00000E+00         0.00000E+00        -0.47410E+08
 
   -0.46803E+08         0.10701E+07         0.00000E+00
    0.10701E+07        -0.49848E+08         0.00000E+00
    0.00000E+00         0.00000E+00        -0.47410E+08
 
   -0.46829E+08         0.11031E+07         0.00000E+00
    0.11031E+07        -0.49837E+08         0.00000E+00
    0.00000E+00         0.00000E+00        -0.47410E+08
 
   -0.46856E+08         0.11359E+07         0.00000E+00
    0.11359E+07        -0.49827E+08         0.00000E+00
    0.00000E+00         0.00000E+00        -0.47410E+08
 
   -0.46884E+08         0.11685E+07         0.00000E+00
    0.11685E+07        -0.49816E+08         0.00000E+00
    0.00000E+00         0.00000E+00        -0.47411E+08
 
   -0.46911E+08         0.12009E+07         0.00000E+00
    0.12009E+07        -0.49805E+08         0.00000E+00
    0.00000E+00         0.00000E+00        -0.47411E+08
 
   -0.46939E+08         0.12330E+07         0.00000E+00
    0.12330E+07        -0.49793E+08         0.00000E+00
    0.00000E+00         0.00000E+00        -0.47411E+08
 
   -0.46967E+08         0.12648E+07         0.00000E+00
    0.12648E+07        -0.49781E+08         0.00000E+00
    0.00000E+00         0.00000E+00        -0.47411E+08
 
   -0.46996E+08         0.12964E+07         0.00000E+00
    0.12964E+07        -0.49769E+08         0.00000E+00
    0.00000E+00         0.00000E+00        -0.47412E+08
 
   -0.47025E+08         0.13278E+07         0.00000E+00
    0.13278E+07        -0.49756E+08         0.00000E+00
    0.00000E+00         0.00000E+00        -0.47412E+08
 
   -0.47054E+08         0.13589E+07         0.00000E+00
    0.13589E+07        -0.49744E+08         0.00000E+00
    0.00000E+00         0.00000E+00        -0.47412E+08
 
   -0.47084E+08         0.13898E+07         0.00000E+00
    0.13898E+07        -0.49731E+08         0.00000E+00
    0.00000E+00         0.00000E+00        -0.47412E+08
 
   -0.47114E+08         0.14204E+07         0.00000E+00
    0.14204E+07        -0.49717E+08         0.00000E+00
    0.00000E+00         0.00000E+00        -0.47412E+08
 
   -0.47144E+08         0.14508E+07         0.00000E+00
    0.14508E+07        -0.49703E+08         0.00000E+00
    0.00000E+00         0.00000E+00        -0.47412E+08
 
   -0.47175E+08         0.14809E+07         0.00000E+00
    0.14809E+07        -0.49689E+08         0.00000E+00
    0.00000E+00         0.00000E+00        -0.47413E+08
 
   -0.47205E+08         0.15107E+07         0.00000E+00
    0.15107E+07        -0.49675E+08         0.00000E+00
    0.00000E+00         0.00000E+00        -0.47413E+08
 
   -0.47237E+08         0.15403E+07         0.00000E+00
    0.15403E+07        -0.49660E+08         0.00000E+00
    0.00000E+00         0.00000E+00        -0.47413E+08
 
   -0.47268E+08         0.15696E+07         0.00000E+00
    0.15696E+07        -0.49645E+08         0.00000E+00
    0.00000E+00         0.00000E+00        -0.47413E+08
 
   -0.47300E+08         0.15987E+07         0.00000E+00
    0.15987E+07        -0.49630E+08         0.00000E+00
    0.00000E+00         0.00000E+00        -0.47413E+08
 
   -0.47332E+08         0.16275E+07         0.00000E+00
    0.16275E+07        -0.49615E+08         0.00000E+00
    0.00000E+00         0.00000E+00        -0.47413E+08
 
   -0.47364E+08         0.16560E+07         0.00000E+00
    0.16560E+07        -0.49599E+08         0.00000E+00
    0.00000E+00         0.00000E+00        -0.47413E+08
 
   -0.47397E+08         0.16842E+07         0.00000E+00
    0.16842E+07        -0.49583E+08         0.00000E+00
    0.00000E+00         0.00000E+00        -0.47413E+08
 
   -0.45995E+08         0.20632E+05         0.00000E+00
    0.20632E+05        -0.50000E+08         0.00000E+00
    0.00000E+00         0.00000E+00        -0.47261E+08
 
   -0.46011E+08         0.61403E+05         0.00000E+00
    0.61403E+05        -0.50000E+08         0.00000E+00
    0.00000E+00         0.00000E+00        -0.47261E+08
 
   -0.46027E+08         0.10199E+06         0.00000E+00
    0.10199E+06        -0.49999E+08         0.00000E+00
    0.00000E+00         0.00000E+00        -0.47261E+08
 
   -0.46044E+08         0.14239E+06         0.00000E+00
    0.14239E+06        -0.49998E+08         0.00000E+00
    0.00000E+00         0.00000E+00        -0.47261E+08
 
   -0.46061E+08         0.18261E+06         0.00000E+00
    0.18261E+06        -0.49996E+08         0.00000E+00
    0.00000E+00         0.00000E+00        -0.47261E+08
 
   -0.46079E+08         0.22264E+06         0.00000E+00
    0.22264E+06        -0.49994E+08         0.00000E+00
    0.00000E+00         0.00000E+00        -0.47261E+08
 
   -0.46098E+08         0.26248E+06         0.00000E+00
    0.26248E+06        -0.49992E+08         0.00000E+00
    0.00000E+00         0.00000E+00        -0.47261E+08
 
   -0.46116E+08         0.30212E+06         0.00000E+00
    0.30212E+06        -0.49989E+08         0.00000E+00
    0.00000E+00         0.00000E+00        -0.47261E+08
 
   -0.46136E+08         0.34157E+06         0.00000E+00
    0.34157E+06        -0.49986E+08         0.00000E+00
    0.00000E+00         0.00000E+00        -0.47261E+08
 
   -0.46155E+08         0.38082E+06         0.00000E+00
    0.38082E+06        -0.49983E+08         0.00000E+00
    0.00000E+00         0.00000E+00        -0.47261E+08
 
   -0.46175E+08         0.41987E+06         0.00000E+00
    0.41987E+06        -0.49979E+08         0.00000E+00
    0.00000E+00         0.00000E+00        -0.47262E+08
 
   -0.46196E+08         0.45872E+06         0.00000E+00
    0.45872E+06        -0.49975E+08         0.00000E+00
    0.00000E+00         0.00000E+00        -0.47262E+08
 
   -0.46217E+08         0.49737E+06         0.00000E+00
    0.49737E+06        -0.49971E+08         0.00000E+00
    0.00000E+00         0.00000E+00        -0.47262E+08
 
   -0.46238E+08         0.53582E+06         0.00000E+00
    0.53582E+06        -0.49966E+08         0.00000E+00
    0.00000E+00         0.00000E+00        -0.47262E+08
 
   -0.46260E+08         0.57406E+06         0.00000E+00
    0.57406E+06        -0.49961E+08         0.00000E+00
    0.00000E+00         0.00000E+00        -0.47263E+08
 
   -0.46282E+08         0.61209E+06         0.00000E+00
    0.61209E+06        -0.49955E+08         0.00000E+00
    0.00000E+00         0.00000E+00        -0.47263E+08
 
   -0.46305E+08         0.64991E+06         0.00000E+00
    0.64991E+06        -0.49949E+08         0.00000E+00
    0.00000E+00         0.00000E+00        -0.47263E+08
 
   -0.46328E+08         0.68752E+06         0.00000E+00
    0.68752E+06        -0.49943E+08         0.00000E+00
    0.00000E+00         0.00000E+00        -0.47263E+08
 
   -0.46351E+08         0.72491E+06         0.00000E+00
    0.72491E+06        -0.49937E+08         0.00000E+00
    0.00000E+00         0.00000E+00        -0.47264E+08
 
   -0.46375E+08         0.76209E+06         0.00000E+00
    0.76209E+06        -0.49930E+08         0.00000E+00
    0.00000E+00         0.00000E+00        -0.47264E+08
 
   -0.46399E+08         0.79905E+06         0.00000E+00
    0.79905E+06        -0.49922E+08         0.00000E+00
    0.00000E+00         0.00000E+00        -0.47264E+08
 
   -0.46423E+08         0.83580E+06         0.00000E+00
    0.83580E+06        -0.49915E+08         0.00000E+00
    0.00000E+00         0.00000E+00        -0.47264E+08
 
   -0.46448E+08         0.87232E+06         0.00000E+00
    0.87232E+06        -0.49907E+08         0.00000E+00
    0.00000E+00         0.00000E+00        -0.47265E+08
 
   -0.46473E+08         0.90862E+06         0.00000E+00
    0.90862E+06        -0.49899E+08         0.00000E+00
    0.00000E+00         0.00000E+00        -0.47265E+08
 
   -0.46499E+08         0.94469E+06         0.00000E+00
    0.94469E+06        -0.49890E+08         0.00000E+00
    0.00000E+00         0.00000E+00        -0.47265E+08
 
   -0.46525E+08         0.98054E+06         0.00000E+00
    0.98054E+06        -0.49881E+08         0.00000E+00
    0.00000E+00         0.00000E+00        -0.47265E+08
 
   -0.46551E+08         0.10162E+07         0.00000E+00
    0.10162E+07        -0.49872E+08         0.00000E+00
    0.00000E+00         0.00000E+00        -0.47266E+08
 
   -0.46578E+08         0.10515E+07         0.00000E+00
    0.10515E+07        -0.49862E+08         0.00000E+00
    0.00000E+00         0.00000E+00        -0.47266E+08
 
   -0.46605E+08         0.10867E+07         0.00000E+00
    0.10867E+07        -0.49852E+08         0.00000E+00
    0.00000E+00         0.00000E+00        -0.47266E+08
 
   -0.46633E+08         0.11216E+07         0.00000E+00
    0.11216E+07        -0.49842E+08         0.00000E+00
    0.00000E+00         0.00000E+00        -0.47266E+08
 
   -0.46661E+08         0.11563E+07         0.00000E+00
    0.11563E+07        -0.49831E+08         0.00000E+00
    0.00000E+00         0.00000E+00        -0.47267E+08
 
   -0.46689E+08         0.11908E+07         0.00000E+00
    0.11908E+07        -0.49820E+08         0.00000E+00
    0.00000E+00         0.00000E+00        -0.47267E+08
 
   -0.46717E+08         0.12250E+07         0.00000E+00
    0.12250E+07        -0.49809E+08         0.00000E+00
    0.00000E+00         0.00000E+00        -0.47267E+08
 
   -0.46746E+08         0.12589E+07         0.00000E+00
    0.12589E+07        -0.49797E+08         0.00000E+00
    0.00000E+00         0.00000E+00        -0.47267E+08
 
   -0.46775E+08         0.12926E+07         0.00000E+00
    0.12926E+07        -0.49785E+08         0.00000E+00
    0.00000E+00         0.00000E+00        -0.47268E+08
 
   -0.46805E+08         0.13261E+07         0.00000E+00
    0.13261E+07        -0.49773E+08         0.00000E+00
    0.00000E+00         0.00000E+00        -0.47268E+08
 
   -0.46835E+08         0.13593E+07         0.00000E+00
    0.13593E+07        -0.49760E+08         0.00000E+00
    0.00000E+00         0.00000E+00        -0.47268E+08
 
   -0.46865E+08         0.13923E+07         0.00000E+00
    0.13923E+07        -0.49747E+08         0.00000E+00
    0.00000E+00         0.00000E+00        -0.47268E+08
 
   -0.46895E+08         0.14250E+07         0.00000E+00
    0.14250E+07        -0.49734E+08         0.00000E+00
    0.00000E+00         0.00000E+00        -0.47268E+08
 
   -0.46926E+08         0.14575E+07         0.00000E+00
    0.14575E+07        -0.49720E+08         0.00000E+00
    0.00000E+00         0.00000E+00        -0.47269E+08
 
   -0.46957E+08         0.14897E+07         0.00000E+00
    0.14897E+07        -0.49706E+08         0.00000E+00
    0.00000E+00         0.00000E+00        -0.47269E+08
 
   -0.46989E+08         0.15216E+07         0.00000E+00
    0.15216E+07        -0.49692E+08         0.00000E+00
    0.00000E+00         0.00000E+00        -0.47269E+08
 
   -0.47021E+08         0.15533E+07         0.00000E+00
    0.15533E+07        -0.49677E+08         0.00000E+00
    0.00000E+00         0.00000E+00        -0.47269E+08
 
   -0.47053E+08         0.15847E+07         0.00000E+00
    0.15847E+07        -0.49662E+08         0.00000E+00
    0.00000E+00         0.00000E+00        -0.47269E+08
 
   -0.47085E+08         0.16159E+07         0.00000E+00
    0.16159E+07        -0.49647E+08         0.00000E+00
    0.00000E+00         0.00000E+00        -0.47269E+08
 
   -0.47118E+08         0.16467E+07         0.00000E+00
    0.16467E+07        -0.49631E+08         0.00000E+00
    0.00000E+00         0.00000E+00        -0.47269E+08
 
   -0.47151E+08         0.16773E+07         0.00000E+00
    0.16773E+07        -0.49615E+08         0.00000E+00
    0.00000E+00         0.00000E+00        -0.47269E+08
 
   -0.47185E+08         0.17076E+07         0.00000E+00
    0.17076E+07        -0.49599E+08         0.00000E+00
    0.00000E+00         0.00000E+00        -0.47269E+08
 
   -0.47218E+08         0.17377E+07         0.00000E+00
    0.17377E+07        -0.49583E+08         0.00000E+00
    0.00000E+00         0.00000E+00        -0.47270E+08
 
   -0.47252E+08         0.17675E+07         0.00000E+00
    0.17675E+07        -0.49566E+08         0.00000E+00
    0.00000E+00         0.00000E+00        -0.47270E+08
 
   -0.45785E+08         0.21614E+05         0.00000E+00
    0.21614E+05        -0.50000E+08         0.00000E+00
    0.00000E+00         0.00000E+00        -0.47109E+08
 
   -0.45802E+08         0.64316E+05         0.00000E+00
    0.64316E+05        -0.50000E+08         0.00000E+00
    0.00000E+00         0.00000E+00        -0.47109E+08
 
   -0.45820E+08         0.10683E+06         0.00000E+00
    0.10683E+06        -0.49999E+08         0.00000E+00
    0.00000E+00         0.00000E+00        -0.47109E+08
 
   -0.45838E+08         0.14914E+06         0.00000E+00
    0.14914E+06        -0.49998E+08         0.00000E+00
    0.00000E+00         0.00000E+00        -0.47109E+08
 
   -0.45856E+08         0.19126E+06         0.00000E+00
    0.19126E+06        -0.49996E+08         0.00000E+00
    0.00000E+00         0.00000E+00        -0.47110E+08
 
   -0.45875E+08         0.23317E+06         0.00000E+00
    0.23317E+06        -0.49994E+08         0.00000E+00
    0.00000E+00         0.00000E+00        -0.47110E+08
 
   -0.45894E+08         0.27489E+06         0.00000E+00
    0.27489E+06        -0.49992E+08         0.00000E+00
    0.00000E+00         0.00000E+00        -0.47110E+08
 
   -0.45914E+08         0.31641E+06         0.00000E+00
    0.31641E+06        -0.49989E+08         0.00000E+00
    0.00000E+00         0.00000E+00        -0.47110E+08
 
   -0.45934E+08         0.35772E+06         0.00000E+00
    0.35772E+06        -0.49986E+08         0.00000E+00
    0.00000E+00         0.00000E+00        -0.47110E+08
 
   -0.45955E+08         0.39882E+06         0.00000E+00
    0.39882E+06        -0.49982E+08         0.00000E+00
    0.00000E+00         0.00000E+00        -0.47110E+08
 
   -0.45976E+08         0.43972E+06         0.00000E+00
    0.43972E+06        -0.49979E+08         0.00000E+00
    0.00000E+00         0.00000E+00        -0.47110E+08
 
   -0.45998E+08         0.48041E+06         0.00000E+00
    0.48041E+06        -0.49974E+08         0.00000E+00
    0.00000E+00         0.00000E+00        -0.47111E+08
 
   -0.46020E+08         0.52089E+06         0.00000E+00
    0.52089E+06        -0.49970E+08         0.00000E+00
    0.00000E+00         0.00000E+00        -0.47111E+08
 
   -0.46042E+08         0.56115E+06         0.00000E+00
    0.56115E+06        -0.49965E+08         0.00000E+00
    0.00000E+00         0.00000E+00        -0.47111E+08
 
   -0.46065E+08         0.60120E+06         0.00000E+00
    0.60120E+06        -0.49959E+08         0.00000E+00
    0.00000E+00         0.00000E+00        -0.47111E+08
 
   -0.46088E+08         0.64104E+06         0.00000E+00
    0.64104E+06        -0.49954E+08         0.00000E+00
    0.00000E+00         0.00000E+00        -0.47112E+08
 
   -0.46112E+08         0.68066E+06         0.00000E+00
    0.68066E+06        -0.49948E+08         0.00000E+00
    0.00000E+00         0.00000E+00        -0.47112E+08
 
   -0.46136E+08         0.72005E+06         0.00000E+00
    0.72005E+06        -0.49941E+08         0.00000E+00
    0.00000E+00         0.00000E+00        -0.47112E+08
 
   -0.46160E+08         0.75923E+06         0.00000E+00
    0.75923E+06        -0.49934E+08         0.00000E+00
    0.00000E+00         0.00000E+00        -0.47112E+08
 
   -0.46185E+08         0.79819E+06         0.00000E+00
    0.79819E+06        -0.49927E+08         0.00000E+00
    0.00000E+00         0.00000E+00        -0.47113E+08
 
   -0.46210E+08         0.83692E+06         0.00000E+00
    0.83692E+06        -0.49920E+08         0.00000E+00
    0.00000E+00         0.00000E+00        -0.47113E+08
 
   -0.46236E+08         0.87543E+06         0.00000E+00
    0.87543E+06        -0.49912E+08         0.00000E+00
    0.00000E+00         0.00000E+00        -0.47113E+08
 
   -0.46262E+08         0.91371E+06         0.00000E+00
    0.91371E+06        -0.49904E+08         0.00000E+00
    0.00000E+00         0.00000E+00        -0.47113E+08
 
   -0.46288E+08         0.95176E+06         0.00000E+00
    0.95176E+06        -0.49895E+08         0.00000E+00
    0.00000E+00         0.00000E+00        -0.47114E+08
 
   -0.46315E+08         0.98957E+06         0.00000E+00
    0.98957E+06        -0.49886E+08         0.00000E+00
    0.00000E+00         0.00000E+00        -0.47114E+08
 
   -0.46342E+08         0.10272E+07         0.00000E+00
    0.10272E+07        -0.49877E+08         0.00000E+00
    0.00000E+00         0.00000E+00        -0.47114E+08
 
   -0.46370E+08         0.10645E+07         0.00000E+00
    0.10645E+07        -0.49867E+08         0.00000E+00
    0.00000E+00         0.00000E+00        -0.47114E+08
 
   -0.46397E+08         0.11016E+07         0.00000E+00
    0.11016E+07        -0.49857E+08         0.00000E+00
    0.00000E+00         0.00000E+00        -0.47115E+08
 
   -0.46426E+08         0.11385E+07         0.00000E+00
    0.11385E+07        -0.49847E+08         0.00000E+00
    0.00000E+00         0.00000E+00        -0.47115E+08
 
   -0.46454E+08         0.11751E+07         0.00000E+00
    0.11751E+07        -0.49836E+08         0.00000E+00
    0.00000E+00         0.00000E+00        -0.47115E+08
 
   -0.46483E+08         0.12115E+07         0.00000E+00
    0.12115E+07        -0.49825E+08         0.00000E+00
    0.00000E+00         0.00000E+00        -0.47115E+08
 
   -0.46513E+08         0.12477E+07         0.00000E+00
    0.12477E+07        -0.49813E+08         0.00000E+00
    0.00000E+00         0.00000E+00        -0.47116E+08
 
   -0.46543E+08         0.12836E+07         0.00000E+00
    0.12836E+07        -0.49802E+08         0.00000E+00
    0.00000E+00         0.00000E+00        -0.47116E+08
 
   -0.46573E+08         0.13193E+07         0.00000E+00
    0.13193E+07        -0.49789E+08         0.00000E+00
    0.00000E+00         0.00000E+00        -0.47116E+08
 
   -0.46603E+08         0.13547E+07         0.00000E+00
    0.13547E+07        -0.49777E+08         0.00000E+00
    0.00000E+00         0.00000E+00        -0.47116E+08
 
   -0.46634E+08         0.13898E+07         0.00000E+00
    0.13898E+07        -0.49764E+08         0.00000E+00
    0.00000E+00         0.00000E+00        -0.47116E+08
 
   -0.46665E+08         0.14247E+07         0.00000E+00
    0.14247E+07        -0.49751E+08         0.00000E+00
    0.00000E+00         0.00000E+00        -0.47117E+08
 
   -0.46696E+08         0.14594E+07         0.00000E+00
    0.14594E+07        -0.49737E+08         0.00000E+00
    0.00000E+00         0.00000E+00        -0.47117E+08
 
   -0.46728E+08         0.14938E+07         0.00000E+00
    0.14938E+07        -0.49724E+08         0.00000E+00
    0.00000E+00         0.00000E+00        -0.47117E+08
 
   -0.46760E+08         0.15279E+07         0.00000E+00
    0.15279E+07        -0.49709E+08         0.00000E+00
    0.00000E+00         0.00000E+00        -0.47117E+08
 
   -0.46793E+08         0.15618E+07         0.00000E+00
    0.15618E+07        -0.49695E+08         0.00000E+00
    0.00000E+00         0.00000E+00        -0.47117E+08
 
   -0.46826E+08         0.15953E+07         0.00000E+00
    0.15953E+07        -0.49680E+08         0.00000E+00
    0.00000E+00         0.00000E+00        -0.47118E+08
 
   -0.46859E+08         0.16287E+07         0.00000E+00
    0.16287E+07        -0.49665E+08         0.00000E+00
    0.00000E+00         0.00000E+00        -0.47118E+08
 
   -0.46892E+08         0.16617E+07         0.00000E+00
    0.16617E+07        -0.49649E+08         0.00000E+00
    0.00000E+00         0.00000E+00        -0.47118E+08
 
   -0.46926E+08         0.16945E+07         0.00000E+00
    0.16945E+07        -0.49633E+08         0.00000E+00
    0.00000E+00         0.00000E+00        -0.47118E+08
 
   -0.46960E+08         0.17270E+07         0.00000E+00
    0.17270E+07        -0.49617E+08         0.00000E+00
    0.00000E+00         0.00000E+00        -0.47118E+08
 
   -0.46995E+08         0.17593E+07         0.00000E+00
    0.17593E+07        -0.49601E+08         0.00000E+00
    0.00000E+00         0.00000E+00        -0.47118E+08
 
   -0.47030E+08         0.17912E+07         0.00000E+00
    0.17912E+07        -0.49584E+08         0.00000E+00
    0.00000E+00         0.00000E+00        -0.47118E+08
 
   -0.47065E+08         0.18229E+07         0.00000E+00
    0.18229E+07        -0.49567E+08         0.00000E+00
    0.00000E+00         0.00000E+00        -0.47118E+08
 
   -0.47100E+08         0.18542E+07         0.00000E+00
    0.18542E+07        -0.49549E+08         0.00000E+00
    0.00000E+00         0.00000E+00        -0.47118E+08
 
   -0.45566E+08         0.22630E+05         0.00000E+00
    0.22630E+05        -0.50000E+08         0.00000E+00
    0.00000E+00         0.00000E+00        -0.46950E+08
 
   -0.45584E+08         0.67332E+05         0.00000E+00
    0.67332E+05        -0.50000E+08         0.00000E+00
    0.00000E+00         0.00000E+00        -0.46950E+08
 
   -0.45603E+08         0.11183E+06         0.00000E+00
    0.11183E+06        -0.49999E+08         0.00000E+00
    0.00000E+00         0.00000E+00        -0.46950E+08
 
   -0.45622E+08         0.15612E+06         0.00000E+00
    0.15612E+06        -0.49997E+08         0.00000E+00
    0.00000E+00         0.00000E+00        -0.46950E+08
 
   -0.45641E+08         0.20021E+06         0.00000E+00
    0.20021E+06        -0.49996E+08         0.00000E+00
    0.00000E+00         0.00000E+00        -0.46950E+08
 
   -0.45661E+08         0.24408E+06         0.00000E+00
    0.24408E+06        -0.49994E+08         0.00000E+00
    0.00000E+00         0.00000E+00        -0.46950E+08
 
   -0.45681E+08         0.28775E+06         0.00000E+00
    0.28775E+06        -0.49991E+08         0.00000E+00
    0.00000E+00         0.00000E+00        -0.46950E+08
 
   -0.45702E+08         0.33120E+06         0.00000E+00
    0.33120E+06        -0.49989E+08         0.00000E+00
    0.00000E+00         0.00000E+00        -0.46950E+08
 
   -0.45723E+08         0.37444E+06         0.00000E+00
    0.37444E+06        -0.49985E+08         0.00000E+00
    0.00000E+00         0.00000E+00        -0.46951E+08
 
   -0.45745E+08         0.41746E+06         0.00000E+00
    0.41746E+06        -0.49982E+08         0.00000E+00
    0.00000E+00         0.00000E+00        -0.46951E+08
 
   -0.45767E+08         0.46027E+06         0.00000E+00
    0.46027E+06        -0.49978E+08         0.00000E+00
    0.00000E+00         0.00000E+00        -0.46951E+08
 
   -0.45790E+08         0.50286E+06         0.00000E+00
    0.50286E+06        -0.49973E+08         0.00000E+00
    0.00000E+00         0.00000E+00        -0.46951E+08
 
   -0.45813E+08         0.54523E+06         0.00000E+00
    0.54523E+06        -0.49969E+08         0.00000E+00
    0.00000E+00         0.00000E+00        -0.46951E+08
 
   -0.45836E+08         0.58739E+06         0.00000E+00
    0.58739E+06        -0.49964E+08         0.00000E+00
    0.00000E+00         0.00000E+00        -0.46952E+08
 
   -0.45860E+08         0.62931E+06         0.00000E+00
    0.62931E+06        -0.49958E+08         0.00000E+00
    0.00000E+00         0.00000E+00        -0.46952E+08
 
   -0.45885E+08         0.67102E+06         0.00000E+00
    0.67102E+06        -0.49952E+08         0.00000E+00
    0.00000E+00         0.00000E+00        -0.46952E+08
 
   -0.45909E+08         0.71250E+06         0.00000E+00
    0.71250E+06        -0.49946E+08         0.00000E+00
    0.00000E+00         0.00000E+00        -0.46952E+08
 
   -0.45934E+08         0.75376E+06         0.00000E+00
    0.75376E+06        -0.49939E+08         0.00000E+00
    0.00000E+00         0.00000E+00        -0.46953E+08
 
   -0.45960E+08         0.79479E+06         0.00000E+00
    0.79479E+06        -0.49932E+08         0.00000E+00
    0.00000E+00         0.00000E+00        -0.46953E+08
 
   -0.45986E+08         0.83558E+06         0.00000E+00
    0.83558E+06        -0.49925E+08         0.00000E+00
    0.00000E+00         0.00000E+00        -0.46953E+08
 
   -0.46012E+08         0.87615E+06         0.00000E+00
    0.87615E+06        -0.49917E+08         0.00000E+00
    0.00000E+00         0.00000E+00        -0.46953E+08
 
   -0.46039E+08         0.91649E+06         0.00000E+00
    0.91649E+06        -0.49909E+08         0.00000E+00
    0.00000E+00         0.00000E+00        -0.46954E+08
 
   -0.46066E+08         0.95660E+06         0.00000E+00
    0.95660E+06        -0.49900E+08         0.00000E+00
    0.00000E+00         0.00000E+00        -0.46954E+08
 
   -0.46094E+08         0.99646E+06         0.00000E+00
    0.99646E+06        -0.49891E+08         0.00000E+00
    0.00000E+00         0.00000E+00        -0.46954E+08
 
   -0.46122E+08         0.10361E+07         0.00000E+00
    0.10361E+07        -0.49882E+08         0.00000E+00
    0.00000E+00         0.00000E+00        -0.46954E+08
 
   -0.46150E+08         0.10755E+07         0.00000E+00
    0.10755E+07        -0.49872E+08         0.00000E+00
    0.00000E+00         0.00000E+00        -0.46955E+08
 
   -0.46179E+08         0.11146E+07         0.00000E+00
    0.11146E+07        -0.49862E+08         0.00000E+00
    0.00000E+00         0.00000E+00        -0.46955E+08
 
   -0.46208E+08         0.11536E+07         0.00000E+00
    0.11536E+07        -0.49852E+08         0.00000E+00
    0.00000E+00         0.00000E+00        -0.46955E+08
 
   -0.46238E+08         0.11922E+07         0.00000E+00
    0.11922E+07        -0.49841E+08         0.00000E+00
    0.00000E+00         0.00000E+00        -0.46955E+08
 
   -0.46267E+08         0.12307E+07         0.00000E+00
    0.12307E+07        -0.49830E+08         0.00000E+00
    0.00000E+00         0.00000E+00        -0.46956E+08
 
   -0.46298E+08         0.12688E+07         0.00000E+00
    0.12688E+07        -0.49819E+08         0.00000E+00
    0.00000E+00         0.00000E+00        -0.46956E+08
 
   -0.46328E+08         0.13068E+07         0.00000E+00
    0.13068E+07        -0.49807E+08         0.00000E+00
    0.00000E+00         0.00000E+00        -0.46956E+08
 
   -0.46359E+08         0.13445E+07         0.00000E+00
    0.13445E+07        -0.49794E+08         0.00000E+00
    0.00000E+00         0.00000E+00        -0.46956E+08
 
   -0.46391E+08         0.13819E+07         0.00000E+00
    0.13819E+07        -0.49782E+08         0.00000E+00
    0.00000E+00         0.00000E+00        -0.46956E+08
 
   -0.46422E+08         0.14191E+07         0.00000E+00
    0.14191E+07        -0.49769E+08         0.00000E+00
    0.00000E+00         0.00000E+00        -0.46957E+08
 
   -0.46454E+08         0.14560E+07         0.00000E+00
    0.14560E+07        -0.49756E+08         0.00000E+00
    0.00000E+00         0.00000E+00        -0.46957E+08
 
   -0.46487E+08         0.14926E+07         0.00000E+00
    0.14926E+07        -0.49742E+08         0.00000E+00
    0.00000E+00         0.00000E+00        -0.46957E+08
 
   -0.46520E+08         0.15290E+07         0.00000E+00
    0.15290E+07        -0.49728E+08         0.00000E+00
    0.00000E+00         0.00000E+00        -0.46957E+08
 
   -0.46553E+08         0.15652E+07         0.00000E+00
    0.15652E+07        -0.49714E+08         0.00000E+00
    0.00000E+00         0.00000E+00        -0.46957E+08
 
   -0.46586E+08         0.16011E+07         0.00000E+00
    0.16011E+07        -0.49699E+08         0.00000E+00
    0.00000E+00         0.00000E+00        -0.46958E+08
 
   -0.46620E+08         0.16367E+07         0.00000E+00
    0.16367E+07        -0.49684E+08         0.00000E+00
    0.00000E+00         0.00000E+00        -0.46958E+08
 
   -0.46654E+08         0.16720E+07         0.00000E+00
    0.16720E+07        -0.49668E+08         0.00000E+00
    0.00000E+00         0.00000E+00        -0.46958E+08
 
   -0.46689E+08         0.17071E+07         0.00000E+00
    0.17071E+07        -0.49653E+08         0.00000E+00
    0.00000E+00         0.00000E+00        -0.46958E+08
 
   -0.46724E+08         0.17418E+07         0.00000E+00
    0.17418E+07        -0.49636E+08         0.00000E+00
    0.00000E+00         0.00000E+00        -0.46958E+08
 
   -0.46759E+08         0.17764E+07         0.00000E+00
    0.17764E+07        -0.49620E+08         0.00000E+00
    0.00000E+00         0.00000E+00        -0.46958E+08
 
   -0.46794E+08         0.18106E+07         0.00000E+00
    0.18106E+07        -0.49603E+08         0.00000E+00
    0.00000E+00         0.00000E+00        -0.46958E+08
 
   -0.46830E+08         0.18445E+07         0.00000E+00
    0.18445E+07        -0.49586E+08         0.00000E+00
    0.00000E+00         0.00000E+00        -0.46958E+08
 
   -0.46866E+08         0.18782E+07         0.00000E+00
    0.18782E+07        -0.49568E+08         0.00000E+00
    0.00000E+00         0.00000E+00        -0.46958E+08
 
   -0.46903E+08         0.19116E+07         0.00000E+00
    0.19116E+07        -0.49550E+08         0.00000E+00
    0.00000E+00         0.00000E+00        -0.46958E+08
 
   -0.46940E+08         0.19446E+07         0.00000E+00
    0.19446E+07        -0.49532E+08         0.00000E+00
    0.00000E+00         0.00000E+00        -0.46958E+08
 
   -0.45337E+08         0.23680E+05         0.00000E+00
    0.23680E+05        -0.50000E+08         0.00000E+00
    0.00000E+00         0.00000E+00        -0.46782E+08
 
   -0.45356E+08         0.70450E+05         0.00000E+00
    0.70450E+05        -0.49999E+08         0.00000E+00
    0.00000E+00         0.00000E+00        -0.46782E+08
 
   -0.45376E+08         0.11700E+06         0.00000E+00
    0.11700E+06        -0.49999E+08         0.00000E+00
    0.00000E+00         0.00000E+00        -0.46782E+08
 
   -0.45396E+08         0.16334E+06         0.00000E+00
    0.16334E+06        -0.49997E+08         0.00000E+00
    0.00000E+00         0.00000E+00        -0.46782E+08
 
   -0.45416E+08         0.20946E+06         0.00000E+00
    0.20946E+06        -0.49996E+08         0.00000E+00
    0.00000E+00         0.00000E+00        -0.46782E+08
 
   -0.45437E+08         0.25536E+06         0.00000E+00
    0.25536E+06        -0.49994E+08         0.00000E+00
    0.00000E+00         0.00000E+00        -0.46782E+08
 
   -0.45459E+08         0.30103E+06         0.00000E+00
    0.30103E+06        -0.49991E+08         0.00000E+00
    0.00000E+00         0.00000E+00        -0.46782E+08
 
   -0.45480E+08         0.34649E+06         0.00000E+00
    0.34649E+06        -0.49988E+08         0.00000E+00
    0.00000E+00         0.00000E+00        -0.46782E+08
 
   -0.45503E+08         0.39172E+06         0.00000E+00
    0.39172E+06        -0.49985E+08         0.00000E+00
    0.00000E+00         0.00000E+00        -0.46783E+08
 
   -0.45526E+08         0.43673E+06         0.00000E+00
    0.43673E+06        -0.49981E+08         0.00000E+00
    0.00000E+00         0.00000E+00        -0.46783E+08
 
   -0.45549E+08         0.48151E+06         0.00000E+00
    0.48151E+06        -0.49977E+08         0.00000E+00
    0.00000E+00         0.00000E+00        -0.46783E+08
 
   -0.45573E+08         0.52607E+06         0.00000E+00
    0.52607E+06        -0.49973E+08         0.00000E+00
    0.00000E+00         0.00000E+00        -0.46783E+08
 
   -0.45597E+08         0.57040E+06         0.00000E+00
    0.57040E+06        -0.49968E+08         0.00000E+00
    0.00000E+00         0.00000E+00        -0.46783E+08
 
   -0.45621E+08         0.61451E+06         0.00000E+00
    0.61451E+06        -0.49962E+08         0.00000E+00
    0.00000E+00         0.00000E+00        -0.46783E+08
 
   -0.45646E+08         0.65838E+06         0.00000E+00
    0.65838E+06        -0.49957E+08         0.00000E+00
    0.00000E+00         0.00000E+00        -0.46784E+08
 
   -0.45672E+08         0.70202E+06         0.00000E+00
    0.70202E+06        -0.49951E+08         0.00000E+00
    0.00000E+00         0.00000E+00        -0.46784E+08
 
   -0.45698E+08         0.74543E+06         0.00000E+00
    0.74543E+06        -0.49944E+08         0.00000E+00
    0.00000E+00         0.00000E+00        -0.46784E+08
 
   -0.45724E+08         0.78861E+06         0.00000E+00
    0.78861E+06        -0.49937E+08         0.00000E+00
    0.00000E+00         0.00000E+00        -0.46784E+08
 
   -0.45751E+08         0.83156E+06         0.00000E+00
    0.83156E+06        -0.49930E+08         0.00000E+00
    0.00000E+00         0.00000E+00        -0.46785E+08
 
   -0.45778E+08         0.87427E+06         0.00000E+00
    0.87427E+06        -0.49922E+08         0.00000E+00
    0.00000E+00         0.00000E+00        -0.46785E+08
 
   -0.45805E+08         0.91674E+06         0.00000E+00
    0.91674E+06        -0.49914E+08         0.00000E+00
    0.00000E+00         0.00000E+00        -0.46785E+08
 
   -0.45833E+08         0.95898E+06         0.00000E+00
    0.95898E+06        -0.49906E+08         0.00000E+00
    0.00000E+00         0.00000E+00        -0.46785E+08
 
   -0.45862E+08         0.10010E+07         0.00000E+00
    0.10010E+07        -0.49897E+08         0.00000E+00
    0.00000E+00         0.00000E+00        -0.46786E+08
 
   -0.45890E+08         0.10427E+07         0.00000E+00
    0.10427E+07        -0.49888E+08         0.00000E+00
    0.00000E+00         0.00000E+00        -0.46786E+08
 
   -0.45920E+08         0.10842E+07         0.00000E+00
    0.10842E+07        -0.49878E+08         0.00000E+00
    0.00000E+00         0.00000E+00        -0.46786E+08
 
   -0.45949E+08         0.11255E+07         0.00000E+00
    0.11255E+07        -0.49868E+08         0.00000E+00
    0.00000E+00         0.00000E+00        -0.46786E+08
 
   -0.45979E+08         0.11666E+07         0.00000E+00
    0.11666E+07        -0.49858E+08         0.00000E+00
    0.00000E+00         0.00000E+00        -0.46787E+08
 
   -0.46009E+08         0.12073E+07         0.00000E+00
    0.12073E+07        -0.49847E+08         0.00000E+00
    0.00000E+00         0.00000E+00        -0.46787E+08
 
   -0.46040E+08         0.12479E+07         0.00000E+00
    0.12479E+07        -0.49836E+08         0.00000E+00
    0.00000E+00         0.00000E+00        -0.46787E+08
 
   -0.46071E+08         0.12882E+07         0.00000E+00
    0.12882E+07        -0.49824E+08         0.00000E+00
    0.00000E+00         0.00000E+00        -0.46787E+08
 
   -0.46103E+08         0.13282E+07         0.00000E+00
    0.13282E+07        -0.49812E+08         0.00000E+00
    0.00000E+00         0.00000E+00        -0.46788E+08
 
   -0.46135E+08         0.13680E+07         0.00000E+00
    0.13680E+07        -0.49800E+08         0.00000E+00
    0.00000E+00         0.00000E+00        -0.46788E+08
 
   -0.46167E+08         0.14075E+07         0.00000E+00
    0.14075E+07        -0.49788E+08         0.00000E+00
    0.00000E+00         0.00000E+00        -0.46788E+08
 
   -0.46199E+08         0.14468E+07         0.00000E+00
    0.14468E+07        -0.49774E+08         0.00000E+00
    0.00000E+00         0.00000E+00        -0.46788E+08
 
   -0.46232E+08         0.14858E+07         0.00000E+00
    0.14858E+07        -0.49761E+08         0.00000E+00
    0.00000E+00         0.00000E+00        -0.46788E+08
 
   -0.46266E+08         0.15246E+07         0.00000E+00
    0.15246E+07        -0.49747E+08         0.00000E+00
    0.00000E+00         0.00000E+00        -0.46789E+08
 
   -0.46299E+08         0.15631E+07         0.00000E+00
    0.15631E+07        -0.49733E+08         0.00000E+00
    0.00000E+00         0.00000E+00        -0.46789E+08
 
   -0.46334E+08         0.16013E+07         0.00000E+00
    0.16013E+07        -0.49719E+08         0.00000E+00
    0.00000E+00         0.00000E+00        -0.46789E+08
 
   -0.46368E+08         0.16393E+07         0.00000E+00
    0.16393E+07        -0.49704E+08         0.00000E+00
    0.00000E+00         0.00000E+00        -0.46789E+08
 
   -0.46403E+08         0.16770E+07         0.00000E+00
    0.16770E+07        -0.49688E+08         0.00000E+00
    0.00000E+00         0.00000E+00        -0.46789E+08
 
   -0.46438E+08         0.17144E+07         0.00000E+00
    0.17144E+07        -0.49673E+08         0.00000E+00
    0.00000E+00         0.00000E+00        -0.46789E+08
 
   -0.46474E+08         0.17516E+07         0.00000E+00
    0.17516E+07        -0.49657E+08         0.00000E+00
    0.00000E+00         0.00000E+00        -0.46790E+08
 
   -0.46510E+08         0.17885E+07         0.00000E+00
    0.17885E+07        -0.49640E+08         0.00000E+00
    0.00000E+00         0.00000E+00        -0.46790E+08
 
   -0.46546E+08         0.18251E+07         0.00000E+00
    0.18251E+07        -0.49624E+08         0.00000E+00
    0.00000E+00         0.00000E+00        -0.46790E+08
 
   -0.46582E+08         0.18614E+07         0.00000E+00
    0.18614E+07        -0.49606E+08         0.00000E+00
    0.00000E+00         0.00000E+00        -0.46790E+08
 
   -0.46619E+08         0.18974E+07         0.00000E+00
    0.18974E+07        -0.49589E+08         0.00000E+00
    0.00000E+00         0.00000E+00        -0.46790E+08
 
   -0.46657E+08         0.19332E+07         0.00000E+00
    0.19332E+07        -0.49571E+08         0.00000E+00
    0.00000E+00         0.00000E+00        -0.46790E+08
 
   -0.46694E+08         0.19686E+07         0.00000E+00
    0.19686E+07        -0.49553E+08         0.00000E+00
    0.00000E+00         0.00000E+00        -0.46790E+08
 
   -0.46732E+08         0.20038E+07         0.00000E+00
    0.20038E+07        -0.49534E+08         0.00000E+00
    0.00000E+00         0.00000E+00        -0.46790E+08
 
   -0.46771E+08         0.20387E+07         0.00000E+00
    0.20387E+07        -0.49515E+08         0.00000E+00
    0.00000E+00         0.00000E+00        -0.46790E+08
 
   -0.45098E+08         0.24764E+05         0.00000E+00
    0.24764E+05        -0.50000E+08         0.00000E+00
    0.00000E+00         0.00000E+00        -0.46605E+08
 
   -0.45118E+08         0.73666E+05         0.00000E+00
    0.73666E+05        -0.49999E+08         0.00000E+00
    0.00000E+00         0.00000E+00        -0.46605E+08
 
   -0.45138E+08         0.12234E+06         0.00000E+00
    0.12234E+06        -0.49999E+08         0.00000E+00
    0.00000E+00         0.00000E+00        -0.46605E+08
 
   -0.45159E+08         0.17079E+06         0.00000E+00
    0.17079E+06        -0.49997E+08         0.00000E+00
    0.00000E+00         0.00000E+00        -0.46605E+08
 
   -0.45181E+08         0.21900E+06         0.00000E+00
    0.21900E+06        -0.49996E+08         0.00000E+00
    0.00000E+00         0.00000E+00        -0.46605E+08
 
   -0.45203E+08         0.26699E+06         0.00000E+00
    0.26699E+06        -0.49993E+08         0.00000E+00
    0.00000E+00         0.00000E+00        -0.46605E+08
 
   -0.45226E+08         0.31474E+06         0.00000E+00
    0.31474E+06        -0.49991E+08         0.00000E+00
    0.00000E+00         0.00000E+00        -0.46605E+08
 
   -0.45249E+08         0.36226E+06         0.00000E+00
    0.36226E+06        -0.49988E+08         0.00000E+00
    0.00000E+00         0.00000E+00        -0.46605E+08
 
   -0.45272E+08         0.40955E+06         0.00000E+00
    0.40955E+06        -0.49984E+08         0.00000E+00
    0.00000E+00         0.00000E+00        -0.46605E+08
 
   -0.45296E+08         0.45661E+06         0.00000E+00
    0.45661E+06        -0.49981E+08         0.00000E+00
    0.00000E+00         0.00000E+00        -0.46605E+08
 
   -0.45320E+08         0.50343E+06         0.00000E+00
    0.50343E+06        -0.49976E+08         0.00000E+00
    0.00000E+00         0.00000E+00        -0.46606E+08
 
   -0.45345E+08         0.55002E+06         0.00000E+00
    0.55002E+06        -0.49972E+08         0.00000E+00
    0.00000E+00         0.00000E+00        -0.46606E+08
 
   -0.45371E+08         0.59637E+06         0.00000E+00
    0.59637E+06        -0.49967E+08         0.00000E+00
    0.00000E+00         0.00000E+00        -0.46606E+08
 
   -0.45396E+08         0.64249E+06         0.00000E+00
    0.64249E+06        -0.49961E+08         0.00000E+00
    0.00000E+00         0.00000E+00        -0.46606E+08
 
   -0.45423E+08         0.68837E+06         0.00000E+00
    0.68837E+06        -0.49955E+08         0.00000E+00
    0.00000E+00         0.00000E+00        -0.46606E+08
 
   -0.45449E+08         0.73402E+06         0.00000E+00
    0.73402E+06        -0.49949E+08         0.00000E+00
    0.00000E+00         0.00000E+00        -0.46607E+08
 
   -0.45476E+08         0.77942E+06         0.00000E+00
    0.77942E+06        -0.49942E+08         0.00000E+00
    0.00000E+00         0.00000E+00        -0.46607E+08
 
   -0.45504E+08         0.82459E+06         0.00000E+00
    0.82459E+06        -0.49935E+08         0.00000E+00
    0.00000E+00         0.00000E+00        -0.46607E+08
 
   -0.45532E+08         0.86952E+06         0.00000E+00
    0.86952E+06        -0.49928E+08         0.00000E+00
    0.00000E+00         0.00000E+00        -0.46607E+08
 
   -0.45560E+08         0.91421E+06         0.00000E+00
    0.91421E+06        -0.49920E+08         0.00000E+00
    0.00000E+00         0.00000E+00        -0.46608E+08
 
   -0.45589E+08         0.95865E+06         0.00000E+00
    0.95865E+06        -0.49911E+08         0.00000E+00
    0.00000E+00         0.00000E+00        -0.46608E+08
 
   -0.45618E+08         0.10029E+07         0.00000E+00
    0.10029E+07        -0.49903E+08         0.00000E+00
    0.00000E+00         0.00000E+00        -0.46608E+08
 
   -0.45647E+08         0.10468E+07         0.00000E+00
    0.10468E+07        -0.49894E+08         0.00000E+00
    0.00000E+00         0.00000E+00        -0.46608E+08
 
   -0.45677E+08         0.10905E+07         0.00000E+00
    0.10905E+07        -0.49884E+08         0.00000E+00
    0.00000E+00         0.00000E+00        -0.46608E+08
 
   -0.45708E+08         0.11340E+07         0.00000E+00
    0.11340E+07        -0.49874E+08         0.00000E+00
    0.00000E+00         0.00000E+00        -0.46609E+08
 
   -0.45739E+08         0.11772E+07         0.00000E+00
    0.11772E+07        -0.49864E+08         0.00000E+00
    0.00000E+00         0.00000E+00        -0.46609E+08
 
   -0.45770E+08         0.12202E+07         0.00000E+00
    0.12202E+07        -0.49853E+08         0.00000E+00
    0.00000E+00         0.00000E+00        -0.46609E+08
 
   -0.45801E+08         0.12629E+07         0.00000E+00
    0.12629E+07        -0.49842E+08         0.00000E+00
    0.00000E+00         0.00000E+00        -0.46609E+08
 
   -0.45833E+08         0.13054E+07         0.00000E+00
    0.13054E+07        -0.49831E+08         0.00000E+00
    0.00000E+00         0.00000E+00        -0.46610E+08
 
   -0.45866E+08         0.13476E+07         0.00000E+00
    0.13476E+07        -0.49819E+08         0.00000E+00
    0.00000E+00         0.00000E+00        -0.46610E+08
 
   -0.45898E+08         0.13896E+07         0.00000E+00
    0.13896E+07        -0.49806E+08         0.00000E+00
    0.00000E+00         0.00000E+00        -0.46610E+08
 
   -0.45931E+08         0.14313E+07         0.00000E+00
    0.14313E+07        -0.49794E+08         0.00000E+00
    0.00000E+00         0.00000E+00        -0.46610E+08
 
   -0.45965E+08         0.14728E+07         0.00000E+00
    0.14728E+07        -0.49781E+08         0.00000E+00
    0.00000E+00         0.00000E+00        -0.46610E+08
 
   -0.45999E+08         0.15140E+07         0.00000E+00
    0.15140E+07        -0.49767E+08         0.00000E+00
    0.00000E+00         0.00000E+00        -0.46611E+08
 
   -0.46033E+08         0.15549E+07         0.00000E+00
    0.15549E+07        -0.49753E+08         0.00000E+00
    0.00000E+00         0.00000E+00        -0.46611E+08
 
   -0.46068E+08         0.15956E+07         0.00000E+00
    0.15956E+07        -0.49739E+08         0.00000E+00
    0.00000E+00         0.00000E+00        -0.46611E+08
 
   -0.46103E+08         0.16360E+07         0.00000E+00
    0.16360E+07        -0.49724E+08         0.00000E+00
    0.00000E+00         0.00000E+00        -0.46611E+08
 
   -0.46138E+08         0.16762E+07         0.00000E+00
    0.16762E+07        -0.49709E+08         0.00000E+00
    0.00000E+00         0.00000E+00        -0.46611E+08
 
   -0.46174E+08         0.17161E+07         0.00000E+00
    0.17161E+07        -0.49694E+08         0.00000E+00
    0.00000E+00         0.00000E+00        -0.46612E+08
 
   -0.46210E+08         0.17557E+07         0.00000E+00
    0.17557E+07        -0.49678E+08         0.00000E+00
    0.00000E+00         0.00000E+00        -0.46612E+08
 
   -0.46247E+08         0.17950E+07         0.00000E+00
    0.17950E+07        -0.49662E+08         0.00000E+00
    0.00000E+00         0.00000E+00        -0.46612E+08
 
   -0.46284E+08         0.18341E+07         0.00000E+00
    0.18341E+07        -0.49645E+08         0.00000E+00
    0.00000E+00         0.00000E+00        -0.46612E+08
 
   -0.46321E+08         0.18729E+07         0.00000E+00
    0.18729E+07        -0.49628E+08         0.00000E+00
    0.00000E+00         0.00000E+00        -0.46612E+08
 
   -0.46359E+08         0.19114E+07         0.00000E+00
    0.19114E+07        -0.49611E+08         0.00000E+00
    0.00000E+00         0.00000E+00        -0.46612E+08
 
   -0.46397E+08         0.19496E+07         0.00000E+00
    0.19496E+07        -0.49593E+08         0.00000E+00
    0.00000E+00         0.00000E+00        -0.46612E+08
 
   -0.46435E+08         0.19876E+07         0.00000E+00
    0.19876E+07        -0.49575E+08         0.00000E+00
    0.00000E+00         0.00000E+00        -0.46612E+08
 
   -0.46474E+08         0.20252E+07         0.00000E+00
    0.20252E+07        -0.49556E+08         0.00000E+00
    0.00000E+00         0.00000E+00        -0.46612E+08
 
   -0.46513E+08         0.20626E+07         0.00000E+00
    0.20626E+07        -0.49538E+08         0.00000E+00
    0.00000E+00         0.00000E+00        -0.46612E+08
 
   -0.46553E+08         0.20997E+07         0.00000E+00
    0.20997E+07        -0.49518E+08         0.00000E+00
    0.00000E+00         0.00000E+00        -0.46612E+08
 
   -0.46592E+08         0.21364E+07         0.00000E+00
    0.21364E+07        -0.49498E+08         0.00000E+00
    0.00000E+00         0.00000E+00        -0.46612E+08
 
   -0.44847E+08         0.25879E+05         0.00000E+00
    0.25879E+05        -0.50000E+08         0.00000E+00
    0.00000E+00         0.00000E+00        -0.46418E+08
 
   -0.44868E+08         0.76977E+05         0.00000E+00
    0.76977E+05        -0.49999E+08         0.00000E+00
    0.00000E+00         0.00000E+00        -0.46418E+08
 
   -0.44890E+08         0.12783E+06         0.00000E+00
    0.12783E+06        -0.49999E+08         0.00000E+00
    0.00000E+00         0.00000E+00        -0.46418E+08
 
   -0.44912E+08         0.17845E+06         0.00000E+00
    0.17845E+06        -0.49997E+08         0.00000E+00
    0.00000E+00         0.00000E+00        -0.46418E+08
 
   -0.44935E+08         0.22882E+06         0.00000E+00
    0.22882E+06        -0.49995E+08         0.00000E+00
    0.00000E+00         0.00000E+00        -0.46418E+08
 
   -0.44958E+08         0.27896E+06         0.00000E+00
    0.27896E+06        -0.49993E+08         0.00000E+00
    0.00000E+00         0.00000E+00        -0.46418E+08
 
   -0.44982E+08         0.32885E+06         0.00000E+00
    0.32885E+06        -0.49991E+08         0.00000E+00
    0.00000E+00         0.00000E+00        -0.46418E+08
 
   -0.45006E+08         0.37850E+06         0.00000E+00
    0.37850E+06        -0.49988E+08         0.00000E+00
    0.00000E+00         0.00000E+00        -0.46418E+08
 
   -0.45031E+08         0.42791E+06         0.00000E+00
    0.42791E+06        -0.49984E+08         0.00000E+00
    0.00000E+00         0.00000E+00        -0.46418E+08
 
   -0.45056E+08         0.47707E+06         0.00000E+00
    0.47707E+06        -0.49980E+08         0.00000E+00
    0.00000E+00         0.00000E+00        -0.46419E+08
 
   -0.45082E+08         0.52600E+06         0.00000E+00
    0.52600E+06        -0.49976E+08         0.00000E+00
    0.00000E+00         0.00000E+00        -0.46419E+08
 
   -0.45108E+08         0.57468E+06         0.00000E+00
    0.57468E+06        -0.49971E+08         0.00000E+00
    0.00000E+00         0.00000E+00        -0.46419E+08
 
   -0.45134E+08         0.62312E+06         0.00000E+00
    0.62312E+06        -0.49966E+08         0.00000E+00
    0.00000E+00         0.00000E+00        -0.46419E+08
 
   -0.45161E+08         0.67132E+06         0.00000E+00
    0.67132E+06        -0.49960E+08         0.00000E+00
    0.00000E+00         0.00000E+00        -0.46419E+08
 
   -0.45189E+08         0.71927E+06         0.00000E+00
    0.71927E+06        -0.49954E+08         0.00000E+00
    0.00000E+00         0.00000E+00        -0.46419E+08
 
   -0.45216E+08         0.76698E+06         0.00000E+00
    0.76698E+06        -0.49948E+08         0.00000E+00
    0.00000E+00         0.00000E+00        -0.46420E+08
 
   -0.45245E+08         0.81444E+06         0.00000E+00
    0.81444E+06        -0.49941E+08         0.00000E+00
    0.00000E+00         0.00000E+00        -0.46420E+08
 
   -0.45273E+08         0.86166E+06         0.00000E+00
    0.86166E+06        -0.49933E+08         0.00000E+00
    0.00000E+00         0.00000E+00        -0.46420E+08
 
   -0.45302E+08         0.90864E+06         0.00000E+00
    0.90864E+06        -0.49926E+08         0.00000E+00
    0.00000E+00         0.00000E+00        -0.46420E+08
 
   -0.45332E+08         0.95537E+06         0.00000E+00
    0.95537E+06        -0.49917E+08         0.00000E+00
    0.00000E+00         0.00000E+00        -0.46421E+08
 
   -0.45362E+08         0.10019E+07         0.00000E+00
    0.10019E+07        -0.49909E+08         0.00000E+00
    0.00000E+00         0.00000E+00        -0.46421E+08
 
   -0.45392E+08         0.10481E+07         0.00000E+00
    0.10481E+07        -0.49900E+08         0.00000E+00
    0.00000E+00         0.00000E+00        -0.46421E+08
 
   -0.45423E+08         0.10941E+07         0.00000E+00
    0.10941E+07        -0.49891E+08         0.00000E+00
    0.00000E+00         0.00000E+00        -0.46421E+08
 
   -0.45454E+08         0.11398E+07         0.00000E+00
    0.11398E+07        -0.49881E+08         0.00000E+00
    0.00000E+00         0.00000E+00        -0.46421E+08
 
   -0.45486E+08         0.11853E+07         0.00000E+00
    0.11853E+07        -0.49871E+08         0.00000E+00
    0.00000E+00         0.00000E+00        -0.46422E+08
 
   -0.45518E+08         0.12306E+07         0.00000E+00
    0.12306E+07        -0.49860E+08         0.00000E+00
    0.00000E+00         0.00000E+00        -0.46422E+08
 
   -0.45550E+08         0.12756E+07         0.00000E+00
    0.12756E+07        -0.49849E+08         0.00000E+00
    0.00000E+00         0.00000E+00        -0.46422E+08
 
   -0.45583E+08         0.13203E+07         0.00000E+00
    0.13203E+07        -0.49837E+08         0.00000E+00
    0.00000E+00         0.00000E+00        -0.46422E+08
 
   -0.45616E+08         0.13648E+07         0.00000E+00
    0.13648E+07        -0.49826E+08         0.00000E+00
    0.00000E+00         0.00000E+00        -0.46423E+08
 
   -0.45650E+08         0.14090E+07         0.00000E+00
    0.14090E+07        -0.49813E+08         0.00000E+00
    0.00000E+00         0.00000E+00        -0.46423E+08
 
   -0.45684E+08         0.14530E+07         0.00000E+00
    0.14530E+07        -0.49801E+08         0.00000E+00
    0.00000E+00         0.00000E+00        -0.46423E+08
 
   -0.45718E+08         0.14968E+07         0.00000E+00
    0.14968E+07        -0.49788E+08         0.00000E+00
    0.00000E+00         0.00000E+00        -0.46423E+08
 
   -0.45753E+08         0.15402E+07         0.00000E+00
    0.15402E+07        -0.49774E+08         0.00000E+00
    0.00000E+00         0.00000E+00        -0.46423E+08
 
   -0.45788E+08         0.15834E+07         0.00000E+00
    0.15834E+07        -0.49760E+08         0.00000E+00
    0.00000E+00         0.00000E+00        -0.46423E+08
 
   -0.45824E+08         0.16264E+07         0.00000E+00
    0.16264E+07        -0.49746E+08         0.00000E+00
    0.00000E+00         0.00000E+00        -0.46424E+08
 
   -0.45860E+08         0.16691E+07         0.00000E+00
    0.16691E+07        -0.49731E+08         0.00000E+00
    0.00000E+00         0.00000E+00        -0.46424E+08
 
   -0.45896E+08         0.17115E+07         0.00000E+00
    0.17115E+07        -0.49716E+08         0.00000E+00
    0.00000E+00         0.00000E+00        -0.46424E+08
 
   -0.45933E+08         0.17537E+07         0.00000E+00
    0.17537E+07        -0.49700E+08         0.00000E+00
    0.00000E+00         0.00000E+00        -0.46424E+08
 
   -0.45970E+08         0.17955E+07         0.00000E+00
    0.17955E+07        -0.49684E+08         0.00000E+00
    0.00000E+00         0.00000E+00        -0.46424E+08
 
   -0.46008E+08         0.18372E+07         0.00000E+00
    0.18372E+07        -0.49668E+08         0.00000E+00
    0.00000E+00         0.00000E+00        -0.46424E+08
 
   -0.46046E+08         0.18785E+07         0.00000E+00
    0.18785E+07        -0.49651E+08         0.00000E+00
    0.00000E+00         0.00000E+00        -0.46425E+08
 
   -0.46084E+08         0.19196E+07         0.00000E+00
    0.19196E+07        -0.49634E+08         0.00000E+00
    0.00000E+00         0.00000E+00        -0.46425E+08
 
   -0.46123E+08         0.19604E+07         0.00000E+00
    0.19604E+07        -0.49617E+08         0.00000E+00
    0.00000E+00         0.00000E+00        -0.46425E+08
 
   -0.46162E+08         0.20009E+07         0.00000E+00
    0.20009E+07        -0.49599E+08         0.00000E+00
    0.00000E+00         0.00000E+00        -0.46425E+08
 
   -0.46201E+08         0.20411E+07         0.00000E+00
    0.20411E+07        -0.49580E+08         0.00000E+00
    0.00000E+00         0.00000E+00        -0.46425E+08
 
   -0.46241E+08         0.20810E+07         0.00000E+00
    0.20810E+07        -0.49561E+08         0.00000E+00
    0.00000E+00         0.00000E+00        -0.46425E+08
 
   -0.46281E+08         0.21207E+07         0.00000E+00
    0.21207E+07        -0.49542E+08         0.00000E+00
    0.00000E+00         0.00000E+00        -0.46425E+08
 
   -0.46322E+08         0.21601E+07         0.00000E+00
    0.21601E+07        -0.49522E+08         0.00000E+00
    0.00000E+00         0.00000E+00        -0.46425E+08
 
   -0.46363E+08         0.21991E+07         0.00000E+00
    0.21991E+07        -0.49502E+08         0.00000E+00
    0.00000E+00         0.00000E+00        -0.46425E+08
 
   -0.46404E+08         0.22379E+07         0.00000E+00
    0.22379E+07        -0.49482E+08         0.00000E+00
    0.00000E+00         0.00000E+00        -0.46425E+08
 
   -0.44585E+08         0.27025E+05         0.00000E+00
    0.27025E+05        -0.50000E+08         0.00000E+00
    0.00000E+00         0.00000E+00        -0.46221E+08
 
   -0.44608E+08         0.80377E+05         0.00000E+00
    0.80377E+05        -0.49999E+08         0.00000E+00
    0.00000E+00         0.00000E+00        -0.46221E+08
 
   -0.44631E+08         0.13348E+06         0.00000E+00
    0.13348E+06        -0.49999E+08         0.00000E+00
    0.00000E+00         0.00000E+00        -0.46221E+08
 
   -0.44654E+08         0.18632E+06         0.00000E+00
    0.18632E+06        -0.49997E+08         0.00000E+00
    0.00000E+00         0.00000E+00        -0.46221E+08
 
   -0.44678E+08         0.23891E+06         0.00000E+00
    0.23891E+06        -0.49995E+08         0.00000E+00
    0.00000E+00         0.00000E+00        -0.46221E+08
 
   -0.44703E+08         0.29125E+06         0.00000E+00
    0.29125E+06        -0.49993E+08         0.00000E+00
    0.00000E+00         0.00000E+00        -0.46221E+08
 
   -0.44728E+08         0.34334E+06         0.00000E+00
    0.34334E+06        -0.49990E+08         0.00000E+00
    0.00000E+00         0.00000E+00        -0.46221E+08
 
   -0.44753E+08         0.39518E+06         0.00000E+00
    0.39518E+06        -0.49987E+08         0.00000E+00
    0.00000E+00         0.00000E+00        -0.46221E+08
 
   -0.44779E+08         0.44677E+06         0.00000E+00
    0.44677E+06        -0.49984E+08         0.00000E+00
    0.00000E+00         0.00000E+00        -0.46221E+08
 
   -0.44805E+08         0.49810E+06         0.00000E+00
    0.49810E+06        -0.49980E+08         0.00000E+00
    0.00000E+00         0.00000E+00        -0.46222E+08
 
   -0.44832E+08         0.54919E+06         0.00000E+00
    0.54919E+06        -0.49975E+08         0.00000E+00
    0.00000E+00         0.00000E+00        -0.46222E+08
 
   -0.44860E+08         0.60002E+06         0.00000E+00
    0.60002E+06        -0.49970E+08         0.00000E+00
    0.00000E+00         0.00000E+00        -0.46222E+08
 
   -0.44887E+08         0.65060E+06         0.00000E+00
    0.65060E+06        -0.49965E+08         0.00000E+00
    0.00000E+00         0.00000E+00        -0.46222E+08
 
   -0.44915E+08         0.70094E+06         0.00000E+00
    0.70094E+06        -0.49959E+08         0.00000E+00
    0.00000E+00         0.00000E+00        -0.46222E+08
 
   -0.44944E+08         0.75103E+06         0.00000E+00
    0.75103E+06        -0.49953E+08         0.00000E+00
    0.00000E+00         0.00000E+00        -0.46222E+08
 
   -0.44973E+08         0.80086E+06         0.00000E+00
    0.80086E+06        -0.49946E+08         0.00000E+00
    0.00000E+00         0.00000E+00        -0.46223E+08
 
   -0.45003E+08         0.85045E+06         0.00000E+00
    0.85045E+06        -0.49939E+08         0.00000E+00
    0.00000E+00         0.00000E+00        -0.46223E+08
 
   -0.45033E+08         0.89979E+06         0.00000E+00
    0.89979E+06        -0.49932E+08         0.00000E+00
    0.00000E+00         0.00000E+00        -0.46223E+08
 
   -0.45063E+08         0.94888E+06         0.00000E+00
    0.94888E+06        -0.49924E+08         0.00000E+00
    0.00000E+00         0.00000E+00        -0.46223E+08
 
   -0.45094E+08         0.99772E+06         0.00000E+00
    0.99772E+06        -0.49915E+08         0.00000E+00
    0.00000E+00         0.00000E+00        -0.46223E+08
 
   -0.45125E+08         0.10463E+07         0.00000E+00
    0.10463E+07        -0.49906E+08         0.00000E+00
    0.00000E+00         0.00000E+00        -0.46224E+08
 
   -0.45157E+08         0.10946E+07         0.00000E+00
    0.10946E+07        -0.49897E+08         0.00000E+00
    0.00000E+00         0.00000E+00        -0.46224E+08
 
   -0.45189E+08         0.11427E+07         0.00000E+00
    0.11427E+07        -0.49888E+08         0.00000E+00
    0.00000E+00         0.00000E+00        -0.46224E+08
 
   -0.45221E+08         0.11906E+07         0.00000E+00
    0.11906E+07        -0.49878E+08         0.00000E+00
    0.00000E+00         0.00000E+00        -0.46224E+08
 
   -0.45254E+08         0.12382E+07         0.00000E+00
    0.12382E+07        -0.49867E+08         0.00000E+00
    0.00000E+00         0.00000E+00        -0.46224E+08
 
   -0.45287E+08         0.12855E+07         0.00000E+00
    0.12855E+07        -0.49856E+08         0.00000E+00
    0.00000E+00         0.00000E+00        -0.46225E+08
 
   -0.45321E+08         0.13326E+07         0.00000E+00
    0.13326E+07        -0.49845E+08         0.00000E+00
    0.00000E+00         0.00000E+00        -0.46225E+08
 
   -0.45355E+08         0.13794E+07         0.00000E+00
    0.13794E+07        -0.49833E+08         0.00000E+00
    0.00000E+00         0.00000E+00        -0.46225E+08
 
   -0.45389E+08         0.14260E+07         0.00000E+00
    0.14260E+07        -0.49821E+08         0.00000E+00
    0.00000E+00         0.00000E+00        -0.46225E+08
 
   -0.45424E+08         0.14723E+07         0.00000E+00
    0.14723E+07        -0.49808E+08         0.00000E+00
    0.00000E+00         0.00000E+00        -0.46225E+08
 
   -0.45460E+08         0.15184E+07         0.00000E+00
    0.15184E+07        -0.49795E+08         0.00000E+00
    0.00000E+00         0.00000E+00        -0.46226E+08
 
   -0.45495E+08         0.15642E+07         0.00000E+00
    0.15642E+07        -0.49782E+08         0.00000E+00
    0.00000E+00         0.00000E+00        -0.46226E+08
 
   -0.45531E+08         0.16098E+07         0.00000E+00
    0.16098E+07        -0.49768E+08         0.00000E+00
    0.00000E+00         0.00000E+00        -0.46226E+08
 
   -0.45568E+08         0.16551E+07         0.00000E+00
    0.16551E+07        -0.49753E+08         0.00000E+00
    0.00000E+00         0.00000E+00        -0.46226E+08
 
   -0.45605E+08         0.17001E+07         0.00000E+00
    0.17001E+07        -0.49739E+08         0.00000E+00
    0.00000E+00         0.00000E+00        -0.46226E+08
 
   -0.45642E+08         0.17449E+07         0.00000E+00
    0.17449E+07        -0.49723E+08         0.00000E+00
    0.00000E+00         0.00000E+00        -0.46226E+08
 
   -0.45680E+08         0.17894E+07         0.00000E+00
    0.17894E+07        -0.49708E+08         0.00000E+00
    0.00000E+00         0.00000E+00        -0.46226E+08
 
   -0.45718E+08         0.18337E+07         0.00000E+00
    0.18337E+07        -0.49692E+08         0.00000E+00
    0.00000E+00         0.00000E+00        -0.46227E+08
 
   -0.45756E+08         0.18776E+07         0.00000E+00
    0.18776E+07        -0.49675E+08         0.00000E+00
    0.00000E+00         0.00000E+00        -0.46227E+08
 
   -0.45795E+08         0.19213E+07         0.00000E+00
    0.19213E+07        -0.49658E+08         0.00000E+00
    0.00000E+00         0.00000E+00        -0.46227E+08
 
   -0.45835E+08         0.19648E+07         0.00000E+00
    0.19648E+07        -0.49641E+08         0.00000E+00
    0.00000E+00         0.00000E+00        -0.46227E+08
 
   -0.45874E+08         0.20080E+07         0.00000E+00
    0.20080E+07        -0.49623E+08         0.00000E+00
    0.00000E+00         0.00000E+00        -0.46227E+08
 
   -0.45914E+08         0.20508E+07         0.00000E+00
    0.20508E+07        -0.49605E+08         0.00000E+00
    0.00000E+00         0.00000E+00        -0.46227E+08
 
   -0.45955E+08         0.20935E+07         0.00000E+00
    0.20935E+07        -0.49587E+08         0.00000E+00
    0.00000E+00         0.00000E+00        -0.46227E+08
 
   -0.45996E+08         0.21358E+07         0.00000E+00
    0.21358E+07        -0.49568E+08         0.00000E+00
    0.00000E+00         0.00000E+00        -0.46227E+08
 
   -0.46037E+08         0.21778E+07         0.00000E+00
    0.21778E+07        -0.49548E+08         0.00000E+00
    0.00000E+00         0.00000E+00        -0.46227E+08
 
   -0.46079E+08         0.22196E+07         0.00000E+00
    0.22196E+07        -0.49528E+08         0.00000E+00
    0.00000E+00         0.00000E+00        -0.46227E+08
 
   -0.46121E+08         0.22611E+07         0.00000E+00
    0.22611E+07        -0.49508E+08         0.00000E+00
    0.00000E+00         0.00000E+00        -0.46227E+08
 
   -0.46163E+08         0.23022E+07         0.00000E+00
    0.23022E+07        -0.49487E+08         0.00000E+00
    0.00000E+00         0.00000E+00        -0.46227E+08
 
   -0.46206E+08         0.23431E+07         0.00000E+00
    0.23431E+07        -0.49466E+08         0.00000E+00
    0.00000E+00         0.00000E+00        -0.46227E+08
 
   -0.44312E+08         0.28199E+05         0.00000E+00
    0.28199E+05        -0.50000E+08         0.00000E+00
    0.00000E+00         0.00000E+00        -0.46013E+08
 
   -0.44336E+08         0.83861E+05         0.00000E+00
    0.83861E+05        -0.49999E+08         0.00000E+00
    0.00000E+00         0.00000E+00        -0.46013E+08
 
   -0.44360E+08         0.13926E+06         0.00000E+00
    0.13926E+06        -0.49998E+08         0.00000E+00
    0.00000E+00         0.00000E+00        -0.46013E+08
 
   -0.44385E+08         0.19439E+06         0.00000E+00
    0.19439E+06        -0.49997E+08         0.00000E+00
    0.00000E+00         0.00000E+00        -0.46013E+08
 
   -0.44410E+08         0.24925E+06         0.00000E+00
    0.24925E+06        -0.49995E+08         0.00000E+00
    0.00000E+00         0.00000E+00        -0.46013E+08
 
   -0.44436E+08         0.30385E+06         0.00000E+00
    0.30385E+06        -0.49993E+08         0.00000E+00
    0.00000E+00         0.00000E+00        -0.46013E+08
 
   -0.44462E+08         0.35819E+06         0.00000E+00
    0.35819E+06        -0.49990E+08         0.00000E+00
    0.00000E+00         0.00000E+00        -0.46014E+08
 
   -0.44489E+08         0.41227E+06         0.00000E+00
    0.41227E+06        -0.49987E+08         0.00000E+00
    0.00000E+00         0.00000E+00        -0.46014E+08
 
   -0.44516E+08         0.46609E+06         0.00000E+00
    0.46609E+06        -0.49983E+08         0.00000E+00
    0.00000E+00         0.00000E+00        -0.46014E+08
 
   -0.44544E+08         0.51965E+06         0.00000E+00
    0.51965E+06        -0.49979E+08         0.00000E+00
    0.00000E+00         0.00000E+00        -0.46014E+08
 
   -0.44572E+08         0.57295E+06         0.00000E+00
    0.57295E+06        -0.49975E+08         0.00000E+00
    0.00000E+00         0.00000E+00        -0.46014E+08
 
   -0.44601E+08         0.62600E+06         0.00000E+00
    0.62600E+06        -0.49969E+08         0.00000E+00
    0.00000E+00         0.00000E+00        -0.46014E+08
 
   -0.44630E+08         0.67878E+06         0.00000E+00
    0.67878E+06        -0.49964E+08         0.00000E+00
    0.00000E+00         0.00000E+00        -0.46014E+08
 
   -0.44659E+08         0.73131E+06         0.00000E+00
    0.73131E+06        -0.49958E+08         0.00000E+00
    0.00000E+00         0.00000E+00        -0.46014E+08
 
   -0.44689E+08         0.78359E+06         0.00000E+00
    0.78359E+06        -0.49952E+08         0.00000E+00
    0.00000E+00         0.00000E+00        -0.46015E+08
 
   -0.44719E+08         0.83561E+06         0.00000E+00
    0.83561E+06        -0.49945E+08         0.00000E+00
    0.00000E+00         0.00000E+00        -0.46015E+08
 
   -0.44750E+08         0.88738E+06         0.00000E+00
    0.88738E+06        -0.49938E+08         0.00000E+00
    0.00000E+00         0.00000E+00        -0.46015E+08
 
   -0.44781E+08         0.93890E+06         0.00000E+00
    0.93890E+06        -0.49930E+08         0.00000E+00
    0.00000E+00         0.00000E+00        -0.46015E+08
 
   -0.44813E+08         0.99016E+06         0.00000E+00
    0.99016E+06        -0.49922E+08         0.00000E+00
    0.00000E+00         0.00000E+00        -0.46015E+08
 
   -0.44845E+08         0.10412E+07         0.00000E+00
    0.10412E+07        -0.49913E+08         0.00000E+00
    0.00000E+00         0.00000E+00        -0.46015E+08
 
   -0.44877E+08         0.10919E+07         0.00000E+00
    0.10919E+07        -0.49904E+08         0.00000E+00
    0.00000E+00         0.00000E+00        -0.46016E+08
 
   -0.44910E+08         0.11424E+07         0.00000E+00
    0.11424E+07        -0.49895E+08         0.00000E+00
    0.00000E+00         0.00000E+00        -0.46016E+08
 
   -0.44943E+08         0.11927E+07         0.00000E+00
    0.11927E+07        -0.49885E+08         0.00000E+00
    0.00000E+00         0.00000E+00        -0.46016E+08
 
   -0.44977E+08         0.12427E+07         0.00000E+00
    0.12427E+07        -0.49875E+08         0.00000E+00
    0.00000E+00         0.00000E+00        -0.46016E+08
 
   -0.45011E+08         0.12925E+07         0.00000E+00
    0.12925E+07        -0.49864E+08         0.00000E+00
    0.00000E+00         0.00000E+00        -0.46016E+08
 
   -0.45046E+08         0.13420E+07         0.00000E+00
    0.13420E+07        -0.49853E+08         0.00000E+00
    0.00000E+00         0.00000E+00        -0.46017E+08
 
   -0.45081E+08         0.13912E+07         0.00000E+00
    0.13912E+07        -0.49841E+08         0.00000E+00
    0.00000E+00         0.00000E+00        -0.46017E+08
 
   -0.45116E+08         0.14402E+07         0.00000E+00
    0.14402E+07        -0.49829E+08         0.00000E+00
    0.00000E+00         0.00000E+00        -0.46017E+08
 
   -0.45152E+08         0.14890E+07         0.00000E+00
    0.14890E+07        -0.49816E+08         0.00000E+00
    0.00000E+00         0.00000E+00        -0.46017E+08
 
   -0.45188E+08         0.15374E+07         0.00000E+00
    0.15374E+07        -0.49803E+08         0.00000E+00
    0.00000E+00         0.00000E+00        -0.46017E+08
 
   -0.45224E+08         0.15857E+07         0.00000E+00
    0.15857E+07        -0.49790E+08         0.00000E+00
    0.00000E+00         0.00000E+00        -0.46017E+08
 
   -0.45261E+08         0.16337E+07         0.00000E+00
    0.16337E+07        -0.49776E+08         0.00000E+00
    0.00000E+00         0.00000E+00        -0.46018E+08
 
   -0.45299E+08         0.16814E+07         0.00000E+00
    0.16814E+07        -0.49762E+08         0.00000E+00
    0.00000E+00         0.00000E+00        -0.46018E+08
 
   -0.45337E+08         0.17289E+07         0.00000E+00
    0.17289E+07        -0.49747E+08         0.00000E+00
    0.00000E+00         0.00000E+00        -0.46018E+08
 
   -0.45375E+08         0.17761E+07         0.00000E+00
    0.17761E+07        -0.49732E+08         0.00000E+00
    0.00000E+00         0.00000E+00        -0.46018E+08
 
   -0.45413E+08         0.18230E+07         0.00000E+00
    0.18230E+07        -0.49716E+08         0.00000E+00
    0.00000E+00         0.00000E+00        -0.46018E+08
 
   -0.45452E+08         0.18697E+07         0.00000E+00
    0.18697E+07        -0.49700E+08         0.00000E+00
    0.00000E+00         0.00000E+00        -0.46018E+08
 
   -0.45492E+08         0.19161E+07         0.00000E+00
    0.19161E+07        -0.49684E+08         0.00000E+00
    0.00000E+00         0.00000E+00        -0.46018E+08
 
   -0.45532E+08         0.19623E+07         0.00000E+00
    0.19623E+07        -0.49667E+08         0.00000E+00
    0.00000E+00         0.00000E+00        -0.46018E+08
 
   -0.45572E+08         0.20082E+07         0.00000E+00
    0.20082E+07        -0.49649E+08         0.00000E+00
    0.00000E+00         0.00000E+00        -0.46019E+08
 
   -0.45613E+08         0.20538E+07         0.00000E+00
    0.20538E+07        -0.49631E+08         0.00000E+00
    0.00000E+00         0.00000E+00        -0.46019E+08
 
   -0.45654E+08         0.20992E+07         0.00000E+00
    0.20992E+07        -0.49613E+08         0.00000E+00
    0.00000E+00         0.00000E+00        -0.46019E+08
 
   -0.45695E+08         0.21443E+07         0.00000E+00
    0.21443E+07        -0.49594E+08         0.00000E+00
    0.00000E+00         0.00000E+00        -0.46019E+08
 
   -0.45737E+08         0.21891E+07         0.00000E+00
    0.21891E+07        -0.49575E+08         0.00000E+00
    0.00000E+00         0.00000E+00        -0.46019E+08
 
   -0.45779E+08         0.22336E+07         0.00000E+00
    0.22336E+07        -0.49555E+08         0.00000E+00
    0.00000E+00         0.00000E+00        -0.46019E+08
 
   -0.45822E+08         0.22779E+07         0.00000E+00
    0.22779E+07        -0.49535E+08         0.00000E+00
    0.00000E+00         0.00000E+00        -0.46019E+08
 
   -0.45865E+08         0.23218E+07         0.00000E+00
    0.23218E+07        -0.49515E+08         0.00000E+00
    0.00000E+00         0.00000E+00        -0.46019E+08
 
   -0.45909E+08         0.23655E+07         0.00000E+00
    0.23655E+07        -0.49494E+08         0.00000E+00
    0.00000E+00         0.00000E+00        -0.46019E+08
 
   -0.45952E+08         0.24089E+07         0.00000E+00
    0.24089E+07        -0.49472E+08         0.00000E+00
    0.00000E+00         0.00000E+00        -0.46019E+08
 
   -0.45997E+08         0.24520E+07         0.00000E+00
    0.24520E+07        -0.49450E+08         0.00000E+00
    0.00000E+00         0.00000E+00        -0.46019E+08
 
   -0.44027E+08         0.29399E+05         0.00000E+00
    0.29399E+05        -0.50000E+08         0.00000E+00
    0.00000E+00         0.00000E+00        -0.45794E+08
 
   -0.44052E+08         0.87420E+05         0.00000E+00
    0.87420E+05        -0.49999E+08         0.00000E+00
    0.00000E+00         0.00000E+00        -0.45794E+08
 
   -0.44078E+08         0.14516E+06         0.00000E+00
    0.14516E+06        -0.49998E+08         0.00000E+00
    0.00000E+00         0.00000E+00        -0.45794E+08
 
   -0.44104E+08         0.20263E+06         0.00000E+00
    0.20263E+06        -0.49997E+08         0.00000E+00
    0.00000E+00         0.00000E+00        -0.45794E+08
 
   -0.44131E+08         0.25981E+06         0.00000E+00
    0.25981E+06        -0.49995E+08         0.00000E+00
    0.00000E+00         0.00000E+00        -0.45794E+08
 
   -0.44158E+08         0.31673E+06         0.00000E+00
    0.31673E+06        -0.49993E+08         0.00000E+00
    0.00000E+00         0.00000E+00        -0.45795E+08
 
   -0.44185E+08         0.37337E+06         0.00000E+00
    0.37337E+06        -0.49990E+08         0.00000E+00
    0.00000E+00         0.00000E+00        -0.45795E+08
 
   -0.44214E+08         0.42974E+06         0.00000E+00
    0.42974E+06        -0.49987E+08         0.00000E+00
    0.00000E+00         0.00000E+00        -0.45795E+08
 
   -0.44242E+08         0.48584E+06         0.00000E+00
    0.48584E+06        -0.49983E+08         0.00000E+00
    0.00000E+00         0.00000E+00        -0.45795E+08
 
   -0.44271E+08         0.54168E+06         0.00000E+00
    0.54168E+06        -0.49979E+08         0.00000E+00
    0.00000E+00         0.00000E+00        -0.45795E+08
 
   -0.44300E+08         0.59725E+06         0.00000E+00
    0.59725E+06        -0.49974E+08         0.00000E+00
    0.00000E+00         0.00000E+00        -0.45795E+08
 
   -0.44330E+08         0.65255E+06         0.00000E+00
    0.65255E+06        -0.49969E+08         0.00000E+00
    0.00000E+00         0.00000E+00        -0.45795E+08
 
   -0.44361E+08         0.70760E+06         0.00000E+00
    0.70760E+06        -0.49963E+08         0.00000E+00
    0.00000E+00         0.00000E+00        -0.45795E+08
 
   -0.44391E+08         0.76238E+06         0.00000E+00
    0.76238E+06        -0.49957E+08         0.00000E+00
    0.00000E+00         0.00000E+00        -0.45795E+08
 
   -0.44422E+08         0.81690E+06         0.00000E+00
    0.81690E+06        -0.49951E+08         0.00000E+00
    0.00000E+00         0.00000E+00        -0.45796E+08
 
   -0.44454E+08         0.87117E+06         0.00000E+00
    0.87117E+06        -0.49944E+08         0.00000E+00
    0.00000E+00         0.00000E+00        -0.45796E+08
 
   -0.44486E+08         0.92517E+06         0.00000E+00
    0.92517E+06        -0.49936E+08         0.00000E+00
    0.00000E+00         0.00000E+00        -0.45796E+08
 
   -0.44519E+08         0.97893E+06         0.00000E+00
    0.97893E+06        -0.49928E+08         0.00000E+00
    0.00000E+00         0.00000E+00        -0.45796E+08
 
   -0.44551E+08         0.10324E+07         0.00000E+00
    0.10324E+07        -0.49920E+08         0.00000E+00
    0.00000E+00         0.00000E+00        -0.45796E+08
 
   -0.44585E+08         0.10857E+07         0.00000E+00
    0.10857E+07        -0.49911E+08         0.00000E+00
    0.00000E+00         0.00000E+00        -0.45796E+08
 
   -0.44618E+08         0.11387E+07         0.00000E+00
    0.11387E+07        -0.49902E+08         0.00000E+00
    0.00000E+00         0.00000E+00        -0.45796E+08
 
   -0.44653E+08         0.11914E+07         0.00000E+00
    0.11914E+07        -0.49892E+08         0.00000E+00
    0.00000E+00         0.00000E+00        -0.45797E+08
 
   -0.44687E+08         0.12439E+07         0.00000E+00
    0.12439E+07        -0.49882E+08         0.00000E+00
    0.00000E+00         0.00000E+00        -0.45797E+08
 
   -0.44722E+08         0.12961E+07         0.00000E+00
    0.12961E+07        -0.49872E+08         0.00000E+00
    0.00000E+00         0.00000E+00        -0.45797E+08
 
   -0.44757E+08         0.13481E+07         0.00000E+00
    0.13481E+07        -0.49861E+08         0.00000E+00
    0.00000E+00         0.00000E+00        -0.45797E+08
 
   -0.44793E+08         0.13998E+07         0.00000E+00
    0.13998E+07        -0.49849E+08         0.00000E+00
    0.00000E+00         0.00000E+00        -0.45797E+08
 
   -0.44829E+08         0.14513E+07         0.00000E+00
    0.14513E+07        -0.49837E+08         0.00000E+00
    0.00000E+00         0.00000E+00        -0.45797E+08
 
   -0.44866E+08         0.15026E+07         0.00000E+00
    0.15026E+07        -0.49825E+08         0.00000E+00
    0.00000E+00         0.00000E+00        -0.45797E+08
 
   -0.44903E+08         0.15535E+07         0.00000E+00
    0.15535E+07        -0.49812E+08         0.00000E+00
    0.00000E+00         0.00000E+00        -0.45798E+08
 
   -0.44940E+08         0.16043E+07         0.00000E+00
    0.16043E+07        -0.49799E+08         0.00000E+00
    0.00000E+00         0.00000E+00        -0.45798E+08
 
   -0.44978E+08         0.16548E+07         0.00000E+00
    0.16548E+07        -0.49785E+08         0.00000E+00
    0.00000E+00         0.00000E+00        -0.45798E+08
 
   -0.45017E+08         0.17050E+07         0.00000E+00
    0.17050E+07        -0.49771E+08         0.00000E+00
    0.00000E+00         0.00000E+00        -0.45798E+08
 
   -0.45055E+08         0.17550E+07         0.00000E+00
    0.17550E+07        -0.49756E+08         0.00000E+00
    0.00000E+00         0.00000E+00        -0.45798E+08
 
   -0.45094E+08         0.18047E+07         0.00000E+00
    0.18047E+07        -0.49741E+08         0.00000E+00
    0.00000E+00         0.00000E+00        -0.45798E+08
 
   -0.45134E+08         0.18542E+07         0.00000E+00
    0.18542E+07        -0.49725E+08         0.00000E+00
    0.00000E+00         0.00000E+00        -0.45798E+08
 
   -0.45174E+08         0.19034E+07         0.00000E+00
    0.19034E+07        -0.49709E+08         0.00000E+00
    0.00000E+00         0.00000E+00        -0.45798E+08
 
   -0.45214E+08         0.19523E+07         0.00000E+00
    0.19523E+07        -0.49693E+08         0.00000E+00
    0.00000E+00         0.00000E+00        -0.45799E+08
 
   -0.45255E+08         0.20010E+07         0.00000E+00
    0.20010E+07        -0.49676E+08         0.00000E+00
    0.00000E+00         0.00000E+00        -0.45799E+08
 
   -0.45296E+08         0.20495E+07         0.00000E+00
    0.20495E+07        -0.49658E+08         0.00000E+00
    0.00000E+00         0.00000E+00        -0.45799E+08
 
   -0.45337E+08         0.20977E+07         0.00000E+00
    0.20977E+07        -0.49641E+08         0.00000E+00
    0.00000E+00         0.00000E+00        -0.45799E+08
 
   -0.45379E+08         0.21456E+07         0.00000E+00
    0.21456E+07        -0.49622E+08         0.00000E+00
    0.00000E+00         0.00000E+00        -0.45799E+08
 
   -0.45422E+08         0.21932E+07         0.00000E+00
    0.21932E+07        -0.49603E+08         0.00000E+00
    0.00000E+00         0.00000E+00        -0.45799E+08
 
   -0.45465E+08         0.22406E+07         0.00000E+00
    0.22406E+07        -0.49584E+08         0.00000E+00
    0.00000E+00         0.00000E+00        -0.45799E+08
 
   -0.45508E+08         0.22877E+07         0.00000E+00
    0.22877E+07        -0.49564E+08         0.00000E+00
    0.00000E+00         0.00000E+00        -0.45799E+08
 
   -0.45551E+08         0.23346E+07         0.00000E+00
    0.23346E+07        -0.49544E+08         0.00000E+00
    0.00000E+00         0.00000E+00        -0.45799E+08
 
   -0.45596E+08         0.23811E+07         0.00000E+00
    0.23811E+07        -0.49523E+08         0.00000E+00
    0.00000E+00         0.00000E+00        -0.45799E+08
 
   -0.45640E+08         0.24274E+07         0.00000E+00
    0.24274E+07        -0.49502E+08         0.00000E+00
    0.00000E+00         0.00000E+00        -0.45799E+08
 
   -0.45685E+08         0.24734E+07         0.00000E+00
    0.24734E+07        -0.49480E+08         0.00000E+00
    0.00000E+00         0.00000E+00        -0.45799E+08
 
   -0.45730E+08         0.25192E+07         0.00000E+00
    0.25192E+07        -0.49458E+08         0.00000E+00
    0.00000E+00         0.00000E+00        -0.45799E+08
 
   -0.45776E+08         0.25646E+07         0.00000E+00
    0.25646E+07        -0.49436E+08         0.00000E+00
    0.00000E+00         0.00000E+00        -0.45799E+08
 
   -0.43730E+08         0.30620E+05         0.00000E+00
    0.30620E+05        -0.50000E+08         0.00000E+00
    0.00000E+00         0.00000E+00        -0.45563E+08
 
   -0.43757E+08         0.91044E+05         0.00000E+00
    0.91044E+05        -0.49999E+08         0.00000E+00
    0.00000E+00         0.00000E+00        -0.45564E+08
 
   -0.43784E+08         0.15118E+06         0.00000E+00
    0.15118E+06        -0.49998E+08         0.00000E+00
    0.00000E+00         0.00000E+00        -0.45564E+08
 
   -0.43812E+08         0.21102E+06         0.00000E+00
    0.21102E+06        -0.49997E+08         0.00000E+00
    0.00000E+00         0.00000E+00        -0.45564E+08
 
   -0.43840E+08         0.27057E+06         0.00000E+00
    0.27057E+06        -0.49995E+08         0.00000E+00
    0.00000E+00         0.00000E+00        -0.45564E+08
 
   -0.43868E+08         0.32984E+06         0.00000E+00
    0.32984E+06        -0.49993E+08         0.00000E+00
    0.00000E+00         0.00000E+00        -0.45564E+08
 
   -0.43897E+08         0.38883E+06         0.00000E+00
    0.38883E+06        -0.49990E+08         0.00000E+00
    0.00000E+00         0.00000E+00        -0.45564E+08
 
   -0.43927E+08         0.44754E+06         0.00000E+00
    0.44754E+06        -0.49986E+08         0.00000E+00
    0.00000E+00         0.00000E+00        -0.45564E+08
 
   -0.43956E+08         0.50597E+06         0.00000E+00
    0.50597E+06        -0.49983E+08         0.00000E+00
    0.00000E+00         0.00000E+00        -0.45564E+08
 
   -0.43987E+08         0.56412E+06         0.00000E+00
    0.56412E+06        -0.49978E+08         0.00000E+00
    0.00000E+00         0.00000E+00        -0.45564E+08
 
   -0.44017E+08         0.62201E+06         0.00000E+00
    0.62201E+06        -0.49974E+08         0.00000E+00
    0.00000E+00         0.00000E+00        -0.45564E+08
 
   -0.44049E+08         0.67962E+06         0.00000E+00
    0.67962E+06        -0.49968E+08         0.00000E+00
    0.00000E+00         0.00000E+00        -0.45564E+08
 
   -0.44080E+08         0.73697E+06         0.00000E+00
    0.73697E+06        -0.49963E+08         0.00000E+00
    0.00000E+00         0.00000E+00        -0.45564E+08
 
   -0.44112E+08         0.79406E+06         0.00000E+00
    0.79406E+06        -0.49956E+08         0.00000E+00
    0.00000E+00         0.00000E+00        -0.45564E+08
 
   -0.44145E+08         0.85088E+06         0.00000E+00
    0.85088E+06        -0.49950E+08         0.00000E+00
    0.00000E+00         0.00000E+00        -0.45565E+08
 
   -0.44178E+08         0.90744E+06         0.00000E+00
    0.90744E+06        -0.49943E+08         0.00000E+00
    0.00000E+00         0.00000E+00        -0.45565E+08
 
   -0.44211E+08         0.96374E+06         0.00000E+00
    0.96374E+06        -0.49935E+08         0.00000E+00
    0.00000E+00         0.00000E+00        -0.45565E+08
 
   -0.44245E+08         0.10198E+07         0.00000E+00
    0.10198E+07        -0.49927E+08         0.00000E+00
    0.00000E+00         0.00000E+00        -0.45565E+08
 
   -0.44279E+08         0.10756E+07         0.00000E+00
    0.10756E+07        -0.49919E+08         0.00000E+00
    0.00000E+00         0.00000E+00        -0.45565E+08
 
   -0.44313E+08         0.11311E+07         0.00000E+00
    0.11311E+07        -0.49910E+08         0.00000E+00
    0.00000E+00         0.00000E+00        -0.45565E+08
 
   -0.44348E+08         0.11864E+07         0.00000E+00
    0.11864E+07        -0.49900E+08         0.00000E+00
    0.00000E+00         0.00000E+00        -0.45565E+08
 
   -0.44384E+08         0.12414E+07         0.00000E+00
    0.12414E+07        -0.49890E+08         0.00000E+00
    0.00000E+00         0.00000E+00        -0.45565E+08
 
   -0.44420E+08         0.12962E+07         0.00000E+00
    0.12962E+07        -0.49880E+08         0.00000E+00
    0.00000E+00         0.00000E+00        -0.45565E+08
 
   -0.44456E+08         0.13507E+07         0.00000E+00
    0.13507E+07        -0.49869E+08         0.00000E+00
    0.00000E+00         0.00000E+00        -0.45566E+08
 
   -0.44492E+08         0.14050E+07         0.00000E+00
    0.14050E+07        -0.49858E+08         0.00000E+00
    0.00000E+00         0.00000E+00        -0.45566E+08
 
   -0.44529E+08         0.14590E+07         0.00000E+00
    0.14590E+07        -0.49846E+08         0.00000E+00
    0.00000E+00         0.00000E+00        -0.45566E+08
 
   -0.44567E+08         0.15128E+07         0.00000E+00
    0.15128E+07        -0.49834E+08         0.00000E+00
    0.00000E+00         0.00000E+00        -0.45566E+08
 
   -0.44605E+08         0.15664E+07         0.00000E+00
    0.15664E+07        -0.49822E+08         0.00000E+00
    0.00000E+00         0.00000E+00        -0.45566E+08
 
   -0.44643E+08         0.16197E+07         0.00000E+00
    0.16197E+07        -0.49808E+08         0.00000E+00
    0.00000E+00         0.00000E+00        -0.45566E+08
 
   -0.44682E+08         0.16727E+07         0.00000E+00
    0.16727E+07        -0.49795E+08         0.00000E+00
    0.00000E+00         0.00000E+00        -0.45566E+08
 
   -0.44721E+08         0.17255E+07         0.00000E+00
    0.17255E+07        -0.49781E+08         0.00000E+00
    0.00000E+00         0.00000E+00        -0.45566E+08
 
   -0.44760E+08         0.17781E+07         0.00000E+00
    0.17781E+07        -0.49766E+08         0.00000E+00
    0.00000E+00         0.00000E+00        -0.45566E+08
 
   -0.44800E+08         0.18304E+07         0.00000E+00
    0.18304E+07        -0.49751E+08         0.00000E+00
    0.00000E+00         0.00000E+00        -0.45567E+08
 
   -0.44840E+08         0.18824E+07         0.00000E+00
    0.18824E+07        -0.49736E+08         0.00000E+00
    0.00000E+00         0.00000E+00        -0.45567E+08
 
   -0.44881E+08         0.19343E+07         0.00000E+00
    0.19343E+07        -0.49720E+08         0.00000E+00
    0.00000E+00         0.00000E+00        -0.45567E+08
 
   -0.44922E+08         0.19858E+07         0.00000E+00
    0.19858E+07        -0.49703E+08         0.00000E+00
    0.00000E+00         0.00000E+00        -0.45567E+08
 
   -0.44964E+08         0.20371E+07         0.00000E+00
    0.20371E+07        -0.49686E+08         0.00000E+00
    0.00000E+00         0.00000E+00        -0.45567E+08
 
   -0.45006E+08         0.20882E+07         0.00000E+00
    0.20882E+07        -0.49669E+08         0.00000E+00
    0.00000E+00         0.00000E+00        -0.45567E+08
 
   -0.45048E+08         0.21390E+07         0.00000E+00
    0.21390E+07        -0.49651E+08         0.00000E+00
    0.00000E+00         0.00000E+00        -0.45567E+08
 
   -0.45091E+08         0.21896E+07         0.00000E+00
    0.21896E+07        -0.49633E+08         0.00000E+00
    0.00000E+00         0.00000E+00        -0.45567E+08
 
   -0.45134E+08         0.22399E+07         0.00000E+00
    0.22399E+07        -0.49614E+08         0.00000E+00
    0.00000E+00         0.00000E+00        -0.45567E+08
 
   -0.45178E+08         0.22899E+07         0.00000E+00
    0.22899E+07        -0.49594E+08         0.00000E+00
    0.00000E+00         0.00000E+00        -0.45567E+08
 
   -0.45222E+08         0.23397E+07         0.00000E+00
    0.23397E+07        -0.49575E+08         0.00000E+00
    0.00000E+00         0.00000E+00        -0.45567E+08
 
   -0.45267E+08         0.23893E+07         0.00000E+00
    0.23893E+07        -0.49554E+08         0.00000E+00
    0.00000E+00         0.00000E+00        -0.45567E+08
 
   -0.45312E+08         0.24385E+07         0.00000E+00
    0.24385E+07        -0.49533E+08         0.00000E+00
    0.00000E+00         0.00000E+00        -0.45567E+08
 
   -0.45357E+08         0.24875E+07         0.00000E+00
    0.24875E+07        -0.49512E+08         0.00000E+00
    0.00000E+00         0.00000E+00        -0.45567E+08
 
   -0.45403E+08         0.25362E+07         0.00000E+00
    0.25362E+07        -0.49490E+08         0.00000E+00
    0.00000E+00         0.00000E+00        -0.45567E+08
 
   -0.45450E+08         0.25847E+07         0.00000E+00
    0.25847E+07        -0.49468E+08         0.00000E+00
    0.00000E+00         0.00000E+00        -0.45567E+08
 
   -0.45496E+08         0.26329E+07         0.00000E+00
    0.26329E+07        -0.49445E+08         0.00000E+00
    0.00000E+00         0.00000E+00        -0.45567E+08
 
   -0.45544E+08         0.26808E+07         0.00000E+00
    0.26808E+07        -0.49422E+08         0.00000E+00
    0.00000E+00         0.00000E+00        -0.45567E+08
 
   -0.43421E+08         0.31859E+05         0.00000E+00
    0.31859E+05        -0.50000E+08         0.00000E+00
    0.00000E+00         0.00000E+00        -0.45320E+08
 
   -0.43449E+08         0.94723E+05         0.00000E+00
    0.94723E+05        -0.49999E+08         0.00000E+00
    0.00000E+00         0.00000E+00        -0.45320E+08
 
   -0.43478E+08         0.15728E+06         0.00000E+00
    0.15728E+06        -0.49998E+08         0.00000E+00
    0.00000E+00         0.00000E+00        -0.45320E+08
 
   -0.43507E+08         0.21954E+06         0.00000E+00
    0.21954E+06        -0.49997E+08         0.00000E+00
    0.00000E+00         0.00000E+00        -0.45320E+08
 
   -0.43537E+08         0.28149E+06         0.00000E+00
    0.28149E+06        -0.49995E+08         0.00000E+00
    0.00000E+00         0.00000E+00        -0.45320E+08
 
   -0.43567E+08         0.34315E+06         0.00000E+00
    0.34315E+06        -0.49993E+08         0.00000E+00
    0.00000E+00         0.00000E+00        -0.45320E+08
 
   -0.43597E+08         0.40453E+06         0.00000E+00
    0.40453E+06        -0.49990E+08         0.00000E+00
    0.00000E+00         0.00000E+00        -0.45320E+08
 
   -0.43628E+08         0.46561E+06         0.00000E+00
    0.46561E+06        -0.49986E+08         0.00000E+00
    0.00000E+00         0.00000E+00        -0.45320E+08
 
   -0.43659E+08         0.52641E+06         0.00000E+00
    0.52641E+06        -0.49982E+08         0.00000E+00
    0.00000E+00         0.00000E+00        -0.45321E+08
 
   -0.43691E+08         0.58693E+06         0.00000E+00
    0.58693E+06        -0.49978E+08         0.00000E+00
    0.00000E+00         0.00000E+00        -0.45321E+08
 
   -0.43723E+08         0.64717E+06         0.00000E+00
    0.64717E+06        -0.49973E+08         0.00000E+00
    0.00000E+00         0.00000E+00        -0.45321E+08
 
   -0.43755E+08         0.70714E+06         0.00000E+00
    0.70714E+06        -0.49968E+08         0.00000E+00
    0.00000E+00         0.00000E+00        -0.45321E+08
 
   -0.43788E+08         0.76683E+06         0.00000E+00
    0.76683E+06        -0.49962E+08         0.00000E+00
    0.00000E+00         0.00000E+00        -0.45321E+08
 
   -0.43822E+08         0.82626E+06         0.00000E+00
    0.82626E+06        -0.49956E+08         0.00000E+00
    0.00000E+00         0.00000E+00        -0.45321E+08
 
   -0.43855E+08         0.88542E+06         0.00000E+00
    0.88542E+06        -0.49949E+08         0.00000E+00
    0.00000E+00         0.00000E+00        -0.45321E+08
 
   -0.43890E+08         0.94432E+06         0.00000E+00
    0.94432E+06        -0.49942E+08         0.00000E+00
    0.00000E+00         0.00000E+00        -0.45321E+08
 
   -0.43924E+08         0.10030E+07         0.00000E+00
    0.10030E+07        -0.49934E+08         0.00000E+00
    0.00000E+00         0.00000E+00        -0.45321E+08
 
   -0.43959E+08         0.10613E+07         0.00000E+00
    0.10613E+07        -0.49926E+08         0.00000E+00
    0.00000E+00         0.00000E+00        -0.45321E+08
 
   -0.43995E+08         0.11195E+07         0.00000E+00
    0.11195E+07        -0.49918E+08         0.00000E+00
    0.00000E+00         0.00000E+00        -0.45321E+08
 
   -0.44030E+08         0.11774E+07         0.00000E+00
    0.11774E+07        -0.49908E+08         0.00000E+00
    0.00000E+00         0.00000E+00        -0.45321E+08
 
   -0.44067E+08         0.12350E+07         0.00000E+00
    0.12350E+07        -0.49899E+08         0.00000E+00
    0.00000E+00         0.00000E+00        -0.45322E+08
 
   -0.44103E+08         0.12924E+07         0.00000E+00
    0.12924E+07        -0.49889E+08         0.00000E+00
    0.00000E+00         0.00000E+00        -0.45322E+08
 
   -0.44140E+08         0.13495E+07         0.00000E+00
    0.13495E+07        -0.49878E+08         0.00000E+00
    0.00000E+00         0.00000E+00        -0.45322E+08
 
   -0.44178E+08         0.14064E+07         0.00000E+00
    0.14064E+07        -0.49867E+08         0.00000E+00
    0.00000E+00         0.00000E+00        -0.45322E+08
 
   -0.44216E+08         0.14630E+07         0.00000E+00
    0.14630E+07        -0.49856E+08         0.00000E+00
    0.00000E+00         0.00000E+00        -0.45322E+08
 
   -0.44254E+08         0.15194E+07         0.00000E+00
    0.15194E+07        -0.49844E+08         0.00000E+00
    0.00000E+00         0.00000E+00        -0.45322E+08
 
   -0.44293E+08         0.15756E+07         0.00000E+00
    0.15756E+07        -0.49831E+08         0.00000E+00
    0.00000E+00         0.00000E+00        -0.45322E+08
 
   -0.44332E+08         0.16315E+07         0.00000E+00
    0.16315E+07        -0.49819E+08         0.00000E+00
    0.00000E+00         0.00000E+00        -0.45322E+08
 
   -0.44371E+08         0.16872E+07         0.00000E+00
    0.16872E+07        -0.49805E+08         0.00000E+00
    0.00000E+00         0.00000E+00        -0.45322E+08
 
   -0.44411E+08         0.17426E+07         0.00000E+00
    0.17426E+07        -0.49791E+08         0.00000E+00
    0.00000E+00         0.00000E+00        -0.45322E+08
 
   -0.44451E+08         0.17978E+07         0.00000E+00
    0.17978E+07        -0.49777E+08         0.00000E+00
    0.00000E+00         0.00000E+00        -0.45322E+08
 
   -0.44492E+08         0.18528E+07         0.00000E+00
    0.18528E+07        -0.49762E+08         0.00000E+00
    0.00000E+00         0.00000E+00        -0.45322E+08
 
   -0.44533E+08         0.19075E+07         0.00000E+00
    0.19075E+07        -0.49747E+08         0.00000E+00
    0.00000E+00         0.00000E+00        -0.45322E+08
 
   -0.44575E+08         0.19620E+07         0.00000E+00
    0.19620E+07        -0.49731E+08         0.00000E+00
    0.00000E+00         0.00000E+00        -0.45322E+08
 
   -0.44617E+08         0.20162E+07         0.00000E+00
    0.20162E+07        -0.49715E+08         0.00000E+00
    0.00000E+00         0.00000E+00        -0.45322E+08
 
   -0.44659E+08         0.20702E+07         0.00000E+00
    0.20702E+07        -0.49698E+08         0.00000E+00
    0.00000E+00         0.00000E+00        -0.45322E+08
 
   -0.44702E+08         0.21240E+07         0.00000E+00
    0.21240E+07        -0.49681E+08         0.00000E+00
    0.00000E+00         0.00000E+00        -0.45323E+08
 
   -0.44745E+08         0.21775E+07         0.00000E+00
    0.21775E+07        -0.49663E+08         0.00000E+00
    0.00000E+00         0.00000E+00        -0.45323E+08
 
   -0.44789E+08         0.22308E+07         0.00000E+00
    0.22308E+07        -0.49644E+08         0.00000E+00
    0.00000E+00         0.00000E+00        -0.45323E+08
 
   -0.44833E+08         0.22838E+07         0.00000E+00
    0.22838E+07        -0.49626E+08         0.00000E+00
    0.00000E+00         0.00000E+00        -0.45323E+08
 
   -0.44877E+08         0.23366E+07         0.00000E+00
    0.23366E+07        -0.49606E+08         0.00000E+00
    0.00000E+00         0.00000E+00        -0.45323E+08
 
   -0.44922E+08         0.23892E+07         0.00000E+00
    0.23892E+07        -0.49586E+08         0.00000E+00
    0.00000E+00         0.00000E+00        -0.45323E+08
 
   -0.44968E+08         0.24415E+07         0.00000E+00
    0.24415E+07        -0.49566E+08         0.00000E+00
    0.00000E+00         0.00000E+00        -0.45323E+08
 
   -0.45014E+08         0.24936E+07         0.00000E+00
    0.24936E+07        -0.49545E+08         0.00000E+00
    0.00000E+00         0.00000E+00        -0.45323E+08
 
   -0.45060E+08         0.25453E+07         0.00000E+00
    0.25453E+07        -0.49524E+08         0.00000E+00
    0.00000E+00         0.00000E+00        -0.45323E+08
 
   -0.45107E+08         0.25969E+07         0.00000E+00
    0.25969E+07        -0.49502E+08         0.00000E+00
    0.00000E+00         0.00000E+00        -0.45323E+08
 
   -0.45154E+08         0.26482E+07         0.00000E+00
    0.26482E+07        -0.49479E+08         0.00000E+00
    0.00000E+00         0.00000E+00        -0.45323E+08
 
   -0.45202E+08         0.26992E+07         0.00000E+00
    0.26992E+07        -0.49456E+08         0.00000E+00
    0.00000E+00         0.00000E+00        -0.45323E+08
 
   -0.45250E+08         0.27500E+07         0.00000E+00
    0.27500E+07        -0.49433E+08         0.00000E+00
    0.00000E+00         0.00000E+00        -0.45323E+08
 
   -0.45298E+08         0.28004E+07         0.00000E+00
    0.28004E+07        -0.49409E+08         0.00000E+00
    0.00000E+00         0.00000E+00        -0.45323E+08
 
   -0.43100E+08         0.33112E+05         0.00000E+00
    0.33112E+05        -0.50000E+08         0.00000E+00
    0.00000E+00         0.00000E+00        -0.45064E+08
 
   -0.43130E+08         0.98441E+05         0.00000E+00
    0.98441E+05        -0.49999E+08         0.00000E+00
    0.00000E+00         0.00000E+00        -0.45064E+08
 
   -0.43160E+08         0.16345E+06         0.00000E+00
    0.16345E+06        -0.49998E+08         0.00000E+00
    0.00000E+00         0.00000E+00        -0.45064E+08
 
   -0.43190E+08         0.22815E+06         0.00000E+00
    0.22815E+06        -0.49997E+08         0.00000E+00
    0.00000E+00         0.00000E+00        -0.45064E+08
 
   -0.43221E+08         0.29254E+06         0.00000E+00
    0.29254E+06        -0.49995E+08         0.00000E+00
    0.00000E+00         0.00000E+00        -0.45064E+08
 
   -0.43253E+08         0.35662E+06         0.00000E+00
    0.35662E+06        -0.49992E+08         0.00000E+00
    0.00000E+00         0.00000E+00        -0.45064E+08
 
   -0.43285E+08         0.42040E+06         0.00000E+00
    0.42040E+06        -0.49990E+08         0.00000E+00
    0.00000E+00         0.00000E+00        -0.45064E+08
 
   -0.43317E+08         0.48389E+06         0.00000E+00
    0.48389E+06        -0.49986E+08         0.00000E+00
    0.00000E+00         0.00000E+00        -0.45064E+08
 
   -0.43350E+08         0.54709E+06         0.00000E+00
    0.54709E+06        -0.49982E+08         0.00000E+00
    0.00000E+00         0.00000E+00        -0.45064E+08
 
   -0.43383E+08         0.61001E+06         0.00000E+00
    0.61001E+06        -0.49978E+08         0.00000E+00
    0.00000E+00         0.00000E+00        -0.45064E+08
 
   -0.43416E+08         0.67264E+06         0.00000E+00
    0.67264E+06        -0.49973E+08         0.00000E+00
    0.00000E+00         0.00000E+00        -0.45064E+08
 
   -0.43450E+08         0.73499E+06         0.00000E+00
    0.73499E+06        -0.49968E+08         0.00000E+00
    0.00000E+00         0.00000E+00        -0.45064E+08
 
   -0.43485E+08         0.79707E+06         0.00000E+00
    0.79707E+06        -0.49962E+08         0.00000E+00
    0.00000E+00         0.00000E+00        -0.45064E+08
 
   -0.43519E+08         0.85888E+06         0.00000E+00
    0.85888E+06        -0.49955E+08         0.00000E+00
    0.00000E+00         0.00000E+00        -0.45064E+08
 
   -0.43554E+08         0.92043E+06         0.00000E+00
    0.92043E+06        -0.49949E+08         0.00000E+00
    0.00000E+00         0.00000E+00        -0.45064E+08
 
   -0.43590E+08         0.98171E+06         0.00000E+00
    0.98171E+06        -0.49941E+08         0.00000E+00
    0.00000E+00         0.00000E+00        -0.45064E+08
 
   -0.43626E+08         0.10427E+07         0.00000E+00
    0.10427E+07        -0.49934E+08         0.00000E+00
    0.00000E+00         0.00000E+00        -0.45064E+08
 
   -0.43662E+08         0.11035E+07         0.00000E+00
    0.11035E+07        -0.49925E+08         0.00000E+00
    0.00000E+00         0.00000E+00        -0.45064E+08
 
   -0.43699E+08         0.11640E+07         0.00000E+00
    0.11640E+07        -0.49917E+08         0.00000E+00
    0.00000E+00         0.00000E+00        -0.45064E+08
 
   -0.43736E+08         0.12243E+07         0.00000E+00
    0.12243E+07        -0.49907E+08         0.00000E+00
    0.00000E+00         0.00000E+00        -0.45064E+08
 
   -0.43773E+08         0.12843E+07         0.00000E+00
    0.12843E+07        -0.49898E+08         0.00000E+00
    0.00000E+00         0.00000E+00        -0.45065E+08
 
   -0.43811E+08         0.13441E+07         0.00000E+00
    0.13441E+07        -0.49888E+08         0.00000E+00
    0.00000E+00         0.00000E+00        -0.45065E+08
 
   -0.43849E+08         0.14036E+07         0.00000E+00
    0.14036E+07        -0.49877E+08         0.00000E+00
    0.00000E+00         0.00000E+00        -0.45065E+08
 
   -0.43888E+08         0.14629E+07         0.00000E+00
    0.14629E+07        -0.49866E+08         0.00000E+00
    0.00000E+00         0.00000E+00        -0.45065E+08
 
   -0.43927E+08         0.15220E+07         0.00000E+00
    0.15220E+07        -0.49854E+08         0.00000E+00
    0.00000E+00         0.00000E+00        -0.45065E+08
 
   -0.43966E+08         0.15808E+07         0.00000E+00
    0.15808E+07        -0.49842E+08         0.00000E+00
    0.00000E+00         0.00000E+00        -0.45065E+08
 
   -0.44006E+08         0.16394E+07         0.00000E+00
    0.16394E+07        -0.49829E+08         0.00000E+00
    0.00000E+00         0.00000E+00        -0.45065E+08
 
   -0.44047E+08         0.16978E+07         0.00000E+00
    0.16978E+07        -0.49816E+08         0.00000E+00
    0.00000E+00         0.00000E+00        -0.45065E+08
 
   -0.44087E+08         0.17559E+07         0.00000E+00
    0.17559E+07        -0.49803E+08         0.00000E+00
    0.00000E+00         0.00000E+00        -0.45065E+08
 
   -0.44128E+08         0.18138E+07         0.00000E+00
    0.18138E+07        -0.49789E+08         0.00000E+00
    0.00000E+00         0.00000E+00        -0.45065E+08
 
   -0.44170E+08         0.18715E+07         0.00000E+00
    0.18715E+07        -0.49774E+08         0.00000E+00
    0.00000E+00         0.00000E+00        -0.45065E+08
 
   -0.44212E+08         0.19289E+07         0.00000E+00
    0.19289E+07        -0.49759E+08         0.00000E+00
    0.00000E+00         0.00000E+00        -0.45065E+08
 
   -0.44254E+08         0.19861E+07         0.00000E+00
    0.19861E+07        -0.49743E+08         0.00000E+00
    0.00000E+00         0.00000E+00        -0.45065E+08
 
   -0.44297E+08         0.20431E+07         0.00000E+00
    0.20431E+07        -0.49727E+08         0.00000E+00
    0.00000E+00         0.00000E+00        -0.45065E+08
 
   -0.44340E+08         0.20999E+07         0.00000E+00
    0.20999E+07        -0.49710E+08         0.00000E+00
    0.00000E+00         0.00000E+00        -0.45065E+08
 
   -0.44383E+08         0.21564E+07         0.00000E+00
    0.21564E+07        -0.49693E+08         0.00000E+00
    0.00000E+00         0.00000E+00        -0.45065E+08
 
   -0.44427E+08         0.22127E+07         0.00000E+00
    0.22127E+07        -0.49676E+08         0.00000E+00
    0.00000E+00         0.00000E+00        -0.45065E+08
 
   -0.44472E+08         0.22688E+07         0.00000E+00
    0.22688E+07        -0.49657E+08         0.00000E+00
    0.00000E+00         0.00000E+00        -0.45065E+08
 
   -0.44516E+08         0.23247E+07         0.00000E+00
    0.23247E+07        -0.49639E+08         0.00000E+00
    0.00000E+00         0.00000E+00        -0.45065E+08
 
   -0.44562E+08         0.23803E+07         0.00000E+00
    0.23803E+07        -0.49620E+08         0.00000E+00
    0.00000E+00         0.00000E+00        -0.45065E+08
 
   -0.44607E+08         0.24357E+07         0.00000E+00
    0.24357E+07        -0.49600E+08         0.00000E+00
    0.00000E+00         0.00000E+00        -0.45065E+08
 
   -0.44654E+08         0.24908E+07         0.00000E+00
    0.24908E+07        -0.49580E+08         0.00000E+00
    0.00000E+00         0.00000E+00        -0.45065E+08
 
   -0.44700E+08         0.25458E+07         0.00000E+00
    0.25458E+07        -0.49559E+08         0.00000E+00
    0.00000E+00         0.00000E+00        -0.45065E+08
 
   -0.44747E+08         0.26005E+07         0.00000E+00
    0.26005E+07        -0.49537E+08         0.00000E+00
    0.00000E+00         0.00000E+00        -0.45065E+08
 
   -0.44795E+08         0.26549E+07         0.00000E+00
    0.26549E+07        -0.49515E+08         0.00000E+00
    0.00000E+00         0.00000E+00        -0.45065E+08
 
   -0.44843E+08         0.27091E+07         0.00000E+00
    0.27091E+07        -0.49493E+08         0.00000E+00
    0.00000E+00         0.00000E+00        -0.45065E+08
 
   -0.44891E+08         0.27631E+07         0.00000E+00
    0.27631E+07        -0.49470E+08         0.00000E+00
    0.00000E+00         0.00000E+00        -0.45065E+08
 
   -0.44940E+08         0.28168E+07         0.00000E+00
    0.28168E+07        -0.49446E+08         0.00000E+00
    0.00000E+00         0.00000E+00        -0.45065E+08
 
   -0.44990E+08         0.28703E+07         0.00000E+00
    0.28703E+07        -0.49422E+08         0.00000E+00
    0.00000E+00         0.00000E+00        -0.45065E+08
 
   -0.45040E+08         0.29235E+07         0.00000E+00
    0.29235E+07        -0.49398E+08         0.00000E+00
    0.00000E+00         0.00000E+00        -0.45065E+08
 
   -0.42766E+08         0.34372E+05         0.00000E+00
    0.34372E+05        -0.50000E+08         0.00000E+00
    0.00000E+00         0.00000E+00        -0.44793E+08
 
   -0.42798E+08         0.10218E+06         0.00000E+00
    0.10218E+06        -0.49999E+08         0.00000E+00
    0.00000E+00         0.00000E+00        -0.44793E+08
 
   -0.42829E+08         0.16966E+06         0.00000E+00
    0.16966E+06        -0.49998E+08         0.00000E+00
    0.00000E+00         0.00000E+00        -0.44793E+08
 
   -0.42862E+08         0.23682E+06         0.00000E+00
    0.23682E+06        -0.49997E+08         0.00000E+00
    0.00000E+00         0.00000E+00        -0.44793E+08
 
   -0.42894E+08         0.30366E+06         0.00000E+00
    0.30366E+06        -0.49995E+08         0.00000E+00
    0.00000E+00         0.00000E+00        -0.44793E+08
 
   -0.42927E+08         0.37018E+06         0.00000E+00
    0.37018E+06        -0.49992E+08         0.00000E+00
    0.00000E+00         0.00000E+00        -0.44793E+08
 
   -0.42960E+08         0.43640E+06         0.00000E+00
    0.43640E+06        -0.49989E+08         0.00000E+00
    0.00000E+00         0.00000E+00        -0.44794E+08
 
   -0.42994E+08         0.50232E+06         0.00000E+00
    0.50232E+06        -0.49986E+08         0.00000E+00
    0.00000E+00         0.00000E+00        -0.44794E+08
 
   -0.43028E+08         0.56794E+06         0.00000E+00
    0.56794E+06        -0.49982E+08         0.00000E+00
    0.00000E+00         0.00000E+00        -0.44794E+08
 
   -0.43063E+08         0.63327E+06         0.00000E+00
    0.63327E+06        -0.49978E+08         0.00000E+00
    0.00000E+00         0.00000E+00        -0.44794E+08
 
   -0.43098E+08         0.69832E+06         0.00000E+00
    0.69832E+06        -0.49973E+08         0.00000E+00
    0.00000E+00         0.00000E+00        -0.44794E+08
 
   -0.43133E+08         0.76309E+06         0.00000E+00
    0.76309E+06        -0.49967E+08         0.00000E+00
    0.00000E+00         0.00000E+00        -0.44794E+08
 
   -0.43169E+08         0.82758E+06         0.00000E+00
    0.82758E+06        -0.49962E+08         0.00000E+00
    0.00000E+00         0.00000E+00        -0.44794E+08
 
   -0.43205E+08         0.89180E+06         0.00000E+00
    0.89180E+06        -0.49955E+08         0.00000E+00
    0.00000E+00         0.00000E+00        -0.44794E+08
 
   -0.43241E+08         0.95576E+06         0.00000E+00
    0.95576E+06        -0.49948E+08         0.00000E+00
    0.00000E+00         0.00000E+00        -0.44794E+08
 
   -0.43278E+08         0.10195E+07         0.00000E+00
    0.10195E+07        -0.49941E+08         0.00000E+00
    0.00000E+00         0.00000E+00        -0.44794E+08
 
   -0.43315E+08         0.10829E+07         0.00000E+00
    0.10829E+07        -0.49933E+08         0.00000E+00
    0.00000E+00         0.00000E+00        -0.44794E+08
 
   -0.43353E+08         0.11461E+07         0.00000E+00
    0.11461E+07        -0.49925E+08         0.00000E+00
    0.00000E+00         0.00000E+00        -0.44794E+08
 
   -0.43391E+08         0.12090E+07         0.00000E+00
    0.12090E+07        -0.49916E+08         0.00000E+00
    0.00000E+00         0.00000E+00        -0.44794E+08
 
   -0.43429E+08         0.12717E+07         0.00000E+00
    0.12717E+07        -0.49907E+08         0.00000E+00
    0.00000E+00         0.00000E+00        -0.44794E+08
 
   -0.43468E+08         0.13342E+07         0.00000E+00
    0.13342E+07        -0.49897E+08         0.00000E+00
    0.00000E+00         0.00000E+00        -0.44794E+08
 
   -0.43507E+08         0.13964E+07         0.00000E+00
    0.13964E+07        -0.49887E+08         0.00000E+00
    0.00000E+00         0.00000E+00        -0.44794E+08
 
   -0.43546E+08         0.14584E+07         0.00000E+00
    0.14584E+07        -0.49876E+08         0.00000E+00
    0.00000E+00         0.00000E+00        -0.44794E+08
 
   -0.43586E+08         0.15202E+07         0.00000E+00
    0.15202E+07        -0.49865E+08         0.00000E+00
    0.00000E+00         0.00000E+00        -0.44794E+08
 
   -0.43626E+08         0.15817E+07         0.00000E+00
    0.15817E+07        -0.49853E+08         0.00000E+00
    0.00000E+00         0.00000E+00        -0.44794E+08
 
   -0.43667E+08         0.16430E+07         0.00000E+00
    0.16430E+07        -0.49841E+08         0.00000E+00
    0.00000E+00         0.00000E+00        -0.44794E+08
 
   -0.43708E+08         0.17041E+07         0.00000E+00
    0.17041E+07        -0.49828E+08         0.00000E+00
    0.00000E+00         0.00000E+00        -0.44794E+08
 
   -0.43749E+08         0.17650E+07         0.00000E+00
    0.17650E+07        -0.49815E+08         0.00000E+00
    0.00000E+00         0.00000E+00        -0.44793E+08
 
   -0.43791E+08         0.18256E+07         0.00000E+00
    0.18256E+07        -0.49801E+08         0.00000E+00
    0.00000E+00         0.00000E+00        -0.44793E+08
 
   -0.43833E+08         0.18861E+07         0.00000E+00
    0.18861E+07        -0.49787E+08         0.00000E+00
    0.00000E+00         0.00000E+00        -0.44793E+08
 
   -0.43876E+08         0.19463E+07         0.00000E+00
    0.19463E+07        -0.49772E+08         0.00000E+00
    0.00000E+00         0.00000E+00        -0.44793E+08
 
   -0.43918E+08         0.20063E+07         0.00000E+00
    0.20063E+07        -0.49756E+08         0.00000E+00
    0.00000E+00         0.00000E+00        -0.44793E+08
 
   -0.43962E+08         0.20661E+07         0.00000E+00
    0.20661E+07        -0.49741E+08         0.00000E+00
    0.00000E+00         0.00000E+00        -0.44793E+08
 
   -0.44006E+08         0.21256E+07         0.00000E+00
    0.21256E+07        -0.49724E+08         0.00000E+00
    0.00000E+00         0.00000E+00        -0.44793E+08
 
   -0.44050E+08         0.21850E+07         0.00000E+00
    0.21850E+07        -0.49707E+08         0.00000E+00
    0.00000E+00         0.00000E+00        -0.44793E+08
 
   -0.44095E+08         0.22442E+07         0.00000E+00
    0.22442E+07        -0.49690E+08         0.00000E+00
    0.00000E+00         0.00000E+00        -0.44793E+08
 
   -0.44140E+08         0.23031E+07         0.00000E+00
    0.23031E+07        -0.49672E+08         0.00000E+00
    0.00000E+00         0.00000E+00        -0.44793E+08
 
   -0.44185E+08         0.23618E+07         0.00000E+00
    0.23618E+07        -0.49653E+08         0.00000E+00
    0.00000E+00         0.00000E+00        -0.44793E+08
 
   -0.44231E+08         0.24204E+07         0.00000E+00
    0.24204E+07        -0.49634E+08         0.00000E+00
    0.00000E+00         0.00000E+00        -0.44793E+08
 
   -0.44277E+08         0.24787E+07         0.00000E+00
    0.24787E+07        -0.49615E+08         0.00000E+00
    0.00000E+00         0.00000E+00        -0.44793E+08
 
   -0.44324E+08         0.25368E+07         0.00000E+00
    0.25368E+07        -0.49595E+08         0.00000E+00
    0.00000E+00         0.00000E+00        -0.44793E+08
 
   -0.44372E+08         0.25946E+07         0.00000E+00
    0.25946E+07        -0.49574E+08         0.00000E+00
    0.00000E+00         0.00000E+00        -0.44793E+08
 
   -0.44419E+08         0.26523E+07         0.00000E+00
    0.26523E+07        -0.49553E+08         0.00000E+00
    0.00000E+00         0.00000E+00        -0.44793E+08
 
   -0.44468E+08         0.27097E+07         0.00000E+00
    0.27097E+07        -0.49531E+08         0.00000E+00
    0.00000E+00         0.00000E+00        -0.44793E+08
 
   -0.44516E+08         0.27670E+07         0.00000E+00
    0.27670E+07        -0.49509E+08         0.00000E+00
    0.00000E+00         0.00000E+00        -0.44793E+08
 
   -0.44566E+08         0.28240E+07         0.00000E+00
    0.28240E+07        -0.49486E+08         0.00000E+00
    0.00000E+00         0.00000E+00        -0.44793E+08
 
   -0.44615E+08         0.28807E+07         0.00000E+00
    0.28807E+07        -0.49462E+08         0.00000E+00
    0.00000E+00         0.00000E+00        -0.44793E+08
 
   -0.44665E+08         0.29373E+07         0.00000E+00
    0.29373E+07        -0.49438E+08         0.00000E+00
    0.00000E+00         0.00000E+00        -0.44793E+08
 
   -0.44716E+08         0.29936E+07         0.00000E+00
    0.29936E+07        -0.49413E+08         0.00000E+00
    0.00000E+00         0.00000E+00        -0.44793E+08
 
   -0.44767E+08         0.30497E+07         0.00000E+00
    0.30497E+07        -0.49388E+08         0.00000E+00
    0.00000E+00         0.00000E+00        -0.44793E+08
 
   -0.42420E+08         0.35634E+05         0.00000E+00
    0.35634E+05        -0.50000E+08         0.00000E+00
    0.00000E+00         0.00000E+00        -0.44509E+08
 
   -0.42453E+08         0.10593E+06         0.00000E+00
    0.10593E+06        -0.49999E+08         0.00000E+00
    0.00000E+00         0.00000E+00        -0.44509E+08
 
   -0.42487E+08         0.17589E+06         0.00000E+00
    0.17589E+06        -0.49998E+08         0.00000E+00
    0.00000E+00         0.00000E+00        -0.44509E+08
 
   -0.42520E+08         0.24551E+06         0.00000E+00
    0.24551E+06        -0.49997E+08         0.00000E+00
    0.00000E+00         0.00000E+00        -0.44509E+08
 
   -0.42555E+08         0.31480E+06         0.00000E+00
    0.31480E+06        -0.49995E+08         0.00000E+00
    0.00000E+00         0.00000E+00        -0.44509E+08
 
   -0.42589E+08         0.38378E+06         0.00000E+00
    0.38378E+06        -0.49992E+08         0.00000E+00
    0.00000E+00         0.00000E+00        -0.44509E+08
 
   -0.42624E+08         0.45244E+06         0.00000E+00
    0.45244E+06        -0.49989E+08         0.00000E+00
    0.00000E+00         0.00000E+00        -0.44509E+08
 
   -0.42659E+08         0.52080E+06         0.00000E+00
    0.52080E+06        -0.49986E+08         0.00000E+00
    0.00000E+00         0.00000E+00        -0.44509E+08
 
   -0.42695E+08         0.58885E+06         0.00000E+00
    0.58885E+06        -0.49982E+08         0.00000E+00
    0.00000E+00         0.00000E+00        -0.44509E+08
 
   -0.42731E+08         0.65662E+06         0.00000E+00
    0.65662E+06        -0.49978E+08         0.00000E+00
    0.00000E+00         0.00000E+00        -0.44508E+08
 
   -0.42767E+08         0.72409E+06         0.00000E+00
    0.72409E+06        -0.49973E+08         0.00000E+00
    0.00000E+00         0.00000E+00        -0.44508E+08
 
   -0.42804E+08         0.79129E+06         0.00000E+00
    0.79129E+06        -0.49967E+08         0.00000E+00
    0.00000E+00         0.00000E+00        -0.44508E+08
 
   -0.42841E+08         0.85822E+06         0.00000E+00
    0.85822E+06        -0.49961E+08         0.00000E+00
    0.00000E+00         0.00000E+00        -0.44508E+08
 
   -0.42878E+08         0.92488E+06         0.00000E+00
    0.92488E+06        -0.49955E+08         0.00000E+00
    0.00000E+00         0.00000E+00        -0.44508E+08
 
   -0.42916E+08         0.99127E+06         0.00000E+00
    0.99127E+06        -0.49948E+08         0.00000E+00
    0.00000E+00         0.00000E+00        -0.44508E+08
 
   -0.42954E+08         0.10574E+07         0.00000E+00
    0.10574E+07        -0.49941E+08         0.00000E+00
    0.00000E+00         0.00000E+00        -0.44508E+08
 
   -0.42992E+08         0.11233E+07         0.00000E+00
    0.11233E+07        -0.49933E+08         0.00000E+00
    0.00000E+00         0.00000E+00        -0.44508E+08
 
   -0.43031E+08         0.11890E+07         0.00000E+00
    0.11890E+07        -0.49925E+08         0.00000E+00
    0.00000E+00         0.00000E+00        -0.44508E+08
 
   -0.43070E+08         0.12544E+07         0.00000E+00
    0.12544E+07        -0.49916E+08         0.00000E+00
    0.00000E+00         0.00000E+00        -0.44508E+08
 
   -0.43110E+08         0.13195E+07         0.00000E+00
    0.13195E+07        -0.49907E+08         0.00000E+00
    0.00000E+00         0.00000E+00        -0.44508E+08
 
   -0.43150E+08         0.13845E+07         0.00000E+00
    0.13845E+07        -0.49897E+08         0.00000E+00
    0.00000E+00         0.00000E+00        -0.44508E+08
 
   -0.43190E+08         0.14492E+07         0.00000E+00
    0.14492E+07        -0.49886E+08         0.00000E+00
    0.00000E+00         0.00000E+00        -0.44508E+08
 
   -0.43230E+08         0.15137E+07         0.00000E+00
    0.15137E+07        -0.49876E+08         0.00000E+00
    0.00000E+00         0.00000E+00        -0.44508E+08
 
   -0.43271E+08         0.15779E+07         0.00000E+00
    0.15779E+07        -0.49864E+08         0.00000E+00
    0.00000E+00         0.00000E+00        -0.44508E+08
 
   -0.43313E+08         0.16420E+07         0.00000E+00
    0.16420E+07        -0.49852E+08         0.00000E+00
    0.00000E+00         0.00000E+00        -0.44508E+08
 
   -0.43354E+08         0.17058E+07         0.00000E+00
    0.17058E+07        -0.49840E+08         0.00000E+00
    0.00000E+00         0.00000E+00        -0.44508E+08
 
   -0.43396E+08         0.17695E+07         0.00000E+00
    0.17695E+07        -0.49827E+08         0.00000E+00
    0.00000E+00         0.00000E+00        -0.44508E+08
 
   -0.43439E+08         0.18329E+07         0.00000E+00
    0.18329E+07        -0.49814E+08         0.00000E+00
    0.00000E+00         0.00000E+00        -0.44508E+08
 
   -0.43482E+08         0.18961E+07         0.00000E+00
    0.18961E+07        -0.49800E+08         0.00000E+00
    0.00000E+00         0.00000E+00        -0.44507E+08
 
   -0.43525E+08         0.19592E+07         0.00000E+00
    0.19592E+07        -0.49785E+08         0.00000E+00
    0.00000E+00         0.00000E+00        -0.44507E+08
 
   -0.43568E+08         0.20220E+07         0.00000E+00
    0.20220E+07        -0.49771E+08         0.00000E+00
    0.00000E+00         0.00000E+00        -0.44507E+08
 
   -0.43612E+08         0.20846E+07         0.00000E+00
    0.20846E+07        -0.49755E+08         0.00000E+00
    0.00000E+00         0.00000E+00        -0.44507E+08
 
   -0.43657E+08         0.21471E+07         0.00000E+00
    0.21471E+07        -0.49739E+08         0.00000E+00
    0.00000E+00         0.00000E+00        -0.44507E+08
 
   -0.43702E+08         0.22093E+07         0.00000E+00
    0.22093E+07        -0.49722E+08         0.00000E+00
    0.00000E+00         0.00000E+00        -0.44507E+08
 
   -0.43747E+08         0.22714E+07         0.00000E+00
    0.22714E+07        -0.49705E+08         0.00000E+00
    0.00000E+00         0.00000E+00        -0.44507E+08
 
   -0.43793E+08         0.23332E+07         0.00000E+00
    0.23332E+07        -0.49688E+08         0.00000E+00
    0.00000E+00         0.00000E+00        -0.44507E+08
 
   -0.43839E+08         0.23949E+07         0.00000E+00
    0.23949E+07        -0.49669E+08         0.00000E+00
    0.00000E+00         0.00000E+00        -0.44507E+08
 
   -0.43885E+08         0.24564E+07         0.00000E+00
    0.24564E+07        -0.49651E+08         0.00000E+00
    0.00000E+00         0.00000E+00        -0.44507E+08
 
   -0.43932E+08         0.25177E+07         0.00000E+00
    0.25177E+07        -0.49631E+08         0.00000E+00
    0.00000E+00         0.00000E+00        -0.44507E+08
 
   -0.43979E+08         0.25787E+07         0.00000E+00
    0.25787E+07        -0.49612E+08         0.00000E+00
    0.00000E+00         0.00000E+00        -0.44507E+08
 
   -0.44027E+08         0.26396E+07         0.00000E+00
    0.26396E+07        -0.49591E+08         0.00000E+00
    0.00000E+00         0.00000E+00        -0.44507E+08
 
   -0.44076E+08         0.27004E+07         0.00000E+00
    0.27004E+07        -0.49570E+08         0.00000E+00
    0.00000E+00         0.00000E+00        -0.44506E+08
 
   -0.44124E+08         0.27609E+07         0.00000E+00
    0.27609E+07        -0.49548E+08         0.00000E+00
    0.00000E+00         0.00000E+00        -0.44506E+08
 
   -0.44174E+08         0.28212E+07         0.00000E+00
    0.28212E+07        -0.49526E+08         0.00000E+00
    0.00000E+00         0.00000E+00        -0.44506E+08
 
   -0.44224E+08         0.28813E+07         0.00000E+00
    0.28813E+07        -0.49503E+08         0.00000E+00
    0.00000E+00         0.00000E+00        -0.44506E+08
 
   -0.44274E+08         0.29412E+07         0.00000E+00
    0.29412E+07        -0.49480E+08         0.00000E+00
    0.00000E+00         0.00000E+00        -0.44506E+08
 
   -0.44325E+08         0.30009E+07         0.00000E+00
    0.30009E+07        -0.49456E+08         0.00000E+00
    0.00000E+00         0.00000E+00        -0.44506E+08
 
   -0.44376E+08         0.30604E+07         0.00000E+00
    0.30604E+07        -0.49432E+08         0.00000E+00
    0.00000E+00         0.00000E+00        -0.44506E+08
 
   -0.44428E+08         0.31197E+07         0.00000E+00
    0.31197E+07        -0.49406E+08         0.00000E+00
    0.00000E+00         0.00000E+00        -0.44506E+08
 
   -0.44480E+08         0.31788E+07         0.00000E+00
    0.31788E+07        -0.49381E+08         0.00000E+00
    0.00000E+00         0.00000E+00        -0.44506E+08
 
   -0.42062E+08         0.36890E+05         0.00000E+00
    0.36890E+05        -0.50000E+08         0.00000E+00
    0.00000E+00         0.00000E+00        -0.44208E+08
 
   -0.42096E+08         0.10967E+06         0.00000E+00
    0.10967E+06        -0.49999E+08         0.00000E+00
    0.00000E+00         0.00000E+00        -0.44208E+08
 
   -0.42131E+08         0.18209E+06         0.00000E+00
    0.18209E+06        -0.49998E+08         0.00000E+00
    0.00000E+00         0.00000E+00        -0.44208E+08
 
   -0.42167E+08         0.25417E+06         0.00000E+00
    0.25417E+06        -0.49997E+08         0.00000E+00
    0.00000E+00         0.00000E+00        -0.44208E+08
 
   -0.42203E+08         0.32592E+06         0.00000E+00
    0.32592E+06        -0.49995E+08         0.00000E+00
    0.00000E+00         0.00000E+00        -0.44208E+08
 
   -0.42239E+08         0.39733E+06         0.00000E+00
    0.39733E+06        -0.49993E+08         0.00000E+00
    0.00000E+00         0.00000E+00        -0.44208E+08
 
   -0.42275E+08         0.46844E+06         0.00000E+00
    0.46844E+06        -0.49990E+08         0.00000E+00
    0.00000E+00         0.00000E+00        -0.44208E+08
 
   -0.42312E+08         0.53923E+06         0.00000E+00
    0.53923E+06        -0.49986E+08         0.00000E+00
    0.00000E+00         0.00000E+00        -0.44208E+08
 
   -0.42349E+08         0.60972E+06         0.00000E+00
    0.60972E+06        -0.49982E+08         0.00000E+00
    0.00000E+00         0.00000E+00        -0.44208E+08
 
   -0.42387E+08         0.67992E+06         0.00000E+00
    0.67992E+06        -0.49978E+08         0.00000E+00
    0.00000E+00         0.00000E+00        -0.44208E+08
 
   -0.42424E+08         0.74983E+06         0.00000E+00
    0.74983E+06        -0.49973E+08         0.00000E+00
    0.00000E+00         0.00000E+00        -0.44208E+08
 
   -0.42462E+08         0.81947E+06         0.00000E+00
    0.81947E+06        -0.49968E+08         0.00000E+00
    0.00000E+00         0.00000E+00        -0.44208E+08
 
   -0.42501E+08         0.88884E+06         0.00000E+00
    0.88884E+06        -0.49962E+08         0.00000E+00
    0.00000E+00         0.00000E+00        -0.44208E+08
 
   -0.42539E+08         0.95794E+06         0.00000E+00
    0.95794E+06        -0.49955E+08         0.00000E+00
    0.00000E+00         0.00000E+00        -0.44208E+08
 
   -0.42578E+08         0.10268E+07         0.00000E+00
    0.10268E+07        -0.49948E+08         0.00000E+00
    0.00000E+00         0.00000E+00        -0.44208E+08
 
   -0.42618E+08         0.10954E+07         0.00000E+00
    0.10954E+07        -0.49941E+08         0.00000E+00
    0.00000E+00         0.00000E+00        -0.44208E+08
 
   -0.42657E+08         0.11637E+07         0.00000E+00
    0.11637E+07        -0.49933E+08         0.00000E+00
    0.00000E+00         0.00000E+00        -0.44208E+08
 
   -0.42697E+08         0.12319E+07         0.00000E+00
    0.12319E+07        -0.49925E+08         0.00000E+00
    0.00000E+00         0.00000E+00        -0.44207E+08
 
   -0.42738E+08         0.12998E+07         0.00000E+00
    0.12998E+07        -0.49916E+08         0.00000E+00
    0.00000E+00         0.00000E+00        -0.44207E+08
 
   -0.42778E+08         0.13674E+07         0.00000E+00
    0.13674E+07        -0.49907E+08         0.00000E+00
    0.00000E+00         0.00000E+00        -0.44207E+08
 
   -0.42819E+08         0.14349E+07         0.00000E+00
    0.14349E+07        -0.49897E+08         0.00000E+00
    0.00000E+00         0.00000E+00        -0.44207E+08
 
   -0.42861E+08         0.15021E+07         0.00000E+00
    0.15021E+07        -0.49887E+08         0.00000E+00
    0.00000E+00         0.00000E+00        -0.44207E+08
 
   -0.42902E+08         0.15691E+07         0.00000E+00
    0.15691E+07        -0.49876E+08         0.00000E+00
    0.00000E+00         0.00000E+00        -0.44207E+08
 
   -0.42944E+08         0.16360E+07         0.00000E+00
    0.16360E+07        -0.49864E+08         0.00000E+00
    0.00000E+00         0.00000E+00        -0.44207E+08
 
   -0.42986E+08         0.17026E+07         0.00000E+00
    0.17026E+07        -0.49853E+08         0.00000E+00
    0.00000E+00         0.00000E+00        -0.44207E+08
 
   -0.43029E+08         0.17690E+07         0.00000E+00
    0.17690E+07        -0.49840E+08         0.00000E+00
    0.00000E+00         0.00000E+00        -0.44206E+08
 
   -0.43072E+08         0.18352E+07         0.00000E+00
    0.18352E+07        -0.49827E+08         0.00000E+00
    0.00000E+00         0.00000E+00        -0.44206E+08
 
   -0.43116E+08         0.19013E+07         0.00000E+00
    0.19013E+07        -0.49814E+08         0.00000E+00
    0.00000E+00         0.00000E+00        -0.44206E+08
 
   -0.43159E+08         0.19672E+07         0.00000E+00
    0.19672E+07        -0.49800E+08         0.00000E+00
    0.00000E+00         0.00000E+00        -0.44206E+08
 
   -0.43203E+08         0.20328E+07         0.00000E+00
    0.20328E+07        -0.49785E+08         0.00000E+00
    0.00000E+00         0.00000E+00        -0.44206E+08
 
   -0.43248E+08         0.20984E+07         0.00000E+00
    0.20984E+07        -0.49770E+08         0.00000E+00
    0.00000E+00         0.00000E+00        -0.44206E+08
 
   -0.43293E+08         0.21637E+07         0.00000E+00
    0.21637E+07        -0.49755E+08         0.00000E+00
    0.00000E+00         0.00000E+00        -0.44206E+08
 
   -0.43338E+08         0.22288E+07         0.00000E+00
    0.22288E+07        -0.49739E+08         0.00000E+00
    0.00000E+00         0.00000E+00        -0.44205E+08
 
   -0.43384E+08         0.22938E+07         0.00000E+00
    0.22938E+07        -0.49722E+08         0.00000E+00
    0.00000E+00         0.00000E+00        -0.44205E+08
 
   -0.43430E+08         0.23587E+07         0.00000E+00
    0.23587E+07        -0.49705E+08         0.00000E+00
    0.00000E+00         0.00000E+00        -0.44205E+08
 
   -0.43477E+08         0.24233E+07         0.00000E+00
    0.24233E+07        -0.49687E+08         0.00000E+00
    0.00000E+00         0.00000E+00        -0.44205E+08
 
   -0.43524E+08         0.24878E+07         0.00000E+00
    0.24878E+07        -0.49669E+08         0.00000E+00
    0.00000E+00         0.00000E+00        -0.44205E+08
 
   -0.43571E+08         0.25521E+07         0.00000E+00
    0.25521E+07        -0.49650E+08         0.00000E+00
    0.00000E+00         0.00000E+00        -0.44205E+08
 
   -0.43619E+08         0.26162E+07         0.00000E+00
    0.26162E+07        -0.49630E+08         0.00000E+00
    0.00000E+00         0.00000E+00        -0.44205E+08
 
   -0.43667E+08         0.26802E+07         0.00000E+00
    0.26802E+07        -0.49610E+08         0.00000E+00
    0.00000E+00         0.00000E+00        -0.44205E+08
 
   -0.43716E+08         0.27440E+07         0.00000E+00
    0.27440E+07        -0.49589E+08         0.00000E+00
    0.00000E+00         0.00000E+00        -0.44204E+08
 
   -0.43765E+08         0.28077E+07         0.00000E+00
    0.28077E+07        -0.49568E+08         0.00000E+00
    0.00000E+00         0.00000E+00        -0.44204E+08
 
   -0.43815E+08         0.28711E+07         0.00000E+00
    0.28711E+07        -0.49546E+08         0.00000E+00
    0.00000E+00         0.00000E+00        -0.44204E+08
 
   -0.43865E+08         0.29345E+07         0.00000E+00
    0.29345E+07        -0.49524E+08         0.00000E+00
    0.00000E+00         0.00000E+00        -0.44204E+08
 
   -0.43916E+08         0.29976E+07         0.00000E+00
    0.29976E+07        -0.49500E+08         0.00000E+00
    0.00000E+00         0.00000E+00        -0.44204E+08
 
   -0.43967E+08         0.30605E+07         0.00000E+00
    0.30605E+07        -0.49477E+08         0.00000E+00
    0.00000E+00         0.00000E+00        -0.44204E+08
 
   -0.44019E+08         0.31233E+07         0.00000E+00
    0.31233E+07        -0.49452E+08         0.00000E+00
    0.00000E+00         0.00000E+00        -0.44204E+08
 
   -0.44071E+08         0.31859E+07         0.00000E+00
    0.31859E+07        -0.49427E+08         0.00000E+00
    0.00000E+00         0.00000E+00        -0.44204E+08
 
   -0.44124E+08         0.32483E+07         0.00000E+00
    0.32483E+07        -0.49402E+08         0.00000E+00
    0.00000E+00         0.00000E+00        -0.44204E+08
 
   -0.44177E+08         0.33106E+07         0.00000E+00
    0.33106E+07        -0.49375E+08         0.00000E+00
    0.00000E+00         0.00000E+00        -0.44204E+08
 
   -0.41691E+08         0.38132E+05         0.00000E+00
    0.38132E+05        -0.50000E+08         0.00000E+00
    0.00000E+00         0.00000E+00        -0.43892E+08
 
   -0.41727E+08         0.11336E+06         0.00000E+00
    0.11336E+06        -0.49999E+08         0.00000E+00
    0.00000E+00         0.00000E+00        -0.43892E+08
 
   -0.41764E+08         0.18823E+06         0.00000E+00
    0.18823E+06        -0.49998E+08         0.00000E+00
    0.00000E+00         0.00000E+00        -0.43892E+08
 
   -0.41801E+08         0.26275E+06         0.00000E+00
    0.26275E+06        -0.49997E+08         0.00000E+00
    0.00000E+00         0.00000E+00        -0.43892E+08
 
   -0.41839E+08         0.33692E+06         0.00000E+00
    0.33692E+06        -0.49995E+08         0.00000E+00
    0.00000E+00         0.00000E+00        -0.43892E+08
 
   -0.41876E+08         0.41077E+06         0.00000E+00
    0.41077E+06        -0.49993E+08         0.00000E+00
    0.00000E+00         0.00000E+00        -0.43892E+08
 
   -0.41914E+08         0.48429E+06         0.00000E+00
    0.48429E+06        -0.49990E+08         0.00000E+00
    0.00000E+00         0.00000E+00        -0.43892E+08
 
   -0.41953E+08         0.55751E+06         0.00000E+00
    0.55751E+06        -0.49986E+08         0.00000E+00
    0.00000E+00         0.00000E+00        -0.43892E+08
 
   -0.41991E+08         0.63042E+06         0.00000E+00
    0.63042E+06        -0.49982E+08         0.00000E+00
    0.00000E+00         0.00000E+00        -0.43892E+08
 
   -0.42030E+08         0.70304E+06         0.00000E+00
    0.70304E+06        -0.49978E+08         0.00000E+00
    0.00000E+00         0.00000E+00        -0.43892E+08
 
   -0.42069E+08         0.77538E+06         0.00000E+00
    0.77538E+06        -0.49973E+08         0.00000E+00
    0.00000E+00         0.00000E+00        -0.43891E+08
 
   -0.42109E+08         0.84745E+06         0.00000E+00
    0.84745E+06        -0.49968E+08         0.00000E+00
    0.00000E+00         0.00000E+00        -0.43891E+08
 
   -0.42148E+08         0.91926E+06         0.00000E+00
    0.91926E+06        -0.49962E+08         0.00000E+00
    0.00000E+00         0.00000E+00        -0.43891E+08
 
   -0.42188E+08         0.99081E+06         0.00000E+00
    0.99081E+06        -0.49956E+08         0.00000E+00
    0.00000E+00         0.00000E+00        -0.43891E+08
 
   -0.42229E+08         0.10621E+07         0.00000E+00
    0.10621E+07        -0.49949E+08         0.00000E+00
    0.00000E+00         0.00000E+00        -0.43891E+08
 
   -0.42269E+08         0.11332E+07         0.00000E+00
    0.11332E+07        -0.49942E+08         0.00000E+00
    0.00000E+00         0.00000E+00        -0.43891E+08
 
   -0.42310E+08         0.12040E+07         0.00000E+00
    0.12040E+07        -0.49934E+08         0.00000E+00
    0.00000E+00         0.00000E+00        -0.43891E+08
 
   -0.42351E+08         0.12746E+07         0.00000E+00
    0.12746E+07        -0.49926E+08         0.00000E+00
    0.00000E+00         0.00000E+00        -0.43890E+08
 
   -0.42392E+08         0.13450E+07         0.00000E+00
    0.13450E+07        -0.49917E+08         0.00000E+00
    0.00000E+00         0.00000E+00        -0.43890E+08
 
   -0.42434E+08         0.14152E+07         0.00000E+00
    0.14152E+07        -0.49908E+08         0.00000E+00
    0.00000E+00         0.00000E+00        -0.43890E+08
 
   -0.42476E+08         0.14852E+07         0.00000E+00
    0.14852E+07        -0.49898E+08         0.00000E+00
    0.00000E+00         0.00000E+00        -0.43890E+08
 
   -0.42518E+08         0.15549E+07         0.00000E+00
    0.15549E+07        -0.49888E+08         0.00000E+00
    0.00000E+00         0.00000E+00        -0.43890E+08
 
   -0.42561E+08         0.16245E+07         0.00000E+00
    0.16245E+07        -0.49877E+08         0.00000E+00
    0.00000E+00         0.00000E+00        -0.43890E+08
 
   -0.42604E+08         0.16939E+07         0.00000E+00
    0.16939E+07        -0.49866E+08         0.00000E+00
    0.00000E+00         0.00000E+00        -0.43889E+08
 
   -0.42647E+08         0.17632E+07         0.00000E+00
    0.17632E+07        -0.49854E+08         0.00000E+00
    0.00000E+00         0.00000E+00        -0.43889E+08
 
   -0.42691E+08         0.18322E+07         0.00000E+00
    0.18322E+07        -0.49841E+08         0.00000E+00
    0.00000E+00         0.00000E+00        -0.43889E+08
 
   -0.42735E+08         0.19011E+07         0.00000E+00
    0.19011E+07        -0.49828E+08         0.00000E+00
    0.00000E+00         0.00000E+00        -0.43889E+08
 
   -0.42779E+08         0.19698E+07         0.00000E+00
    0.19698E+07        -0.49815E+08         0.00000E+00
    0.00000E+00         0.00000E+00        -0.43889E+08
 
   -0.42824E+08         0.20384E+07         0.00000E+00
    0.20384E+07        -0.49801E+08         0.00000E+00
    0.00000E+00         0.00000E+00        -0.43888E+08
 
   -0.42869E+08         0.21068E+07         0.00000E+00
    0.21068E+07        -0.49787E+08         0.00000E+00
    0.00000E+00         0.00000E+00        -0.43888E+08
 
   -0.42914E+08         0.21750E+07         0.00000E+00
    0.21750E+07        -0.49771E+08         0.00000E+00
    0.00000E+00         0.00000E+00        -0.43888E+08
 
   -0.42960E+08         0.22431E+07         0.00000E+00
    0.22431E+07        -0.49756E+08         0.00000E+00
    0.00000E+00         0.00000E+00        -0.43888E+08
 
   -0.43006E+08         0.23110E+07         0.00000E+00
    0.23110E+07        -0.49740E+08         0.00000E+00
    0.00000E+00         0.00000E+00        -0.43887E+08
 
   -0.43052E+08         0.23788E+07         0.00000E+00
    0.23788E+07        -0.49723E+08         0.00000E+00
    0.00000E+00         0.00000E+00        -0.43887E+08
 
   -0.43099E+08         0.24465E+07         0.00000E+00
    0.24465E+07        -0.49706E+08         0.00000E+00
    0.00000E+00         0.00000E+00        -0.43887E+08
 
   -0.43147E+08         0.25140E+07         0.00000E+00
    0.25140E+07        -0.49688E+08         0.00000E+00
    0.00000E+00         0.00000E+00        -0.43887E+08
 
   -0.43194E+08         0.25814E+07         0.00000E+00
    0.25814E+07        -0.49669E+08         0.00000E+00
    0.00000E+00         0.00000E+00        -0.43887E+08
 
   -0.43243E+08         0.26486E+07         0.00000E+00
    0.26486E+07        -0.49650E+08         0.00000E+00
    0.00000E+00         0.00000E+00        -0.43887E+08
 
   -0.43291E+08         0.27157E+07         0.00000E+00
    0.27157E+07        -0.49631E+08         0.00000E+00
    0.00000E+00         0.00000E+00        -0.43886E+08
 
   -0.43340E+08         0.27827E+07         0.00000E+00
    0.27827E+07        -0.49610E+08         0.00000E+00
    0.00000E+00         0.00000E+00        -0.43886E+08
 
   -0.43390E+08         0.28495E+07         0.00000E+00
    0.28495E+07        -0.49589E+08         0.00000E+00
    0.00000E+00         0.00000E+00        -0.43886E+08
 
   -0.43440E+08         0.29162E+07         0.00000E+00
    0.29162E+07        -0.49568E+08         0.00000E+00
    0.00000E+00         0.00000E+00        -0.43886E+08
 
   -0.43490E+08         0.29828E+07         0.00000E+00
    0.29828E+07        -0.49546E+08         0.00000E+00
    0.00000E+00         0.00000E+00        -0.43886E+08
 
   -0.43541E+08         0.30492E+07         0.00000E+00
    0.30492E+07        -0.49523E+08         0.00000E+00
    0.00000E+00         0.00000E+00        -0.43886E+08
 
   -0.43593E+08         0.31155E+07         0.00000E+00
    0.31155E+07        -0.49500E+08         0.00000E+00
    0.00000E+00         0.00000E+00        -0.43886E+08
 
   -0.43645E+08         0.31816E+07         0.00000E+00
    0.31816E+07        -0.49476E+08         0.00000E+00
    0.00000E+00         0.00000E+00        -0.43886E+08
 
   -0.43697E+08         0.32476E+07         0.00000E+00
    0.32476E+07        -0.49451E+08         0.00000E+00
    0.00000E+00         0.00000E+00        -0.43885E+08
 
   -0.43750E+08         0.33134E+07         0.00000E+00
    0.33134E+07        -0.49426E+08         0.00000E+00
    0.00000E+00         0.00000E+00        -0.43885E+08
 
   -0.43804E+08         0.33791E+07         0.00000E+00
    0.33791E+07        -0.49400E+08         0.00000E+00
    0.00000E+00         0.00000E+00        -0.43885E+08
 
   -0.43858E+08         0.34447E+07         0.00000E+00
    0.34447E+07        -0.49373E+08         0.00000E+00
    0.00000E+00         0.00000E+00        -0.43885E+08
 
   -0.41307E+08         0.39351E+05         0.00000E+00
    0.39351E+05        -0.50000E+08         0.00000E+00
    0.00000E+00         0.00000E+00        -0.43559E+08
 
   -0.41346E+08         0.11699E+06         0.00000E+00
    0.11699E+06        -0.49999E+08         0.00000E+00
    0.00000E+00         0.00000E+00        -0.43559E+08
 
   -0.41385E+08         0.19426E+06         0.00000E+00
    0.19426E+06        -0.49998E+08         0.00000E+00
    0.00000E+00         0.00000E+00        -0.43559E+08
 
   -0.41423E+08         0.27118E+06         0.00000E+00
    0.27118E+06        -0.49997E+08         0.00000E+00
    0.00000E+00         0.00000E+00        -0.43559E+08
 
   -0.41463E+08         0.34774E+06         0.00000E+00
    0.34774E+06        -0.49995E+08         0.00000E+00
    0.00000E+00         0.00000E+00        -0.43559E+08
 
   -0.41502E+08         0.42398E+06         0.00000E+00
    0.42398E+06        -0.49993E+08         0.00000E+00
    0.00000E+00         0.00000E+00        -0.43559E+08
 
   -0.41542E+08         0.49990E+06         0.00000E+00
    0.49990E+06        -0.49990E+08         0.00000E+00
    0.00000E+00         0.00000E+00        -0.43559E+08
 
   -0.41581E+08         0.57550E+06         0.00000E+00
    0.57550E+06        -0.49987E+08         0.00000E+00
    0.00000E+00         0.00000E+00        -0.43559E+08
 
   -0.41621E+08         0.65081E+06         0.00000E+00
    0.65081E+06        -0.49983E+08         0.00000E+00
    0.00000E+00         0.00000E+00        -0.43558E+08
 
   -0.41662E+08         0.72583E+06         0.00000E+00
    0.72583E+06        -0.49979E+08         0.00000E+00
    0.00000E+00         0.00000E+00        -0.43558E+08
 
   -0.41702E+08         0.80058E+06         0.00000E+00
    0.80058E+06        -0.49974E+08         0.00000E+00
    0.00000E+00         0.00000E+00        -0.43558E+08
 
   -0.41743E+08         0.87506E+06         0.00000E+00
    0.87506E+06        -0.49969E+08         0.00000E+00
    0.00000E+00         0.00000E+00        -0.43558E+08
 
   -0.41784E+08         0.94928E+06         0.00000E+00
    0.94928E+06        -0.49963E+08         0.00000E+00
    0.00000E+00         0.00000E+00        -0.43558E+08
 
   -0.41825E+08         0.10233E+07         0.00000E+00
    0.10233E+07        -0.49957E+08         0.00000E+00
    0.00000E+00         0.00000E+00        -0.43558E+08
 
   -0.41867E+08         0.10970E+07         0.00000E+00
    0.10970E+07        -0.49950E+08         0.00000E+00
    0.00000E+00         0.00000E+00        -0.43557E+08
 
   -0.41908E+08         0.11705E+07         0.00000E+00
    0.11705E+07        -0.49943E+08         0.00000E+00
    0.00000E+00         0.00000E+00        -0.43557E+08
 
   -0.41950E+08         0.12438E+07         0.00000E+00
    0.12438E+07        -0.49935E+08         0.00000E+00
    0.00000E+00         0.00000E+00        -0.43557E+08
 
   -0.41992E+08         0.13169E+07         0.00000E+00
    0.13169E+07        -0.49927E+08         0.00000E+00
    0.00000E+00         0.00000E+00        -0.43557E+08
 
   -0.42035E+08         0.13898E+07         0.00000E+00
    0.13898E+07        -0.49918E+08         0.00000E+00
    0.00000E+00         0.00000E+00        -0.43556E+08
 
   -0.42077E+08         0.14625E+07         0.00000E+00
    0.14625E+07        -0.49909E+08         0.00000E+00
    0.00000E+00         0.00000E+00        -0.43556E+08
 
   -0.42120E+08         0.15350E+07         0.00000E+00
    0.15350E+07        -0.49900E+08         0.00000E+00
    0.00000E+00         0.00000E+00        -0.43556E+08
 
   -0.42164E+08         0.16074E+07         0.00000E+00
    0.16074E+07        -0.49889E+08         0.00000E+00
    0.00000E+00         0.00000E+00        -0.43556E+08
 
   -0.42207E+08         0.16795E+07         0.00000E+00
    0.16795E+07        -0.49879E+08         0.00000E+00
    0.00000E+00         0.00000E+00        -0.43555E+08
 
   -0.42251E+08         0.17516E+07         0.00000E+00
    0.17516E+07        -0.49867E+08         0.00000E+00
    0.00000E+00         0.00000E+00        -0.43555E+08
 
   -0.42295E+08         0.18234E+07         0.00000E+00
    0.18234E+07        -0.49856E+08         0.00000E+00
    0.00000E+00         0.00000E+00        -0.43555E+08
 
   -0.42339E+08         0.18951E+07         0.00000E+00
    0.18951E+07        -0.49843E+08         0.00000E+00
    0.00000E+00         0.00000E+00        -0.43554E+08
 
   -0.42384E+08         0.19667E+07         0.00000E+00
    0.19667E+07        -0.49831E+08         0.00000E+00
    0.00000E+00         0.00000E+00        -0.43554E+08
 
   -0.42429E+08         0.20381E+07         0.00000E+00
    0.20381E+07        -0.49817E+08         0.00000E+00
    0.00000E+00         0.00000E+00        -0.43554E+08
 
   -0.42474E+08         0.21094E+07         0.00000E+00
    0.21094E+07        -0.49803E+08         0.00000E+00
    0.00000E+00         0.00000E+00        -0.43554E+08
 
   -0.42520E+08         0.21805E+07         0.00000E+00
    0.21805E+07        -0.49789E+08         0.00000E+00
    0.00000E+00         0.00000E+00        -0.43553E+08
 
   -0.42566E+08         0.22516E+07         0.00000E+00
    0.22516E+07        -0.49774E+08         0.00000E+00
    0.00000E+00         0.00000E+00        -0.43553E+08
 
   -0.42613E+08         0.23225E+07         0.00000E+00
    0.23225E+07        -0.49758E+08         0.00000E+00
    0.00000E+00         0.00000E+00        -0.43553E+08
 
   -0.42659E+08         0.23933E+07         0.00000E+00
    0.23933E+07        -0.49742E+08         0.00000E+00
    0.00000E+00         0.00000E+00        -0.43553E+08
 
   -0.42706E+08         0.24640E+07         0.00000E+00
    0.24640E+07        -0.49726E+08         0.00000E+00
    0.00000E+00         0.00000E+00        -0.43552E+08
 
   -0.42754E+08         0.25345E+07         0.00000E+00
    0.25345E+07        -0.49708E+08         0.00000E+00
    0.00000E+00         0.00000E+00        -0.43552E+08
 
   -0.42802E+08         0.26050E+07         0.00000E+00
    0.26050E+07        -0.49690E+08         0.00000E+00
    0.00000E+00         0.00000E+00        -0.43552E+08
 
   -0.42850E+08         0.26754E+07         0.00000E+00
    0.26754E+07        -0.49672E+08         0.00000E+00
    0.00000E+00         0.00000E+00        -0.43552E+08
 
   -0.42899E+08         0.27456E+07         0.00000E+00
    0.27456E+07        -0.49653E+08         0.00000E+00
    0.00000E+00         0.00000E+00        -0.43551E+08
 
   -0.42948E+08         0.28158E+07         0.00000E+00
    0.28158E+07        -0.49633E+08         0.00000E+00
    0.00000E+00         0.00000E+00        -0.43551E+08
 
   -0.42998E+08         0.28858E+07         0.00000E+00
    0.28858E+07        -0.49613E+08         0.00000E+00
    0.00000E+00         0.00000E+00        -0.43551E+08
 
   -0.43048E+08         0.29558E+07         0.00000E+00
    0.29558E+07        -0.49592E+08         0.00000E+00
    0.00000E+00         0.00000E+00        -0.43551E+08
 
   -0.43099E+08         0.30256E+07         0.00000E+00
    0.30256E+07        -0.49570E+08         0.00000E+00
    0.00000E+00         0.00000E+00        -0.43551E+08
 
   -0.43150E+08         0.30954E+07         0.00000E+00
    0.30954E+07        -0.49548E+08         0.00000E+00
    0.00000E+00         0.00000E+00        -0.43550E+08
 
   -0.43201E+08         0.31650E+07         0.00000E+00
    0.31650E+07        -0.49525E+08         0.00000E+00
    0.00000E+00         0.00000E+00        -0.43550E+08
 
   -0.43254E+08         0.32346E+07         0.00000E+00
    0.32346E+07        -0.49501E+08         0.00000E+00
    0.00000E+00         0.00000E+00        -0.43550E+08
 
   -0.43306E+08         0.33040E+07         0.00000E+00
    0.33040E+07        -0.49477E+08         0.00000E+00
    0.00000E+00         0.00000E+00        -0.43550E+08
 
   -0.43359E+08         0.33733E+07         0.00000E+00
    0.33733E+07        -0.49452E+08         0.00000E+00
    0.00000E+00         0.00000E+00        -0.43550E+08
 
   -0.43413E+08         0.34425E+07         0.00000E+00
    0.34425E+07        -0.49427E+08         0.00000E+00
    0.00000E+00         0.00000E+00        -0.43550E+08
 
   -0.43467E+08         0.35116E+07         0.00000E+00
    0.35116E+07        -0.49400E+08         0.00000E+00
    0.00000E+00         0.00000E+00        -0.43550E+08
 
   -0.43522E+08         0.35806E+07         0.00000E+00
    0.35806E+07        -0.49373E+08         0.00000E+00
    0.00000E+00         0.00000E+00        -0.43550E+08
 
   -0.40912E+08         0.40537E+05         0.00000E+00
    0.40537E+05        -0.50000E+08         0.00000E+00
    0.00000E+00         0.00000E+00        -0.43208E+08
 
   -0.40953E+08         0.12052E+06         0.00000E+00
    0.12052E+06        -0.49999E+08         0.00000E+00
    0.00000E+00         0.00000E+00        -0.43208E+08
 
   -0.40993E+08         0.20014E+06         0.00000E+00
    0.20014E+06        -0.49999E+08         0.00000E+00
    0.00000E+00         0.00000E+00        -0.43208E+08
 
   -0.41034E+08         0.27939E+06         0.00000E+00
    0.27939E+06        -0.49997E+08         0.00000E+00
    0.00000E+00         0.00000E+00        -0.43208E+08
 
   -0.41075E+08         0.35830E+06         0.00000E+00
    0.35830E+06        -0.49995E+08         0.00000E+00
    0.00000E+00         0.00000E+00        -0.43208E+08
 
   -0.41116E+08         0.43687E+06         0.00000E+00
    0.43687E+06        -0.49993E+08         0.00000E+00
    0.00000E+00         0.00000E+00        -0.43208E+08
 
   -0.41157E+08         0.51512E+06         0.00000E+00
    0.51512E+06        -0.49990E+08         0.00000E+00
    0.00000E+00         0.00000E+00        -0.43208E+08
 
   -0.41198E+08         0.59307E+06         0.00000E+00
    0.59307E+06        -0.49987E+08         0.00000E+00
    0.00000E+00         0.00000E+00        -0.43208E+08
 
   -0.41240E+08         0.67073E+06         0.00000E+00
    0.67073E+06        -0.49983E+08         0.00000E+00
    0.00000E+00         0.00000E+00        -0.43207E+08
 
   -0.41281E+08         0.74811E+06         0.00000E+00
    0.74811E+06        -0.49979E+08         0.00000E+00
    0.00000E+00         0.00000E+00        -0.43207E+08
 
   -0.41323E+08         0.82522E+06         0.00000E+00
    0.82522E+06        -0.49975E+08         0.00000E+00
    0.00000E+00         0.00000E+00        -0.43207E+08
 
   -0.41365E+08         0.90207E+06         0.00000E+00
    0.90207E+06        -0.49969E+08         0.00000E+00
    0.00000E+00         0.00000E+00        -0.43207E+08
 
   -0.41407E+08         0.97869E+06         0.00000E+00
    0.97869E+06        -0.49964E+08         0.00000E+00
    0.00000E+00         0.00000E+00        -0.43206E+08
 
   -0.41450E+08         0.10551E+07         0.00000E+00
    0.10551E+07        -0.49958E+08         0.00000E+00
    0.00000E+00         0.00000E+00        -0.43206E+08
 
   -0.41492E+08         0.11312E+07         0.00000E+00
    0.11312E+07        -0.49951E+08         0.00000E+00
    0.00000E+00         0.00000E+00        -0.43206E+08
 
   -0.41535E+08         0.12072E+07         0.00000E+00
    0.12072E+07        -0.49944E+08         0.00000E+00
    0.00000E+00         0.00000E+00        -0.43206E+08
 
   -0.41578E+08         0.12829E+07         0.00000E+00
    0.12829E+07        -0.49937E+08         0.00000E+00
    0.00000E+00         0.00000E+00        -0.43205E+08
 
   -0.41621E+08         0.13585E+07         0.00000E+00
    0.13585E+07        -0.49929E+08         0.00000E+00
    0.00000E+00         0.00000E+00        -0.43205E+08
 
   -0.41664E+08         0.14339E+07         0.00000E+00
    0.14339E+07        -0.49920E+08         0.00000E+00
    0.00000E+00         0.00000E+00        -0.43205E+08
 
   -0.41708E+08         0.15091E+07         0.00000E+00
    0.15091E+07        -0.49911E+08         0.00000E+00
    0.00000E+00         0.00000E+00        -0.43204E+08
 
   -0.41752E+08         0.15842E+07         0.00000E+00
    0.15842E+07        -0.49902E+08         0.00000E+00
    0.00000E+00         0.00000E+00        -0.43204E+08
 
   -0.41796E+08         0.16591E+07         0.00000E+00
    0.16591E+07        -0.49892E+08         0.00000E+00
    0.00000E+00         0.00000E+00        -0.43204E+08
 
   -0.41840E+08         0.17338E+07         0.00000E+00
    0.17338E+07        -0.49881E+08         0.00000E+00
    0.00000E+00         0.00000E+00        -0.43203E+08
 
   -0.41885E+08         0.18084E+07         0.00000E+00
    0.18084E+07        -0.49870E+08         0.00000E+00
    0.00000E+00         0.00000E+00        -0.43203E+08
 
   -0.41929E+08         0.18829E+07         0.00000E+00
    0.18829E+07        -0.49859E+08         0.00000E+00
    0.00000E+00         0.00000E+00        -0.43203E+08
 
   -0.41974E+08         0.19573E+07         0.00000E+00
    0.19573E+07        -0.49847E+08         0.00000E+00
    0.00000E+00         0.00000E+00        -0.43202E+08
 
   -0.42020E+08         0.20316E+07         0.00000E+00
    0.20316E+07        -0.49834E+08         0.00000E+00
    0.00000E+00         0.00000E+00        -0.43202E+08
 
   -0.42065E+08         0.21057E+07         0.00000E+00
    0.21057E+07        -0.49821E+08         0.00000E+00
    0.00000E+00         0.00000E+00        -0.43202E+08
 
   -0.42111E+08         0.21798E+07         0.00000E+00
    0.21798E+07        -0.49807E+08         0.00000E+00
    0.00000E+00         0.00000E+00        -0.43201E+08
 
   -0.42158E+08         0.22538E+07         0.00000E+00
    0.22538E+07        -0.49793E+08         0.00000E+00
    0.00000E+00         0.00000E+00        -0.43201E+08
 
   -0.42204E+08         0.23276E+07         0.00000E+00
    0.23276E+07        -0.49778E+08         0.00000E+00
    0.00000E+00         0.00000E+00        -0.43200E+08
 
   -0.42251E+08         0.24014E+07         0.00000E+00
    0.24014E+07        -0.49763E+08         0.00000E+00
    0.00000E+00         0.00000E+00        -0.43200E+08
 
   -0.42298E+08         0.24751E+07         0.00000E+00
    0.24751E+07        -0.49747E+08         0.00000E+00
    0.00000E+00         0.00000E+00        -0.43200E+08
 
   -0.42346E+08         0.25487E+07         0.00000E+00
    0.25487E+07        -0.49730E+08         0.00000E+00
    0.00000E+00         0.00000E+00        -0.43199E+08
 
   -0.42394E+08         0.26223E+07         0.00000E+00
    0.26223E+07        -0.49713E+08         0.00000E+00
    0.00000E+00         0.00000E+00        -0.43199E+08
 
   -0.42442E+08         0.26958E+07         0.00000E+00
    0.26958E+07        -0.49695E+08         0.00000E+00
    0.00000E+00         0.00000E+00        -0.43199E+08
 
   -0.42491E+08         0.27692E+07         0.00000E+00
    0.27692E+07        -0.49677E+08         0.00000E+00
    0.00000E+00         0.00000E+00        -0.43198E+08
 
   -0.42540E+08         0.28426E+07         0.00000E+00
    0.28426E+07        -0.49658E+08         0.00000E+00
    0.00000E+00         0.00000E+00        -0.43198E+08
 
   -0.42590E+08         0.29158E+07         0.00000E+00
    0.29158E+07        -0.49638E+08         0.00000E+00
    0.00000E+00         0.00000E+00        -0.43198E+08
 
   -0.42640E+08         0.29891E+07         0.00000E+00
    0.29891E+07        -0.49618E+08         0.00000E+00
    0.00000E+00         0.00000E+00        -0.43198E+08
 
   -0.42691E+08         0.30622E+07         0.00000E+00
    0.30622E+07        -0.49597E+08         0.00000E+00
    0.00000E+00         0.00000E+00        -0.43197E+08
 
   -0.42742E+08         0.31354E+07         0.00000E+00
    0.31354E+07        -0.49575E+08         0.00000E+00
    0.00000E+00         0.00000E+00        -0.43197E+08
 
   -0.42793E+08         0.32084E+07         0.00000E+00
    0.32084E+07        -0.49553E+08         0.00000E+00
    0.00000E+00         0.00000E+00        -0.43197E+08
 
   -0.42845E+08         0.32814E+07         0.00000E+00
    0.32814E+07        -0.49530E+08         0.00000E+00
    0.00000E+00         0.00000E+00        -0.43197E+08
 
   -0.42898E+08         0.33543E+07         0.00000E+00
    0.33543E+07        -0.49506E+08         0.00000E+00
    0.00000E+00         0.00000E+00        -0.43197E+08
 
   -0.42951E+08         0.34272E+07         0.00000E+00
    0.34272E+07        -0.49482E+08         0.00000E+00
    0.00000E+00         0.00000E+00        -0.43197E+08
 
   -0.43004E+08         0.35000E+07         0.00000E+00
    0.35000E+07        -0.49457E+08         0.00000E+00
    0.00000E+00         0.00000E+00        -0.43196E+08
 
   -0.43058E+08         0.35727E+07         0.00000E+00
    0.35727E+07        -0.49431E+08         0.00000E+00
    0.00000E+00         0.00000E+00        -0.43196E+08
 
   -0.43113E+08         0.36454E+07         0.00000E+00
    0.36454E+07        -0.49405E+08         0.00000E+00
    0.00000E+00         0.00000E+00        -0.43196E+08
 
   -0.43168E+08         0.37180E+07         0.00000E+00
    0.37180E+07        -0.49378E+08         0.00000E+00
    0.00000E+00         0.00000E+00        -0.43196E+08
 
   -0.40506E+08         0.41677E+05         0.00000E+00
    0.41677E+05        -0.50000E+08         0.00000E+00
    0.00000E+00         0.00000E+00        -0.42839E+08
 
   -0.40548E+08         0.12393E+06         0.00000E+00
    0.12393E+06        -0.49999E+08         0.00000E+00
    0.00000E+00         0.00000E+00        -0.42839E+08
 
   -0.40590E+08         0.20580E+06         0.00000E+00
    0.20580E+06        -0.49999E+08         0.00000E+00
    0.00000E+00         0.00000E+00        -0.42839E+08
 
   -0.40633E+08         0.28731E+06         0.00000E+00
    0.28731E+06        -0.49997E+08         0.00000E+00
    0.00000E+00         0.00000E+00        -0.42839E+08
 
   -0.40675E+08         0.36848E+06         0.00000E+00
    0.36848E+06        -0.49995E+08         0.00000E+00
    0.00000E+00         0.00000E+00        -0.42839E+08
 
   -0.40718E+08         0.44932E+06         0.00000E+00
    0.44932E+06        -0.49993E+08         0.00000E+00
    0.00000E+00         0.00000E+00        -0.42838E+08
 
   -0.40761E+08         0.52984E+06         0.00000E+00
    0.52984E+06        -0.49991E+08         0.00000E+00
    0.00000E+00         0.00000E+00        -0.42838E+08
 
   -0.40803E+08         0.61006E+06         0.00000E+00
    0.61006E+06        -0.49988E+08         0.00000E+00
    0.00000E+00         0.00000E+00        -0.42838E+08
 
   -0.40846E+08         0.69000E+06         0.00000E+00
    0.69000E+06        -0.49984E+08         0.00000E+00
    0.00000E+00         0.00000E+00        -0.42838E+08
 
   -0.40889E+08         0.76968E+06         0.00000E+00
    0.76968E+06        -0.49980E+08         0.00000E+00
    0.00000E+00         0.00000E+00        -0.42838E+08
 
   -0.40932E+08         0.84909E+06         0.00000E+00
    0.84909E+06        -0.49976E+08         0.00000E+00
    0.00000E+00         0.00000E+00        -0.42837E+08
 
   -0.40976E+08         0.92827E+06         0.00000E+00
    0.92827E+06        -0.49971E+08         0.00000E+00
    0.00000E+00         0.00000E+00        -0.42837E+08
 
   -0.41019E+08         0.10072E+07         0.00000E+00
    0.10072E+07        -0.49965E+08         0.00000E+00
    0.00000E+00         0.00000E+00        -0.42837E+08
 
   -0.41062E+08         0.10860E+07         0.00000E+00
    0.10860E+07        -0.49959E+08         0.00000E+00
    0.00000E+00         0.00000E+00        -0.42836E+08
 
   -0.41106E+08         0.11645E+07         0.00000E+00
    0.11645E+07        -0.49953E+08         0.00000E+00
    0.00000E+00         0.00000E+00        -0.42836E+08
 
   -0.41150E+08         0.12428E+07         0.00000E+00
    0.12428E+07        -0.49946E+08         0.00000E+00
    0.00000E+00         0.00000E+00        -0.42836E+08
 
   -0.41194E+08         0.13210E+07         0.00000E+00
    0.13210E+07        -0.49939E+08         0.00000E+00
    0.00000E+00         0.00000E+00        -0.42835E+08
 
   -0.41238E+08         0.13990E+07         0.00000E+00
    0.13990E+07        -0.49931E+08         0.00000E+00
    0.00000E+00         0.00000E+00        -0.42835E+08
 
   -0.41282E+08         0.14769E+07         0.00000E+00
    0.14769E+07        -0.49923E+08         0.00000E+00
    0.00000E+00         0.00000E+00        -0.42834E+08
 
   -0.41326E+08         0.15546E+07         0.00000E+00
    0.15546E+07        -0.49914E+08         0.00000E+00
    0.00000E+00         0.00000E+00        -0.42834E+08
 
   -0.41370E+08         0.16322E+07         0.00000E+00
    0.16322E+07        -0.49905E+08         0.00000E+00
    0.00000E+00         0.00000E+00        -0.42834E+08
 
   -0.41415E+08         0.17096E+07         0.00000E+00
    0.17096E+07        -0.49895E+08         0.00000E+00
    0.00000E+00         0.00000E+00        -0.42833E+08
 
   -0.41460E+08         0.17870E+07         0.00000E+00
    0.17870E+07        -0.49885E+08         0.00000E+00
    0.00000E+00         0.00000E+00        -0.42833E+08
 
   -0.41505E+08         0.18642E+07         0.00000E+00
    0.18642E+07        -0.49875E+08         0.00000E+00
    0.00000E+00         0.00000E+00        -0.42832E+08
 
   -0.41550E+08         0.19413E+07         0.00000E+00
    0.19413E+07        -0.49863E+08         0.00000E+00
    0.00000E+00         0.00000E+00        -0.42832E+08
 
   -0.41596E+08         0.20184E+07         0.00000E+00
    0.20184E+07        -0.49851E+08         0.00000E+00
    0.00000E+00         0.00000E+00        -0.42831E+08
 
   -0.41642E+08         0.20954E+07         0.00000E+00
    0.20954E+07        -0.49839E+08         0.00000E+00
    0.00000E+00         0.00000E+00        -0.42831E+08
 
   -0.41688E+08         0.21723E+07         0.00000E+00
    0.21723E+07        -0.49826E+08         0.00000E+00
    0.00000E+00         0.00000E+00        -0.42830E+08
 
   -0.41734E+08         0.22491E+07         0.00000E+00
    0.22491E+07        -0.49813E+08         0.00000E+00
    0.00000E+00         0.00000E+00        -0.42830E+08
 
   -0.41781E+08         0.23259E+07         0.00000E+00
    0.23259E+07        -0.49799E+08         0.00000E+00
    0.00000E+00         0.00000E+00        -0.42830E+08
 
   -0.41828E+08         0.24027E+07         0.00000E+00
    0.24027E+07        -0.49784E+08         0.00000E+00
    0.00000E+00         0.00000E+00        -0.42829E+08
 
   -0.41875E+08         0.24794E+07         0.00000E+00
    0.24794E+07        -0.49769E+08         0.00000E+00
    0.00000E+00         0.00000E+00        -0.42829E+08
 
   -0.41923E+08         0.25560E+07         0.00000E+00
    0.25560E+07        -0.49753E+08         0.00000E+00
    0.00000E+00         0.00000E+00        -0.42828E+08
 
   -0.41970E+08         0.26327E+07         0.00000E+00
    0.26327E+07        -0.49737E+08         0.00000E+00
    0.00000E+00         0.00000E+00        -0.42828E+08
 
   -0.42019E+08         0.27093E+07         0.00000E+00
    0.27093E+07        -0.49720E+08         0.00000E+00
    0.00000E+00         0.00000E+00        -0.42828E+08
 
   -0.42067E+08         0.27858E+07         0.00000E+00
    0.27858E+07        -0.49702E+08         0.00000E+00
    0.00000E+00         0.00000E+00        -0.42827E+08
 
   -0.42116E+08         0.28624E+07         0.00000E+00
    0.28624E+07        -0.49684E+08         0.00000E+00
    0.00000E+00         0.00000E+00        -0.42827E+08
 
   -0.42166E+08         0.29389E+07         0.00000E+00
    0.29389E+07        -0.49665E+08         0.00000E+00
    0.00000E+00         0.00000E+00        -0.42826E+08
 
   -0.42216E+08         0.30154E+07         0.00000E+00
    0.30154E+07        -0.49646E+08         0.00000E+00
    0.00000E+00         0.00000E+00        -0.42826E+08
 
   -0.42266E+08         0.30919E+07         0.00000E+00
    0.30919E+07        -0.49626E+08         0.00000E+00
    0.00000E+00         0.00000E+00        -0.42826E+08
 
   -0.42317E+08         0.31684E+07         0.00000E+00
    0.31684E+07        -0.49605E+08         0.00000E+00
    0.00000E+00         0.00000E+00        -0.42825E+08
 
   -0.42368E+08         0.32449E+07         0.00000E+00
    0.32449E+07        -0.49583E+08         0.00000E+00
    0.00000E+00         0.00000E+00        -0.42825E+08
 
   -0.42419E+08         0.33213E+07         0.00000E+00
    0.33213E+07        -0.49561E+08         0.00000E+00
    0.00000E+00         0.00000E+00        -0.42825E+08
 
   -0.42472E+08         0.33978E+07         0.00000E+00
    0.33978E+07        -0.49538E+08         0.00000E+00
    0.00000E+00         0.00000E+00        -0.42825E+08
 
   -0.42524E+08         0.34742E+07         0.00000E+00
    0.34742E+07        -0.49515E+08         0.00000E+00
    0.00000E+00         0.00000E+00        -0.42825E+08
 
   -0.42577E+08         0.35507E+07         0.00000E+00
    0.35507E+07        -0.49490E+08         0.00000E+00
    0.00000E+00         0.00000E+00        -0.42824E+08
 
   -0.42631E+08         0.36271E+07         0.00000E+00
    0.36271E+07        -0.49465E+08         0.00000E+00
    0.00000E+00         0.00000E+00        -0.42824E+08
 
   -0.42686E+08         0.37035E+07         0.00000E+00
    0.37035E+07        -0.49439E+08         0.00000E+00
    0.00000E+00         0.00000E+00        -0.42824E+08
 
   -0.42741E+08         0.37799E+07         0.00000E+00
    0.37799E+07        -0.49413E+08         0.00000E+00
    0.00000E+00         0.00000E+00        -0.42824E+08
 
   -0.42796E+08         0.38562E+07         0.00000E+00
    0.38562E+07        -0.49386E+08         0.00000E+00
    0.00000E+00         0.00000E+00        -0.42824E+08
 
   -0.40088E+08         0.42759E+05         0.00000E+00
    0.42759E+05        -0.50000E+08         0.00000E+00
    0.00000E+00         0.00000E+00        -0.42450E+08
 
   -0.40132E+08         0.12716E+06         0.00000E+00
    0.12716E+06        -0.50000E+08         0.00000E+00
    0.00000E+00         0.00000E+00        -0.42450E+08
 
   -0.40176E+08         0.21119E+06         0.00000E+00
    0.21119E+06        -0.49999E+08         0.00000E+00
    0.00000E+00         0.00000E+00        -0.42450E+08
 
   -0.40221E+08         0.29486E+06         0.00000E+00
    0.29486E+06        -0.49997E+08         0.00000E+00
    0.00000E+00         0.00000E+00        -0.42450E+08
 
   -0.40265E+08         0.37818E+06         0.00000E+00
    0.37818E+06        -0.49996E+08         0.00000E+00
    0.00000E+00         0.00000E+00        -0.42450E+08
 
   -0.40309E+08         0.46118E+06         0.00000E+00
    0.46118E+06        -0.49994E+08         0.00000E+00
    0.00000E+00         0.00000E+00        -0.42450E+08
 
   -0.40353E+08         0.54388E+06         0.00000E+00
    0.54388E+06        -0.49991E+08         0.00000E+00
    0.00000E+00         0.00000E+00        -0.42450E+08
 
   -0.40398E+08         0.62629E+06         0.00000E+00
    0.62629E+06        -0.49988E+08         0.00000E+00
    0.00000E+00         0.00000E+00        -0.42449E+08
 
   -0.40442E+08         0.70843E+06         0.00000E+00
    0.70843E+06        -0.49985E+08         0.00000E+00
    0.00000E+00         0.00000E+00        -0.42449E+08
 
   -0.40486E+08         0.79031E+06         0.00000E+00
    0.79031E+06        -0.49981E+08         0.00000E+00
    0.00000E+00         0.00000E+00        -0.42449E+08
 
   -0.40530E+08         0.87196E+06         0.00000E+00
    0.87196E+06        -0.49977E+08         0.00000E+00
    0.00000E+00         0.00000E+00        -0.42448E+08
 
   -0.40575E+08         0.95338E+06         0.00000E+00
    0.95338E+06        -0.49972E+08         0.00000E+00
    0.00000E+00         0.00000E+00        -0.42448E+08
 
   -0.40619E+08         0.10346E+07         0.00000E+00
    0.10346E+07        -0.49967E+08         0.00000E+00
    0.00000E+00         0.00000E+00        -0.42448E+08
 
   -0.40663E+08         0.11156E+07         0.00000E+00
    0.11156E+07        -0.49961E+08         0.00000E+00
    0.00000E+00         0.00000E+00        -0.42447E+08
 
   -0.40708E+08         0.11965E+07         0.00000E+00
    0.11965E+07        -0.49955E+08         0.00000E+00
    0.00000E+00         0.00000E+00        -0.42447E+08
 
   -0.40752E+08         0.12772E+07         0.00000E+00
    0.12772E+07        -0.49949E+08         0.00000E+00
    0.00000E+00         0.00000E+00        -0.42446E+08
 
   -0.40797E+08         0.13577E+07         0.00000E+00
    0.13577E+07        -0.49942E+08         0.00000E+00
    0.00000E+00         0.00000E+00        -0.42446E+08
 
   -0.40842E+08         0.14381E+07         0.00000E+00
    0.14381E+07        -0.49935E+08         0.00000E+00
    0.00000E+00         0.00000E+00        -0.42445E+08
 
   -0.40887E+08         0.15184E+07         0.00000E+00
    0.15184E+07        -0.49927E+08         0.00000E+00
    0.00000E+00         0.00000E+00        -0.42445E+08
 
   -0.40932E+08         0.15985E+07         0.00000E+00
    0.15985E+07        -0.49918E+08         0.00000E+00
    0.00000E+00         0.00000E+00        -0.42444E+08
 
   -0.40977E+08         0.16786E+07         0.00000E+00
    0.16786E+07        -0.49909E+08         0.00000E+00
    0.00000E+00         0.00000E+00        -0.42444E+08
 
   -0.41022E+08         0.17586E+07         0.00000E+00
    0.17586E+07        -0.49900E+08         0.00000E+00
    0.00000E+00         0.00000E+00        -0.42443E+08
 
   -0.41067E+08         0.18385E+07         0.00000E+00
    0.18385E+07        -0.49890E+08         0.00000E+00
    0.00000E+00         0.00000E+00        -0.42443E+08
 
   -0.41113E+08         0.19183E+07         0.00000E+00
    0.19183E+07        -0.49880E+08         0.00000E+00
    0.00000E+00         0.00000E+00        -0.42442E+08
 
   -0.41158E+08         0.19981E+07         0.00000E+00
    0.19981E+07        -0.49869E+08         0.00000E+00
    0.00000E+00         0.00000E+00        -0.42442E+08
 
   -0.41204E+08         0.20779E+07         0.00000E+00
    0.20779E+07        -0.49858E+08         0.00000E+00
    0.00000E+00         0.00000E+00        -0.42441E+08
 
   -0.41250E+08         0.21576E+07         0.00000E+00
    0.21576E+07        -0.49846E+08         0.00000E+00
    0.00000E+00         0.00000E+00        -0.42441E+08
 
   -0.41296E+08         0.22372E+07         0.00000E+00
    0.22372E+07        -0.49833E+08         0.00000E+00
    0.00000E+00         0.00000E+00        -0.42440E+08
 
   -0.41343E+08         0.23169E+07         0.00000E+00
    0.23169E+07        -0.49820E+08         0.00000E+00
    0.00000E+00         0.00000E+00        -0.42440E+08
 
   -0.41390E+08         0.23966E+07         0.00000E+00
    0.23966E+07        -0.49806E+08         0.00000E+00
    0.00000E+00         0.00000E+00        -0.42439E+08
 
   -0.41437E+08         0.24762E+07         0.00000E+00
    0.24762E+07        -0.49792E+08         0.00000E+00
    0.00000E+00         0.00000E+00        -0.42438E+08
 
   -0.41484E+08         0.25558E+07         0.00000E+00
    0.25558E+07        -0.49777E+08         0.00000E+00
    0.00000E+00         0.00000E+00        -0.42438E+08
 
   -0.41532E+08         0.26355E+07         0.00000E+00
    0.26355E+07        -0.49762E+08         0.00000E+00
    0.00000E+00         0.00000E+00        -0.42437E+08
 
   -0.41580E+08         0.27152E+07         0.00000E+00
    0.27152E+07        -0.49746E+08         0.00000E+00
    0.00000E+00         0.00000E+00        -0.42437E+08
 
   -0.41628E+08         0.27948E+07         0.00000E+00
    0.27948E+07        -0.49729E+08         0.00000E+00
    0.00000E+00         0.00000E+00        -0.42436E+08
 
   -0.41677E+08         0.28745E+07         0.00000E+00
    0.28745E+07        -0.49712E+08         0.00000E+00
    0.00000E+00         0.00000E+00        -0.42436E+08
 
   -0.41726E+08         0.29543E+07         0.00000E+00
    0.29543E+07        -0.49694E+08         0.00000E+00
    0.00000E+00         0.00000E+00        -0.42436E+08
 
   -0.41775E+08         0.30341E+07         0.00000E+00
    0.30341E+07        -0.49676E+08         0.00000E+00
    0.00000E+00         0.00000E+00        -0.42435E+08
 
   -0.41825E+08         0.31139E+07         0.00000E+00
    0.31139E+07        -0.49656E+08         0.00000E+00
    0.00000E+00         0.00000E+00        -0.42435E+08
 
   -0.41875E+08         0.31937E+07         0.00000E+00
    0.31937E+07        -0.49637E+08         0.00000E+00
    0.00000E+00         0.00000E+00        -0.42434E+08
 
   -0.41926E+08         0.32736E+07         0.00000E+00
    0.32736E+07        -0.49616E+08         0.00000E+00
    0.00000E+00         0.00000E+00        -0.42434E+08
 
   -0.41977E+08         0.33535E+07         0.00000E+00
    0.33535E+07        -0.49595E+08         0.00000E+00
    0.00000E+00         0.00000E+00        -0.42434E+08
 
   -0.42028E+08         0.34335E+07         0.00000E+00
    0.34335E+07        -0.49573E+08         0.00000E+00
    0.00000E+00         0.00000E+00        -0.42433E+08
 
   -0.42080E+08         0.35135E+07         0.00000E+00
    0.35135E+07        -0.49550E+08         0.00000E+00
    0.00000E+00         0.00000E+00        -0.42433E+08
 
   -0.42133E+08         0.35936E+07         0.00000E+00
    0.35936E+07        -0.49527E+08         0.00000E+00
    0.00000E+00         0.00000E+00        -0.42433E+08
 
   -0.42186E+08         0.36737E+07         0.00000E+00
    0.36737E+07        -0.49503E+08         0.00000E+00
    0.00000E+00         0.00000E+00        -0.42433E+08
 
   -0.42240E+08         0.37539E+07         0.00000E+00
    0.37539E+07        -0.49478E+08         0.00000E+00
    0.00000E+00         0.00000E+00        -0.42433E+08
 
   -0.42294E+08         0.38341E+07         0.00000E+00
    0.38341E+07        -0.49452E+08         0.00000E+00
    0.00000E+00         0.00000E+00        -0.42432E+08
 
   -0.42349E+08         0.39144E+07         0.00000E+00
    0.39144E+07        -0.49425E+08         0.00000E+00
    0.00000E+00         0.00000E+00        -0.42432E+08
 
   -0.42404E+08         0.39946E+07         0.00000E+00
    0.39946E+07        -0.49398E+08         0.00000E+00
    0.00000E+00         0.00000E+00        -0.42432E+08
 
   -0.39660E+08         0.43767E+05         0.00000E+00
    0.43767E+05        -0.50000E+08         0.00000E+00
    0.00000E+00         0.00000E+00        -0.42042E+08
 
   -0.39706E+08         0.13019E+06         0.00000E+00
    0.13019E+06        -0.50000E+08         0.00000E+00
    0.00000E+00         0.00000E+00        -0.42042E+08
 
   -0.39752E+08         0.21623E+06         0.00000E+00
    0.21623E+06        -0.49999E+08         0.00000E+00
    0.00000E+00         0.00000E+00        -0.42042E+08
 
   -0.39798E+08         0.30192E+06         0.00000E+00
    0.30192E+06        -0.49998E+08         0.00000E+00
    0.00000E+00         0.00000E+00        -0.42041E+08
 
   -0.39844E+08         0.38728E+06         0.00000E+00
    0.38728E+06        -0.49996E+08         0.00000E+00
    0.00000E+00         0.00000E+00        -0.42041E+08
 
   -0.39890E+08         0.47233E+06         0.00000E+00
    0.47233E+06        -0.49994E+08         0.00000E+00
    0.00000E+00         0.00000E+00        -0.42041E+08
 
   -0.39935E+08         0.55708E+06         0.00000E+00
    0.55708E+06        -0.49992E+08         0.00000E+00
    0.00000E+00         0.00000E+00        -0.42041E+08
 
   -0.39981E+08         0.64156E+06         0.00000E+00
    0.64156E+06        -0.49989E+08         0.00000E+00
    0.00000E+00         0.00000E+00        -0.42040E+08
 
   -0.40026E+08         0.72578E+06         0.00000E+00
    0.72578E+06        -0.49986E+08         0.00000E+00
    0.00000E+00         0.00000E+00        -0.42040E+08
 
   -0.40072E+08         0.80977E+06         0.00000E+00
    0.80977E+06        -0.49982E+08         0.00000E+00
    0.00000E+00         0.00000E+00        -0.42040E+08
 
   -0.40117E+08         0.89354E+06         0.00000E+00
    0.89354E+06        -0.49978E+08         0.00000E+00
    0.00000E+00         0.00000E+00        -0.42039E+08
 
   -0.40163E+08         0.97712E+06         0.00000E+00
    0.97712E+06        -0.49974E+08         0.00000E+00
    0.00000E+00         0.00000E+00        -0.42039E+08
 
   -0.40208E+08         0.10605E+07         0.00000E+00
    0.10605E+07        -0.49969E+08         0.00000E+00
    0.00000E+00         0.00000E+00        -0.42038E+08
 
   -0.40253E+08         0.11437E+07         0.00000E+00
    0.11437E+07        -0.49964E+08         0.00000E+00
    0.00000E+00         0.00000E+00        -0.42038E+08
 
   -0.40298E+08         0.12268E+07         0.00000E+00
    0.12268E+07        -0.49958E+08         0.00000E+00
    0.00000E+00         0.00000E+00        -0.42037E+08
 
   -0.40344E+08         0.13098E+07         0.00000E+00
    0.13098E+07        -0.49952E+08         0.00000E+00
    0.00000E+00         0.00000E+00        -0.42037E+08
 
   -0.40389E+08         0.13926E+07         0.00000E+00
    0.13926E+07        -0.49946E+08         0.00000E+00
    0.00000E+00         0.00000E+00        -0.42036E+08
 
   -0.40434E+08         0.14753E+07         0.00000E+00
    0.14753E+07        -0.49939E+08         0.00000E+00
    0.00000E+00         0.00000E+00        -0.42036E+08
 
   -0.40479E+08         0.15580E+07         0.00000E+00
    0.15580E+07        -0.49931E+08         0.00000E+00
    0.00000E+00         0.00000E+00        -0.42035E+08
 
   -0.40525E+08         0.16405E+07         0.00000E+00
    0.16405E+07        -0.49923E+08         0.00000E+00
    0.00000E+00         0.00000E+00        -0.42034E+08
 
   -0.40570E+08         0.17231E+07         0.00000E+00
    0.17231E+07        -0.49915E+08         0.00000E+00
    0.00000E+00         0.00000E+00        -0.42034E+08
 
   -0.40616E+08         0.18055E+07         0.00000E+00
    0.18055E+07        -0.49906E+08         0.00000E+00
    0.00000E+00         0.00000E+00        -0.42033E+08
 
   -0.40661E+08         0.18880E+07         0.00000E+00
    0.18880E+07        -0.49897E+08         0.00000E+00
    0.00000E+00         0.00000E+00        -0.42033E+08
 
   -0.40707E+08         0.19704E+07         0.00000E+00
    0.19704E+07        -0.49887E+08         0.00000E+00
    0.00000E+00         0.00000E+00        -0.42032E+08
 
   -0.40753E+08         0.20528E+07         0.00000E+00
    0.20528E+07        -0.49876E+08         0.00000E+00
    0.00000E+00         0.00000E+00        -0.42031E+08
 
   -0.40799E+08         0.21352E+07         0.00000E+00
    0.21352E+07        -0.49865E+08         0.00000E+00
    0.00000E+00         0.00000E+00        -0.42031E+08
 
   -0.40845E+08         0.22176E+07         0.00000E+00
    0.22176E+07        -0.49854E+08         0.00000E+00
    0.00000E+00         0.00000E+00        -0.42030E+08
 
   -0.40891E+08         0.23000E+07         0.00000E+00
    0.23000E+07        -0.49842E+08         0.00000E+00
    0.00000E+00         0.00000E+00        -0.42029E+08
 
   -0.40938E+08         0.23825E+07         0.00000E+00
    0.23825E+07        -0.49829E+08         0.00000E+00
    0.00000E+00         0.00000E+00        -0.42029E+08
 
   -0.40984E+08         0.24650E+07         0.00000E+00
    0.24650E+07        -0.49816E+08         0.00000E+00
    0.00000E+00         0.00000E+00        -0.42028E+08
 
   -0.41031E+08         0.25475E+07         0.00000E+00
    0.25475E+07        -0.49802E+08         0.00000E+00
    0.00000E+00         0.00000E+00        -0.42028E+08
 
   -0.41078E+08         0.26301E+07         0.00000E+00
    0.26301E+07        -0.49788E+08         0.00000E+00
    0.00000E+00         0.00000E+00        -0.42027E+08
 
   -0.41126E+08         0.27128E+07         0.00000E+00
    0.27128E+07        -0.49773E+08         0.00000E+00
    0.00000E+00         0.00000E+00        -0.42026E+08
 
   -0.41174E+08         0.27956E+07         0.00000E+00
    0.27956E+07        -0.49758E+08         0.00000E+00
    0.00000E+00         0.00000E+00        -0.42026E+08
 
   -0.41222E+08         0.28784E+07         0.00000E+00
    0.28784E+07        -0.49742E+08         0.00000E+00
    0.00000E+00         0.00000E+00        -0.42025E+08
 
   -0.41270E+08         0.29613E+07         0.00000E+00
    0.29613E+07        -0.49725E+08         0.00000E+00
    0.00000E+00         0.00000E+00        -0.42025E+08
 
   -0.41319E+08         0.30443E+07         0.00000E+00
    0.30443E+07        -0.49707E+08         0.00000E+00
    0.00000E+00         0.00000E+00        -0.42024E+08
 
   -0.41368E+08         0.31273E+07         0.00000E+00
    0.31273E+07        -0.49689E+08         0.00000E+00
    0.00000E+00         0.00000E+00        -0.42024E+08
 
   -0.41417E+08         0.32105E+07         0.00000E+00
    0.32105E+07        -0.49670E+08         0.00000E+00
    0.00000E+00         0.00000E+00        -0.42023E+08
 
   -0.41467E+08         0.32938E+07         0.00000E+00
    0.32938E+07        -0.49651E+08         0.00000E+00
    0.00000E+00         0.00000E+00        -0.42023E+08
 
   -0.41517E+08         0.33772E+07         0.00000E+00
    0.33772E+07        -0.49631E+08         0.00000E+00
    0.00000E+00         0.00000E+00        -0.42022E+08
 
   -0.41568E+08         0.34607E+07         0.00000E+00
    0.34607E+07        -0.49610E+08         0.00000E+00
    0.00000E+00         0.00000E+00        -0.42022E+08
 
   -0.41619E+08         0.35443E+07         0.00000E+00
    0.35443E+07        -0.49588E+08         0.00000E+00
    0.00000E+00         0.00000E+00        -0.42022E+08
 
   -0.41671E+08         0.36280E+07         0.00000E+00
    0.36280E+07        -0.49566E+08         0.00000E+00
    0.00000E+00         0.00000E+00        -0.42021E+08
 
   -0.41723E+08         0.37118E+07         0.00000E+00
    0.37118E+07        -0.49543E+08         0.00000E+00
    0.00000E+00         0.00000E+00        -0.42021E+08
 
   -0.41776E+08         0.37957E+07         0.00000E+00
    0.37957E+07        -0.49519E+08         0.00000E+00
    0.00000E+00         0.00000E+00        -0.42021E+08
 
   -0.41829E+08         0.38797E+07         0.00000E+00
    0.38797E+07        -0.49495E+08         0.00000E+00
    0.00000E+00         0.00000E+00        -0.42021E+08
 
   -0.41883E+08         0.39639E+07         0.00000E+00
    0.39639E+07        -0.49469E+08         0.00000E+00
    0.00000E+00         0.00000E+00        -0.42021E+08
 
   -0.41937E+08         0.40481E+07         0.00000E+00
    0.40481E+07        -0.49443E+08         0.00000E+00
    0.00000E+00         0.00000E+00        -0.42020E+08
 
   -0.41993E+08         0.41325E+07         0.00000E+00
    0.41325E+07        -0.49416E+08         0.00000E+00
    0.00000E+00         0.00000E+00        -0.42020E+08
 
   -0.39222E+08         0.44687E+05         0.00000E+00
    0.44687E+05        -0.50000E+08         0.00000E+00
    0.00000E+00         0.00000E+00        -0.41612E+08
 
   -0.39270E+08         0.13296E+06         0.00000E+00
    0.13296E+06        -0.50000E+08         0.00000E+00
    0.00000E+00         0.00000E+00        -0.41612E+08
 
   -0.39318E+08         0.22085E+06         0.00000E+00
    0.22085E+06        -0.49999E+08         0.00000E+00
    0.00000E+00         0.00000E+00        -0.41612E+08
 
   -0.39366E+08         0.30841E+06         0.00000E+00
    0.30841E+06        -0.49998E+08         0.00000E+00
    0.00000E+00         0.00000E+00        -0.41612E+08
 
   -0.39413E+08         0.39564E+06         0.00000E+00
    0.39564E+06        -0.49996E+08         0.00000E+00
    0.00000E+00         0.00000E+00        -0.41612E+08
 
   -0.39460E+08         0.48258E+06         0.00000E+00
    0.48258E+06        -0.49995E+08         0.00000E+00
    0.00000E+00         0.00000E+00        -0.41611E+08
 
   -0.39507E+08         0.56924E+06         0.00000E+00
    0.56924E+06        -0.49993E+08         0.00000E+00
    0.00000E+00         0.00000E+00        -0.41611E+08
 
   -0.39554E+08         0.65564E+06         0.00000E+00
    0.65564E+06        -0.49990E+08         0.00000E+00
    0.00000E+00         0.00000E+00        -0.41611E+08
 
   -0.39601E+08         0.74181E+06         0.00000E+00
    0.74181E+06        -0.49987E+08         0.00000E+00
    0.00000E+00         0.00000E+00        -0.41610E+08
 
   -0.39647E+08         0.82778E+06         0.00000E+00
    0.82778E+06        -0.49984E+08         0.00000E+00
    0.00000E+00         0.00000E+00        -0.41610E+08
 
   -0.39694E+08         0.91355E+06         0.00000E+00
    0.91355E+06        -0.49980E+08         0.00000E+00
    0.00000E+00         0.00000E+00        -0.41609E+08
 
   -0.39740E+08         0.99915E+06         0.00000E+00
    0.99915E+06        -0.49976E+08         0.00000E+00
    0.00000E+00         0.00000E+00        -0.41609E+08
 
   -0.39786E+08         0.10846E+07         0.00000E+00
    0.10846E+07        -0.49972E+08         0.00000E+00
    0.00000E+00         0.00000E+00        -0.41608E+08
 
   -0.39832E+08         0.11699E+07         0.00000E+00
    0.11699E+07        -0.49967E+08         0.00000E+00
    0.00000E+00         0.00000E+00        -0.41608E+08
 
   -0.39878E+08         0.12551E+07         0.00000E+00
    0.12551E+07        -0.49962E+08         0.00000E+00
    0.00000E+00         0.00000E+00        -0.41607E+08
 
   -0.39924E+08         0.13402E+07         0.00000E+00
    0.13402E+07        -0.49956E+08         0.00000E+00
    0.00000E+00         0.00000E+00        -0.41606E+08
 
   -0.39969E+08         0.14253E+07         0.00000E+00
    0.14253E+07        -0.49950E+08         0.00000E+00
    0.00000E+00         0.00000E+00        -0.41606E+08
 
   -0.40015E+08         0.15102E+07         0.00000E+00
    0.15102E+07        -0.49944E+08         0.00000E+00
    0.00000E+00         0.00000E+00        -0.41605E+08
 
   -0.40061E+08         0.15952E+07         0.00000E+00
    0.15952E+07        -0.49937E+08         0.00000E+00
    0.00000E+00         0.00000E+00        -0.41604E+08
 
   -0.40106E+08         0.16801E+07         0.00000E+00
    0.16801E+07        -0.49929E+08         0.00000E+00
    0.00000E+00         0.00000E+00        -0.41604E+08
 
   -0.40152E+08         0.17650E+07         0.00000E+00
    0.17650E+07        -0.49921E+08         0.00000E+00
    0.00000E+00         0.00000E+00        -0.41603E+08
 
   -0.40197E+08         0.18498E+07         0.00000E+00
    0.18498E+07        -0.49913E+08         0.00000E+00
    0.00000E+00         0.00000E+00        -0.41602E+08
 
   -0.40243E+08         0.19348E+07         0.00000E+00
    0.19348E+07        -0.49904E+08         0.00000E+00
    0.00000E+00         0.00000E+00        -0.41601E+08
 
   -0.40289E+08         0.20197E+07         0.00000E+00
    0.20197E+07        -0.49895E+08         0.00000E+00
    0.00000E+00         0.00000E+00        -0.41601E+08
 
   -0.40334E+08         0.21047E+07         0.00000E+00
    0.21047E+07        -0.49885E+08         0.00000E+00
    0.00000E+00         0.00000E+00        -0.41600E+08
 
   -0.40380E+08         0.21897E+07         0.00000E+00
    0.21897E+07        -0.49875E+08         0.00000E+00
    0.00000E+00         0.00000E+00        -0.41599E+08
 
   -0.40426E+08         0.22748E+07         0.00000E+00
    0.22748E+07        -0.49864E+08         0.00000E+00
    0.00000E+00         0.00000E+00        -0.41598E+08
 
   -0.40472E+08         0.23599E+07         0.00000E+00
    0.23599E+07        -0.49853E+08         0.00000E+00
    0.00000E+00         0.00000E+00        -0.41598E+08
 
   -0.40518E+08         0.24452E+07         0.00000E+00
    0.24452E+07        -0.49841E+08         0.00000E+00
    0.00000E+00         0.00000E+00        -0.41597E+08
 
   -0.40564E+08         0.25306E+07         0.00000E+00
    0.25306E+07        -0.49828E+08         0.00000E+00
    0.00000E+00         0.00000E+00        -0.41596E+08
 
   -0.40611E+08         0.26160E+07         0.00000E+00
    0.26160E+07        -0.49815E+08         0.00000E+00
    0.00000E+00         0.00000E+00        -0.41596E+08
 
   -0.40658E+08         0.27016E+07         0.00000E+00
    0.27016E+07        -0.49801E+08         0.00000E+00
    0.00000E+00         0.00000E+00        -0.41595E+08
 
   -0.40705E+08         0.27873E+07         0.00000E+00
    0.27873E+07        -0.49787E+08         0.00000E+00
    0.00000E+00         0.00000E+00        -0.41594E+08
 
   -0.40752E+08         0.28732E+07         0.00000E+00
    0.28732E+07        -0.49772E+08         0.00000E+00
    0.00000E+00         0.00000E+00        -0.41594E+08
 
   -0.40799E+08         0.29591E+07         0.00000E+00
    0.29591E+07        -0.49757E+08         0.00000E+00
    0.00000E+00         0.00000E+00        -0.41593E+08
 
   -0.40847E+08         0.30453E+07         0.00000E+00
    0.30453E+07        -0.49741E+08         0.00000E+00
    0.00000E+00         0.00000E+00        -0.41592E+08
 
   -0.40895E+08         0.31316E+07         0.00000E+00
    0.31316E+07        -0.49724E+08         0.00000E+00
    0.00000E+00         0.00000E+00        -0.41592E+08
 
   -0.40943E+08         0.32180E+07         0.00000E+00
    0.32180E+07        -0.49706E+08         0.00000E+00
    0.00000E+00         0.00000E+00        -0.41591E+08
 
   -0.40992E+08         0.33046E+07         0.00000E+00
    0.33046E+07        -0.49688E+08         0.00000E+00
    0.00000E+00         0.00000E+00        -0.41591E+08
 
   -0.41041E+08         0.33914E+07         0.00000E+00
    0.33914E+07        -0.49669E+08         0.00000E+00
    0.00000E+00         0.00000E+00        -0.41590E+08
 
   -0.41091E+08         0.34783E+07         0.00000E+00
    0.34783E+07        -0.49650E+08         0.00000E+00
    0.00000E+00         0.00000E+00        -0.41590E+08
 
   -0.41141E+08         0.35654E+07         0.00000E+00
    0.35654E+07        -0.49630E+08         0.00000E+00
    0.00000E+00         0.00000E+00        -0.41589E+08
 
   -0.41191E+08         0.36527E+07         0.00000E+00
    0.36527E+07        -0.49608E+08         0.00000E+00
    0.00000E+00         0.00000E+00        -0.41589E+08
 
   -0.41242E+08         0.37402E+07         0.00000E+00
    0.37402E+07        -0.49587E+08         0.00000E+00
    0.00000E+00         0.00000E+00        -0.41588E+08
 
   -0.41294E+08         0.38279E+07         0.00000E+00
    0.38279E+07        -0.49564E+08         0.00000E+00
    0.00000E+00         0.00000E+00        -0.41588E+08
 
   -0.41346E+08         0.39157E+07         0.00000E+00
    0.39157E+07        -0.49541E+08         0.00000E+00
    0.00000E+00         0.00000E+00        -0.41588E+08
 
   -0.41399E+08         0.40038E+07         0.00000E+00
    0.40038E+07        -0.49517E+08         0.00000E+00
    0.00000E+00         0.00000E+00        -0.41588E+08
 
   -0.41452E+08         0.40920E+07         0.00000E+00
    0.40920E+07        -0.49492E+08         0.00000E+00
    0.00000E+00         0.00000E+00        -0.41587E+08
 
   -0.41505E+08         0.41804E+07         0.00000E+00
    0.41804E+07        -0.49466E+08         0.00000E+00
    0.00000E+00         0.00000E+00        -0.41587E+08
 
   -0.41560E+08         0.42690E+07         0.00000E+00
    0.42690E+07        -0.49439E+08         0.00000E+00
    0.00000E+00         0.00000E+00        -0.41587E+08
 
   -0.38775E+08         0.45499E+05         0.00000E+00
    0.45499E+05        -0.50000E+08         0.00000E+00
    0.00000E+00         0.00000E+00        -0.41161E+08
 
   -0.38825E+08         0.13541E+06         0.00000E+00
    0.13541E+06        -0.50000E+08         0.00000E+00
    0.00000E+00         0.00000E+00        -0.41161E+08
 
   -0.38875E+08         0.22497E+06         0.00000E+00
    0.22497E+06        -0.49999E+08         0.00000E+00
    0.00000E+00         0.00000E+00        -0.41161E+08
 
   -0.38924E+08         0.31419E+06         0.00000E+00
    0.31419E+06        -0.49998E+08         0.00000E+00
    0.00000E+00         0.00000E+00        -0.41160E+08
 
   -0.38973E+08         0.40311E+06         0.00000E+00
    0.40311E+06        -0.49997E+08         0.00000E+00
    0.00000E+00         0.00000E+00        -0.41160E+08
 
   -0.39022E+08         0.49175E+06         0.00000E+00
    0.49175E+06        -0.49995E+08         0.00000E+00
    0.00000E+00         0.00000E+00        -0.41160E+08
 
   -0.39070E+08         0.58014E+06         0.00000E+00
    0.58014E+06        -0.49993E+08         0.00000E+00
    0.00000E+00         0.00000E+00        -0.41159E+08
 
   -0.39118E+08         0.66830E+06         0.00000E+00
    0.66830E+06        -0.49991E+08         0.00000E+00
    0.00000E+00         0.00000E+00        -0.41159E+08
 
   -0.39166E+08         0.75625E+06         0.00000E+00
    0.75625E+06        -0.49989E+08         0.00000E+00
    0.00000E+00         0.00000E+00        -0.41159E+08
 
   -0.39213E+08         0.84402E+06         0.00000E+00
    0.84402E+06        -0.49986E+08         0.00000E+00
    0.00000E+00         0.00000E+00        -0.41158E+08
 
   -0.39261E+08         0.93164E+06         0.00000E+00
    0.93164E+06        -0.49983E+08         0.00000E+00
    0.00000E+00         0.00000E+00        -0.41157E+08
 
   -0.39308E+08         0.10191E+07         0.00000E+00
    0.10191E+07        -0.49979E+08         0.00000E+00
    0.00000E+00         0.00000E+00        -0.41157E+08
 
   -0.39354E+08         0.11065E+07         0.00000E+00
    0.11065E+07        -0.49975E+08         0.00000E+00
    0.00000E+00         0.00000E+00        -0.41156E+08
 
   -0.39401E+08         0.11938E+07         0.00000E+00
    0.11938E+07        -0.49971E+08         0.00000E+00
    0.00000E+00         0.00000E+00        -0.41156E+08
 
   -0.39447E+08         0.12810E+07         0.00000E+00
    0.12810E+07        -0.49966E+08         0.00000E+00
    0.00000E+00         0.00000E+00        -0.41155E+08
 
   -0.39493E+08         0.13681E+07         0.00000E+00
    0.13681E+07        -0.49961E+08         0.00000E+00
    0.00000E+00         0.00000E+00        -0.41154E+08
 
   -0.39539E+08         0.14552E+07         0.00000E+00
    0.14552E+07        -0.49956E+08         0.00000E+00
    0.00000E+00         0.00000E+00        -0.41153E+08
 
   -0.39585E+08         0.15423E+07         0.00000E+00
    0.15423E+07        -0.49950E+08         0.00000E+00
    0.00000E+00         0.00000E+00        -0.41153E+08
 
   -0.39630E+08         0.16294E+07         0.00000E+00
    0.16294E+07        -0.49943E+08         0.00000E+00
    0.00000E+00         0.00000E+00        -0.41152E+08
 
   -0.39676E+08         0.17166E+07         0.00000E+00
    0.17166E+07        -0.49937E+08         0.00000E+00
    0.00000E+00         0.00000E+00        -0.41151E+08
 
   -0.39721E+08         0.18037E+07         0.00000E+00
    0.18037E+07        -0.49929E+08         0.00000E+00
    0.00000E+00         0.00000E+00        -0.41150E+08
 
   -0.39767E+08         0.18910E+07         0.00000E+00
    0.18910E+07        -0.49922E+08         0.00000E+00
    0.00000E+00         0.00000E+00        -0.41149E+08
 
   -0.39812E+08         0.19783E+07         0.00000E+00
    0.19783E+07        -0.49914E+08         0.00000E+00
    0.00000E+00         0.00000E+00        -0.41148E+08
 
   -0.39858E+08         0.20657E+07         0.00000E+00
    0.20657E+07        -0.49905E+08         0.00000E+00
    0.00000E+00         0.00000E+00        -0.41148E+08
 
   -0.39903E+08         0.21531E+07         0.00000E+00
    0.21531E+07        -0.49896E+08         0.00000E+00
    0.00000E+00         0.00000E+00        -0.41147E+08
 
   -0.39948E+08         0.22407E+07         0.00000E+00
    0.22407E+07        -0.49886E+08         0.00000E+00
    0.00000E+00         0.00000E+00        -0.41146E+08
 
   -0.39994E+08         0.23285E+07         0.00000E+00
    0.23285E+07        -0.49876E+08         0.00000E+00
    0.00000E+00         0.00000E+00        -0.41145E+08
 
   -0.40039E+08         0.24163E+07         0.00000E+00
    0.24163E+07        -0.49866E+08         0.00000E+00
    0.00000E+00         0.00000E+00        -0.41144E+08
 
   -0.40085E+08         0.25044E+07         0.00000E+00
    0.25044E+07        -0.49855E+08         0.00000E+00
    0.00000E+00         0.00000E+00        -0.41143E+08
 
   -0.40130E+08         0.25926E+07         0.00000E+00
    0.25926E+07        -0.49843E+08         0.00000E+00
    0.00000E+00         0.00000E+00        -0.41143E+08
 
   -0.40176E+08         0.26809E+07         0.00000E+00
    0.26809E+07        -0.49831E+08         0.00000E+00
    0.00000E+00         0.00000E+00        -0.41142E+08
 
   -0.40222E+08         0.27695E+07         0.00000E+00
    0.27695E+07        -0.49818E+08         0.00000E+00
    0.00000E+00         0.00000E+00        -0.41141E+08
 
   -0.40268E+08         0.28582E+07         0.00000E+00
    0.28582E+07        -0.49804E+08         0.00000E+00
    0.00000E+00         0.00000E+00        -0.41140E+08
 
   -0.40314E+08         0.29472E+07         0.00000E+00
    0.29472E+07        -0.49790E+08         0.00000E+00
    0.00000E+00         0.00000E+00        -0.41139E+08
 
   -0.40361E+08         0.30363E+07         0.00000E+00
    0.30363E+07        -0.49776E+08         0.00000E+00
    0.00000E+00         0.00000E+00        -0.41139E+08
 
   -0.40408E+08         0.31257E+07         0.00000E+00
    0.31257E+07        -0.49760E+08         0.00000E+00
    0.00000E+00         0.00000E+00        -0.41138E+08
 
   -0.40455E+08         0.32153E+07         0.00000E+00
    0.32153E+07        -0.49744E+08         0.00000E+00
    0.00000E+00         0.00000E+00        -0.41137E+08
 
   -0.40502E+08         0.33052E+07         0.00000E+00
    0.33052E+07        -0.49728E+08         0.00000E+00
    0.00000E+00         0.00000E+00        -0.41137E+08
 
   -0.40550E+08         0.33952E+07         0.00000E+00
    0.33952E+07        -0.49710E+08         0.00000E+00
    0.00000E+00         0.00000E+00        -0.41136E+08
 
   -0.40598E+08         0.34856E+07         0.00000E+00
    0.34856E+07        -0.49692E+08         0.00000E+00
    0.00000E+00         0.00000E+00        -0.41135E+08
 
   -0.40647E+08         0.35761E+07         0.00000E+00
    0.35761E+07        -0.49673E+08         0.00000E+00
    0.00000E+00         0.00000E+00        -0.41135E+08
 
   -0.40696E+08         0.36670E+07         0.00000E+00
    0.36670E+07        -0.49654E+08         0.00000E+00
    0.00000E+00         0.00000E+00        -0.41134E+08
 
   -0.40745E+08         0.37581E+07         0.00000E+00
    0.37581E+07        -0.49633E+08         0.00000E+00
    0.00000E+00         0.00000E+00        -0.41134E+08
 
   -0.40795E+08         0.38494E+07         0.00000E+00
    0.38494E+07        -0.49612E+08         0.00000E+00
    0.00000E+00         0.00000E+00        -0.41134E+08
 
   -0.40845E+08         0.39410E+07         0.00000E+00
    0.39410E+07        -0.49590E+08         0.00000E+00
    0.00000E+00         0.00000E+00        -0.41133E+08
 
   -0.40896E+08         0.40329E+07         0.00000E+00
    0.40329E+07        -0.49568E+08         0.00000E+00
    0.00000E+00         0.00000E+00        -0.41133E+08
 
   -0.40948E+08         0.41250E+07         0.00000E+00
    0.41250E+07        -0.49544E+08         0.00000E+00
    0.00000E+00         0.00000E+00        -0.41133E+08
 
   -0.41000E+08         0.42175E+07         0.00000E+00
    0.42175E+07        -0.49520E+08         0.00000E+00
    0.00000E+00         0.00000E+00        -0.41133E+08
 
   -0.41052E+08         0.43101E+07         0.00000E+00
    0.43101E+07        -0.49495E+08         0.00000E+00
    0.00000E+00         0.00000E+00        -0.41132E+08
 
   -0.41106E+08         0.44031E+07         0.00000E+00
    0.44031E+07        -0.49469E+08         0.00000E+00
    0.00000E+00         0.00000E+00        -0.41132E+08
 
   -0.38321E+08         0.46183E+05         0.00000E+00
    0.46183E+05        -0.50000E+08         0.00000E+00
    0.00000E+00         0.00000E+00        -0.40687E+08
 
   -0.38373E+08         0.13750E+06         0.00000E+00
    0.13750E+06        -0.50000E+08         0.00000E+00
    0.00000E+00         0.00000E+00        -0.40687E+08
 
   -0.38424E+08         0.22847E+06         0.00000E+00
    0.22847E+06        -0.49999E+08         0.00000E+00
    0.00000E+00         0.00000E+00        -0.40687E+08
 
   -0.38475E+08         0.31913E+06         0.00000E+00
    0.31913E+06        -0.49998E+08         0.00000E+00
    0.00000E+00         0.00000E+00        -0.40686E+08
 
   -0.38526E+08         0.40951E+06         0.00000E+00
    0.40951E+06        -0.49997E+08         0.00000E+00
    0.00000E+00         0.00000E+00        -0.40686E+08
 
   -0.38575E+08         0.49964E+06         0.00000E+00
    0.49964E+06        -0.49996E+08         0.00000E+00
    0.00000E+00         0.00000E+00        -0.40686E+08
 
   -0.38625E+08         0.58954E+06         0.00000E+00
    0.58954E+06        -0.49995E+08         0.00000E+00
    0.00000E+00         0.00000E+00        -0.40685E+08
 
   -0.38674E+08         0.67925E+06         0.00000E+00
    0.67925E+06        -0.49993E+08         0.00000E+00
    0.00000E+00         0.00000E+00        -0.40685E+08
 
   -0.38723E+08         0.76878E+06         0.00000E+00
    0.76878E+06        -0.49991E+08         0.00000E+00
    0.00000E+00         0.00000E+00        -0.40684E+08
 
   -0.38771E+08         0.85817E+06         0.00000E+00
    0.85817E+06        -0.49988E+08         0.00000E+00
    0.00000E+00         0.00000E+00        -0.40684E+08
 
   -0.38819E+08         0.94744E+06         0.00000E+00
    0.94744E+06        -0.49985E+08         0.00000E+00
    0.00000E+00         0.00000E+00        -0.40683E+08
 
   -0.38866E+08         0.10366E+07         0.00000E+00
    0.10366E+07        -0.49982E+08         0.00000E+00
    0.00000E+00         0.00000E+00        -0.40682E+08
 
   -0.38913E+08         0.11257E+07         0.00000E+00
    0.11257E+07        -0.49979E+08         0.00000E+00
    0.00000E+00         0.00000E+00        -0.40682E+08
 
   -0.38960E+08         0.12148E+07         0.00000E+00
    0.12148E+07        -0.49975E+08         0.00000E+00
    0.00000E+00         0.00000E+00        -0.40681E+08
 
   -0.39006E+08         0.13038E+07         0.00000E+00
    0.13038E+07        -0.49971E+08         0.00000E+00
    0.00000E+00         0.00000E+00        -0.40680E+08
 
   -0.39053E+08         0.13929E+07         0.00000E+00
    0.13929E+07        -0.49967E+08         0.00000E+00
    0.00000E+00         0.00000E+00        -0.40679E+08
 
   -0.39098E+08         0.14819E+07         0.00000E+00
    0.14819E+07        -0.49962E+08         0.00000E+00
    0.00000E+00         0.00000E+00        -0.40678E+08
 
   -0.39144E+08         0.15710E+07         0.00000E+00
    0.15710E+07        -0.49957E+08         0.00000E+00
    0.00000E+00         0.00000E+00        -0.40678E+08
 
   -0.39190E+08         0.16602E+07         0.00000E+00
    0.16602E+07        -0.49951E+08         0.00000E+00
    0.00000E+00         0.00000E+00        -0.40677E+08
 
   -0.39235E+08         0.17494E+07         0.00000E+00
    0.17494E+07        -0.49945E+08         0.00000E+00
    0.00000E+00         0.00000E+00        -0.40676E+08
 
   -0.39280E+08         0.18388E+07         0.00000E+00
    0.18388E+07        -0.49939E+08         0.00000E+00
    0.00000E+00         0.00000E+00        -0.40675E+08
 
   -0.39325E+08         0.19282E+07         0.00000E+00
    0.19282E+07        -0.49932E+08         0.00000E+00
    0.00000E+00         0.00000E+00        -0.40674E+08
 
   -0.39370E+08         0.20178E+07         0.00000E+00
    0.20178E+07        -0.49925E+08         0.00000E+00
    0.00000E+00         0.00000E+00        -0.40673E+08
 
   -0.39414E+08         0.21076E+07         0.00000E+00
    0.21076E+07        -0.49917E+08         0.00000E+00
    0.00000E+00         0.00000E+00        -0.40672E+08
 
   -0.39459E+08         0.21975E+07         0.00000E+00
    0.21975E+07        -0.49909E+08         0.00000E+00
    0.00000E+00         0.00000E+00        -0.40671E+08
 
   -0.39503E+08         0.22876E+07         0.00000E+00
    0.22876E+07        -0.49900E+08         0.00000E+00
    0.00000E+00         0.00000E+00        -0.40670E+08
 
   -0.39548E+08         0.23779E+07         0.00000E+00
    0.23779E+07        -0.49891E+08         0.00000E+00
    0.00000E+00         0.00000E+00        -0.40669E+08
 
   -0.39592E+08         0.24684E+07         0.00000E+00
    0.24684E+07        -0.49881E+08         0.00000E+00
    0.00000E+00         0.00000E+00        -0.40668E+08
 
   -0.39637E+08         0.25592E+07         0.00000E+00
    0.25592E+07        -0.49871E+08         0.00000E+00
    0.00000E+00         0.00000E+00        -0.40667E+08
 
   -0.39682E+08         0.26501E+07         0.00000E+00
    0.26501E+07        -0.49861E+08         0.00000E+00
    0.00000E+00         0.00000E+00        -0.40666E+08
 
   -0.39726E+08         0.27414E+07         0.00000E+00
    0.27414E+07        -0.49849E+08         0.00000E+00
    0.00000E+00         0.00000E+00        -0.40665E+08
 
   -0.39771E+08         0.28329E+07         0.00000E+00
    0.28329E+07        -0.49837E+08         0.00000E+00
    0.00000E+00         0.00000E+00        -0.40664E+08
 
   -0.39816E+08         0.29246E+07         0.00000E+00
    0.29246E+07        -0.49825E+08         0.00000E+00
    0.00000E+00         0.00000E+00        -0.40664E+08
 
   -0.39861E+08         0.30167E+07         0.00000E+00
    0.30167E+07        -0.49812E+08         0.00000E+00
    0.00000E+00         0.00000E+00        -0.40663E+08
 
   -0.39906E+08         0.31090E+07         0.00000E+00
    0.31090E+07        -0.49798E+08         0.00000E+00
    0.00000E+00         0.00000E+00        -0.40662E+08
 
   -0.39952E+08         0.32017E+07         0.00000E+00
    0.32017E+07        -0.49784E+08         0.00000E+00
    0.00000E+00         0.00000E+00        -0.40661E+08
 
   -0.39998E+08         0.32946E+07         0.00000E+00
    0.32946E+07        -0.49769E+08         0.00000E+00
    0.00000E+00         0.00000E+00        -0.40660E+08
 
   -0.40044E+08         0.33879E+07         0.00000E+00
    0.33879E+07        -0.49753E+08         0.00000E+00
    0.00000E+00         0.00000E+00        -0.40660E+08
 
   -0.40090E+08         0.34815E+07         0.00000E+00
    0.34815E+07        -0.49737E+08         0.00000E+00
    0.00000E+00         0.00000E+00        -0.40659E+08
 
   -0.40137E+08         0.35754E+07         0.00000E+00
    0.35754E+07        -0.49720E+08         0.00000E+00
    0.00000E+00         0.00000E+00        -0.40658E+08
 
   -0.40184E+08         0.36697E+07         0.00000E+00
    0.36697E+07        -0.49702E+08         0.00000E+00
    0.00000E+00         0.00000E+00        -0.40658E+08
 
   -0.40231E+08         0.37643E+07         0.00000E+00
    0.37643E+07        -0.49683E+08         0.00000E+00
    0.00000E+00         0.00000E+00        -0.40657E+08
 
   -0.40279E+08         0.38592E+07         0.00000E+00
    0.38592E+07        -0.49664E+08         0.00000E+00
    0.00000E+00         0.00000E+00        -0.40657E+08
 
   -0.40327E+08         0.39545E+07         0.00000E+00
    0.39545E+07        -0.49644E+08         0.00000E+00
    0.00000E+00         0.00000E+00        -0.40656E+08
 
   -0.40376E+08         0.40502E+07         0.00000E+00
    0.40502E+07        -0.49623E+08         0.00000E+00
    0.00000E+00         0.00000E+00        -0.40656E+08
 
   -0.40426E+08         0.41462E+07         0.00000E+00
    0.41462E+07        -0.49601E+08         0.00000E+00
    0.00000E+00         0.00000E+00        -0.40656E+08
 
   -0.40475E+08         0.42426E+07         0.00000E+00
    0.42426E+07        -0.49578E+08         0.00000E+00
    0.00000E+00         0.00000E+00        -0.40655E+08
 
   -0.40526E+08         0.43393E+07         0.00000E+00
    0.43393E+07        -0.49555E+08         0.00000E+00
    0.00000E+00         0.00000E+00        -0.40655E+08
 
   -0.40577E+08         0.44364E+07         0.00000E+00
    0.44364E+07        -0.49530E+08         0.00000E+00
    0.00000E+00         0.00000E+00        -0.40655E+08
 
   -0.40629E+08         0.45338E+07         0.00000E+00
    0.45338E+07        -0.49505E+08         0.00000E+00
    0.00000E+00         0.00000E+00        -0.40655E+08
 
   -0.37861E+08         0.46717E+05         0.00000E+00
    0.46717E+05        -0.50000E+08         0.00000E+00
    0.00000E+00         0.00000E+00        -0.40190E+08
 
   -0.37914E+08         0.13915E+06         0.00000E+00
    0.13915E+06        -0.50000E+08         0.00000E+00
    0.00000E+00         0.00000E+00        -0.40190E+08
 
   -0.37967E+08         0.23126E+06         0.00000E+00
    0.23126E+06        -0.49999E+08         0.00000E+00
    0.00000E+00         0.00000E+00        -0.40189E+08
 
   -0.38020E+08         0.32309E+06         0.00000E+00
    0.32309E+06        -0.49999E+08         0.00000E+00
    0.00000E+00         0.00000E+00        -0.40189E+08
 
   -0.38071E+08         0.41467E+06         0.00000E+00
    0.41467E+06        -0.49998E+08         0.00000E+00
    0.00000E+00         0.00000E+00        -0.40189E+08
 
   -0.38122E+08         0.50602E+06         0.00000E+00
    0.50602E+06        -0.49997E+08         0.00000E+00
    0.00000E+00         0.00000E+00        -0.40188E+08
 
   -0.38173E+08         0.59719E+06         0.00000E+00
    0.59719E+06        -0.49996E+08         0.00000E+00
    0.00000E+00         0.00000E+00        -0.40188E+08
 
   -0.38222E+08         0.68819E+06         0.00000E+00
    0.68819E+06        -0.49994E+08         0.00000E+00
    0.00000E+00         0.00000E+00        -0.40187E+08
 
   -0.38272E+08         0.77907E+06         0.00000E+00
    0.77907E+06        -0.49993E+08         0.00000E+00
    0.00000E+00         0.00000E+00        -0.40187E+08
 
   -0.38320E+08         0.86984E+06         0.00000E+00
    0.86984E+06        -0.49991E+08         0.00000E+00
    0.00000E+00         0.00000E+00        -0.40186E+08
 
   -0.38369E+08         0.96055E+06         0.00000E+00
    0.96055E+06        -0.49989E+08         0.00000E+00
    0.00000E+00         0.00000E+00        -0.40185E+08
 
   -0.38416E+08         0.10512E+07         0.00000E+00
    0.10512E+07        -0.49986E+08         0.00000E+00
    0.00000E+00         0.00000E+00        -0.40185E+08
 
   -0.38464E+08         0.11418E+07         0.00000E+00
    0.11418E+07        -0.49983E+08         0.00000E+00
    0.00000E+00         0.00000E+00        -0.40184E+08
 
   -0.38511E+08         0.12325E+07         0.00000E+00
    0.12325E+07        -0.49980E+08         0.00000E+00
    0.00000E+00         0.00000E+00        -0.40183E+08
 
   -0.38557E+08         0.13232E+07         0.00000E+00
    0.13232E+07        -0.49977E+08         0.00000E+00
    0.00000E+00         0.00000E+00        -0.40182E+08
 
   -0.38603E+08         0.14139E+07         0.00000E+00
    0.14139E+07        -0.49973E+08         0.00000E+00
    0.00000E+00         0.00000E+00        -0.40181E+08
 
   -0.38648E+08         0.15047E+07         0.00000E+00
    0.15047E+07        -0.49969E+08         0.00000E+00
    0.00000E+00         0.00000E+00        -0.40180E+08
 
   -0.38694E+08         0.15957E+07         0.00000E+00
    0.15957E+07        -0.49965E+08         0.00000E+00
    0.00000E+00         0.00000E+00        -0.40179E+08
 
   -0.38739E+08         0.16867E+07         0.00000E+00
    0.16867E+07        -0.49960E+08         0.00000E+00
    0.00000E+00         0.00000E+00        -0.40178E+08
 
   -0.38783E+08         0.17779E+07         0.00000E+00
    0.17779E+07        -0.49955E+08         0.00000E+00
    0.00000E+00         0.00000E+00        -0.40177E+08
 
   -0.38828E+08         0.18693E+07         0.00000E+00
    0.18693E+07        -0.49950E+08         0.00000E+00
    0.00000E+00         0.00000E+00        -0.40176E+08
 
   -0.38872E+08         0.19609E+07         0.00000E+00
    0.19609E+07        -0.49944E+08         0.00000E+00
    0.00000E+00         0.00000E+00        -0.40175E+08
 
   -0.38916E+08         0.20527E+07         0.00000E+00
    0.20527E+07        -0.49938E+08         0.00000E+00
    0.00000E+00         0.00000E+00        -0.40174E+08
 
   -0.38959E+08         0.21447E+07         0.00000E+00
    0.21447E+07        -0.49931E+08         0.00000E+00
    0.00000E+00         0.00000E+00        -0.40173E+08
 
   -0.39003E+08         0.22369E+07         0.00000E+00
    0.22369E+07        -0.49924E+08         0.00000E+00
    0.00000E+00         0.00000E+00        -0.40172E+08
 
   -0.39046E+08         0.23294E+07         0.00000E+00
    0.23294E+07        -0.49917E+08         0.00000E+00
    0.00000E+00         0.00000E+00        -0.40171E+08
 
   -0.39090E+08         0.24222E+07         0.00000E+00
    0.24222E+07        -0.49909E+08         0.00000E+00
    0.00000E+00         0.00000E+00        -0.40170E+08
 
   -0.39133E+08         0.25153E+07         0.00000E+00
    0.25153E+07        -0.49900E+08         0.00000E+00
    0.00000E+00         0.00000E+00        -0.40169E+08
 
   -0.39176E+08         0.26087E+07         0.00000E+00
    0.26087E+07        -0.49891E+08         0.00000E+00
    0.00000E+00         0.00000E+00        -0.40168E+08
 
   -0.39219E+08         0.27024E+07         0.00000E+00
    0.27024E+07        -0.49881E+08         0.00000E+00
    0.00000E+00         0.00000E+00        -0.40167E+08
 
   -0.39262E+08         0.27965E+07         0.00000E+00
    0.27965E+07        -0.49871E+08         0.00000E+00
    0.00000E+00         0.00000E+00        -0.40166E+08
 
   -0.39306E+08         0.28909E+07         0.00000E+00
    0.28909E+07        -0.49861E+08         0.00000E+00
    0.00000E+00         0.00000E+00        -0.40165E+08
 
   -0.39349E+08         0.29856E+07         0.00000E+00
    0.29856E+07        -0.49849E+08         0.00000E+00
    0.00000E+00         0.00000E+00        -0.40164E+08
 
   -0.39392E+08         0.30808E+07         0.00000E+00
    0.30808E+07        -0.49837E+08         0.00000E+00
    0.00000E+00         0.00000E+00        -0.40163E+08
 
   -0.39436E+08         0.31763E+07         0.00000E+00
    0.31763E+07        -0.49825E+08         0.00000E+00
    0.00000E+00         0.00000E+00        -0.40162E+08
 
   -0.39480E+08         0.32722E+07         0.00000E+00
    0.32722E+07        -0.49812E+08         0.00000E+00
    0.00000E+00         0.00000E+00        -0.40161E+08
 
   -0.39524E+08         0.33685E+07         0.00000E+00
    0.33685E+07        -0.49798E+08         0.00000E+00
    0.00000E+00         0.00000E+00        -0.40160E+08
 
   -0.39568E+08         0.34652E+07         0.00000E+00
    0.34652E+07        -0.49783E+08         0.00000E+00
    0.00000E+00         0.00000E+00        -0.40159E+08
 
   -0.39612E+08         0.35623E+07         0.00000E+00
    0.35623E+07        -0.49768E+08         0.00000E+00
    0.00000E+00         0.00000E+00        -0.40159E+08
 
   -0.39657E+08         0.36599E+07         0.00000E+00
    0.36599E+07        -0.49752E+08         0.00000E+00
    0.00000E+00         0.00000E+00        -0.40158E+08
 
   -0.39702E+08         0.37579E+07         0.00000E+00
    0.37579E+07        -0.49736E+08         0.00000E+00
    0.00000E+00         0.00000E+00        -0.40157E+08
 
   -0.39748E+08         0.38563E+07         0.00000E+00
    0.38563E+07        -0.49718E+08         0.00000E+00
    0.00000E+00         0.00000E+00        -0.40157E+08
 
   -0.39793E+08         0.39552E+07         0.00000E+00
    0.39552E+07        -0.49700E+08         0.00000E+00
    0.00000E+00         0.00000E+00        -0.40156E+08
 
   -0.39840E+08         0.40545E+07         0.00000E+00
    0.40545E+07        -0.49681E+08         0.00000E+00
    0.00000E+00         0.00000E+00        -0.40156E+08
 
   -0.39887E+08         0.41543E+07         0.00000E+00
    0.41543E+07        -0.49661E+08         0.00000E+00
    0.00000E+00         0.00000E+00        -0.40155E+08
 
   -0.39934E+08         0.42545E+07         0.00000E+00
    0.42545E+07        -0.49641E+08         0.00000E+00
    0.00000E+00         0.00000E+00        -0.40155E+08
 
   -0.39982E+08         0.43552E+07         0.00000E+00
    0.43552E+07        -0.49619E+08         0.00000E+00
    0.00000E+00         0.00000E+00        -0.40155E+08
 
   -0.40030E+08         0.44563E+07         0.00000E+00
    0.44563E+07        -0.49597E+08         0.00000E+00
    0.00000E+00         0.00000E+00        -0.40154E+08
 
   -0.40079E+08         0.45579E+07         0.00000E+00
    0.45579E+07        -0.49573E+08         0.00000E+00
    0.00000E+00         0.00000E+00        -0.40154E+08
 
   -0.40129E+08         0.46600E+07         0.00000E+00
    0.46600E+07        -0.49549E+08         0.00000E+00
    0.00000E+00         0.00000E+00        -0.40154E+08
 
   -0.37396E+08         0.47076E+05         0.00000E+00
    0.47076E+05        -0.50000E+08         0.00000E+00
    0.00000E+00         0.00000E+00        -0.39669E+08
 
   -0.37451E+08         0.14029E+06         0.00000E+00
    0.14029E+06        -0.50000E+08         0.00000E+00
    0.00000E+00         0.00000E+00        -0.39669E+08
 
   -0.37505E+08         0.23322E+06         0.00000E+00
    0.23322E+06        -0.50000E+08         0.00000E+00
    0.00000E+00         0.00000E+00        -0.39668E+08
 
   -0.37559E+08         0.32590E+06         0.00000E+00
    0.32590E+06        -0.49999E+08         0.00000E+00
    0.00000E+00         0.00000E+00        -0.39668E+08
 
   -0.37611E+08         0.41836E+06         0.00000E+00
    0.41836E+06        -0.49999E+08         0.00000E+00
    0.00000E+00         0.00000E+00        -0.39668E+08
 
   -0.37663E+08         0.51063E+06         0.00000E+00
    0.51063E+06        -0.49998E+08         0.00000E+00
    0.00000E+00         0.00000E+00        -0.39667E+08
 
   -0.37715E+08         0.60277E+06         0.00000E+00
    0.60277E+06        -0.49997E+08         0.00000E+00
    0.00000E+00         0.00000E+00        -0.39667E+08
 
   -0.37765E+08         0.69479E+06         0.00000E+00
    0.69479E+06        -0.49996E+08         0.00000E+00
    0.00000E+00         0.00000E+00        -0.39666E+08
 
   -0.37815E+08         0.78673E+06         0.00000E+00
    0.78673E+06        -0.49995E+08         0.00000E+00
    0.00000E+00         0.00000E+00        -0.39665E+08
 
   -0.37864E+08         0.87862E+06         0.00000E+00
    0.87862E+06        -0.49994E+08         0.00000E+00
    0.00000E+00         0.00000E+00        -0.39665E+08
 
   -0.37912E+08         0.97049E+06         0.00000E+00
    0.97049E+06        -0.49992E+08         0.00000E+00
    0.00000E+00         0.00000E+00        -0.39664E+08
 
   -0.37960E+08         0.10624E+07         0.00000E+00
    0.10624E+07        -0.49991E+08         0.00000E+00
    0.00000E+00         0.00000E+00        -0.39663E+08
 
   -0.38007E+08         0.11543E+07         0.00000E+00
    0.11543E+07        -0.49989E+08         0.00000E+00
    0.00000E+00         0.00000E+00        -0.39662E+08
 
   -0.38054E+08         0.12463E+07         0.00000E+00
    0.12463E+07        -0.49986E+08         0.00000E+00
    0.00000E+00         0.00000E+00        -0.39661E+08
 
   -0.38100E+08         0.13384E+07         0.00000E+00
    0.13384E+07        -0.49984E+08         0.00000E+00
    0.00000E+00         0.00000E+00        -0.39660E+08
 
   -0.38145E+08         0.14307E+07         0.00000E+00
    0.14307E+07        -0.49981E+08         0.00000E+00
    0.00000E+00         0.00000E+00        -0.39659E+08
 
   -0.38190E+08         0.15231E+07         0.00000E+00
    0.15231E+07        -0.49978E+08         0.00000E+00
    0.00000E+00         0.00000E+00        -0.39658E+08
 
   -0.38234E+08         0.16156E+07         0.00000E+00
    0.16156E+07        -0.49975E+08         0.00000E+00
    0.00000E+00         0.00000E+00        -0.39657E+08
 
   -0.38279E+08         0.17084E+07         0.00000E+00
    0.17084E+07        -0.49971E+08         0.00000E+00
    0.00000E+00         0.00000E+00        -0.39656E+08
 
   -0.38322E+08         0.18014E+07         0.00000E+00
    0.18014E+07        -0.49967E+08         0.00000E+00
    0.00000E+00         0.00000E+00        -0.39655E+08
 
   -0.38365E+08         0.18946E+07         0.00000E+00
    0.18946E+07        -0.49963E+08         0.00000E+00
    0.00000E+00         0.00000E+00        -0.39654E+08
 
   -0.38408E+08         0.19881E+07         0.00000E+00
    0.19881E+07        -0.49958E+08         0.00000E+00
    0.00000E+00         0.00000E+00        -0.39652E+08
 
   -0.38451E+08         0.20819E+07         0.00000E+00
    0.20819E+07        -0.49953E+08         0.00000E+00
    0.00000E+00         0.00000E+00        -0.39651E+08
 
   -0.38493E+08         0.21761E+07         0.00000E+00
    0.21761E+07        -0.49948E+08         0.00000E+00
    0.00000E+00         0.00000E+00        -0.39650E+08
 
   -0.38535E+08         0.22705E+07         0.00000E+00
    0.22705E+07        -0.49942E+08         0.00000E+00
    0.00000E+00         0.00000E+00        -0.39649E+08
 
   -0.38577E+08         0.23653E+07         0.00000E+00
    0.23653E+07        -0.49936E+08         0.00000E+00
    0.00000E+00         0.00000E+00        -0.39648E+08
 
   -0.38619E+08         0.24605E+07         0.00000E+00
    0.24605E+07        -0.49929E+08         0.00000E+00
    0.00000E+00         0.00000E+00        -0.39647E+08
 
   -0.38660E+08         0.25560E+07         0.00000E+00
    0.25560E+07        -0.49922E+08         0.00000E+00
    0.00000E+00         0.00000E+00        -0.39645E+08
 
   -0.38702E+08         0.26520E+07         0.00000E+00
    0.26520E+07        -0.49914E+08         0.00000E+00
    0.00000E+00         0.00000E+00        -0.39644E+08
 
   -0.38743E+08         0.27484E+07         0.00000E+00
    0.27484E+07        -0.49906E+08         0.00000E+00
    0.00000E+00         0.00000E+00        -0.39643E+08
 
   -0.38784E+08         0.28452E+07         0.00000E+00
    0.28452E+07        -0.49897E+08         0.00000E+00
    0.00000E+00         0.00000E+00        -0.39642E+08
 
   -0.38825E+08         0.29424E+07         0.00000E+00
    0.29424E+07        -0.49888E+08         0.00000E+00
    0.00000E+00         0.00000E+00        -0.39641E+08
 
   -0.38867E+08         0.30401E+07         0.00000E+00
    0.30401E+07        -0.49878E+08         0.00000E+00
    0.00000E+00         0.00000E+00        -0.39640E+08
 
   -0.38908E+08         0.31383E+07         0.00000E+00
    0.31383E+07        -0.49867E+08         0.00000E+00
    0.00000E+00         0.00000E+00        -0.39639E+08
 
   -0.38949E+08         0.32370E+07         0.00000E+00
    0.32370E+07        -0.49856E+08         0.00000E+00
    0.00000E+00         0.00000E+00        -0.39638E+08
 
   -0.38991E+08         0.33361E+07         0.00000E+00
    0.33361E+07        -0.49844E+08         0.00000E+00
    0.00000E+00         0.00000E+00        -0.39637E+08
 
   -0.39032E+08         0.34358E+07         0.00000E+00
    0.34358E+07        -0.49832E+08         0.00000E+00
    0.00000E+00         0.00000E+00        -0.39636E+08
 
   -0.39074E+08         0.35359E+07         0.00000E+00
    0.35359E+07        -0.49819E+08         0.00000E+00
    0.00000E+00         0.00000E+00        -0.39635E+08
 
   -0.39116E+08         0.36366E+07         0.00000E+00
    0.36366E+07        -0.49805E+08         0.00000E+00
    0.00000E+00         0.00000E+00        -0.39634E+08
 
   -0.39159E+08         0.37378E+07         0.00000E+00
    0.37378E+07        -0.49791E+08         0.00000E+00
    0.00000E+00         0.00000E+00        -0.39634E+08
 
   -0.39202E+08         0.38396E+07         0.00000E+00
    0.38396E+07        -0.49776E+08         0.00000E+00
    0.00000E+00         0.00000E+00        -0.39633E+08
 
   -0.39245E+08         0.39419E+07         0.00000E+00
    0.39419E+07        -0.49760E+08         0.00000E+00
    0.00000E+00         0.00000E+00        -0.39632E+08
 
   -0.39288E+08         0.40447E+07         0.00000E+00
    0.40447E+07        -0.49743E+08         0.00000E+00
    0.00000E+00         0.00000E+00        -0.39632E+08
 
   -0.39332E+08         0.41481E+07         0.00000E+00
    0.41481E+07        -0.49725E+08         0.00000E+00
    0.00000E+00         0.00000E+00        -0.39631E+08
 
   -0.39376E+08         0.42520E+07         0.00000E+00
    0.42520E+07        -0.49707E+08         0.00000E+00
    0.00000E+00         0.00000E+00        -0.39631E+08
 
   -0.39421E+08         0.43566E+07         0.00000E+00
    0.43566E+07        -0.49687E+08         0.00000E+00
    0.00000E+00         0.00000E+00        -0.39630E+08
 
   -0.39466E+08         0.44616E+07         0.00000E+00
    0.44616E+07        -0.49667E+08         0.00000E+00
    0.00000E+00         0.00000E+00        -0.39630E+08
 
   -0.39512E+08         0.45673E+07         0.00000E+00
    0.45673E+07        -0.49646E+08         0.00000E+00
    0.00000E+00         0.00000E+00        -0.39630E+08
 
   -0.39559E+08         0.46735E+07         0.00000E+00
    0.46735E+07        -0.49624E+08         0.00000E+00
    0.00000E+00         0.00000E+00        -0.39629E+08
 
   -0.39606E+08         0.47803E+07         0.00000E+00
    0.47803E+07        -0.49601E+08         0.00000E+00
    0.00000E+00         0.00000E+00        -0.39629E+08
 
   -0.36928E+08         0.47231E+05         0.00000E+00
    0.47231E+05        -0.50000E+08         0.00000E+00
    0.00000E+00         0.00000E+00        -0.39123E+08
 
   -0.36984E+08         0.14085E+06         0.00000E+00
    0.14085E+06        -0.50000E+08         0.00000E+00
    0.00000E+00         0.00000E+00        -0.39123E+08
 
   -0.37040E+08         0.23421E+06         0.00000E+00
    0.23421E+06        -0.50000E+08         0.00000E+00
    0.00000E+00         0.00000E+00        -0.39123E+08
 
   -0.37095E+08         0.32737E+06         0.00000E+00
    0.32737E+06        -0.50000E+08         0.00000E+00
    0.00000E+00         0.00000E+00        -0.39122E+08
 
   -0.37148E+08         0.42035E+06         0.00000E+00
    0.42035E+06        -0.50000E+08         0.00000E+00
    0.00000E+00         0.00000E+00        -0.39122E+08
 
   -0.37201E+08         0.51320E+06         0.00000E+00
    0.51320E+06        -0.49999E+08         0.00000E+00
    0.00000E+00         0.00000E+00        -0.39121E+08
 
   -0.37252E+08         0.60596E+06         0.00000E+00
    0.60596E+06        -0.49999E+08         0.00000E+00
    0.00000E+00         0.00000E+00        -0.39121E+08
 
   -0.37303E+08         0.69866E+06         0.00000E+00
    0.69866E+06        -0.49999E+08         0.00000E+00
    0.00000E+00         0.00000E+00        -0.39120E+08
 
   -0.37353E+08         0.79134E+06         0.00000E+00
    0.79134E+06        -0.49998E+08         0.00000E+00
    0.00000E+00         0.00000E+00        -0.39119E+08
 
   -0.37402E+08         0.88404E+06         0.00000E+00
    0.88404E+06        -0.49997E+08         0.00000E+00
    0.00000E+00         0.00000E+00        -0.39119E+08
 
   -0.37450E+08         0.97678E+06         0.00000E+00
    0.97678E+06        -0.49997E+08         0.00000E+00
    0.00000E+00         0.00000E+00        -0.39118E+08
 
   -0.37498E+08         0.10696E+07         0.00000E+00
    0.10696E+07        -0.49996E+08         0.00000E+00
    0.00000E+00         0.00000E+00        -0.39117E+08
 
   -0.37544E+08         0.11626E+07         0.00000E+00
    0.11626E+07        -0.49995E+08         0.00000E+00
    0.00000E+00         0.00000E+00        -0.39116E+08
 
   -0.37590E+08         0.12556E+07         0.00000E+00
    0.12556E+07        -0.49993E+08         0.00000E+00
    0.00000E+00         0.00000E+00        -0.39115E+08
 
   -0.37636E+08         0.13489E+07         0.00000E+00
    0.13489E+07        -0.49992E+08         0.00000E+00
    0.00000E+00         0.00000E+00        -0.39114E+08
 
   -0.37680E+08         0.14424E+07         0.00000E+00
    0.14424E+07        -0.49990E+08         0.00000E+00
    0.00000E+00         0.00000E+00        -0.39112E+08
 
   -0.37724E+08         0.15361E+07         0.00000E+00
    0.15361E+07        -0.49988E+08         0.00000E+00
    0.00000E+00         0.00000E+00        -0.39111E+08
 
   -0.37767E+08         0.16301E+07         0.00000E+00
    0.16301E+07        -0.49986E+08         0.00000E+00
    0.00000E+00         0.00000E+00        -0.39110E+08
 
   -0.37810E+08         0.17243E+07         0.00000E+00
    0.17243E+07        -0.49984E+08         0.00000E+00
    0.00000E+00         0.00000E+00        -0.39109E+08
 
   -0.37852E+08         0.18189E+07         0.00000E+00
    0.18189E+07        -0.49981E+08         0.00000E+00
    0.00000E+00         0.00000E+00        -0.39108E+08
 
   -0.37894E+08         0.19138E+07         0.00000E+00
    0.19138E+07        -0.49978E+08         0.00000E+00
    0.00000E+00         0.00000E+00        -0.39106E+08
 
   -0.37935E+08         0.20091E+07         0.00000E+00
    0.20091E+07        -0.49975E+08         0.00000E+00
    0.00000E+00         0.00000E+00        -0.39105E+08
 
   -0.37976E+08         0.21048E+07         0.00000E+00
    0.21048E+07        -0.49971E+08         0.00000E+00
    0.00000E+00         0.00000E+00        -0.39104E+08
 
   -0.38017E+08         0.22009E+07         0.00000E+00
    0.22009E+07        -0.49967E+08         0.00000E+00
    0.00000E+00         0.00000E+00        -0.39103E+08
 
   -0.38057E+08         0.22974E+07         0.00000E+00
    0.22974E+07        -0.49963E+08         0.00000E+00
    0.00000E+00         0.00000E+00        -0.39101E+08
 
   -0.38097E+08         0.23943E+07         0.00000E+00
    0.23943E+07        -0.49958E+08         0.00000E+00
    0.00000E+00         0.00000E+00        -0.39100E+08
 
   -0.38136E+08         0.24917E+07         0.00000E+00
    0.24917E+07        -0.49952E+08         0.00000E+00
    0.00000E+00         0.00000E+00        -0.39099E+08
 
   -0.38175E+08         0.25896E+07         0.00000E+00
    0.25896E+07        -0.49947E+08         0.00000E+00
    0.00000E+00         0.00000E+00        -0.39098E+08
 
   -0.38214E+08         0.26880E+07         0.00000E+00
    0.26880E+07        -0.49941E+08         0.00000E+00
    0.00000E+00         0.00000E+00        -0.39096E+08
 
   -0.38253E+08         0.27870E+07         0.00000E+00
    0.27870E+07        -0.49934E+08         0.00000E+00
    0.00000E+00         0.00000E+00        -0.39095E+08
 
   -0.38292E+08         0.28864E+07         0.00000E+00
    0.28864E+07        -0.49927E+08         0.00000E+00
    0.00000E+00         0.00000E+00        -0.39094E+08
 
   -0.38331E+08         0.29865E+07         0.00000E+00
    0.29865E+07        -0.49919E+08         0.00000E+00
    0.00000E+00         0.00000E+00        -0.39093E+08
 
   -0.38369E+08         0.30871E+07         0.00000E+00
    0.30871E+07        -0.49911E+08         0.00000E+00
    0.00000E+00         0.00000E+00        -0.39092E+08
 
   -0.38408E+08         0.31882E+07         0.00000E+00
    0.31882E+07        -0.49902E+08         0.00000E+00
    0.00000E+00         0.00000E+00        -0.39090E+08
 
   -0.38447E+08         0.32900E+07         0.00000E+00
    0.32900E+07        -0.49892E+08         0.00000E+00
    0.00000E+00         0.00000E+00        -0.39089E+08
 
   -0.38486E+08         0.33923E+07         0.00000E+00
    0.33923E+07        -0.49882E+08         0.00000E+00
    0.00000E+00         0.00000E+00        -0.39088E+08
 
   -0.38524E+08         0.34953E+07         0.00000E+00
    0.34953E+07        -0.49872E+08         0.00000E+00
    0.00000E+00         0.00000E+00        -0.39087E+08
 
   -0.38563E+08         0.35989E+07         0.00000E+00
    0.35989E+07        -0.49860E+08         0.00000E+00
    0.00000E+00         0.00000E+00        -0.39086E+08
 
   -0.38603E+08         0.37031E+07         0.00000E+00
    0.37031E+07        -0.49848E+08         0.00000E+00
    0.00000E+00         0.00000E+00        -0.39086E+08
 
   -0.38642E+08         0.38080E+07         0.00000E+00
    0.38080E+07        -0.49835E+08         0.00000E+00
    0.00000E+00         0.00000E+00        -0.39085E+08
 
   -0.38682E+08         0.39135E+07         0.00000E+00
    0.39135E+07        -0.49822E+08         0.00000E+00
    0.00000E+00         0.00000E+00        -0.39084E+08
 
   -0.38722E+08         0.40197E+07         0.00000E+00
    0.40197E+07        -0.49808E+08         0.00000E+00
    0.00000E+00         0.00000E+00        -0.39083E+08
 
   -0.38762E+08         0.41265E+07         0.00000E+00
    0.41265E+07        -0.49793E+08         0.00000E+00
    0.00000E+00         0.00000E+00        -0.39083E+08
 
   -0.38803E+08         0.42340E+07         0.00000E+00
    0.42340E+07        -0.49777E+08         0.00000E+00
    0.00000E+00         0.00000E+00        -0.39082E+08
 
   -0.38844E+08         0.43422E+07         0.00000E+00
    0.43422E+07        -0.49760E+08         0.00000E+00
    0.00000E+00         0.00000E+00        -0.39081E+08
 
   -0.38886E+08         0.44511E+07         0.00000E+00
    0.44511E+07        -0.49742E+08         0.00000E+00
    0.00000E+00         0.00000E+00        -0.39081E+08
 
   -0.38928E+08         0.45606E+07         0.00000E+00
    0.45606E+07        -0.49724E+08         0.00000E+00
    0.00000E+00         0.00000E+00        -0.39081E+08
 
   -0.38971E+08         0.46708E+07         0.00000E+00
    0.46708E+07        -0.49704E+08         0.00000E+00
    0.00000E+00         0.00000E+00        -0.39080E+08
 
   -0.39014E+08         0.47818E+07         0.00000E+00
    0.47818E+07        -0.49684E+08         0.00000E+00
    0.00000E+00         0.00000E+00        -0.39080E+08
 
   -0.39058E+08         0.48934E+07         0.00000E+00
    0.48934E+07        -0.49663E+08         0.00000E+00
    0.00000E+00         0.00000E+00        -0.39080E+08
 
   -0.36459E+08         0.47151E+05         0.00000E+00
    0.47151E+05        -0.50000E+08         0.00000E+00
    0.00000E+00         0.00000E+00        -0.38552E+08
 
   -0.36517E+08         0.14072E+06         0.00000E+00
    0.14072E+06        -0.50000E+08         0.00000E+00
    0.00000E+00         0.00000E+00        -0.38552E+08
 
   -0.36573E+08         0.23409E+06         0.00000E+00
    0.23409E+06        -0.50000E+08         0.00000E+00
    0.00000E+00         0.00000E+00        -0.38552E+08
 
   -0.36629E+08         0.32729E+06         0.00000E+00
    0.32729E+06        -0.50000E+08         0.00000E+00
    0.00000E+00         0.00000E+00        -0.38551E+08
 
   -0.36683E+08         0.42038E+06         0.00000E+00
    0.42038E+06        -0.50001E+08         0.00000E+00
    0.00000E+00         0.00000E+00        -0.38551E+08
 
   -0.36736E+08         0.51340E+06         0.00000E+00
    0.51340E+06        -0.50001E+08         0.00000E+00
    0.00000E+00         0.00000E+00        -0.38550E+08
 
   -0.36788E+08         0.60639E+06         0.00000E+00
    0.60639E+06        -0.50001E+08         0.00000E+00
    0.00000E+00         0.00000E+00        -0.38550E+08
 
   -0.36839E+08         0.69939E+06         0.00000E+00
    0.69939E+06        -0.50001E+08         0.00000E+00
    0.00000E+00         0.00000E+00        -0.38549E+08
 
   -0.36888E+08         0.79244E+06         0.00000E+00
    0.79244E+06        -0.50001E+08         0.00000E+00
    0.00000E+00         0.00000E+00        -0.38548E+08
 
   -0.36937E+08         0.88558E+06         0.00000E+00
    0.88558E+06        -0.50002E+08         0.00000E+00
    0.00000E+00         0.00000E+00        -0.38547E+08
 
   -0.36985E+08         0.97885E+06         0.00000E+00
    0.97885E+06        -0.50002E+08         0.00000E+00
    0.00000E+00         0.00000E+00        -0.38546E+08
 
   -0.37032E+08         0.10723E+07         0.00000E+00
    0.10723E+07        -0.50002E+08         0.00000E+00
    0.00000E+00         0.00000E+00        -0.38545E+08
 
   -0.37077E+08         0.11659E+07         0.00000E+00
    0.11659E+07        -0.50002E+08         0.00000E+00
    0.00000E+00         0.00000E+00        -0.38544E+08
 
   -0.37122E+08         0.12598E+07         0.00000E+00
    0.12598E+07        -0.50001E+08         0.00000E+00
    0.00000E+00         0.00000E+00        -0.38543E+08
 
   -0.37166E+08         0.13539E+07         0.00000E+00
    0.13539E+07        -0.50001E+08         0.00000E+00
    0.00000E+00         0.00000E+00        -0.38542E+08
 
   -0.37210E+08         0.14483E+07         0.00000E+00
    0.14483E+07        -0.50001E+08         0.00000E+00
    0.00000E+00         0.00000E+00        -0.38541E+08
 
   -0.37252E+08         0.15431E+07         0.00000E+00
    0.15431E+07        -0.50000E+08         0.00000E+00
    0.00000E+00         0.00000E+00        -0.38539E+08
 
   -0.37294E+08         0.16382E+07         0.00000E+00
    0.16382E+07        -0.49999E+08         0.00000E+00
    0.00000E+00         0.00000E+00        -0.38538E+08
 
   -0.37335E+08         0.17337E+07         0.00000E+00
    0.17337E+07        -0.49998E+08         0.00000E+00
    0.00000E+00         0.00000E+00        -0.38537E+08
 
   -0.37375E+08         0.18296E+07         0.00000E+00
    0.18296E+07        -0.49997E+08         0.00000E+00
    0.00000E+00         0.00000E+00        -0.38536E+08
 
   -0.37415E+08         0.19260E+07         0.00000E+00
    0.19260E+07        -0.49995E+08         0.00000E+00
    0.00000E+00         0.00000E+00        -0.38534E+08
 
   -0.37454E+08         0.20228E+07         0.00000E+00
    0.20228E+07        -0.49993E+08         0.00000E+00
    0.00000E+00         0.00000E+00        -0.38533E+08
 
   -0.37492E+08         0.21202E+07         0.00000E+00
    0.21202E+07        -0.49991E+08         0.00000E+00
    0.00000E+00         0.00000E+00        -0.38531E+08
 
   -0.37531E+08         0.22180E+07         0.00000E+00
    0.22180E+07        -0.49989E+08         0.00000E+00
    0.00000E+00         0.00000E+00        -0.38530E+08
 
   -0.37568E+08         0.23164E+07         0.00000E+00
    0.23164E+07        -0.49986E+08         0.00000E+00
    0.00000E+00         0.00000E+00        -0.38529E+08
 
   -0.37605E+08         0.24153E+07         0.00000E+00
    0.24153E+07        -0.49983E+08         0.00000E+00
    0.00000E+00         0.00000E+00        -0.38527E+08
 
   -0.37642E+08         0.25148E+07         0.00000E+00
    0.25148E+07        -0.49979E+08         0.00000E+00
    0.00000E+00         0.00000E+00        -0.38526E+08
 
   -0.37679E+08         0.26149E+07         0.00000E+00
    0.26149E+07        -0.49976E+08         0.00000E+00
    0.00000E+00         0.00000E+00        -0.38525E+08
 
   -0.37715E+08         0.27157E+07         0.00000E+00
    0.27157E+07        -0.49971E+08         0.00000E+00
    0.00000E+00         0.00000E+00        -0.38523E+08
 
   -0.37751E+08         0.28171E+07         0.00000E+00
    0.28171E+07        -0.49966E+08         0.00000E+00
    0.00000E+00         0.00000E+00        -0.38522E+08
 
   -0.37787E+08         0.29191E+07         0.00000E+00
    0.29191E+07        -0.49961E+08         0.00000E+00
    0.00000E+00         0.00000E+00        -0.38521E+08
 
   -0.37822E+08         0.30218E+07         0.00000E+00
    0.30218E+07        -0.49955E+08         0.00000E+00
    0.00000E+00         0.00000E+00        -0.38519E+08
 
   -0.37858E+08         0.31251E+07         0.00000E+00
    0.31251E+07        -0.49949E+08         0.00000E+00
    0.00000E+00         0.00000E+00        -0.38518E+08
 
   -0.37893E+08         0.32292E+07         0.00000E+00
    0.32292E+07        -0.49942E+08         0.00000E+00
    0.00000E+00         0.00000E+00        -0.38517E+08
 
   -0.37929E+08         0.33340E+07         0.00000E+00
    0.33340E+07        -0.49934E+08         0.00000E+00
    0.00000E+00         0.00000E+00        -0.38516E+08
 
   -0.37964E+08         0.34395E+07         0.00000E+00
    0.34395E+07        -0.49926E+08         0.00000E+00
    0.00000E+00         0.00000E+00        -0.38515E+08
 
   -0.38000E+08         0.35458E+07         0.00000E+00
    0.35458E+07        -0.49917E+08         0.00000E+00
    0.00000E+00         0.00000E+00        -0.38514E+08
 
   -0.38035E+08         0.36527E+07         0.00000E+00
    0.36527E+07        -0.49908E+08         0.00000E+00
    0.00000E+00         0.00000E+00        -0.38513E+08
 
   -0.38071E+08         0.37605E+07         0.00000E+00
    0.37605E+07        -0.49898E+08         0.00000E+00
    0.00000E+00         0.00000E+00        -0.38512E+08
 
   -0.38107E+08         0.38690E+07         0.00000E+00
    0.38690E+07        -0.49887E+08         0.00000E+00
    0.00000E+00         0.00000E+00        -0.38511E+08
 
   -0.38143E+08         0.39783E+07         0.00000E+00
    0.39783E+07        -0.49875E+08         0.00000E+00
    0.00000E+00         0.00000E+00        -0.38510E+08
 
   -0.38179E+08         0.40883E+07         0.00000E+00
    0.40883E+07        -0.49863E+08         0.00000E+00
    0.00000E+00         0.00000E+00        -0.38509E+08
 
   -0.38216E+08         0.41992E+07         0.00000E+00
    0.41992E+07        -0.49850E+08         0.00000E+00
    0.00000E+00         0.00000E+00        -0.38509E+08
 
   -0.38253E+08         0.43108E+07         0.00000E+00
    0.43108E+07        -0.49836E+08         0.00000E+00
    0.00000E+00         0.00000E+00        -0.38508E+08
 
   -0.38291E+08         0.44233E+07         0.00000E+00
    0.44233E+07        -0.49821E+08         0.00000E+00
    0.00000E+00         0.00000E+00        -0.38507E+08
 
   -0.38329E+08         0.45365E+07         0.00000E+00
    0.45365E+07        -0.49806E+08         0.00000E+00
    0.00000E+00         0.00000E+00        -0.38507E+08
 
   -0.38367E+08         0.46506E+07         0.00000E+00
    0.46506E+07        -0.49789E+08         0.00000E+00
    0.00000E+00         0.00000E+00        -0.38507E+08
 
   -0.38406E+08         0.47655E+07         0.00000E+00
    0.47655E+07        -0.49772E+08         0.00000E+00
    0.00000E+00         0.00000E+00        -0.38506E+08
 
   -0.38446E+08         0.48812E+07         0.00000E+00
    0.48812E+07        -0.49753E+08         0.00000E+00
    0.00000E+00         0.00000E+00        -0.38506E+08
 
   -0.38486E+08         0.49977E+07         0.00000E+00
    0.49977E+07        -0.49734E+08         0.00000E+00
    0.00000E+00         0.00000E+00        -0.38506E+08
 
   -0.35992E+08         0.46800E+05         0.00000E+00
    0.46800E+05        -0.50000E+08         0.00000E+00
    0.00000E+00         0.00000E+00        -0.37955E+08
 
   -0.36051E+08         0.13981E+06         0.00000E+00
    0.13981E+06        -0.50000E+08         0.00000E+00
    0.00000E+00         0.00000E+00        -0.37955E+08
 
   -0.36108E+08         0.23268E+06         0.00000E+00
    0.23268E+06        -0.50001E+08         0.00000E+00
    0.00000E+00         0.00000E+00        -0.37955E+08
 
   -0.36164E+08         0.32545E+06         0.00000E+00
    0.32545E+06        -0.50001E+08         0.00000E+00
    0.00000E+00         0.00000E+00        -0.37955E+08
 
   -0.36218E+08         0.41817E+06         0.00000E+00
    0.41817E+06        -0.50002E+08         0.00000E+00
    0.00000E+00         0.00000E+00        -0.37954E+08
 
   -0.36271E+08         0.51089E+06         0.00000E+00
    0.51089E+06        -0.50002E+08         0.00000E+00
    0.00000E+00         0.00000E+00        -0.37954E+08
 
   -0.36323E+08         0.60366E+06         0.00000E+00
    0.60366E+06        -0.50003E+08         0.00000E+00
    0.00000E+00         0.00000E+00        -0.37953E+08
 
   -0.36374E+08         0.69653E+06         0.00000E+00
    0.69653E+06        -0.50004E+08         0.00000E+00
    0.00000E+00         0.00000E+00        -0.37952E+08
 
   -0.36423E+08         0.78952E+06         0.00000E+00
    0.78952E+06        -0.50005E+08         0.00000E+00
    0.00000E+00         0.00000E+00        -0.37951E+08
 
   -0.36471E+08         0.88269E+06         0.00000E+00
    0.88269E+06        -0.50006E+08         0.00000E+00
    0.00000E+00         0.00000E+00        -0.37950E+08
 
   -0.36518E+08         0.97609E+06         0.00000E+00
    0.97609E+06        -0.50007E+08         0.00000E+00
    0.00000E+00         0.00000E+00        -0.37949E+08
 
   -0.36563E+08         0.10697E+07         0.00000E+00
    0.10697E+07        -0.50008E+08         0.00000E+00
    0.00000E+00         0.00000E+00        -0.37948E+08
 
   -0.36608E+08         0.11637E+07         0.00000E+00
    0.11637E+07        -0.50010E+08         0.00000E+00
    0.00000E+00         0.00000E+00        -0.37947E+08
 
   -0.36651E+08         0.12580E+07         0.00000E+00
    0.12580E+07        -0.50011E+08         0.00000E+00
    0.00000E+00         0.00000E+00        -0.37946E+08
 
   -0.36693E+08         0.13526E+07         0.00000E+00
    0.13526E+07        -0.50012E+08         0.00000E+00
    0.00000E+00         0.00000E+00        -0.37945E+08
 
   -0.36735E+08         0.14477E+07         0.00000E+00
    0.14477E+07        -0.50012E+08         0.00000E+00
    0.00000E+00         0.00000E+00        -0.37943E+08
 
   -0.36775E+08         0.15432E+07         0.00000E+00
    0.15432E+07        -0.50013E+08         0.00000E+00
    0.00000E+00         0.00000E+00        -0.37942E+08
 
   -0.36815E+08         0.16391E+07         0.00000E+00
    0.16391E+07        -0.50014E+08         0.00000E+00
    0.00000E+00         0.00000E+00        -0.37941E+08
 
   -0.36853E+08         0.17356E+07         0.00000E+00
    0.17356E+07        -0.50014E+08         0.00000E+00
    0.00000E+00         0.00000E+00        -0.37939E+08
 
   -0.36891E+08         0.18326E+07         0.00000E+00
    0.18326E+07        -0.50015E+08         0.00000E+00
    0.00000E+00         0.00000E+00        -0.37938E+08
 
   -0.36929E+08         0.19301E+07         0.00000E+00
    0.19301E+07        -0.50015E+08         0.00000E+00
    0.00000E+00         0.00000E+00        -0.37936E+08
 
   -0.36965E+08         0.20283E+07         0.00000E+00
    0.20283E+07        -0.50015E+08         0.00000E+00
    0.00000E+00         0.00000E+00        -0.37935E+08
 
   -0.37001E+08         0.21270E+07         0.00000E+00
    0.21270E+07        -0.50015E+08         0.00000E+00
    0.00000E+00         0.00000E+00        -0.37933E+08
 
   -0.37036E+08         0.22264E+07         0.00000E+00
    0.22264E+07        -0.50014E+08         0.00000E+00
    0.00000E+00         0.00000E+00        -0.37932E+08
 
   -0.37071E+08         0.23264E+07         0.00000E+00
    0.23264E+07        -0.50013E+08         0.00000E+00
    0.00000E+00         0.00000E+00        -0.37930E+08
 
   -0.37105E+08         0.24272E+07         0.00000E+00
    0.24272E+07        -0.50012E+08         0.00000E+00
    0.00000E+00         0.00000E+00        -0.37929E+08
 
   -0.37138E+08         0.25286E+07         0.00000E+00
    0.25286E+07        -0.50010E+08         0.00000E+00
    0.00000E+00         0.00000E+00        -0.37928E+08
 
   -0.37171E+08         0.26308E+07         0.00000E+00
    0.26308E+07        -0.50008E+08         0.00000E+00
    0.00000E+00         0.00000E+00        -0.37926E+08
 
   -0.37204E+08         0.27337E+07         0.00000E+00
    0.27337E+07        -0.50006E+08         0.00000E+00
    0.00000E+00         0.00000E+00        -0.37925E+08
 
   -0.37237E+08         0.28374E+07         0.00000E+00
    0.28374E+07        -0.50003E+08         0.00000E+00
    0.00000E+00         0.00000E+00        -0.37923E+08
 
   -0.37269E+08         0.29418E+07         0.00000E+00
    0.29418E+07        -0.50000E+08         0.00000E+00
    0.00000E+00         0.00000E+00        -0.37922E+08
 
   -0.37301E+08         0.30471E+07         0.00000E+00
    0.30471E+07        -0.49996E+08         0.00000E+00
    0.00000E+00         0.00000E+00        -0.37921E+08
 
   -0.37332E+08         0.31531E+07         0.00000E+00
    0.31531E+07        -0.49992E+08         0.00000E+00
    0.00000E+00         0.00000E+00        -0.37919E+08
 
   -0.37364E+08         0.32600E+07         0.00000E+00
    0.32600E+07        -0.49987E+08         0.00000E+00
    0.00000E+00         0.00000E+00        -0.37918E+08
 
   -0.37395E+08         0.33677E+07         0.00000E+00
    0.33677E+07        -0.49982E+08         0.00000E+00
    0.00000E+00         0.00000E+00        -0.37917E+08
 
   -0.37427E+08         0.34763E+07         0.00000E+00
    0.34763E+07        -0.49976E+08         0.00000E+00
    0.00000E+00         0.00000E+00        -0.37916E+08
 
   -0.37458E+08         0.35858E+07         0.00000E+00
    0.35858E+07        -0.49970E+08         0.00000E+00
    0.00000E+00         0.00000E+00        -0.37915E+08
 
   -0.37490E+08         0.36961E+07         0.00000E+00
    0.36961E+07        -0.49962E+08         0.00000E+00
    0.00000E+00         0.00000E+00        -0.37914E+08
 
   -0.37521E+08         0.38073E+07         0.00000E+00
    0.38073E+07        -0.49954E+08         0.00000E+00
    0.00000E+00         0.00000E+00        -0.37913E+08
 
   -0.37553E+08         0.39194E+07         0.00000E+00
    0.39194E+07        -0.49946E+08         0.00000E+00
    0.00000E+00         0.00000E+00        -0.37912E+08
 
   -0.37585E+08         0.40325E+07         0.00000E+00
    0.40325E+07        -0.49937E+08         0.00000E+00
    0.00000E+00         0.00000E+00        -0.37911E+08
 
   -0.37617E+08         0.41464E+07         0.00000E+00
    0.41464E+07        -0.49926E+08         0.00000E+00
    0.00000E+00         0.00000E+00        -0.37910E+08
 
   -0.37650E+08         0.42613E+07         0.00000E+00
    0.42613E+07        -0.49916E+08         0.00000E+00
    0.00000E+00         0.00000E+00        -0.37909E+08
 
   -0.37682E+08         0.43771E+07         0.00000E+00
    0.43771E+07        -0.49904E+08         0.00000E+00
    0.00000E+00         0.00000E+00        -0.37909E+08
 
   -0.37716E+08         0.44938E+07         0.00000E+00
    0.44938E+07        -0.49891E+08         0.00000E+00
    0.00000E+00         0.00000E+00        -0.37908E+08
 
   -0.37749E+08         0.46114E+07         0.00000E+00
    0.46114E+07        -0.49878E+08         0.00000E+00
    0.00000E+00         0.00000E+00        -0.37908E+08
 
   -0.37783E+08         0.47301E+07         0.00000E+00
    0.47301E+07        -0.49864E+08         0.00000E+00
    0.00000E+00         0.00000E+00        -0.37907E+08
 
   -0.37818E+08         0.48496E+07         0.00000E+00
    0.48496E+07        -0.49849E+08         0.00000E+00
    0.00000E+00         0.00000E+00        -0.37907E+08
 
   -0.37853E+08         0.49702E+07         0.00000E+00
    0.49702E+07        -0.49832E+08         0.00000E+00
    0.00000E+00         0.00000E+00        -0.37907E+08
 
   -0.37888E+08         0.50916E+07         0.00000E+00
    0.50916E+07        -0.49815E+08         0.00000E+00
    0.00000E+00         0.00000E+00        -0.37907E+08
 
   -0.35529E+08         0.46138E+05         0.00000E+00
    0.46138E+05        -0.50000E+08         0.00000E+00
    0.00000E+00         0.00000E+00        -0.37333E+08
 
   -0.35588E+08         0.13801E+06         0.00000E+00
    0.13801E+06        -0.50000E+08         0.00000E+00
    0.00000E+00         0.00000E+00        -0.37333E+08
 
   -0.35646E+08         0.22980E+06         0.00000E+00
    0.22980E+06        -0.50001E+08         0.00000E+00
    0.00000E+00         0.00000E+00        -0.37332E+08
 
   -0.35702E+08         0.32158E+06         0.00000E+00
    0.32158E+06        -0.50002E+08         0.00000E+00
    0.00000E+00         0.00000E+00        -0.37332E+08
 
   -0.35757E+08         0.41339E+06         0.00000E+00
    0.41339E+06        -0.50003E+08         0.00000E+00
    0.00000E+00         0.00000E+00        -0.37332E+08
 
   -0.35809E+08         0.50529E+06         0.00000E+00
    0.50529E+06        -0.50004E+08         0.00000E+00
    0.00000E+00         0.00000E+00        -0.37331E+08
 
   -0.35861E+08         0.59732E+06         0.00000E+00
    0.59732E+06        -0.50006E+08         0.00000E+00
    0.00000E+00         0.00000E+00        -0.37330E+08
 
   -0.35910E+08         0.68955E+06         0.00000E+00
    0.68955E+06        -0.50008E+08         0.00000E+00
    0.00000E+00         0.00000E+00        -0.37329E+08
 
   -0.35958E+08         0.78201E+06         0.00000E+00
    0.78201E+06        -0.50010E+08         0.00000E+00
    0.00000E+00         0.00000E+00        -0.37328E+08
 
   -0.36005E+08         0.87475E+06         0.00000E+00
    0.87475E+06        -0.50012E+08         0.00000E+00
    0.00000E+00         0.00000E+00        -0.37327E+08
 
   -0.36050E+08         0.96781E+06         0.00000E+00
    0.96781E+06        -0.50014E+08         0.00000E+00
    0.00000E+00         0.00000E+00        -0.37326E+08
 
   -0.36094E+08         0.10612E+07         0.00000E+00
    0.10612E+07        -0.50016E+08         0.00000E+00
    0.00000E+00         0.00000E+00        -0.37325E+08
 
   -0.36137E+08         0.11551E+07         0.00000E+00
    0.11551E+07        -0.50019E+08         0.00000E+00
    0.00000E+00         0.00000E+00        -0.37324E+08
 
   -0.36178E+08         0.12494E+07         0.00000E+00
    0.12494E+07        -0.50021E+08         0.00000E+00
    0.00000E+00         0.00000E+00        -0.37323E+08
 
   -0.36218E+08         0.13442E+07         0.00000E+00
    0.13442E+07        -0.50023E+08         0.00000E+00
    0.00000E+00         0.00000E+00        -0.37321E+08
 
   -0.36257E+08         0.14395E+07         0.00000E+00
    0.14395E+07        -0.50026E+08         0.00000E+00
    0.00000E+00         0.00000E+00        -0.37320E+08
 
   -0.36295E+08         0.15354E+07         0.00000E+00
    0.15354E+07        -0.50028E+08         0.00000E+00
    0.00000E+00         0.00000E+00        -0.37319E+08
 
   -0.36332E+08         0.16318E+07         0.00000E+00
    0.16318E+07        -0.50031E+08         0.00000E+00
    0.00000E+00         0.00000E+00        -0.37317E+08
 
   -0.36368E+08         0.17289E+07         0.00000E+00
    0.17289E+07        -0.50033E+08         0.00000E+00
    0.00000E+00         0.00000E+00        -0.37316E+08
 
   -0.36403E+08         0.18267E+07         0.00000E+00
    0.18267E+07        -0.50035E+08         0.00000E+00
    0.00000E+00         0.00000E+00        -0.37314E+08
 
   -0.36437E+08         0.19251E+07         0.00000E+00
    0.19251E+07        -0.50037E+08         0.00000E+00
    0.00000E+00         0.00000E+00        -0.37313E+08
 
   -0.36470E+08         0.20243E+07         0.00000E+00
    0.20243E+07        -0.50039E+08         0.00000E+00
    0.00000E+00         0.00000E+00        -0.37311E+08
 
   -0.36502E+08         0.21242E+07         0.00000E+00
    0.21242E+07        -0.50041E+08         0.00000E+00
    0.00000E+00         0.00000E+00        -0.37310E+08
 
   -0.36534E+08         0.22249E+07         0.00000E+00
    0.22249E+07        -0.50042E+08         0.00000E+00
    0.00000E+00         0.00000E+00        -0.37308E+08
 
   -0.36565E+08         0.23264E+07         0.00000E+00
    0.23264E+07        -0.50044E+08         0.00000E+00
    0.00000E+00         0.00000E+00        -0.37306E+08
 
   -0.36595E+08         0.24287E+07         0.00000E+00
    0.24287E+07        -0.50045E+08         0.00000E+00
    0.00000E+00         0.00000E+00        -0.37305E+08
 
   -0.36625E+08         0.25318E+07         0.00000E+00
    0.25318E+07        -0.50045E+08         0.00000E+00
    0.00000E+00         0.00000E+00        -0.37303E+08
 
   -0.36654E+08         0.26358E+07         0.00000E+00
    0.26358E+07        -0.50046E+08         0.00000E+00
    0.00000E+00         0.00000E+00        -0.37302E+08
 
   -0.36682E+08         0.27408E+07         0.00000E+00
    0.27408E+07        -0.50046E+08         0.00000E+00
    0.00000E+00         0.00000E+00        -0.37300E+08
 
   -0.36711E+08         0.28466E+07         0.00000E+00
    0.28466E+07        -0.50045E+08         0.00000E+00
    0.00000E+00         0.00000E+00        -0.37299E+08
 
   -0.36739E+08         0.29533E+07         0.00000E+00
    0.29533E+07        -0.50044E+08         0.00000E+00
    0.00000E+00         0.00000E+00        -0.37298E+08
 
   -0.36766E+08         0.30610E+07         0.00000E+00
    0.30610E+07        -0.50043E+08         0.00000E+00
    0.00000E+00         0.00000E+00        -0.37296E+08
 
   -0.36793E+08         0.31696E+07         0.00000E+00
    0.31696E+07        -0.50041E+08         0.00000E+00
    0.00000E+00         0.00000E+00        -0.37295E+08
 
   -0.36820E+08         0.32792E+07         0.00000E+00
    0.32792E+07        -0.50039E+08         0.00000E+00
    0.00000E+00         0.00000E+00        -0.37293E+08
 
   -0.36847E+08         0.33897E+07         0.00000E+00
    0.33897E+07        -0.50036E+08         0.00000E+00
    0.00000E+00         0.00000E+00        -0.37292E+08
 
   -0.36874E+08         0.35013E+07         0.00000E+00
    0.35013E+07        -0.50033E+08         0.00000E+00
    0.00000E+00         0.00000E+00        -0.37291E+08
 
   -0.36901E+08         0.36139E+07         0.00000E+00
    0.36139E+07        -0.50029E+08         0.00000E+00
    0.00000E+00         0.00000E+00        -0.37290E+08
 
   -0.36928E+08         0.37275E+07         0.00000E+00
    0.37275E+07        -0.50024E+08         0.00000E+00
    0.00000E+00         0.00000E+00        -0.37289E+08
 
   -0.36954E+08         0.38421E+07         0.00000E+00
    0.38421E+07        -0.50019E+08         0.00000E+00
    0.00000E+00         0.00000E+00        -0.37288E+08
 
   -0.36981E+08         0.39578E+07         0.00000E+00
    0.39578E+07        -0.50013E+08         0.00000E+00
    0.00000E+00         0.00000E+00        -0.37287E+08
 
   -0.37008E+08         0.40745E+07         0.00000E+00
    0.40745E+07        -0.50006E+08         0.00000E+00
    0.00000E+00         0.00000E+00        -0.37286E+08
 
   -0.37035E+08         0.41923E+07         0.00000E+00
    0.41923E+07        -0.49998E+08         0.00000E+00
    0.00000E+00         0.00000E+00        -0.37285E+08
 
   -0.37063E+08         0.43112E+07         0.00000E+00
    0.43112E+07        -0.49990E+08         0.00000E+00
    0.00000E+00         0.00000E+00        -0.37284E+08
 
   -0.37091E+08         0.44311E+07         0.00000E+00
    0.44311E+07        -0.49981E+08         0.00000E+00
    0.00000E+00         0.00000E+00        -0.37284E+08
 
   -0.37119E+08         0.45521E+07         0.00000E+00
    0.45521E+07        -0.49971E+08         0.00000E+00
    0.00000E+00         0.00000E+00        -0.37283E+08
 
   -0.37147E+08         0.46742E+07         0.00000E+00
    0.46742E+07        -0.49960E+08         0.00000E+00
    0.00000E+00         0.00000E+00        -0.37282E+08
 
   -0.37176E+08         0.47974E+07         0.00000E+00
    0.47974E+07        -0.49949E+08         0.00000E+00
    0.00000E+00         0.00000E+00        -0.37282E+08
 
   -0.37205E+08         0.49216E+07         0.00000E+00
    0.49216E+07        -0.49936E+08         0.00000E+00
    0.00000E+00         0.00000E+00        -0.37282E+08
 
   -0.37235E+08         0.50470E+07         0.00000E+00
    0.50470E+07        -0.49923E+08         0.00000E+00
    0.00000E+00         0.00000E+00        -0.37282E+08
 
   -0.37266E+08         0.51735E+07         0.00000E+00
    0.51735E+07        -0.49908E+08         0.00000E+00
    0.00000E+00         0.00000E+00        -0.37281E+08
 
   -0.35074E+08         0.45120E+05         0.00000E+00
    0.45120E+05        -0.50000E+08         0.00000E+00
    0.00000E+00         0.00000E+00        -0.36684E+08
 
   -0.35133E+08         0.13518E+06         0.00000E+00
    0.13518E+06        -0.50001E+08         0.00000E+00
    0.00000E+00         0.00000E+00        -0.36684E+08
 
   -0.35191E+08         0.22525E+06         0.00000E+00
    0.22525E+06        -0.50002E+08         0.00000E+00
    0.00000E+00         0.00000E+00        -0.36684E+08
 
   -0.35247E+08         0.31539E+06         0.00000E+00
    0.31539E+06        -0.50003E+08         0.00000E+00
    0.00000E+00         0.00000E+00        -0.36683E+08
 
   -0.35301E+08         0.40568E+06         0.00000E+00
    0.40568E+06        -0.50004E+08         0.00000E+00
    0.00000E+00         0.00000E+00        -0.36683E+08
 
   -0.35353E+08         0.49615E+06         0.00000E+00
    0.49615E+06        -0.50007E+08         0.00000E+00
    0.00000E+00         0.00000E+00        -0.36682E+08
 
   -0.35403E+08         0.58688E+06         0.00000E+00
    0.58688E+06        -0.50009E+08         0.00000E+00
    0.00000E+00         0.00000E+00        -0.36681E+08
 
   -0.35451E+08         0.67790E+06         0.00000E+00
    0.67790E+06        -0.50012E+08         0.00000E+00
    0.00000E+00         0.00000E+00        -0.36680E+08
 
   -0.35498E+08         0.76928E+06         0.00000E+00
    0.76928E+06        -0.50015E+08         0.00000E+00
    0.00000E+00         0.00000E+00        -0.36679E+08
 
   -0.35543E+08         0.86106E+06         0.00000E+00
    0.86106E+06        -0.50018E+08         0.00000E+00
    0.00000E+00         0.00000E+00        -0.36678E+08
 
   -0.35586E+08         0.95330E+06         0.00000E+00
    0.95330E+06        -0.50021E+08         0.00000E+00
    0.00000E+00         0.00000E+00        -0.36677E+08
 
   -0.35628E+08         0.10460E+07         0.00000E+00
    0.10460E+07        -0.50025E+08         0.00000E+00
    0.00000E+00         0.00000E+00        -0.36676E+08
 
   -0.35668E+08         0.11393E+07         0.00000E+00
    0.11393E+07        -0.50029E+08         0.00000E+00
    0.00000E+00         0.00000E+00        -0.36675E+08
 
   -0.35706E+08         0.12332E+07         0.00000E+00
    0.12332E+07        -0.50033E+08         0.00000E+00
    0.00000E+00         0.00000E+00        -0.36673E+08
 
   -0.35744E+08         0.13276E+07         0.00000E+00
    0.13276E+07        -0.50037E+08         0.00000E+00
    0.00000E+00         0.00000E+00        -0.36672E+08
 
   -0.35780E+08         0.14228E+07         0.00000E+00
    0.14228E+07        -0.50041E+08         0.00000E+00
    0.00000E+00         0.00000E+00        -0.36671E+08
 
   -0.35814E+08         0.15186E+07         0.00000E+00
    0.15186E+07        -0.50045E+08         0.00000E+00
    0.00000E+00         0.00000E+00        -0.36669E+08
 
   -0.35848E+08         0.16152E+07         0.00000E+00
    0.16152E+07        -0.50050E+08         0.00000E+00
    0.00000E+00         0.00000E+00        -0.36668E+08
 
   -0.35880E+08         0.17126E+07         0.00000E+00
    0.17126E+07        -0.50054E+08         0.00000E+00
    0.00000E+00         0.00000E+00        -0.36666E+08
 
   -0.35911E+08         0.18108E+07         0.00000E+00
    0.18108E+07        -0.50058E+08         0.00000E+00
    0.00000E+00         0.00000E+00        -0.36664E+08
 
   -0.35941E+08         0.19098E+07         0.00000E+00
    0.19098E+07        -0.50063E+08         0.00000E+00
    0.00000E+00         0.00000E+00        -0.36663E+08
 
   -0.35970E+08         0.20097E+07         0.00000E+00
    0.20097E+07        -0.50067E+08         0.00000E+00
    0.00000E+00         0.00000E+00        -0.36661E+08
 
   -0.35998E+08         0.21105E+07         0.00000E+00
    0.21105E+07        -0.50071E+08         0.00000E+00
    0.00000E+00         0.00000E+00        -0.36660E+08
 
   -0.36026E+08         0.22122E+07         0.00000E+00
    0.22122E+07        -0.50074E+08         0.00000E+00
    0.00000E+00         0.00000E+00        -0.36658E+08
 
   -0.36052E+08         0.23149E+07         0.00000E+00
    0.23149E+07        -0.50078E+08         0.00000E+00
    0.00000E+00         0.00000E+00        -0.36656E+08
 
   -0.36078E+08         0.24185E+07         0.00000E+00
    0.24185E+07        -0.50082E+08         0.00000E+00
    0.00000E+00         0.00000E+00        -0.36655E+08
 
   -0.36103E+08         0.25231E+07         0.00000E+00
    0.25231E+07        -0.50085E+08         0.00000E+00
    0.00000E+00         0.00000E+00        -0.36653E+08
 
   -0.36127E+08         0.26288E+07         0.00000E+00
    0.26288E+07        -0.50088E+08         0.00000E+00
    0.00000E+00         0.00000E+00        -0.36652E+08
 
   -0.36151E+08         0.27355E+07         0.00000E+00
    0.27355E+07        -0.50090E+08         0.00000E+00
    0.00000E+00         0.00000E+00        -0.36650E+08
 
   -0.36174E+08         0.28433E+07         0.00000E+00
    0.28433E+07        -0.50092E+08         0.00000E+00
    0.00000E+00         0.00000E+00        -0.36649E+08
 
   -0.36197E+08         0.29521E+07         0.00000E+00
    0.29521E+07        -0.50094E+08         0.00000E+00
    0.00000E+00         0.00000E+00        -0.36647E+08
 
   -0.36219E+08         0.30620E+07         0.00000E+00
    0.30620E+07        -0.50095E+08         0.00000E+00
    0.00000E+00         0.00000E+00        -0.36646E+08
 
   -0.36242E+08         0.31731E+07         0.00000E+00
    0.31731E+07        -0.50096E+08         0.00000E+00
    0.00000E+00         0.00000E+00        -0.36644E+08
 
   -0.36263E+08         0.32852E+07         0.00000E+00
    0.32852E+07        -0.50097E+08         0.00000E+00
    0.00000E+00         0.00000E+00        -0.36643E+08
 
   -0.36285E+08         0.33985E+07         0.00000E+00
    0.33985E+07        -0.50097E+08         0.00000E+00
    0.00000E+00         0.00000E+00        -0.36642E+08
 
   -0.36306E+08         0.35130E+07         0.00000E+00
    0.35130E+07        -0.50096E+08         0.00000E+00
    0.00000E+00         0.00000E+00        -0.36640E+08
 
   -0.36328E+08         0.36286E+07         0.00000E+00
    0.36286E+07        -0.50095E+08         0.00000E+00
    0.00000E+00         0.00000E+00        -0.36639E+08
 
   -0.36349E+08         0.37454E+07         0.00000E+00
    0.37454E+07        -0.50093E+08         0.00000E+00
    0.00000E+00         0.00000E+00        -0.36638E+08
 
   -0.36370E+08         0.38634E+07         0.00000E+00
    0.38634E+07        -0.50091E+08         0.00000E+00
    0.00000E+00         0.00000E+00        -0.36637E+08
 
   -0.36391E+08         0.39825E+07         0.00000E+00
    0.39825E+07        -0.50088E+08         0.00000E+00
    0.00000E+00         0.00000E+00        -0.36636E+08
 
   -0.36413E+08         0.41029E+07         0.00000E+00
    0.41029E+07        -0.50084E+08         0.00000E+00
    0.00000E+00         0.00000E+00        -0.36635E+08
 
   -0.36434E+08         0.42245E+07         0.00000E+00
    0.42245E+07        -0.50079E+08         0.00000E+00
    0.00000E+00         0.00000E+00        -0.36634E+08
 
   -0.36456E+08         0.43473E+07         0.00000E+00
    0.43473E+07        -0.50074E+08         0.00000E+00
    0.00000E+00         0.00000E+00        -0.36633E+08
 
   -0.36478E+08         0.44713E+07         0.00000E+00
    0.44713E+07        -0.50068E+08         0.00000E+00
    0.00000E+00         0.00000E+00        -0.36633E+08
 
   -0.36500E+08         0.45965E+07         0.00000E+00
    0.45965E+07        -0.50061E+08         0.00000E+00
    0.00000E+00         0.00000E+00        -0.36632E+08
 
   -0.36523E+08         0.47230E+07         0.00000E+00
    0.47230E+07        -0.50053E+08         0.00000E+00
    0.00000E+00         0.00000E+00        -0.36632E+08
 
   -0.36546E+08         0.48508E+07         0.00000E+00
    0.48508E+07        -0.50044E+08         0.00000E+00
    0.00000E+00         0.00000E+00        -0.36631E+08
 
   -0.36569E+08         0.49797E+07         0.00000E+00
    0.49797E+07        -0.50035E+08         0.00000E+00
    0.00000E+00         0.00000E+00        -0.36631E+08
 
   -0.36593E+08         0.51100E+07         0.00000E+00
    0.51100E+07        -0.50024E+08         0.00000E+00
    0.00000E+00         0.00000E+00        -0.36631E+08
 
   -0.36618E+08         0.52415E+07         0.00000E+00
    0.52415E+07        -0.50012E+08         0.00000E+00
    0.00000E+00         0.00000E+00        -0.36631E+08
 
   -0.34629E+08         0.43696E+05         0.00000E+00
    0.43696E+05        -0.50000E+08         0.00000E+00
    0.00000E+00         0.00000E+00        -0.36009E+08
 
   -0.34689E+08         0.13118E+06         0.00000E+00
    0.13118E+06        -0.50001E+08         0.00000E+00
    0.00000E+00         0.00000E+00        -0.36009E+08
 
   -0.34746E+08         0.21879E+06         0.00000E+00
    0.21879E+06        -0.50002E+08         0.00000E+00
    0.00000E+00         0.00000E+00        -0.36008E+08
 
   -0.34801E+08         0.30659E+06         0.00000E+00
    0.30659E+06        -0.50004E+08         0.00000E+00
    0.00000E+00         0.00000E+00        -0.36008E+08
 
   -0.34854E+08         0.39465E+06         0.00000E+00
    0.39465E+06        -0.50006E+08         0.00000E+00
    0.00000E+00         0.00000E+00        -0.36007E+08
 
   -0.34905E+08         0.48303E+06         0.00000E+00
    0.48303E+06        -0.50009E+08         0.00000E+00
    0.00000E+00         0.00000E+00        -0.36007E+08
 
   -0.34953E+08         0.57179E+06         0.00000E+00
    0.57179E+06        -0.50012E+08         0.00000E+00
    0.00000E+00         0.00000E+00        -0.36006E+08
 
   -0.34999E+08         0.66098E+06         0.00000E+00
    0.66098E+06        -0.50016E+08         0.00000E+00
    0.00000E+00         0.00000E+00        -0.36005E+08
 
   -0.35044E+08         0.75067E+06         0.00000E+00
    0.75067E+06        -0.50020E+08         0.00000E+00
    0.00000E+00         0.00000E+00        -0.36004E+08
 
   -0.35086E+08         0.84090E+06         0.00000E+00
    0.84090E+06        -0.50025E+08         0.00000E+00
    0.00000E+00         0.00000E+00        -0.36003E+08
 
   -0.35127E+08         0.93174E+06         0.00000E+00
    0.93174E+06        -0.50030E+08         0.00000E+00
    0.00000E+00         0.00000E+00        -0.36002E+08
 
   -0.35165E+08         0.10232E+07         0.00000E+00
    0.10232E+07        -0.50035E+08         0.00000E+00
    0.00000E+00         0.00000E+00        -0.36000E+08
 
   -0.35202E+08         0.11154E+07         0.00000E+00
    0.11154E+07        -0.50040E+08         0.00000E+00
    0.00000E+00         0.00000E+00        -0.35999E+08
 
   -0.35237E+08         0.12083E+07         0.00000E+00
    0.12083E+07        -0.50046E+08         0.00000E+00
    0.00000E+00         0.00000E+00        -0.35998E+08
 
   -0.35271E+08         0.13020E+07         0.00000E+00
    0.13020E+07        -0.50052E+08         0.00000E+00
    0.00000E+00         0.00000E+00        -0.35996E+08
 
   -0.35303E+08         0.13966E+07         0.00000E+00
    0.13966E+07        -0.50058E+08         0.00000E+00
    0.00000E+00         0.00000E+00        -0.35995E+08
 
   -0.35334E+08         0.14920E+07         0.00000E+00
    0.14920E+07        -0.50065E+08         0.00000E+00
    0.00000E+00         0.00000E+00        -0.35993E+08
 
   -0.35363E+08         0.15883E+07         0.00000E+00
    0.15883E+07        -0.50071E+08         0.00000E+00
    0.00000E+00         0.00000E+00        -0.35992E+08
 
   -0.35391E+08         0.16855E+07         0.00000E+00
    0.16855E+07        -0.50078E+08         0.00000E+00
    0.00000E+00         0.00000E+00        -0.35990E+08
 
   -0.35417E+08         0.17837E+07         0.00000E+00
    0.17837E+07        -0.50084E+08         0.00000E+00
    0.00000E+00         0.00000E+00        -0.35989E+08
 
   -0.35443E+08         0.18830E+07         0.00000E+00
    0.18830E+07        -0.50091E+08         0.00000E+00
    0.00000E+00         0.00000E+00        -0.35987E+08
 
   -0.35467E+08         0.19832E+07         0.00000E+00
    0.19832E+07        -0.50097E+08         0.00000E+00
    0.00000E+00         0.00000E+00        -0.35985E+08
 
   -0.35490E+08         0.20846E+07         0.00000E+00
    0.20846E+07        -0.50104E+08         0.00000E+00
    0.00000E+00         0.00000E+00        -0.35984E+08
 
   -0.35512E+08         0.21870E+07         0.00000E+00
    0.21870E+07        -0.50110E+08         0.00000E+00
    0.00000E+00         0.00000E+00        -0.35982E+08
 
   -0.35534E+08         0.22906E+07         0.00000E+00
    0.22906E+07        -0.50117E+08         0.00000E+00
    0.00000E+00         0.00000E+00        -0.35980E+08
 
   -0.35554E+08         0.23953E+07         0.00000E+00
    0.23953E+07        -0.50123E+08         0.00000E+00
    0.00000E+00         0.00000E+00        -0.35979E+08
 
   -0.35574E+08         0.25012E+07         0.00000E+00
    0.25012E+07        -0.50129E+08         0.00000E+00
    0.00000E+00         0.00000E+00        -0.35977E+08
 
   -0.35592E+08         0.26082E+07         0.00000E+00
    0.26082E+07        -0.50134E+08         0.00000E+00
    0.00000E+00         0.00000E+00        -0.35976E+08
 
   -0.35611E+08         0.27165E+07         0.00000E+00
    0.27165E+07        -0.50140E+08         0.00000E+00
    0.00000E+00         0.00000E+00        -0.35974E+08
 
   -0.35628E+08         0.28260E+07         0.00000E+00
    0.28260E+07        -0.50145E+08         0.00000E+00
    0.00000E+00         0.00000E+00        -0.35972E+08
 
   -0.35645E+08         0.29367E+07         0.00000E+00
    0.29367E+07        -0.50150E+08         0.00000E+00
    0.00000E+00         0.00000E+00        -0.35971E+08
 
   -0.35662E+08         0.30488E+07         0.00000E+00
    0.30488E+07        -0.50154E+08         0.00000E+00
    0.00000E+00         0.00000E+00        -0.35969E+08
 
   -0.35678E+08         0.31621E+07         0.00000E+00
    0.31621E+07        -0.50158E+08         0.00000E+00
    0.00000E+00         0.00000E+00        -0.35968E+08
 
   -0.35693E+08         0.32766E+07         0.00000E+00
    0.32766E+07        -0.50162E+08         0.00000E+00
    0.00000E+00         0.00000E+00        -0.35967E+08
 
   -0.35709E+08         0.33925E+07         0.00000E+00
    0.33925E+07        -0.50165E+08         0.00000E+00
    0.00000E+00         0.00000E+00        -0.35965E+08
 
   -0.35724E+08         0.35097E+07         0.00000E+00
    0.35097E+07        -0.50167E+08         0.00000E+00
    0.00000E+00         0.00000E+00        -0.35964E+08
 
   -0.35739E+08         0.36283E+07         0.00000E+00
    0.36283E+07        -0.50169E+08         0.00000E+00
    0.00000E+00         0.00000E+00        -0.35963E+08
 
   -0.35754E+08         0.37481E+07         0.00000E+00
    0.37481E+07        -0.50171E+08         0.00000E+00
    0.00000E+00         0.00000E+00        -0.35962E+08
 
   -0.35769E+08         0.38694E+07         0.00000E+00
    0.38694E+07        -0.50171E+08         0.00000E+00
    0.00000E+00         0.00000E+00        -0.35961E+08
 
   -0.35784E+08         0.39919E+07         0.00000E+00
    0.39919E+07        -0.50171E+08         0.00000E+00
    0.00000E+00         0.00000E+00        -0.35959E+08
 
   -0.35799E+08         0.41159E+07         0.00000E+00
    0.41159E+07        -0.50171E+08         0.00000E+00
    0.00000E+00         0.00000E+00        -0.35959E+08
 
   -0.35814E+08         0.42412E+07         0.00000E+00
    0.42412E+07        -0.50169E+08         0.00000E+00
    0.00000E+00         0.00000E+00        -0.35958E+08
 
   -0.35829E+08         0.43679E+07         0.00000E+00
    0.43679E+07        -0.50167E+08         0.00000E+00
    0.00000E+00         0.00000E+00        -0.35957E+08
 
   -0.35844E+08         0.44959E+07         0.00000E+00
    0.44959E+07        -0.50165E+08         0.00000E+00
    0.00000E+00         0.00000E+00        -0.35956E+08
 
   -0.35860E+08         0.46254E+07         0.00000E+00
    0.46254E+07        -0.50161E+08         0.00000E+00
    0.00000E+00         0.00000E+00        -0.35956E+08
 
   -0.35876E+08         0.47562E+07         0.00000E+00
    0.47562E+07        -0.50156E+08         0.00000E+00
    0.00000E+00         0.00000E+00        -0.35955E+08
 
   -0.35893E+08         0.48885E+07         0.00000E+00
    0.48885E+07        -0.50151E+08         0.00000E+00
    0.00000E+00         0.00000E+00        -0.35955E+08
 
   -0.35909E+08         0.50221E+07         0.00000E+00
    0.50221E+07        -0.50145E+08         0.00000E+00
    0.00000E+00         0.00000E+00        -0.35954E+08
 
   -0.35927E+08         0.51572E+07         0.00000E+00
    0.51572E+07        -0.50137E+08         0.00000E+00
    0.00000E+00         0.00000E+00        -0.35954E+08
 
   -0.35945E+08         0.52937E+07         0.00000E+00
    0.52937E+07        -0.50129E+08         0.00000E+00
    0.00000E+00         0.00000E+00        -0.35954E+08
 
   -0.34201E+08         0.41809E+05         0.00000E+00
    0.41809E+05        -0.50000E+08         0.00000E+00
    0.00000E+00         0.00000E+00        -0.35307E+08
 
   -0.34260E+08         0.12586E+06         0.00000E+00
    0.12586E+06        -0.50001E+08         0.00000E+00
    0.00000E+00         0.00000E+00        -0.35307E+08
 
   -0.34316E+08         0.21018E+06         0.00000E+00
    0.21018E+06        -0.50003E+08         0.00000E+00
    0.00000E+00         0.00000E+00        -0.35307E+08
 
   -0.34369E+08         0.29483E+06         0.00000E+00
    0.29483E+06        -0.50005E+08         0.00000E+00
    0.00000E+00         0.00000E+00        -0.35306E+08
 
   -0.34420E+08         0.37988E+06         0.00000E+00
    0.37988E+06        -0.50008E+08         0.00000E+00
    0.00000E+00         0.00000E+00        -0.35306E+08
 
   -0.34469E+08         0.46540E+06         0.00000E+00
    0.46540E+06        -0.50012E+08         0.00000E+00
    0.00000E+00         0.00000E+00        -0.35305E+08
 
   -0.34514E+08         0.55146E+06         0.00000E+00
    0.55146E+06        -0.50016E+08         0.00000E+00
    0.00000E+00         0.00000E+00        -0.35304E+08
 
   -0.34558E+08         0.63812E+06         0.00000E+00
    0.63812E+06        -0.50021E+08         0.00000E+00
    0.00000E+00         0.00000E+00        -0.35303E+08
 
   -0.34599E+08         0.72544E+06         0.00000E+00
    0.72544E+06        -0.50026E+08         0.00000E+00
    0.00000E+00         0.00000E+00        -0.35302E+08
 
   -0.34638E+08         0.81347E+06         0.00000E+00
    0.81347E+06        -0.50032E+08         0.00000E+00
    0.00000E+00         0.00000E+00        -0.35301E+08
 
   -0.34675E+08         0.90228E+06         0.00000E+00
    0.90228E+06        -0.50039E+08         0.00000E+00
    0.00000E+00         0.00000E+00        -0.35300E+08
 
   -0.34710E+08         0.99191E+06         0.00000E+00
    0.99191E+06        -0.50046E+08         0.00000E+00
    0.00000E+00         0.00000E+00        -0.35299E+08
 
   -0.34743E+08         0.10824E+07         0.00000E+00
    0.10824E+07        -0.50053E+08         0.00000E+00
    0.00000E+00         0.00000E+00        -0.35297E+08
 
   -0.34774E+08         0.11738E+07         0.00000E+00
    0.11738E+07        -0.50061E+08         0.00000E+00
    0.00000E+00         0.00000E+00        -0.35296E+08
 
   -0.34803E+08         0.12662E+07         0.00000E+00
    0.12662E+07        -0.50069E+08         0.00000E+00
    0.00000E+00         0.00000E+00        -0.35294E+08
 
   -0.34831E+08         0.13597E+07         0.00000E+00
    0.13597E+07        -0.50077E+08         0.00000E+00
    0.00000E+00         0.00000E+00        -0.35293E+08
 
   -0.34857E+08         0.14541E+07         0.00000E+00
    0.14541E+07        -0.50086E+08         0.00000E+00
    0.00000E+00         0.00000E+00        -0.35291E+08
 
   -0.34881E+08         0.15497E+07         0.00000E+00
    0.15497E+07        -0.50095E+08         0.00000E+00
    0.00000E+00         0.00000E+00        -0.35290E+08
 
   -0.34903E+08         0.16464E+07         0.00000E+00
    0.16464E+07        -0.50104E+08         0.00000E+00
    0.00000E+00         0.00000E+00        -0.35288E+08
 
   -0.34924E+08         0.17442E+07         0.00000E+00
    0.17442E+07        -0.50113E+08         0.00000E+00
    0.00000E+00         0.00000E+00        -0.35287E+08
 
   -0.34944E+08         0.18433E+07         0.00000E+00
    0.18433E+07        -0.50122E+08         0.00000E+00
    0.00000E+00         0.00000E+00        -0.35285E+08
 
   -0.34963E+08         0.19436E+07         0.00000E+00
    0.19436E+07        -0.50132E+08         0.00000E+00
    0.00000E+00         0.00000E+00        -0.35283E+08
 
   -0.34980E+08         0.20451E+07         0.00000E+00
    0.20451E+07        -0.50141E+08         0.00000E+00
    0.00000E+00         0.00000E+00        -0.35282E+08
 
   -0.34996E+08         0.21480E+07         0.00000E+00
    0.21480E+07        -0.50150E+08         0.00000E+00
    0.00000E+00         0.00000E+00        -0.35280E+08
 
   -0.35011E+08         0.22521E+07         0.00000E+00
    0.22521E+07        -0.50160E+08         0.00000E+00
    0.00000E+00         0.00000E+00        -0.35278E+08
 
   -0.35025E+08         0.23576E+07         0.00000E+00
    0.23576E+07        -0.50169E+08         0.00000E+00
    0.00000E+00         0.00000E+00        -0.35277E+08
 
   -0.35038E+08         0.24644E+07         0.00000E+00
    0.24644E+07        -0.50178E+08         0.00000E+00
    0.00000E+00         0.00000E+00        -0.35275E+08
 
   -0.35051E+08         0.25726E+07         0.00000E+00
    0.25726E+07        -0.50187E+08         0.00000E+00
    0.00000E+00         0.00000E+00        -0.35273E+08
 
   -0.35062E+08         0.26823E+07         0.00000E+00
    0.26823E+07        -0.50195E+08         0.00000E+00
    0.00000E+00         0.00000E+00        -0.35272E+08
 
   -0.35073E+08         0.27933E+07         0.00000E+00
    0.27933E+07        -0.50204E+08         0.00000E+00
    0.00000E+00         0.00000E+00        -0.35270E+08
 
   -0.35084E+08         0.29057E+07         0.00000E+00
    0.29057E+07        -0.50212E+08         0.00000E+00
    0.00000E+00         0.00000E+00        -0.35269E+08
 
   -0.35093E+08         0.30196E+07         0.00000E+00
    0.30196E+07        -0.50219E+08         0.00000E+00
    0.00000E+00         0.00000E+00        -0.35267E+08
 
   -0.35102E+08         0.31350E+07         0.00000E+00
    0.31350E+07        -0.50227E+08         0.00000E+00
    0.00000E+00         0.00000E+00        -0.35266E+08
 
   -0.35111E+08         0.32518E+07         0.00000E+00
    0.32518E+07        -0.50233E+08         0.00000E+00
    0.00000E+00         0.00000E+00        -0.35265E+08
 
   -0.35120E+08         0.33702E+07         0.00000E+00
    0.33702E+07        -0.50240E+08         0.00000E+00
    0.00000E+00         0.00000E+00        -0.35263E+08
 
   -0.35128E+08         0.34900E+07         0.00000E+00
    0.34900E+07        -0.50246E+08         0.00000E+00
    0.00000E+00         0.00000E+00        -0.35262E+08
 
   -0.35136E+08         0.36113E+07         0.00000E+00
    0.36113E+07        -0.50251E+08         0.00000E+00
    0.00000E+00         0.00000E+00        -0.35261E+08
 
   -0.35144E+08         0.37341E+07         0.00000E+00
    0.37341E+07        -0.50256E+08         0.00000E+00
    0.00000E+00         0.00000E+00        -0.35259E+08
 
   -0.35151E+08         0.38585E+07         0.00000E+00
    0.38585E+07        -0.50260E+08         0.00000E+00
    0.00000E+00         0.00000E+00        -0.35258E+08
 
   -0.35159E+08         0.39844E+07         0.00000E+00
    0.39844E+07        -0.50264E+08         0.00000E+00
    0.00000E+00         0.00000E+00        -0.35257E+08
 
   -0.35167E+08         0.41118E+07         0.00000E+00
    0.41118E+07        -0.50267E+08         0.00000E+00
    0.00000E+00         0.00000E+00        -0.35256E+08
 
   -0.35174E+08         0.42407E+07         0.00000E+00
    0.42407E+07        -0.50269E+08         0.00000E+00
    0.00000E+00         0.00000E+00        -0.35256E+08
 
   -0.35182E+08         0.43712E+07         0.00000E+00
    0.43712E+07        -0.50271E+08         0.00000E+00
    0.00000E+00         0.00000E+00        -0.35255E+08
 
   -0.35190E+08         0.45032E+07         0.00000E+00
    0.45032E+07        -0.50272E+08         0.00000E+00
    0.00000E+00         0.00000E+00        -0.35254E+08
 
   -0.35199E+08         0.46368E+07         0.00000E+00
    0.46368E+07        -0.50272E+08         0.00000E+00
    0.00000E+00         0.00000E+00        -0.35253E+08
 
   -0.35207E+08         0.47720E+07         0.00000E+00
    0.47720E+07        -0.50271E+08         0.00000E+00
    0.00000E+00         0.00000E+00        -0.35253E+08
 
   -0.35216E+08         0.49087E+07         0.00000E+00
    0.49087E+07        -0.50269E+08         0.00000E+00
    0.00000E+00         0.00000E+00        -0.35252E+08
 
   -0.35226E+08         0.50469E+07         0.00000E+00
    0.50469E+07        -0.50267E+08         0.00000E+00
    0.00000E+00         0.00000E+00        -0.35252E+08
 
   -0.35236E+08         0.51868E+07         0.00000E+00
    0.51868E+07        -0.50263E+08         0.00000E+00
    0.00000E+00         0.00000E+00        -0.35252E+08
 
   -0.35246E+08         0.53282E+07         0.00000E+00
    0.53282E+07        -0.50258E+08         0.00000E+00
    0.00000E+00         0.00000E+00        -0.35252E+08
 
   -0.33792E+08         0.39397E+05         0.00000E+00
    0.39397E+05        -0.50000E+08         0.00000E+00
    0.00000E+00         0.00000E+00        -0.34579E+08
 
   -0.33849E+08         0.11906E+06         0.00000E+00
    0.11906E+06        -0.50001E+08         0.00000E+00
    0.00000E+00         0.00000E+00        -0.34579E+08
 
   -0.33903E+08         0.19914E+06         0.00000E+00
    0.19914E+06        -0.50003E+08         0.00000E+00
    0.00000E+00         0.00000E+00        -0.34579E+08
 
   -0.33955E+08         0.27973E+06         0.00000E+00
    0.27973E+06        -0.50006E+08         0.00000E+00
    0.00000E+00         0.00000E+00        -0.34579E+08
 
   -0.34003E+08         0.36090E+06         0.00000E+00
    0.36090E+06        -0.50010E+08         0.00000E+00
    0.00000E+00         0.00000E+00        -0.34578E+08
 
   -0.34048E+08         0.44273E+06         0.00000E+00
    0.44273E+06        -0.50015E+08         0.00000E+00
    0.00000E+00         0.00000E+00        -0.34577E+08
 
   -0.34091E+08         0.52528E+06         0.00000E+00
    0.52528E+06        -0.50020E+08         0.00000E+00
    0.00000E+00         0.00000E+00        -0.34576E+08
 
   -0.34131E+08         0.60862E+06         0.00000E+00
    0.60862E+06        -0.50026E+08         0.00000E+00
    0.00000E+00         0.00000E+00        -0.34575E+08
 
   -0.34168E+08         0.69282E+06         0.00000E+00
    0.69282E+06        -0.50033E+08         0.00000E+00
    0.00000E+00         0.00000E+00        -0.34574E+08
 
   -0.34203E+08         0.77794E+06         0.00000E+00
    0.77794E+06        -0.50041E+08         0.00000E+00
    0.00000E+00         0.00000E+00        -0.34573E+08
 
   -0.34236E+08         0.86403E+06         0.00000E+00
    0.86403E+06        -0.50049E+08         0.00000E+00
    0.00000E+00         0.00000E+00        -0.34572E+08
 
   -0.34266E+08         0.95115E+06         0.00000E+00
    0.95115E+06        -0.50058E+08         0.00000E+00
    0.00000E+00         0.00000E+00        -0.34571E+08
 
   -0.34294E+08         0.10394E+07         0.00000E+00
    0.10394E+07        -0.50068E+08         0.00000E+00
    0.00000E+00         0.00000E+00        -0.34570E+08
 
   -0.34319E+08         0.11287E+07         0.00000E+00
    0.11287E+07        -0.50078E+08         0.00000E+00
    0.00000E+00         0.00000E+00        -0.34568E+08
 
   -0.34343E+08         0.12192E+07         0.00000E+00
    0.12192E+07        -0.50088E+08         0.00000E+00
    0.00000E+00         0.00000E+00        -0.34567E+08
 
   -0.34365E+08         0.13110E+07         0.00000E+00
    0.13110E+07        -0.50099E+08         0.00000E+00
    0.00000E+00         0.00000E+00        -0.34565E+08
 
   -0.34385E+08         0.14040E+07         0.00000E+00
    0.14040E+07        -0.50110E+08         0.00000E+00
    0.00000E+00         0.00000E+00        -0.34564E+08
 
   -0.34403E+08         0.14983E+07         0.00000E+00
    0.14983E+07        -0.50121E+08         0.00000E+00
    0.00000E+00         0.00000E+00        -0.34562E+08
 
   -0.34419E+08         0.15940E+07         0.00000E+00
    0.15940E+07        -0.50133E+08         0.00000E+00
    0.00000E+00         0.00000E+00        -0.34560E+08
 
   -0.34434E+08         0.16910E+07         0.00000E+00
    0.16910E+07        -0.50145E+08         0.00000E+00
    0.00000E+00         0.00000E+00        -0.34559E+08
 
   -0.34447E+08         0.17895E+07         0.00000E+00
    0.17895E+07        -0.50157E+08         0.00000E+00
    0.00000E+00         0.00000E+00        -0.34557E+08
 
   -0.34459E+08         0.18894E+07         0.00000E+00
    0.18894E+07        -0.50170E+08         0.00000E+00
    0.00000E+00         0.00000E+00        -0.34556E+08
 
   -0.34469E+08         0.19908E+07         0.00000E+00
    0.19908E+07        -0.50182E+08         0.00000E+00
    0.00000E+00         0.00000E+00        -0.34554E+08
 
   -0.34478E+08         0.20936E+07         0.00000E+00
    0.20936E+07        -0.50195E+08         0.00000E+00
    0.00000E+00         0.00000E+00        -0.34552E+08
 
   -0.34486E+08         0.21980E+07         0.00000E+00
    0.21980E+07        -0.50207E+08         0.00000E+00
    0.00000E+00         0.00000E+00        -0.34551E+08
 
   -0.34493E+08         0.23040E+07         0.00000E+00
    0.23040E+07        -0.50220E+08         0.00000E+00
    0.00000E+00         0.00000E+00        -0.34549E+08
 
   -0.34499E+08         0.24115E+07         0.00000E+00
    0.24115E+07        -0.50232E+08         0.00000E+00
    0.00000E+00         0.00000E+00        -0.34547E+08
 
   -0.34504E+08         0.25206E+07         0.00000E+00
    0.25206E+07        -0.50244E+08         0.00000E+00
    0.00000E+00         0.00000E+00        -0.34546E+08
 
   -0.34508E+08         0.26313E+07         0.00000E+00
    0.26313E+07        -0.50256E+08         0.00000E+00
    0.00000E+00         0.00000E+00        -0.34544E+08
 
   -0.34511E+08         0.27436E+07         0.00000E+00
    0.27436E+07        -0.50268E+08         0.00000E+00
    0.00000E+00         0.00000E+00        -0.34543E+08
 
   -0.34514E+08         0.28575E+07         0.00000E+00
    0.28575E+07        -0.50280E+08         0.00000E+00
    0.00000E+00         0.00000E+00        -0.34541E+08
 
   -0.34516E+08         0.29731E+07         0.00000E+00
    0.29731E+07        -0.50291E+08         0.00000E+00
    0.00000E+00         0.00000E+00        -0.34540E+08
 
   -0.34517E+08         0.30904E+07         0.00000E+00
    0.30904E+07        -0.50302E+08         0.00000E+00
    0.00000E+00         0.00000E+00        -0.34538E+08
 
   -0.34518E+08         0.32093E+07         0.00000E+00
    0.32093E+07        -0.50312E+08         0.00000E+00
    0.00000E+00         0.00000E+00        -0.34537E+08
 
   -0.34518E+08         0.33299E+07         0.00000E+00
    0.33299E+07        -0.50323E+08         0.00000E+00
    0.00000E+00         0.00000E+00        -0.34536E+08
 
   -0.34519E+08         0.34521E+07         0.00000E+00
    0.34521E+07        -0.50332E+08         0.00000E+00
    0.00000E+00         0.00000E+00        -0.34534E+08
 
   -0.34519E+08         0.35761E+07         0.00000E+00
    0.35761E+07        -0.50342E+08         0.00000E+00
    0.00000E+00         0.00000E+00        -0.34533E+08
 
   -0.34518E+08         0.37017E+07         0.00000E+00
    0.37017E+07        -0.50350E+08         0.00000E+00
    0.00000E+00         0.00000E+00        -0.34532E+08
 
   -0.34518E+08         0.38291E+07         0.00000E+00
    0.38291E+07        -0.50358E+08         0.00000E+00
    0.00000E+00         0.00000E+00        -0.34531E+08
 
   -0.34517E+08         0.39581E+07         0.00000E+00
    0.39581E+07        -0.50366E+08         0.00000E+00
    0.00000E+00         0.00000E+00        -0.34530E+08
 
   -0.34517E+08         0.40889E+07         0.00000E+00
    0.40889E+07        -0.50373E+08         0.00000E+00
    0.00000E+00         0.00000E+00        -0.34529E+08
 
   -0.34517E+08         0.42214E+07         0.00000E+00
    0.42214E+07        -0.50379E+08         0.00000E+00
    0.00000E+00         0.00000E+00        -0.34528E+08
 
   -0.34516E+08         0.43556E+07         0.00000E+00
    0.43556E+07        -0.50385E+08         0.00000E+00
    0.00000E+00         0.00000E+00        -0.34527E+08
 
   -0.34516E+08         0.44915E+07         0.00000E+00
    0.44915E+07        -0.50389E+08         0.00000E+00
    0.00000E+00         0.00000E+00        -0.34527E+08
 
   -0.34517E+08         0.46291E+07         0.00000E+00
    0.46291E+07        -0.50393E+08         0.00000E+00
    0.00000E+00         0.00000E+00        -0.34526E+08
 
   -0.34517E+08         0.47685E+07         0.00000E+00
    0.47685E+07        -0.50396E+08         0.00000E+00
    0.00000E+00         0.00000E+00        -0.34526E+08
 
   -0.34518E+08         0.49095E+07         0.00000E+00
    0.49095E+07        -0.50399E+08         0.00000E+00
    0.00000E+00         0.00000E+00        -0.34525E+08
 
   -0.34519E+08         0.50523E+07         0.00000E+00
    0.50523E+07        -0.50400E+08         0.00000E+00
    0.00000E+00         0.00000E+00        -0.34525E+08
 
   -0.34521E+08         0.51968E+07         0.00000E+00
    0.51968E+07        -0.50401E+08         0.00000E+00
    0.00000E+00         0.00000E+00        -0.34525E+08
 
   -0.34523E+08         0.53431E+07         0.00000E+00
    0.53431E+07        -0.50400E+08         0.00000E+00
    0.00000E+00         0.00000E+00        -0.34524E+08
 
   -0.33408E+08         0.36394E+05         0.00000E+00
    0.36394E+05        -0.50000E+08         0.00000E+00
    0.00000E+00         0.00000E+00        -0.33826E+08
 
   -0.33463E+08         0.11058E+06         0.00000E+00
    0.11058E+06        -0.50002E+08         0.00000E+00
    0.00000E+00         0.00000E+00        -0.33826E+08
 
   -0.33514E+08         0.18539E+06         0.00000E+00
    0.18539E+06        -0.50004E+08         0.00000E+00
    0.00000E+00         0.00000E+00        -0.33826E+08
 
   -0.33562E+08         0.26092E+06         0.00000E+00
    0.26092E+06        -0.50008E+08         0.00000E+00
    0.00000E+00         0.00000E+00        -0.33825E+08
 
   -0.33607E+08         0.33724E+06         0.00000E+00
    0.33724E+06        -0.50012E+08         0.00000E+00
    0.00000E+00         0.00000E+00        -0.33825E+08
 
   -0.33648E+08         0.41444E+06         0.00000E+00
    0.41444E+06        -0.50018E+08         0.00000E+00
    0.00000E+00         0.00000E+00        -0.33824E+08
 
   -0.33687E+08         0.49259E+06         0.00000E+00
    0.49259E+06        -0.50025E+08         0.00000E+00
    0.00000E+00         0.00000E+00        -0.33823E+08
 
   -0.33722E+08         0.57176E+06         0.00000E+00
    0.57176E+06        -0.50033E+08         0.00000E+00
    0.00000E+00         0.00000E+00        -0.33822E+08
 
   -0.33754E+08         0.65202E+06         0.00000E+00
    0.65202E+06        -0.50041E+08         0.00000E+00
    0.00000E+00         0.00000E+00        -0.33821E+08
 
   -0.33784E+08         0.73343E+06         0.00000E+00
    0.73343E+06        -0.50051E+08         0.00000E+00
    0.00000E+00         0.00000E+00        -0.33820E+08
 
   -0.33811E+08         0.81606E+06         0.00000E+00
    0.81606E+06        -0.50061E+08         0.00000E+00
    0.00000E+00         0.00000E+00        -0.33819E+08
 
   -0.33835E+08         0.89995E+06         0.00000E+00
    0.89995E+06        -0.50072E+08         0.00000E+00
    0.00000E+00         0.00000E+00        -0.33818E+08
 
   -0.33857E+08         0.98518E+06         0.00000E+00
    0.98518E+06        -0.50084E+08         0.00000E+00
    0.00000E+00         0.00000E+00        -0.33816E+08
 
   -0.33876E+08         0.10718E+07         0.00000E+00
    0.10718E+07        -0.50096E+08         0.00000E+00
    0.00000E+00         0.00000E+00        -0.33815E+08
 
   -0.33893E+08         0.11598E+07         0.00000E+00
    0.11598E+07        -0.50109E+08         0.00000E+00
    0.00000E+00         0.00000E+00        -0.33813E+08
 
   -0.33908E+08         0.12493E+07         0.00000E+00
    0.12493E+07        -0.50122E+08         0.00000E+00
    0.00000E+00         0.00000E+00        -0.33812E+08
 
   -0.33921E+08         0.13403E+07         0.00000E+00
    0.13403E+07        -0.50136E+08         0.00000E+00
    0.00000E+00         0.00000E+00        -0.33810E+08
 
   -0.33932E+08         0.14329E+07         0.00000E+00
    0.14329E+07        -0.50151E+08         0.00000E+00
    0.00000E+00         0.00000E+00        -0.33809E+08
 
   -0.33941E+08         0.15270E+07         0.00000E+00
    0.15270E+07        -0.50165E+08         0.00000E+00
    0.00000E+00         0.00000E+00        -0.33807E+08
 
   -0.33948E+08         0.16228E+07         0.00000E+00
    0.16228E+07        -0.50180E+08         0.00000E+00
    0.00000E+00         0.00000E+00        -0.33806E+08
 
   -0.33953E+08         0.17202E+07         0.00000E+00
    0.17202E+07        -0.50196E+08         0.00000E+00
    0.00000E+00         0.00000E+00        -0.33804E+08
 
   -0.33957E+08         0.18193E+07         0.00000E+00
    0.18193E+07        -0.50211E+08         0.00000E+00
    0.00000E+00         0.00000E+00        -0.33803E+08
 
   -0.33959E+08         0.19201E+07         0.00000E+00
    0.19201E+07        -0.50227E+08         0.00000E+00
    0.00000E+00         0.00000E+00        -0.33801E+08
 
   -0.33960E+08         0.20227E+07         0.00000E+00
    0.20227E+07        -0.50243E+08         0.00000E+00
    0.00000E+00         0.00000E+00        -0.33799E+08
 
   -0.33960E+08         0.21270E+07         0.00000E+00
    0.21270E+07        -0.50259E+08         0.00000E+00
    0.00000E+00         0.00000E+00        -0.33798E+08
 
   -0.33959E+08         0.22331E+07         0.00000E+00
    0.22331E+07        -0.50275E+08         0.00000E+00
    0.00000E+00         0.00000E+00        -0.33796E+08
 
   -0.33956E+08         0.23409E+07         0.00000E+00
    0.23409E+07        -0.50291E+08         0.00000E+00
    0.00000E+00         0.00000E+00        -0.33795E+08
 
   -0.33952E+08         0.24506E+07         0.00000E+00
    0.24506E+07        -0.50307E+08         0.00000E+00
    0.00000E+00         0.00000E+00        -0.33793E+08
 
   -0.33948E+08         0.25621E+07         0.00000E+00
    0.25621E+07        -0.50323E+08         0.00000E+00
    0.00000E+00         0.00000E+00        -0.33792E+08
 
   -0.33943E+08         0.26755E+07         0.00000E+00
    0.26755E+07        -0.50338E+08         0.00000E+00
    0.00000E+00         0.00000E+00        -0.33790E+08
 
   -0.33936E+08         0.27906E+07         0.00000E+00
    0.27906E+07        -0.50354E+08         0.00000E+00
    0.00000E+00         0.00000E+00        -0.33789E+08
 
   -0.33930E+08         0.29077E+07         0.00000E+00
    0.29077E+07        -0.50369E+08         0.00000E+00
    0.00000E+00         0.00000E+00        -0.33787E+08
 
   -0.33922E+08         0.30266E+07         0.00000E+00
    0.30266E+07        -0.50384E+08         0.00000E+00
    0.00000E+00         0.00000E+00        -0.33786E+08
 
   -0.33914E+08         0.31474E+07         0.00000E+00
    0.31474E+07        -0.50398E+08         0.00000E+00
    0.00000E+00         0.00000E+00        -0.33785E+08
 
   -0.33906E+08         0.32700E+07         0.00000E+00
    0.32700E+07        -0.50413E+08         0.00000E+00
    0.00000E+00         0.00000E+00        -0.33783E+08
 
   -0.33897E+08         0.33946E+07         0.00000E+00
    0.33946E+07        -0.50426E+08         0.00000E+00
    0.00000E+00         0.00000E+00        -0.33782E+08
 
   -0.33888E+08         0.35210E+07         0.00000E+00
    0.35210E+07        -0.50440E+08         0.00000E+00
    0.00000E+00         0.00000E+00        -0.33781E+08
 
   -0.33879E+08         0.36493E+07         0.00000E+00
    0.36493E+07        -0.50453E+08         0.00000E+00
    0.00000E+00         0.00000E+00        -0.33780E+08
 
   -0.33869E+08         0.37795E+07         0.00000E+00
    0.37795E+07        -0.50465E+08         0.00000E+00
    0.00000E+00         0.00000E+00        -0.33779E+08
 
   -0.33860E+08         0.39116E+07         0.00000E+00
    0.39116E+07        -0.50477E+08         0.00000E+00
    0.00000E+00         0.00000E+00        -0.33778E+08
 
   -0.33851E+08         0.40456E+07         0.00000E+00
    0.40456E+07        -0.50488E+08         0.00000E+00
    0.00000E+00         0.00000E+00        -0.33777E+08
 
   -0.33841E+08         0.41815E+07         0.00000E+00
    0.41815E+07        -0.50498E+08         0.00000E+00
    0.00000E+00         0.00000E+00        -0.33776E+08
 
   -0.33832E+08         0.43193E+07         0.00000E+00
    0.43193E+07        -0.50508E+08         0.00000E+00
    0.00000E+00         0.00000E+00        -0.33775E+08
 
   -0.33823E+08         0.44589E+07         0.00000E+00
    0.44589E+07        -0.50517E+08         0.00000E+00
    0.00000E+00         0.00000E+00        -0.33775E+08
 
   -0.33814E+08         0.46005E+07         0.00000E+00
    0.46005E+07        -0.50525E+08         0.00000E+00
    0.00000E+00         0.00000E+00        -0.33774E+08
 
   -0.33806E+08         0.47439E+07         0.00000E+00
    0.47439E+07        -0.50533E+08         0.00000E+00
    0.00000E+00         0.00000E+00        -0.33774E+08
 
   -0.33797E+08         0.48892E+07         0.00000E+00
    0.48892E+07        -0.50540E+08         0.00000E+00
    0.00000E+00         0.00000E+00        -0.33773E+08
 
   -0.33790E+08         0.50364E+07         0.00000E+00
    0.50364E+07        -0.50546E+08         0.00000E+00
    0.00000E+00         0.00000E+00        -0.33773E+08
 
   -0.33782E+08         0.51855E+07         0.00000E+00
    0.51855E+07        -0.50551E+08         0.00000E+00
    0.00000E+00         0.00000E+00        -0.33773E+08
 
   -0.33776E+08         0.53365E+07         0.00000E+00
    0.53365E+07        -0.50555E+08         0.00000E+00
    0.00000E+00         0.00000E+00        -0.33772E+08
 
   -0.33055E+08         0.32727E+05         0.00000E+00
    0.32727E+05        -0.50000E+08         0.00000E+00
    0.00000E+00         0.00000E+00        -0.33048E+08
 
   -0.33106E+08         0.10023E+06         0.00000E+00
    0.10023E+06        -0.50002E+08         0.00000E+00
    0.00000E+00         0.00000E+00        -0.33047E+08
 
   -0.33154E+08         0.16862E+06         0.00000E+00
    0.16862E+06        -0.50005E+08         0.00000E+00
    0.00000E+00         0.00000E+00        -0.33047E+08
 
   -0.33197E+08         0.23798E+06         0.00000E+00
    0.23798E+06        -0.50009E+08         0.00000E+00
    0.00000E+00         0.00000E+00        -0.33047E+08
 
   -0.33237E+08         0.30839E+06         0.00000E+00
    0.30839E+06        -0.50015E+08         0.00000E+00
    0.00000E+00         0.00000E+00        -0.33046E+08
 
   -0.33273E+08         0.37995E+06         0.00000E+00
    0.37995E+06        -0.50022E+08         0.00000E+00
    0.00000E+00         0.00000E+00        -0.33045E+08
 
   -0.33306E+08         0.45272E+06         0.00000E+00
    0.45272E+06        -0.50030E+08         0.00000E+00
    0.00000E+00         0.00000E+00        -0.33045E+08
 
   -0.33335E+08         0.52679E+06         0.00000E+00
    0.52679E+06        -0.50039E+08         0.00000E+00
    0.00000E+00         0.00000E+00        -0.33044E+08
 
   -0.33362E+08         0.60223E+06         0.00000E+00
    0.60223E+06        -0.50050E+08         0.00000E+00
    0.00000E+00         0.00000E+00        -0.33043E+08
 
   -0.33385E+08         0.67909E+06         0.00000E+00
    0.67909E+06        -0.50061E+08         0.00000E+00
    0.00000E+00         0.00000E+00        -0.33042E+08
 
   -0.33404E+08         0.75745E+06         0.00000E+00
    0.75745E+06        -0.50074E+08         0.00000E+00
    0.00000E+00         0.00000E+00        -0.33041E+08
 
   -0.33422E+08         0.83737E+06         0.00000E+00
    0.83737E+06        -0.50087E+08         0.00000E+00
    0.00000E+00         0.00000E+00        -0.33039E+08
 
   -0.33436E+08         0.91888E+06         0.00000E+00
    0.91888E+06        -0.50101E+08         0.00000E+00
    0.00000E+00         0.00000E+00        -0.33038E+08
 
   -0.33448E+08         0.10021E+07         0.00000E+00
    0.10021E+07        -0.50116E+08         0.00000E+00
    0.00000E+00         0.00000E+00        -0.33037E+08
 
   -0.33457E+08         0.10869E+07         0.00000E+00
    0.10869E+07        -0.50131E+08         0.00000E+00
    0.00000E+00         0.00000E+00        -0.33035E+08
 
   -0.33463E+08         0.11736E+07         0.00000E+00
    0.11736E+07        -0.50148E+08         0.00000E+00
    0.00000E+00         0.00000E+00        -0.33034E+08
 
   -0.33468E+08         0.12620E+07         0.00000E+00
    0.12620E+07        -0.50165E+08         0.00000E+00
    0.00000E+00         0.00000E+00        -0.33033E+08
 
   -0.33470E+08         0.13522E+07         0.00000E+00
    0.13522E+07        -0.50182E+08         0.00000E+00
    0.00000E+00         0.00000E+00        -0.33031E+08
 
   -0.33470E+08         0.14443E+07         0.00000E+00
    0.14443E+07        -0.50200E+08         0.00000E+00
    0.00000E+00         0.00000E+00        -0.33030E+08
 
   -0.33469E+08         0.15383E+07         0.00000E+00
    0.15383E+07        -0.50218E+08         0.00000E+00
    0.00000E+00         0.00000E+00        -0.33028E+08
 
   -0.33465E+08         0.16343E+07         0.00000E+00
    0.16343E+07        -0.50237E+08         0.00000E+00
    0.00000E+00         0.00000E+00        -0.33027E+08
 
   -0.33460E+08         0.17321E+07         0.00000E+00
    0.17321E+07        -0.50256E+08         0.00000E+00
    0.00000E+00         0.00000E+00        -0.33025E+08
 
   -0.33453E+08         0.18320E+07         0.00000E+00
    0.18320E+07        -0.50276E+08         0.00000E+00
    0.00000E+00         0.00000E+00        -0.33024E+08
 
   -0.33445E+08         0.19338E+07         0.00000E+00
    0.19338E+07        -0.50295E+08         0.00000E+00
    0.00000E+00         0.00000E+00        -0.33022E+08
 
   -0.33435E+08         0.20376E+07         0.00000E+00
    0.20376E+07        -0.50315E+08         0.00000E+00
    0.00000E+00         0.00000E+00        -0.33021E+08
 
   -0.33424E+08         0.21435E+07         0.00000E+00
    0.21435E+07        -0.50335E+08         0.00000E+00
    0.00000E+00         0.00000E+00        -0.33019E+08
 
   -0.33412E+08         0.22514E+07         0.00000E+00
    0.22514E+07        -0.50355E+08         0.00000E+00
    0.00000E+00         0.00000E+00        -0.33018E+08
 
   -0.33398E+08         0.23614E+07         0.00000E+00
    0.23614E+07        -0.50375E+08         0.00000E+00
    0.00000E+00         0.00000E+00        -0.33016E+08
 
   -0.33384E+08         0.24734E+07         0.00000E+00
    0.24734E+07        -0.50394E+08         0.00000E+00
    0.00000E+00         0.00000E+00        -0.33015E+08
 
   -0.33369E+08         0.25875E+07         0.00000E+00
    0.25875E+07        -0.50414E+08         0.00000E+00
    0.00000E+00         0.00000E+00        -0.33013E+08
 
   -0.33353E+08         0.27037E+07         0.00000E+00
    0.27037E+07        -0.50434E+08         0.00000E+00
    0.00000E+00         0.00000E+00        -0.33012E+08
 
   -0.33336E+08         0.28219E+07         0.00000E+00
    0.28219E+07        -0.50453E+08         0.00000E+00
    0.00000E+00         0.00000E+00        -0.33011E+08
 
   -0.33319E+08         0.29423E+07         0.00000E+00
    0.29423E+07        -0.50472E+08         0.00000E+00
    0.00000E+00         0.00000E+00        -0.33009E+08
 
   -0.33301E+08         0.30647E+07         0.00000E+00
    0.30647E+07        -0.50491E+08         0.00000E+00
    0.00000E+00         0.00000E+00        -0.33008E+08
 
   -0.33283E+08         0.31893E+07         0.00000E+00
    0.31893E+07        -0.50509E+08         0.00000E+00
    0.00000E+00         0.00000E+00        -0.33007E+08
 
   -0.33264E+08         0.33159E+07         0.00000E+00
    0.33159E+07        -0.50528E+08         0.00000E+00
    0.00000E+00         0.00000E+00        -0.33006E+08
 
   -0.33245E+08         0.34446E+07         0.00000E+00
    0.34446E+07        -0.50545E+08         0.00000E+00
    0.00000E+00         0.00000E+00        -0.33004E+08
 
   -0.33226E+08         0.35754E+07         0.00000E+00
    0.35754E+07        -0.50563E+08         0.00000E+00
    0.00000E+00         0.00000E+00        -0.33003E+08
 
   -0.33207E+08         0.37083E+07         0.00000E+00
    0.37083E+07        -0.50579E+08         0.00000E+00
    0.00000E+00         0.00000E+00        -0.33002E+08
 
   -0.33187E+08         0.38433E+07         0.00000E+00
    0.38433E+07        -0.50596E+08         0.00000E+00
    0.00000E+00         0.00000E+00        -0.33002E+08
 
   -0.33168E+08         0.39804E+07         0.00000E+00
    0.39804E+07        -0.50611E+08         0.00000E+00
    0.00000E+00         0.00000E+00        -0.33001E+08
 
   -0.33149E+08         0.41195E+07         0.00000E+00
    0.41195E+07        -0.50626E+08         0.00000E+00
    0.00000E+00         0.00000E+00        -0.33000E+08
 
   -0.33130E+08         0.42607E+07         0.00000E+00
    0.42607E+07        -0.50641E+08         0.00000E+00
    0.00000E+00         0.00000E+00        -0.32999E+08
 
   -0.33111E+08         0.44039E+07         0.00000E+00
    0.44039E+07        -0.50654E+08         0.00000E+00
    0.00000E+00         0.00000E+00        -0.32999E+08
 
   -0.33092E+08         0.45493E+07         0.00000E+00
    0.45493E+07        -0.50667E+08         0.00000E+00
    0.00000E+00         0.00000E+00        -0.32998E+08
 
   -0.33074E+08         0.46966E+07         0.00000E+00
    0.46966E+07        -0.50680E+08         0.00000E+00
    0.00000E+00         0.00000E+00        -0.32998E+08
 
   -0.33056E+08         0.48460E+07         0.00000E+00
    0.48460E+07        -0.50691E+08         0.00000E+00
    0.00000E+00         0.00000E+00        -0.32997E+08
 
   -0.33038E+08         0.49975E+07         0.00000E+00
    0.49975E+07        -0.50702E+08         0.00000E+00
    0.00000E+00         0.00000E+00        -0.32997E+08
 
   -0.33021E+08         0.51510E+07         0.00000E+00
    0.51510E+07        -0.50711E+08         0.00000E+00
    0.00000E+00         0.00000E+00        -0.32997E+08
 
   -0.33005E+08         0.53065E+07         0.00000E+00
    0.53065E+07        -0.50720E+08         0.00000E+00
    0.00000E+00         0.00000E+00        -0.32997E+08
 
   -0.32739E+08         0.28320E+05         0.00000E+00
    0.28320E+05        -0.50001E+08         0.00000E+00
    0.00000E+00         0.00000E+00        -0.32245E+08
 
   -0.32786E+08         0.87833E+05         0.00000E+00
    0.87833E+05        -0.50002E+08         0.00000E+00
    0.00000E+00         0.00000E+00        -0.32245E+08
 
   -0.32828E+08         0.14853E+06         0.00000E+00
    0.14853E+06        -0.50006E+08         0.00000E+00
    0.00000E+00         0.00000E+00        -0.32244E+08
 
   -0.32866E+08         0.21051E+06         0.00000E+00
    0.21051E+06        -0.50011E+08         0.00000E+00
    0.00000E+00         0.00000E+00        -0.32244E+08
 
   -0.32899E+08         0.27387E+06         0.00000E+00
    0.27387E+06        -0.50018E+08         0.00000E+00
    0.00000E+00         0.00000E+00        -0.32243E+08
 
   -0.32929E+08         0.33868E+06         0.00000E+00
    0.33868E+06        -0.50026E+08         0.00000E+00
    0.00000E+00         0.00000E+00        -0.32243E+08
 
   -0.32954E+08         0.40504E+06         0.00000E+00
    0.40504E+06        -0.50036E+08         0.00000E+00
    0.00000E+00         0.00000E+00        -0.32242E+08
 
   -0.32976E+08         0.47302E+06         0.00000E+00
    0.47302E+06        -0.50047E+08         0.00000E+00
    0.00000E+00         0.00000E+00        -0.32241E+08
 
   -0.32995E+08         0.54269E+06         0.00000E+00
    0.54269E+06        -0.50059E+08         0.00000E+00
    0.00000E+00         0.00000E+00        -0.32240E+08
 
   -0.33009E+08         0.61412E+06         0.00000E+00
    0.61412E+06        -0.50073E+08         0.00000E+00
    0.00000E+00         0.00000E+00        -0.32239E+08
 
   -0.33021E+08         0.68737E+06         0.00000E+00
    0.68737E+06        -0.50087E+08         0.00000E+00
    0.00000E+00         0.00000E+00        -0.32238E+08
 
   -0.33029E+08         0.76249E+06         0.00000E+00
    0.76249E+06        -0.50103E+08         0.00000E+00
    0.00000E+00         0.00000E+00        -0.32237E+08
 
   -0.33035E+08         0.83954E+06         0.00000E+00
    0.83954E+06        -0.50120E+08         0.00000E+00
    0.00000E+00         0.00000E+00        -0.32236E+08
 
   -0.33037E+08         0.91858E+06         0.00000E+00
    0.91858E+06        -0.50137E+08         0.00000E+00
    0.00000E+00         0.00000E+00        -0.32235E+08
 
   -0.33037E+08         0.99964E+06         0.00000E+00
    0.99964E+06        -0.50156E+08         0.00000E+00
    0.00000E+00         0.00000E+00        -0.32233E+08
 
   -0.33034E+08         0.10828E+07         0.00000E+00
    0.10828E+07        -0.50175E+08         0.00000E+00
    0.00000E+00         0.00000E+00        -0.32232E+08
 
   -0.33029E+08         0.11680E+07         0.00000E+00
    0.11680E+07        -0.50195E+08         0.00000E+00
    0.00000E+00         0.00000E+00        -0.32231E+08
 
   -0.33021E+08         0.12553E+07         0.00000E+00
    0.12553E+07        -0.50216E+08         0.00000E+00
    0.00000E+00         0.00000E+00        -0.32229E+08
 
   -0.33011E+08         0.13449E+07         0.00000E+00
    0.13449E+07        -0.50237E+08         0.00000E+00
    0.00000E+00         0.00000E+00        -0.32228E+08
 
   -0.32999E+08         0.14366E+07         0.00000E+00
    0.14366E+07        -0.50259E+08         0.00000E+00
    0.00000E+00         0.00000E+00        -0.32227E+08
 
   -0.32985E+08         0.15305E+07         0.00000E+00
    0.15305E+07        -0.50282E+08         0.00000E+00
    0.00000E+00         0.00000E+00        -0.32225E+08
 
   -0.32969E+08         0.16267E+07         0.00000E+00
    0.16267E+07        -0.50304E+08         0.00000E+00
    0.00000E+00         0.00000E+00        -0.32224E+08
 
   -0.32952E+08         0.17252E+07         0.00000E+00
    0.17252E+07        -0.50328E+08         0.00000E+00
    0.00000E+00         0.00000E+00        -0.32222E+08
 
   -0.32933E+08         0.18259E+07         0.00000E+00
    0.18259E+07        -0.50351E+08         0.00000E+00
    0.00000E+00         0.00000E+00        -0.32221E+08
 
   -0.32912E+08         0.19289E+07         0.00000E+00
    0.19289E+07        -0.50375E+08         0.00000E+00
    0.00000E+00         0.00000E+00        -0.32220E+08
 
   -0.32891E+08         0.20342E+07         0.00000E+00
    0.20342E+07        -0.50398E+08         0.00000E+00
    0.00000E+00         0.00000E+00        -0.32218E+08
 
   -0.32867E+08         0.21418E+07         0.00000E+00
    0.21418E+07        -0.50422E+08         0.00000E+00
    0.00000E+00         0.00000E+00        -0.32217E+08
 
   -0.32843E+08         0.22517E+07         0.00000E+00
    0.22517E+07        -0.50446E+08         0.00000E+00
    0.00000E+00         0.00000E+00        -0.32216E+08
 
   -0.32818E+08         0.23640E+07         0.00000E+00
    0.23640E+07        -0.50470E+08         0.00000E+00
    0.00000E+00         0.00000E+00        -0.32214E+08
 
   -0.32792E+08         0.24785E+07         0.00000E+00
    0.24785E+07        -0.50494E+08         0.00000E+00
    0.00000E+00         0.00000E+00        -0.32213E+08
 
   -0.32765E+08         0.25954E+07         0.00000E+00
    0.25954E+07        -0.50518E+08         0.00000E+00
    0.00000E+00         0.00000E+00        -0.32212E+08
 
   -0.32737E+08         0.27147E+07         0.00000E+00
    0.27147E+07        -0.50542E+08         0.00000E+00
    0.00000E+00         0.00000E+00        -0.32210E+08
 
   -0.32709E+08         0.28362E+07         0.00000E+00
    0.28362E+07        -0.50566E+08         0.00000E+00
    0.00000E+00         0.00000E+00        -0.32209E+08
 
   -0.32680E+08         0.29601E+07         0.00000E+00
    0.29601E+07        -0.50589E+08         0.00000E+00
    0.00000E+00         0.00000E+00        -0.32208E+08
 
   -0.32651E+08         0.30862E+07         0.00000E+00
    0.30862E+07        -0.50612E+08         0.00000E+00
    0.00000E+00         0.00000E+00        -0.32207E+08
 
   -0.32621E+08         0.32147E+07         0.00000E+00
    0.32147E+07        -0.50635E+08         0.00000E+00
    0.00000E+00         0.00000E+00        -0.32206E+08
 
   -0.32591E+08         0.33455E+07         0.00000E+00
    0.33455E+07        -0.50657E+08         0.00000E+00
    0.00000E+00         0.00000E+00        -0.32205E+08
 
   -0.32561E+08         0.34786E+07         0.00000E+00
    0.34786E+07        -0.50679E+08         0.00000E+00
    0.00000E+00         0.00000E+00        -0.32204E+08
 
   -0.32531E+08         0.36140E+07         0.00000E+00
    0.36140E+07        -0.50701E+08         0.00000E+00
    0.00000E+00         0.00000E+00        -0.32203E+08
 
   -0.32500E+08         0.37517E+07         0.00000E+00
    0.37517E+07        -0.50722E+08         0.00000E+00
    0.00000E+00         0.00000E+00        -0.32202E+08
 
   -0.32470E+08         0.38916E+07         0.00000E+00
    0.38916E+07        -0.50742E+08         0.00000E+00
    0.00000E+00         0.00000E+00        -0.32201E+08
 
   -0.32440E+08         0.40338E+07         0.00000E+00
    0.40338E+07        -0.50762E+08         0.00000E+00
    0.00000E+00         0.00000E+00        -0.32201E+08
 
   -0.32410E+08         0.41783E+07         0.00000E+00
    0.41783E+07        -0.50781E+08         0.00000E+00
    0.00000E+00         0.00000E+00        -0.32200E+08
 
   -0.32381E+08         0.43250E+07         0.00000E+00
    0.43250E+07        -0.50800E+08         0.00000E+00
    0.00000E+00         0.00000E+00        -0.32200E+08
 
   -0.32351E+08         0.44739E+07         0.00000E+00
    0.44739E+07        -0.50818E+08         0.00000E+00
    0.00000E+00         0.00000E+00        -0.32199E+08
 
   -0.32322E+08         0.46250E+07         0.00000E+00
    0.46250E+07        -0.50835E+08         0.00000E+00
    0.00000E+00         0.00000E+00        -0.32199E+08
 
   -0.32294E+08         0.47783E+07         0.00000E+00
    0.47783E+07        -0.50851E+08         0.00000E+00
    0.00000E+00         0.00000E+00        -0.32198E+08
 
   -0.32266E+08         0.49338E+07         0.00000E+00
    0.49338E+07        -0.50867E+08         0.00000E+00
    0.00000E+00         0.00000E+00        -0.32198E+08
 
   -0.32238E+08         0.50915E+07         0.00000E+00
    0.50915E+07        -0.50882E+08         0.00000E+00
    0.00000E+00         0.00000E+00        -0.32198E+08
 
   -0.32211E+08         0.52514E+07         0.00000E+00
    0.52514E+07        -0.50896E+08         0.00000E+00
    0.00000E+00         0.00000E+00        -0.32198E+08
 
   -0.32468E+08         0.23100E+05         0.00000E+00
    0.23100E+05        -0.50001E+08         0.00000E+00
    0.00000E+00         0.00000E+00        -0.31419E+08
 
   -0.32508E+08         0.73188E+05         0.00000E+00
    0.73188E+05        -0.50003E+08         0.00000E+00
    0.00000E+00         0.00000E+00        -0.31419E+08
 
   -0.32543E+08         0.12484E+06         0.00000E+00
    0.12484E+06        -0.50007E+08         0.00000E+00
    0.00000E+00         0.00000E+00        -0.31418E+08
 
   -0.32573E+08         0.17815E+06         0.00000E+00
    0.17815E+06        -0.50013E+08         0.00000E+00
    0.00000E+00         0.00000E+00        -0.31418E+08
 
   -0.32599E+08         0.23322E+06         0.00000E+00
    0.23322E+06        -0.50021E+08         0.00000E+00
    0.00000E+00         0.00000E+00        -0.31418E+08
 
   -0.32620E+08         0.29014E+06         0.00000E+00
    0.29014E+06        -0.50030E+08         0.00000E+00
    0.00000E+00         0.00000E+00        -0.31417E+08
 
   -0.32636E+08         0.34898E+06         0.00000E+00
    0.34898E+06        -0.50042E+08         0.00000E+00
    0.00000E+00         0.00000E+00        -0.31416E+08
 
   -0.32649E+08         0.40983E+06         0.00000E+00
    0.40983E+06        -0.50055E+08         0.00000E+00
    0.00000E+00         0.00000E+00        -0.31416E+08
 
   -0.32658E+08         0.47276E+06         0.00000E+00
    0.47276E+06        -0.50069E+08         0.00000E+00
    0.00000E+00         0.00000E+00        -0.31415E+08
 
   -0.32663E+08         0.53782E+06         0.00000E+00
    0.53782E+06        -0.50085E+08         0.00000E+00
    0.00000E+00         0.00000E+00        -0.31414E+08
 
   -0.32664E+08         0.60508E+06         0.00000E+00
    0.60508E+06        -0.50102E+08         0.00000E+00
    0.00000E+00         0.00000E+00        -0.31413E+08
 
   -0.32662E+08         0.67459E+06         0.00000E+00
    0.67459E+06        -0.50120E+08         0.00000E+00
    0.00000E+00         0.00000E+00        -0.31412E+08
 
   -0.32657E+08         0.74641E+06         0.00000E+00
    0.74641E+06        -0.50140E+08         0.00000E+00
    0.00000E+00         0.00000E+00        -0.31411E+08
 
   -0.32648E+08         0.82057E+06         0.00000E+00
    0.82057E+06        -0.50160E+08         0.00000E+00
    0.00000E+00         0.00000E+00        -0.31410E+08
 
   -0.32637E+08         0.89712E+06         0.00000E+00
    0.89712E+06        -0.50182E+08         0.00000E+00
    0.00000E+00         0.00000E+00        -0.31409E+08
 
   -0.32623E+08         0.97609E+06         0.00000E+00
    0.97609E+06        -0.50204E+08         0.00000E+00
    0.00000E+00         0.00000E+00        -0.31407E+08
 
   -0.32606E+08         0.10575E+07         0.00000E+00
    0.10575E+07        -0.50228E+08         0.00000E+00
    0.00000E+00         0.00000E+00        -0.31406E+08
 
   -0.32587E+08         0.11414E+07         0.00000E+00
    0.11414E+07        -0.50252E+08         0.00000E+00
    0.00000E+00         0.00000E+00        -0.31405E+08
 
   -0.32565E+08         0.12278E+07         0.00000E+00
    0.12278E+07        -0.50277E+08         0.00000E+00
    0.00000E+00         0.00000E+00        -0.31404E+08
 
   -0.32541E+08         0.13168E+07         0.00000E+00
    0.13168E+07        -0.50302E+08         0.00000E+00
    0.00000E+00         0.00000E+00        -0.31403E+08
 
   -0.32516E+08         0.14083E+07         0.00000E+00
    0.14083E+07        -0.50328E+08         0.00000E+00
    0.00000E+00         0.00000E+00        -0.31401E+08
 
   -0.32488E+08         0.15023E+07         0.00000E+00
    0.15023E+07        -0.50355E+08         0.00000E+00
    0.00000E+00         0.00000E+00        -0.31400E+08
 
   -0.32458E+08         0.15989E+07         0.00000E+00
    0.15989E+07        -0.50382E+08         0.00000E+00
    0.00000E+00         0.00000E+00        -0.31399E+08
 
   -0.32427E+08         0.16981E+07         0.00000E+00
    0.16981E+07        -0.50409E+08         0.00000E+00
    0.00000E+00         0.00000E+00        -0.31398E+08
 
   -0.32394E+08         0.17999E+07         0.00000E+00
    0.17999E+07        -0.50437E+08         0.00000E+00
    0.00000E+00         0.00000E+00        -0.31396E+08
 
   -0.32360E+08         0.19042E+07         0.00000E+00
    0.19042E+07        -0.50465E+08         0.00000E+00
    0.00000E+00         0.00000E+00        -0.31395E+08
 
   -0.32325E+08         0.20112E+07         0.00000E+00
    0.20112E+07        -0.50493E+08         0.00000E+00
    0.00000E+00         0.00000E+00        -0.31394E+08
 
   -0.32288E+08         0.21208E+07         0.00000E+00
    0.21208E+07        -0.50521E+08         0.00000E+00
    0.00000E+00         0.00000E+00        -0.31393E+08
 
   -0.32251E+08         0.22329E+07         0.00000E+00
    0.22329E+07        -0.50550E+08         0.00000E+00
    0.00000E+00         0.00000E+00        -0.31392E+08
 
   -0.32212E+08         0.23476E+07         0.00000E+00
    0.23476E+07        -0.50578E+08         0.00000E+00
    0.00000E+00         0.00000E+00        -0.31390E+08
 
   -0.32173E+08         0.24650E+07         0.00000E+00
    0.24650E+07        -0.50606E+08         0.00000E+00
    0.00000E+00         0.00000E+00        -0.31389E+08
 
   -0.32133E+08         0.25849E+07         0.00000E+00
    0.25849E+07        -0.50635E+08         0.00000E+00
    0.00000E+00         0.00000E+00        -0.31388E+08
 
   -0.32093E+08         0.27073E+07         0.00000E+00
    0.27073E+07        -0.50663E+08         0.00000E+00
    0.00000E+00         0.00000E+00        -0.31387E+08
 
   -0.32052E+08         0.28323E+07         0.00000E+00
    0.28323E+07        -0.50691E+08         0.00000E+00
    0.00000E+00         0.00000E+00        -0.31386E+08
 
   -0.32010E+08         0.29599E+07         0.00000E+00
    0.29599E+07        -0.50719E+08         0.00000E+00
    0.00000E+00         0.00000E+00        -0.31385E+08
 
   -0.31968E+08         0.30900E+07         0.00000E+00
    0.30900E+07        -0.50746E+08         0.00000E+00
    0.00000E+00         0.00000E+00        -0.31384E+08
 
   -0.31926E+08         0.32227E+07         0.00000E+00
    0.32227E+07        -0.50773E+08         0.00000E+00
    0.00000E+00         0.00000E+00        -0.31383E+08
 
   -0.31884E+08         0.33578E+07         0.00000E+00
    0.33578E+07        -0.50800E+08         0.00000E+00
    0.00000E+00         0.00000E+00        -0.31383E+08
 
   -0.31842E+08         0.34955E+07         0.00000E+00
    0.34955E+07        -0.50827E+08         0.00000E+00
    0.00000E+00         0.00000E+00        -0.31382E+08
 
   -0.31800E+08         0.36356E+07         0.00000E+00
    0.36356E+07        -0.50853E+08         0.00000E+00
    0.00000E+00         0.00000E+00        -0.31381E+08
 
   -0.31758E+08         0.37782E+07         0.00000E+00
    0.37782E+07        -0.50878E+08         0.00000E+00
    0.00000E+00         0.00000E+00        -0.31380E+08
 
   -0.31716E+08         0.39232E+07         0.00000E+00
    0.39232E+07        -0.50903E+08         0.00000E+00
    0.00000E+00         0.00000E+00        -0.31380E+08
 
   -0.31675E+08         0.40707E+07         0.00000E+00
    0.40707E+07        -0.50928E+08         0.00000E+00
    0.00000E+00         0.00000E+00        -0.31379E+08
 
   -0.31633E+08         0.42206E+07         0.00000E+00
    0.42206E+07        -0.50951E+08         0.00000E+00
    0.00000E+00         0.00000E+00        -0.31379E+08
 
   -0.31593E+08         0.43729E+07         0.00000E+00
    0.43729E+07        -0.50974E+08         0.00000E+00
    0.00000E+00         0.00000E+00        -0.31378E+08
 
   -0.31552E+08         0.45275E+07         0.00000E+00
    0.45275E+07        -0.50997E+08         0.00000E+00
    0.00000E+00         0.00000E+00        -0.31378E+08
 
   -0.31512E+08         0.46845E+07         0.00000E+00
    0.46845E+07        -0.51019E+08         0.00000E+00
    0.00000E+00         0.00000E+00        -0.31378E+08
 
   -0.31473E+08         0.48439E+07         0.00000E+00
    0.48439E+07        -0.51040E+08         0.00000E+00
    0.00000E+00         0.00000E+00        -0.31377E+08
 
   -0.31434E+08         0.50056E+07         0.00000E+00
    0.50056E+07        -0.51060E+08         0.00000E+00
    0.00000E+00         0.00000E+00        -0.31377E+08
 
   -0.31396E+08         0.51696E+07         0.00000E+00
    0.51696E+07        -0.51080E+08         0.00000E+00
    0.00000E+00         0.00000E+00        -0.31377E+08
 
   -0.32248E+08         0.16997E+05         0.00000E+00
    0.16997E+05        -0.50001E+08         0.00000E+00
    0.00000E+00         0.00000E+00        -0.30571E+08
 
   -0.32280E+08         0.56134E+05         0.00000E+00
    0.56134E+05        -0.50003E+08         0.00000E+00
    0.00000E+00         0.00000E+00        -0.30571E+08
 
   -0.32306E+08         0.97294E+05         0.00000E+00
    0.97294E+05        -0.50008E+08         0.00000E+00
    0.00000E+00         0.00000E+00        -0.30571E+08
 
   -0.32326E+08         0.14058E+06         0.00000E+00
    0.14058E+06        -0.50015E+08         0.00000E+00
    0.00000E+00         0.00000E+00        -0.30570E+08
 
   -0.32342E+08         0.18609E+06         0.00000E+00
    0.18609E+06        -0.50024E+08         0.00000E+00
    0.00000E+00         0.00000E+00        -0.30570E+08
 
   -0.32352E+08         0.23390E+06         0.00000E+00
    0.23390E+06        -0.50035E+08         0.00000E+00
    0.00000E+00         0.00000E+00        -0.30570E+08
 
   -0.32358E+08         0.28410E+06         0.00000E+00
    0.28410E+06        -0.50048E+08         0.00000E+00
    0.00000E+00         0.00000E+00        -0.30569E+08
 
   -0.32359E+08         0.33676E+06         0.00000E+00
    0.33676E+06        -0.50063E+08         0.00000E+00
    0.00000E+00         0.00000E+00        -0.30568E+08
 
   -0.32356E+08         0.39195E+06         0.00000E+00
    0.39195E+06        -0.50079E+08         0.00000E+00
    0.00000E+00         0.00000E+00        -0.30568E+08
 
   -0.32350E+08         0.44972E+06         0.00000E+00
    0.44972E+06        -0.50097E+08         0.00000E+00
    0.00000E+00         0.00000E+00        -0.30567E+08
 
   -0.32339E+08         0.51012E+06         0.00000E+00
    0.51012E+06        -0.50117E+08         0.00000E+00
    0.00000E+00         0.00000E+00        -0.30566E+08
 
   -0.32324E+08         0.57321E+06         0.00000E+00
    0.57321E+06        -0.50138E+08         0.00000E+00
    0.00000E+00         0.00000E+00        -0.30565E+08
 
   -0.32306E+08         0.63902E+06         0.00000E+00
    0.63902E+06        -0.50160E+08         0.00000E+00
    0.00000E+00         0.00000E+00        -0.30564E+08
 
   -0.32285E+08         0.70760E+06         0.00000E+00
    0.70760E+06        -0.50184E+08         0.00000E+00
    0.00000E+00         0.00000E+00        -0.30563E+08
 
   -0.32261E+08         0.77897E+06         0.00000E+00
    0.77897E+06        -0.50208E+08         0.00000E+00
    0.00000E+00         0.00000E+00        -0.30562E+08
 
   -0.32233E+08         0.85316E+06         0.00000E+00
    0.85316E+06        -0.50234E+08         0.00000E+00
    0.00000E+00         0.00000E+00        -0.30561E+08
 
   -0.32203E+08         0.93019E+06         0.00000E+00
    0.93019E+06        -0.50261E+08         0.00000E+00
    0.00000E+00         0.00000E+00        -0.30560E+08
 
   -0.32171E+08         0.10101E+07         0.00000E+00
    0.10101E+07        -0.50288E+08         0.00000E+00
    0.00000E+00         0.00000E+00        -0.30559E+08
 
   -0.32135E+08         0.10929E+07         0.00000E+00
    0.10929E+07        -0.50317E+08         0.00000E+00
    0.00000E+00         0.00000E+00        -0.30558E+08
 
   -0.32098E+08         0.11785E+07         0.00000E+00
    0.11785E+07        -0.50346E+08         0.00000E+00
    0.00000E+00         0.00000E+00        -0.30557E+08
 
   -0.32059E+08         0.12671E+07         0.00000E+00
    0.12671E+07        -0.50375E+08         0.00000E+00
    0.00000E+00         0.00000E+00        -0.30556E+08
 
   -0.32017E+08         0.13585E+07         0.00000E+00
    0.13585E+07        -0.50406E+08         0.00000E+00
    0.00000E+00         0.00000E+00        -0.30555E+08
 
   -0.31974E+08         0.14529E+07         0.00000E+00
    0.14529E+07        -0.50437E+08         0.00000E+00
    0.00000E+00         0.00000E+00        -0.30554E+08
 
   -0.31929E+08         0.15501E+07         0.00000E+00
    0.15501E+07        -0.50468E+08         0.00000E+00
    0.00000E+00         0.00000E+00        -0.30553E+08
 
   -0.31883E+08         0.16503E+07         0.00000E+00
    0.16503E+07        -0.50500E+08         0.00000E+00
    0.00000E+00         0.00000E+00        -0.30552E+08
 
   -0.31835E+08         0.17533E+07         0.00000E+00
    0.17533E+07        -0.50532E+08         0.00000E+00
    0.00000E+00         0.00000E+00        -0.30551E+08
 
   -0.31786E+08         0.18593E+07         0.00000E+00
    0.18593E+07        -0.50565E+08         0.00000E+00
    0.00000E+00         0.00000E+00        -0.30550E+08
 
   -0.31736E+08         0.19681E+07         0.00000E+00
    0.19681E+07        -0.50597E+08         0.00000E+00
    0.00000E+00         0.00000E+00        -0.30549E+08
 
   -0.31684E+08         0.20798E+07         0.00000E+00
    0.20798E+07        -0.50630E+08         0.00000E+00
    0.00000E+00         0.00000E+00        -0.30548E+08
 
   -0.31632E+08         0.21943E+07         0.00000E+00
    0.21943E+07        -0.50663E+08         0.00000E+00
    0.00000E+00         0.00000E+00        -0.30547E+08
 
   -0.31580E+08         0.23118E+07         0.00000E+00
    0.23118E+07        -0.50696E+08         0.00000E+00
    0.00000E+00         0.00000E+00        -0.30546E+08
 
   -0.31526E+08         0.24320E+07         0.00000E+00
    0.24320E+07        -0.50729E+08         0.00000E+00
    0.00000E+00         0.00000E+00        -0.30545E+08
 
   -0.31472E+08         0.25551E+07         0.00000E+00
    0.25551E+07        -0.50761E+08         0.00000E+00
    0.00000E+00         0.00000E+00        -0.30544E+08
 
   -0.31418E+08         0.26809E+07         0.00000E+00
    0.26809E+07        -0.50794E+08         0.00000E+00
    0.00000E+00         0.00000E+00        -0.30544E+08
 
   -0.31363E+08         0.28096E+07         0.00000E+00
    0.28096E+07        -0.50827E+08         0.00000E+00
    0.00000E+00         0.00000E+00        -0.30543E+08
 
   -0.31308E+08         0.29410E+07         0.00000E+00
    0.29410E+07        -0.50859E+08         0.00000E+00
    0.00000E+00         0.00000E+00        -0.30542E+08
 
   -0.31253E+08         0.30752E+07         0.00000E+00
    0.30752E+07        -0.50891E+08         0.00000E+00
    0.00000E+00         0.00000E+00        -0.30541E+08
 
   -0.31198E+08         0.32121E+07         0.00000E+00
    0.32121E+07        -0.50923E+08         0.00000E+00
    0.00000E+00         0.00000E+00        -0.30541E+08
 
   -0.31143E+08         0.33517E+07         0.00000E+00
    0.33517E+07        -0.50955E+08         0.00000E+00
    0.00000E+00         0.00000E+00        -0.30540E+08
 
   -0.31088E+08         0.34940E+07         0.00000E+00
    0.34940E+07        -0.50986E+08         0.00000E+00
    0.00000E+00         0.00000E+00        -0.30539E+08
 
   -0.31033E+08         0.36390E+07         0.00000E+00
    0.36390E+07        -0.51016E+08         0.00000E+00
    0.00000E+00         0.00000E+00        -0.30539E+08
 
   -0.30978E+08         0.37866E+07         0.00000E+00
    0.37866E+07        -0.51047E+08         0.00000E+00
    0.00000E+00         0.00000E+00        -0.30538E+08
 
   -0.30924E+08         0.39368E+07         0.00000E+00
    0.39368E+07        -0.51076E+08         0.00000E+00
    0.00000E+00         0.00000E+00        -0.30538E+08
 
   -0.30871E+08         0.40896E+07         0.00000E+00
    0.40896E+07        -0.51106E+08         0.00000E+00
    0.00000E+00         0.00000E+00        -0.30537E+08
 
   -0.30817E+08         0.42450E+07         0.00000E+00
    0.42450E+07        -0.51134E+08         0.00000E+00
    0.00000E+00         0.00000E+00        -0.30537E+08
 
   -0.30765E+08         0.44029E+07         0.00000E+00
    0.44029E+07        -0.51162E+08         0.00000E+00
    0.00000E+00         0.00000E+00        -0.30537E+08
 
   -0.30713E+08         0.45633E+07         0.00000E+00
    0.45633E+07        -0.51190E+08         0.00000E+00
    0.00000E+00         0.00000E+00        -0.30536E+08
 
   -0.30661E+08         0.47263E+07         0.00000E+00
    0.47263E+07        -0.51216E+08         0.00000E+00
    0.00000E+00         0.00000E+00        -0.30536E+08
 
   -0.30611E+08         0.48916E+07         0.00000E+00
    0.48916E+07        -0.51242E+08         0.00000E+00
    0.00000E+00         0.00000E+00        -0.30536E+08
 
   -0.30561E+08         0.50594E+07         0.00000E+00
    0.50594E+07        -0.51268E+08         0.00000E+00
    0.00000E+00         0.00000E+00        -0.30536E+08
 
   -0.32089E+08         0.99496E+04         0.00000E+00
    0.99496E+04        -0.50001E+08         0.00000E+00
    0.00000E+00         0.00000E+00        -0.29703E+08
 
   -0.32109E+08         0.36546E+05         0.00000E+00
    0.36546E+05        -0.50004E+08         0.00000E+00
    0.00000E+00         0.00000E+00        -0.29703E+08
 
   -0.32123E+08         0.65730E+05         0.00000E+00
    0.65730E+05        -0.50009E+08         0.00000E+00
    0.00000E+00         0.00000E+00        -0.29703E+08
 
   -0.32132E+08         0.97601E+05         0.00000E+00
    0.97601E+05        -0.50017E+08         0.00000E+00
    0.00000E+00         0.00000E+00        -0.29703E+08
 
   -0.32134E+08         0.13225E+06         0.00000E+00
    0.13225E+06        -0.50027E+08         0.00000E+00
    0.00000E+00         0.00000E+00        -0.29702E+08
 
   -0.32132E+08         0.16976E+06         0.00000E+00
    0.16976E+06        -0.50040E+08         0.00000E+00
    0.00000E+00         0.00000E+00        -0.29702E+08
 
   -0.32124E+08         0.21020E+06         0.00000E+00
    0.21020E+06        -0.50054E+08         0.00000E+00
    0.00000E+00         0.00000E+00        -0.29701E+08
 
   -0.32112E+08         0.25363E+06         0.00000E+00
    0.25363E+06        -0.50071E+08         0.00000E+00
    0.00000E+00         0.00000E+00        -0.29701E+08
 
   -0.32095E+08         0.30011E+06         0.00000E+00
    0.30011E+06        -0.50090E+08         0.00000E+00
    0.00000E+00         0.00000E+00        -0.29700E+08
 
   -0.32074E+08         0.34969E+06         0.00000E+00
    0.34969E+06        -0.50110E+08         0.00000E+00
    0.00000E+00         0.00000E+00        -0.29700E+08
 
   -0.32048E+08         0.40241E+06         0.00000E+00
    0.40241E+06        -0.50132E+08         0.00000E+00
    0.00000E+00         0.00000E+00        -0.29699E+08
 
   -0.32019E+08         0.45831E+06         0.00000E+00
    0.45831E+06        -0.50156E+08         0.00000E+00
    0.00000E+00         0.00000E+00        -0.29698E+08
 
   -0.31986E+08         0.51740E+06         0.00000E+00
    0.51740E+06        -0.50181E+08         0.00000E+00
    0.00000E+00         0.00000E+00        -0.29698E+08
 
   -0.31950E+08         0.57973E+06         0.00000E+00
    0.57973E+06        -0.50207E+08         0.00000E+00
    0.00000E+00         0.00000E+00        -0.29697E+08
 
   -0.31911E+08         0.64530E+06         0.00000E+00
    0.64530E+06        -0.50235E+08         0.00000E+00
    0.00000E+00         0.00000E+00        -0.29696E+08
 
   -0.31868E+08         0.71413E+06         0.00000E+00
    0.71413E+06        -0.50263E+08         0.00000E+00
    0.00000E+00         0.00000E+00        -0.29695E+08
 
   -0.31823E+08         0.78622E+06         0.00000E+00
    0.78622E+06        -0.50293E+08         0.00000E+00
    0.00000E+00         0.00000E+00        -0.29695E+08
 
   -0.31775E+08         0.86159E+06         0.00000E+00
    0.86159E+06        -0.50324E+08         0.00000E+00
    0.00000E+00         0.00000E+00        -0.29694E+08
 
   -0.31724E+08         0.94022E+06         0.00000E+00
    0.94022E+06        -0.50356E+08         0.00000E+00
    0.00000E+00         0.00000E+00        -0.29693E+08
 
   -0.31671E+08         0.10221E+07         0.00000E+00
    0.10221E+07        -0.50389E+08         0.00000E+00
    0.00000E+00         0.00000E+00        -0.29692E+08
 
   -0.31617E+08         0.11073E+07         0.00000E+00
    0.11073E+07        -0.50422E+08         0.00000E+00
    0.00000E+00         0.00000E+00        -0.29691E+08
 
   -0.31560E+08         0.11957E+07         0.00000E+00
    0.11957E+07        -0.50456E+08         0.00000E+00
    0.00000E+00         0.00000E+00        -0.29691E+08
 
   -0.31501E+08         0.12874E+07         0.00000E+00
    0.12874E+07        -0.50491E+08         0.00000E+00
    0.00000E+00         0.00000E+00        -0.29690E+08
 
   -0.31441E+08         0.13823E+07         0.00000E+00
    0.13823E+07        -0.50526E+08         0.00000E+00
    0.00000E+00         0.00000E+00        -0.29689E+08
 
   -0.31379E+08         0.14804E+07         0.00000E+00
    0.14804E+07        -0.50562E+08         0.00000E+00
    0.00000E+00         0.00000E+00        -0.29688E+08
 
   -0.31316E+08         0.15818E+07         0.00000E+00
    0.15818E+07        -0.50598E+08         0.00000E+00
    0.00000E+00         0.00000E+00        -0.29687E+08
 
   -0.31252E+08         0.16863E+07         0.00000E+00
    0.16863E+07        -0.50634E+08         0.00000E+00
    0.00000E+00         0.00000E+00        -0.29687E+08
 
   -0.31187E+08         0.17940E+07         0.00000E+00
    0.17940E+07        -0.50671E+08         0.00000E+00
    0.00000E+00         0.00000E+00        -0.29686E+08
 
   -0.31121E+08         0.19048E+07         0.00000E+00
    0.19048E+07        -0.50708E+08         0.00000E+00
    0.00000E+00         0.00000E+00        -0.29685E+08
 
   -0.31054E+08         0.20188E+07         0.00000E+00
    0.20188E+07        -0.50745E+08         0.00000E+00
    0.00000E+00         0.00000E+00        -0.29684E+08
 
   -0.30986E+08         0.21359E+07         0.00000E+00
    0.21359E+07        -0.50782E+08         0.00000E+00
    0.00000E+00         0.00000E+00        -0.29684E+08
 
   -0.30918E+08         0.22561E+07         0.00000E+00
    0.22561E+07        -0.50820E+08         0.00000E+00
    0.00000E+00         0.00000E+00        -0.29683E+08
 
   -0.30849E+08         0.23794E+07         0.00000E+00
    0.23794E+07        -0.50857E+08         0.00000E+00
    0.00000E+00         0.00000E+00        -0.29682E+08
 
   -0.30780E+08         0.25057E+07         0.00000E+00
    0.25057E+07        -0.50895E+08         0.00000E+00
    0.00000E+00         0.00000E+00        -0.29682E+08
 
   -0.30711E+08         0.26350E+07         0.00000E+00
    0.26350E+07        -0.50932E+08         0.00000E+00
    0.00000E+00         0.00000E+00        -0.29681E+08
 
   -0.30642E+08         0.27674E+07         0.00000E+00
    0.27674E+07        -0.50969E+08         0.00000E+00
    0.00000E+00         0.00000E+00        -0.29681E+08
 
   -0.30572E+08         0.29027E+07         0.00000E+00
    0.29027E+07        -0.51006E+08         0.00000E+00
    0.00000E+00         0.00000E+00        -0.29680E+08
 
   -0.30503E+08         0.30410E+07         0.00000E+00
    0.30410E+07        -0.51043E+08         0.00000E+00
    0.00000E+00         0.00000E+00        -0.29679E+08
 
   -0.30434E+08         0.31821E+07         0.00000E+00
    0.31821E+07        -0.51080E+08         0.00000E+00
    0.00000E+00         0.00000E+00        -0.29679E+08
 
   -0.30365E+08         0.33262E+07         0.00000E+00
    0.33262E+07        -0.51116E+08         0.00000E+00
    0.00000E+00         0.00000E+00        -0.29679E+08
 
   -0.30296E+08         0.34732E+07         0.00000E+00
    0.34732E+07        -0.51152E+08         0.00000E+00
    0.00000E+00         0.00000E+00        -0.29678E+08
 
   -0.30228E+08         0.36230E+07         0.00000E+00
    0.36230E+07        -0.51188E+08         0.00000E+00
    0.00000E+00         0.00000E+00        -0.29678E+08
 
   -0.30161E+08         0.37756E+07         0.00000E+00
    0.37756E+07        -0.51223E+08         0.00000E+00
    0.00000E+00         0.00000E+00        -0.29677E+08
 
   -0.30094E+08         0.39310E+07         0.00000E+00
    0.39310E+07        -0.51258E+08         0.00000E+00
    0.00000E+00         0.00000E+00        -0.29677E+08
 
   -0.30027E+08         0.40891E+07         0.00000E+00
    0.40891E+07        -0.51292E+08         0.00000E+00
    0.00000E+00         0.00000E+00        -0.29677E+08
 
   -0.29961E+08         0.42499E+07         0.00000E+00
    0.42499E+07        -0.51326E+08         0.00000E+00
    0.00000E+00         0.00000E+00        -0.29677E+08
 
   -0.29897E+08         0.44135E+07         0.00000E+00
    0.44135E+07        -0.51359E+08         0.00000E+00
    0.00000E+00         0.00000E+00        -0.29676E+08
 
   -0.29832E+08         0.45796E+07         0.00000E+00
    0.45796E+07        -0.51392E+08         0.00000E+00
    0.00000E+00         0.00000E+00        -0.29676E+08
 
   -0.29769E+08         0.47483E+07         0.00000E+00
    0.47483E+07        -0.51424E+08         0.00000E+00
    0.00000E+00         0.00000E+00        -0.29676E+08
 
   -0.29707E+08         0.49196E+07         0.00000E+00
    0.49196E+07        -0.51455E+08         0.00000E+00
    0.00000E+00         0.00000E+00        -0.29676E+08
 
   -0.31998E+08         0.19184E+04         0.00000E+00
    0.19184E+04        -0.50001E+08         0.00000E+00
    0.00000E+00         0.00000E+00        -0.28817E+08
 
   -0.32004E+08         0.14365E+05         0.00000E+00
    0.14365E+05        -0.50004E+08         0.00000E+00
    0.00000E+00         0.00000E+00        -0.28817E+08
 
   -0.32003E+08         0.30088E+05         0.00000E+00
    0.30088E+05        -0.50010E+08         0.00000E+00
    0.00000E+00         0.00000E+00        -0.28817E+08
 
   -0.31996E+08         0.49179E+05         0.00000E+00
    0.49179E+05        -0.50019E+08         0.00000E+00
    0.00000E+00         0.00000E+00        -0.28816E+08
 
   -0.31983E+08         0.71717E+05         0.00000E+00
    0.71717E+05        -0.50031E+08         0.00000E+00
    0.00000E+00         0.00000E+00        -0.28816E+08
 
   -0.31964E+08         0.97769E+05         0.00000E+00
    0.97769E+05        -0.50045E+08         0.00000E+00
    0.00000E+00         0.00000E+00        -0.28816E+08
 
   -0.31941E+08         0.12740E+06         0.00000E+00
    0.12740E+06        -0.50061E+08         0.00000E+00
    0.00000E+00         0.00000E+00        -0.28816E+08
 
   -0.31912E+08         0.16064E+06         0.00000E+00
    0.16064E+06        -0.50079E+08         0.00000E+00
    0.00000E+00         0.00000E+00        -0.28815E+08
 
   -0.31878E+08         0.19755E+06         0.00000E+00
    0.19755E+06        -0.50100E+08         0.00000E+00
    0.00000E+00         0.00000E+00        -0.28815E+08
 
   -0.31840E+08         0.23815E+06         0.00000E+00
    0.23815E+06        -0.50122E+08         0.00000E+00
    0.00000E+00         0.00000E+00        -0.28814E+08
 
   -0.31797E+08         0.28246E+06         0.00000E+00
    0.28246E+06        -0.50147E+08         0.00000E+00
    0.00000E+00         0.00000E+00        -0.28814E+08
 
   -0.31751E+08         0.33050E+06         0.00000E+00
    0.33050E+06        -0.50173E+08         0.00000E+00
    0.00000E+00         0.00000E+00        -0.28813E+08
 
   -0.31700E+08         0.38228E+06         0.00000E+00
    0.38228E+06        -0.50200E+08         0.00000E+00
    0.00000E+00         0.00000E+00        -0.28813E+08
 
   -0.31647E+08         0.43780E+06         0.00000E+00
    0.43780E+06        -0.50229E+08         0.00000E+00
    0.00000E+00         0.00000E+00        -0.28812E+08
 
   -0.31590E+08         0.49705E+06         0.00000E+00
    0.49705E+06        -0.50259E+08         0.00000E+00
    0.00000E+00         0.00000E+00        -0.28812E+08
 
   -0.31530E+08         0.56003E+06         0.00000E+00
    0.56003E+06        -0.50291E+08         0.00000E+00
    0.00000E+00         0.00000E+00        -0.28811E+08
 
   -0.31467E+08         0.62673E+06         0.00000E+00
    0.62673E+06        -0.50324E+08         0.00000E+00
    0.00000E+00         0.00000E+00        -0.28811E+08
 
   -0.31402E+08         0.69713E+06         0.00000E+00
    0.69713E+06        -0.50358E+08         0.00000E+00
    0.00000E+00         0.00000E+00        -0.28810E+08
 
   -0.31334E+08         0.77121E+06         0.00000E+00
    0.77121E+06        -0.50392E+08         0.00000E+00
    0.00000E+00         0.00000E+00        -0.28810E+08
 
   -0.31264E+08         0.84896E+06         0.00000E+00
    0.84896E+06        -0.50428E+08         0.00000E+00
    0.00000E+00         0.00000E+00        -0.28809E+08
 
   -0.31192E+08         0.93034E+06         0.00000E+00
    0.93034E+06        -0.50465E+08         0.00000E+00
    0.00000E+00         0.00000E+00        -0.28809E+08
 
   -0.31118E+08         0.10153E+07         0.00000E+00
    0.10153E+07        -0.50502E+08         0.00000E+00
    0.00000E+00         0.00000E+00        -0.28808E+08
 
   -0.31042E+08         0.11039E+07         0.00000E+00
    0.11039E+07        -0.50540E+08         0.00000E+00
    0.00000E+00         0.00000E+00        -0.28808E+08
 
   -0.30965E+08         0.11961E+07         0.00000E+00
    0.11961E+07        -0.50579E+08         0.00000E+00
    0.00000E+00         0.00000E+00        -0.28807E+08
 
   -0.30887E+08         0.12917E+07         0.00000E+00
    0.12917E+07        -0.50618E+08         0.00000E+00
    0.00000E+00         0.00000E+00        -0.28807E+08
 
   -0.30807E+08         0.13909E+07         0.00000E+00
    0.13909E+07        -0.50657E+08         0.00000E+00
    0.00000E+00         0.00000E+00        -0.28806E+08
 
   -0.30726E+08         0.14936E+07         0.00000E+00
    0.14936E+07        -0.50698E+08         0.00000E+00
    0.00000E+00         0.00000E+00        -0.28806E+08
 
   -0.30644E+08         0.15997E+07         0.00000E+00
    0.15997E+07        -0.50738E+08         0.00000E+00
    0.00000E+00         0.00000E+00        -0.28805E+08
 
   -0.30562E+08         0.17092E+07         0.00000E+00
    0.17092E+07        -0.50779E+08         0.00000E+00
    0.00000E+00         0.00000E+00        -0.28805E+08
 
   -0.30478E+08         0.18221E+07         0.00000E+00
    0.18221E+07        -0.50820E+08         0.00000E+00
    0.00000E+00         0.00000E+00        -0.28804E+08
 
   -0.30395E+08         0.19384E+07         0.00000E+00
    0.19384E+07        -0.50862E+08         0.00000E+00
    0.00000E+00         0.00000E+00        -0.28804E+08
 
   -0.30310E+08         0.20580E+07         0.00000E+00
    0.20580E+07        -0.50903E+08         0.00000E+00
    0.00000E+00         0.00000E+00        -0.28803E+08
 
   -0.30226E+08         0.21810E+07         0.00000E+00
    0.21810E+07        -0.50945E+08         0.00000E+00
    0.00000E+00         0.00000E+00        -0.28803E+08
 
   -0.30141E+08         0.23072E+07         0.00000E+00
    0.23072E+07        -0.50987E+08         0.00000E+00
    0.00000E+00         0.00000E+00        -0.28803E+08
 
   -0.30056E+08         0.24367E+07         0.00000E+00
    0.24367E+07        -0.51029E+08         0.00000E+00
    0.00000E+00         0.00000E+00        -0.28802E+08
 
   -0.29971E+08         0.25694E+07         0.00000E+00
    0.25694E+07        -0.51071E+08         0.00000E+00
    0.00000E+00         0.00000E+00        -0.28802E+08
 
   -0.29887E+08         0.27053E+07         0.00000E+00
    0.27053E+07        -0.51113E+08         0.00000E+00
    0.00000E+00         0.00000E+00        -0.28802E+08
 
   -0.29802E+08         0.28444E+07         0.00000E+00
    0.28444E+07        -0.51155E+08         0.00000E+00
    0.00000E+00         0.00000E+00        -0.28801E+08
 
   -0.29718E+08         0.29866E+07         0.00000E+00
    0.29866E+07        -0.51197E+08         0.00000E+00
    0.00000E+00         0.00000E+00        -0.28801E+08
 
   -0.29634E+08         0.31320E+07         0.00000E+00
    0.31320E+07        -0.51238E+08         0.00000E+00
    0.00000E+00         0.00000E+00        -0.28801E+08
 
   -0.29551E+08         0.32804E+07         0.00000E+00
    0.32804E+07        -0.51280E+08         0.00000E+00
    0.00000E+00         0.00000E+00        -0.28800E+08
 
   -0.29468E+08         0.34319E+07         0.00000E+00
    0.34319E+07        -0.51321E+08         0.00000E+00
    0.00000E+00         0.00000E+00        -0.28800E+08
 
   -0.29386E+08         0.35864E+07         0.00000E+00
    0.35864E+07        -0.51362E+08         0.00000E+00
    0.00000E+00         0.00000E+00        -0.28800E+08
 
   -0.29305E+08         0.37438E+07         0.00000E+00
    0.37438E+07        -0.51402E+08         0.00000E+00
    0.00000E+00         0.00000E+00        -0.28800E+08
 
   -0.29224E+08         0.39042E+07         0.00000E+00
    0.39042E+07        -0.51442E+08         0.00000E+00
    0.00000E+00         0.00000E+00        -0.28800E+08
 
   -0.29144E+08         0.40675E+07         0.00000E+00
    0.40675E+07        -0.51482E+08         0.00000E+00
    0.00000E+00         0.00000E+00        -0.28799E+08
 
   -0.29066E+08         0.42337E+07         0.00000E+00
    0.42337E+07        -0.51521E+08         0.00000E+00
    0.00000E+00         0.00000E+00        -0.28799E+08
 
   -0.28988E+08         0.44026E+07         0.00000E+00
    0.44026E+07        -0.51560E+08         0.00000E+00
    0.00000E+00         0.00000E+00        -0.28799E+08
 
   -0.28912E+08         0.45743E+07         0.00000E+00
    0.45743E+07        -0.51598E+08         0.00000E+00
    0.00000E+00         0.00000E+00        -0.28799E+08
 
   -0.28836E+08         0.47487E+07         0.00000E+00
    0.47487E+07        -0.51636E+08         0.00000E+00
    0.00000E+00         0.00000E+00        -0.28799E+08
 
   -0.31984E+08        -0.71120E+04         0.00000E+00
   -0.71120E+04        -0.50001E+08         0.00000E+00
    0.00000E+00         0.00000E+00        -0.27914E+08
 
   -0.31971E+08        -0.10375E+05         0.00000E+00
   -0.10375E+05        -0.50005E+08         0.00000E+00
    0.00000E+00         0.00000E+00        -0.27914E+08
 
   -0.31952E+08        -0.95205E+04         0.00000E+00
   -0.95205E+04        -0.50011E+08         0.00000E+00
    0.00000E+00         0.00000E+00        -0.27914E+08
 
   -0.31926E+08        -0.44758E+04         0.00000E+00
   -0.44758E+04        -0.50021E+08         0.00000E+00
    0.00000E+00         0.00000E+00        -0.27914E+08
 
   -0.31893E+08         0.48197E+04         0.00000E+00
    0.48197E+04        -0.50034E+08         0.00000E+00
    0.00000E+00         0.00000E+00        -0.27914E+08
 
   -0.31855E+08         0.18413E+05         0.00000E+00
    0.18413E+05        -0.50049E+08         0.00000E+00
    0.00000E+00         0.00000E+00        -0.27914E+08
 
   -0.31812E+08         0.36338E+05         0.00000E+00
    0.36338E+05        -0.50067E+08         0.00000E+00
    0.00000E+00         0.00000E+00        -0.27914E+08
 
   -0.31763E+08         0.58618E+05         0.00000E+00
    0.58618E+05        -0.50087E+08         0.00000E+00
    0.00000E+00         0.00000E+00        -0.27913E+08
 
   -0.31709E+08         0.85264E+05         0.00000E+00
    0.85264E+05        -0.50109E+08         0.00000E+00
    0.00000E+00         0.00000E+00        -0.27913E+08
 
   -0.31650E+08         0.11628E+06         0.00000E+00
    0.11628E+06        -0.50133E+08         0.00000E+00
    0.00000E+00         0.00000E+00        -0.27913E+08
 
   -0.31588E+08         0.15165E+06         0.00000E+00
    0.15165E+06        -0.50159E+08         0.00000E+00
    0.00000E+00         0.00000E+00        -0.27913E+08
 
   -0.31521E+08         0.19137E+06         0.00000E+00
    0.19137E+06        -0.50187E+08         0.00000E+00
    0.00000E+00         0.00000E+00        -0.27913E+08
 
   -0.31451E+08         0.23542E+06         0.00000E+00
    0.23542E+06        -0.50217E+08         0.00000E+00
    0.00000E+00         0.00000E+00        -0.27912E+08
 
   -0.31377E+08         0.28375E+06         0.00000E+00
    0.28375E+06        -0.50248E+08         0.00000E+00
    0.00000E+00         0.00000E+00        -0.27912E+08
 
   -0.31300E+08         0.33635E+06         0.00000E+00
    0.33635E+06        -0.50281E+08         0.00000E+00
    0.00000E+00         0.00000E+00        -0.27912E+08
 
   -0.31221E+08         0.39317E+06         0.00000E+00
    0.39317E+06        -0.50314E+08         0.00000E+00
    0.00000E+00         0.00000E+00        -0.27912E+08
 
   -0.31138E+08         0.45416E+06         0.00000E+00
    0.45416E+06        -0.50349E+08         0.00000E+00
    0.00000E+00         0.00000E+00        -0.27911E+08
 
   -0.31053E+08         0.51929E+06         0.00000E+00
    0.51929E+06        -0.50385E+08         0.00000E+00
    0.00000E+00         0.00000E+00        -0.27911E+08
 
   -0.30966E+08         0.58851E+06         0.00000E+00
    0.58851E+06        -0.50423E+08         0.00000E+00
    0.00000E+00         0.00000E+00        -0.27911E+08
 
   -0.30877E+08         0.66177E+06         0.00000E+00
    0.66177E+06        -0.50461E+08         0.00000E+00
    0.00000E+00         0.00000E+00        -0.27911E+08
 
   -0.30786E+08         0.73903E+06         0.00000E+00
    0.73903E+06        -0.50500E+08         0.00000E+00
    0.00000E+00         0.00000E+00        -0.27910E+08
 
   -0.30693E+08         0.82022E+06         0.00000E+00
    0.82022E+06        -0.50540E+08         0.00000E+00
    0.00000E+00         0.00000E+00        -0.27910E+08
 
   -0.30599E+08         0.90532E+06         0.00000E+00
    0.90532E+06        -0.50580E+08         0.00000E+00
    0.00000E+00         0.00000E+00        -0.27910E+08
 
   -0.30503E+08         0.99427E+06         0.00000E+00
    0.99427E+06        -0.50621E+08         0.00000E+00
    0.00000E+00         0.00000E+00        -0.27910E+08
 
   -0.30407E+08         0.10870E+07         0.00000E+00
    0.10870E+07        -0.50663E+08         0.00000E+00
    0.00000E+00         0.00000E+00        -0.27910E+08
 
   -0.30309E+08         0.11836E+07         0.00000E+00
    0.11836E+07        -0.50706E+08         0.00000E+00
    0.00000E+00         0.00000E+00        -0.27909E+08
 
   -0.30210E+08         0.12838E+07         0.00000E+00
    0.12838E+07        -0.50749E+08         0.00000E+00
    0.00000E+00         0.00000E+00        -0.27909E+08
 
   -0.30110E+08         0.13877E+07         0.00000E+00
    0.13877E+07        -0.50793E+08         0.00000E+00
    0.00000E+00         0.00000E+00        -0.27909E+08
 
   -0.30010E+08         0.14953E+07         0.00000E+00
    0.14953E+07        -0.50837E+08         0.00000E+00
    0.00000E+00         0.00000E+00        -0.27909E+08
 
   -0.29910E+08         0.16065E+07         0.00000E+00
    0.16065E+07        -0.50881E+08         0.00000E+00
    0.00000E+00         0.00000E+00        -0.27909E+08
 
   -0.29808E+08         0.17213E+07         0.00000E+00
    0.17213E+07        -0.50926E+08         0.00000E+00
    0.00000E+00         0.00000E+00        -0.27909E+08
 
   -0.29707E+08         0.18397E+07         0.00000E+00
    0.18397E+07        -0.50972E+08         0.00000E+00
    0.00000E+00         0.00000E+00        -0.27908E+08
 
   -0.29605E+08         0.19615E+07         0.00000E+00
    0.19615E+07        -0.51017E+08         0.00000E+00
    0.00000E+00         0.00000E+00        -0.27908E+08
 
   -0.29504E+08         0.20869E+07         0.00000E+00
    0.20869E+07        -0.51063E+08         0.00000E+00
    0.00000E+00         0.00000E+00        -0.27908E+08
 
   -0.29402E+08         0.22158E+07         0.00000E+00
    0.22158E+07        -0.51109E+08         0.00000E+00
    0.00000E+00         0.00000E+00        -0.27908E+08
 
   -0.29301E+08         0.23481E+07         0.00000E+00
    0.23481E+07        -0.51156E+08         0.00000E+00
    0.00000E+00         0.00000E+00        -0.27908E+08
 
   -0.29199E+08         0.24838E+07         0.00000E+00
    0.24838E+07        -0.51202E+08         0.00000E+00
    0.00000E+00         0.00000E+00        -0.27908E+08
 
   -0.29099E+08         0.26229E+07         0.00000E+00
    0.26229E+07        -0.51249E+08         0.00000E+00
    0.00000E+00         0.00000E+00        -0.27908E+08
 
   -0.28998E+08         0.27654E+07         0.00000E+00
    0.27654E+07        -0.51296E+08         0.00000E+00
    0.00000E+00         0.00000E+00        -0.27908E+08
 
   -0.28898E+08         0.29112E+07         0.00000E+00
    0.29112E+07        -0.51343E+08         0.00000E+00
    0.00000E+00         0.00000E+00        -0.27907E+08
 
   -0.28799E+08         0.30603E+07         0.00000E+00
    0.30603E+07        -0.51389E+08         0.00000E+00
    0.00000E+00         0.00000E+00        -0.27907E+08
 
   -0.28701E+08         0.32127E+07         0.00000E+00
    0.32127E+07        -0.51436E+08         0.00000E+00
    0.00000E+00         0.00000E+00        -0.27907E+08
 
   -0.28603E+08         0.33684E+07         0.00000E+00
    0.33684E+07        -0.51483E+08         0.00000E+00
    0.00000E+00         0.00000E+00        -0.27907E+08
 
   -0.28506E+08         0.35272E+07         0.00000E+00
    0.35272E+07        -0.51529E+08         0.00000E+00
    0.00000E+00         0.00000E+00        -0.27907E+08
 
   -0.28411E+08         0.36892E+07         0.00000E+00
    0.36892E+07        -0.51575E+08         0.00000E+00
    0.00000E+00         0.00000E+00        -0.27907E+08
 
   -0.28316E+08         0.38544E+07         0.00000E+00
    0.38544E+07        -0.51621E+08         0.00000E+00
    0.00000E+00         0.00000E+00        -0.27907E+08
 
   -0.28223E+08         0.40226E+07         0.00000E+00
    0.40226E+07        -0.51667E+08         0.00000E+00
    0.00000E+00         0.00000E+00        -0.27907E+08
 
   -0.28131E+08         0.41938E+07         0.00000E+00
    0.41938E+07        -0.51712E+08         0.00000E+00
    0.00000E+00         0.00000E+00        -0.27907E+08
 
   -0.28040E+08         0.43680E+07         0.00000E+00
    0.43680E+07        -0.51757E+08         0.00000E+00
    0.00000E+00         0.00000E+00        -0.27907E+08
 
   -0.27951E+08         0.45451E+07         0.00000E+00
    0.45451E+07        -0.51801E+08         0.00000E+00
    0.00000E+00         0.00000E+00        -0.27907E+08
 
   -0.32054E+08        -0.17125E+05         0.00000E+00
   -0.17125E+05        -0.50001E+08         0.00000E+00
    0.00000E+00         0.00000E+00        -0.26998E+08
 
   -0.32018E+08        -0.37517E+05         0.00000E+00
   -0.37517E+05        -0.50005E+08         0.00000E+00
    0.00000E+00         0.00000E+00        -0.26998E+08
 
   -0.31976E+08        -0.52765E+05         0.00000E+00
   -0.52765E+05        -0.50012E+08         0.00000E+00
    0.00000E+00         0.00000E+00        -0.26998E+08
 
   -0.31926E+08        -0.62824E+05         0.00000E+00
   -0.62824E+05        -0.50023E+08         0.00000E+00
    0.00000E+00         0.00000E+00        -0.26998E+08
 
   -0.31870E+08        -0.67662E+05         0.00000E+00
   -0.67662E+05        -0.50036E+08         0.00000E+00
    0.00000E+00         0.00000E+00        -0.26998E+08
 
   -0.31808E+08        -0.67266E+05         0.00000E+00
   -0.67266E+05        -0.50053E+08         0.00000E+00
    0.00000E+00         0.00000E+00        -0.26998E+08
 
   -0.31741E+08        -0.61641E+05         0.00000E+00
   -0.61641E+05        -0.50072E+08         0.00000E+00
    0.00000E+00         0.00000E+00        -0.26998E+08
 
   -0.31668E+08        -0.50805E+05         0.00000E+00
   -0.50805E+05        -0.50093E+08         0.00000E+00
    0.00000E+00         0.00000E+00        -0.26998E+08
 
   -0.31590E+08        -0.34787E+05         0.00000E+00
   -0.34787E+05        -0.50116E+08         0.00000E+00
    0.00000E+00         0.00000E+00        -0.26998E+08
 
   -0.31508E+08        -0.13632E+05         0.00000E+00
   -0.13632E+05        -0.50142E+08         0.00000E+00
    0.00000E+00         0.00000E+00        -0.26998E+08
 
   -0.31422E+08         0.12606E+05         0.00000E+00
    0.12606E+05        -0.50169E+08         0.00000E+00
    0.00000E+00         0.00000E+00        -0.26998E+08
 
   -0.31332E+08         0.43866E+05         0.00000E+00
    0.43866E+05        -0.50199E+08         0.00000E+00
    0.00000E+00         0.00000E+00        -0.26998E+08
 
   -0.31239E+08         0.80078E+05         0.00000E+00
    0.80078E+05        -0.50229E+08         0.00000E+00
    0.00000E+00         0.00000E+00        -0.26998E+08
 
   -0.31143E+08         0.12116E+06         0.00000E+00
    0.12116E+06        -0.50262E+08         0.00000E+00
    0.00000E+00         0.00000E+00        -0.26998E+08
 
   -0.31043E+08         0.16704E+06         0.00000E+00
    0.16704E+06        -0.50295E+08         0.00000E+00
    0.00000E+00         0.00000E+00        -0.26998E+08
 
   -0.30941E+08         0.21764E+06         0.00000E+00
    0.21764E+06        -0.50330E+08         0.00000E+00
    0.00000E+00         0.00000E+00        -0.26998E+08
 
   -0.30837E+08         0.27285E+06         0.00000E+00
    0.27285E+06        -0.50367E+08         0.00000E+00
    0.00000E+00         0.00000E+00        -0.26998E+08
 
   -0.30731E+08         0.33261E+06         0.00000E+00
    0.33261E+06        -0.50404E+08         0.00000E+00
    0.00000E+00         0.00000E+00        -0.26998E+08
 
   -0.30622E+08         0.39682E+06         0.00000E+00
    0.39682E+06        -0.50442E+08         0.00000E+00
    0.00000E+00         0.00000E+00        -0.26999E+08
 
   -0.30512E+08         0.46539E+06         0.00000E+00
    0.46539E+06        -0.50481E+08         0.00000E+00
    0.00000E+00         0.00000E+00        -0.26999E+08
 
   -0.30401E+08         0.53826E+06         0.00000E+00
    0.53826E+06        -0.50522E+08         0.00000E+00
    0.00000E+00         0.00000E+00        -0.26999E+08
 
   -0.30288E+08         0.61534E+06         0.00000E+00
    0.61534E+06        -0.50563E+08         0.00000E+00
    0.00000E+00         0.00000E+00        -0.26999E+08
 
   -0.30173E+08         0.69656E+06         0.00000E+00
    0.69656E+06        -0.50605E+08         0.00000E+00
    0.00000E+00         0.00000E+00        -0.26999E+08
 
   -0.30058E+08         0.78186E+06         0.00000E+00
    0.78186E+06        -0.50647E+08         0.00000E+00
    0.00000E+00         0.00000E+00        -0.26999E+08
 
   -0.29942E+08         0.87115E+06         0.00000E+00
    0.87115E+06        -0.50691E+08         0.00000E+00
    0.00000E+00         0.00000E+00        -0.26999E+08
 
   -0.29825E+08         0.96440E+06         0.00000E+00
    0.96440E+06        -0.50735E+08         0.00000E+00
    0.00000E+00         0.00000E+00        -0.26999E+08
 
   -0.29707E+08         0.10615E+07         0.00000E+00
    0.10615E+07        -0.50780E+08         0.00000E+00
    0.00000E+00         0.00000E+00        -0.27000E+08
 
   -0.29589E+08         0.11625E+07         0.00000E+00
    0.11625E+07        -0.50825E+08         0.00000E+00
    0.00000E+00         0.00000E+00        -0.27000E+08
 
   -0.29470E+08         0.12673E+07         0.00000E+00
    0.12673E+07        -0.50872E+08         0.00000E+00
    0.00000E+00         0.00000E+00        -0.27000E+08
 
   -0.29351E+08         0.13759E+07         0.00000E+00
    0.13759E+07        -0.50919E+08         0.00000E+00
    0.00000E+00         0.00000E+00        -0.27000E+08
 
   -0.29232E+08         0.14882E+07         0.00000E+00
    0.14882E+07        -0.50966E+08         0.00000E+00
    0.00000E+00         0.00000E+00        -0.27000E+08
 
   -0.29112E+08         0.16043E+07         0.00000E+00
    0.16043E+07        -0.51014E+08         0.00000E+00
    0.00000E+00         0.00000E+00        -0.27000E+08
 
   -0.28993E+08         0.17240E+07         0.00000E+00
    0.17240E+07        -0.51063E+08         0.00000E+00
    0.00000E+00         0.00000E+00        -0.27000E+08
 
   -0.28873E+08         0.18474E+07         0.00000E+00
    0.18474E+07        -0.51113E+08         0.00000E+00
    0.00000E+00         0.00000E+00        -0.27000E+08
 
   -0.28754E+08         0.19745E+07         0.00000E+00
    0.19745E+07        -0.51162E+08         0.00000E+00
    0.00000E+00         0.00000E+00        -0.27001E+08
 
   -0.28635E+08         0.21051E+07         0.00000E+00
    0.21051E+07        -0.51213E+08         0.00000E+00
    0.00000E+00         0.00000E+00        -0.27001E+08
 
   -0.28516E+08         0.22395E+07         0.00000E+00
    0.22395E+07        -0.51263E+08         0.00000E+00
    0.00000E+00         0.00000E+00        -0.27001E+08
 
   -0.28397E+08         0.23774E+07         0.00000E+00
    0.23774E+07        -0.51315E+08         0.00000E+00
    0.00000E+00         0.00000E+00        -0.27001E+08
 
   -0.28280E+08         0.25190E+07         0.00000E+00
    0.25190E+07        -0.51366E+08         0.00000E+00
    0.00000E+00         0.00000E+00        -0.27001E+08
 
   -0.28162E+08         0.26641E+07         0.00000E+00
    0.26641E+07        -0.51418E+08         0.00000E+00
    0.00000E+00         0.00000E+00        -0.27001E+08
 
   -0.28046E+08         0.28128E+07         0.00000E+00
    0.28128E+07        -0.51470E+08         0.00000E+00
    0.00000E+00         0.00000E+00        -0.27001E+08
 
   -0.27931E+08         0.29650E+07         0.00000E+00
    0.29650E+07        -0.51523E+08         0.00000E+00
    0.00000E+00         0.00000E+00        -0.27001E+08
 
   -0.27816E+08         0.31208E+07         0.00000E+00
    0.31208E+07        -0.51575E+08         0.00000E+00
    0.00000E+00         0.00000E+00        -0.27001E+08
 
   -0.27703E+08         0.32801E+07         0.00000E+00
    0.32801E+07        -0.51628E+08         0.00000E+00
    0.00000E+00         0.00000E+00        -0.27001E+08
 
   -0.27591E+08         0.34428E+07         0.00000E+00
    0.34428E+07        -0.51680E+08         0.00000E+00
    0.00000E+00         0.00000E+00        -0.27002E+08
 
   -0.27480E+08         0.36089E+07         0.00000E+00
    0.36089E+07        -0.51733E+08         0.00000E+00
    0.00000E+00         0.00000E+00        -0.27002E+08
 
   -0.27371E+08         0.37785E+07         0.00000E+00
    0.37785E+07        -0.51785E+08         0.00000E+00
    0.00000E+00         0.00000E+00        -0.27002E+08
 
   -0.27263E+08         0.39513E+07         0.00000E+00
    0.39513E+07        -0.51837E+08         0.00000E+00
    0.00000E+00         0.00000E+00        -0.27002E+08
 
   -0.27157E+08         0.41274E+07         0.00000E+00
    0.41274E+07        -0.51889E+08         0.00000E+00
    0.00000E+00         0.00000E+00        -0.27002E+08
 
   -0.27053E+08         0.43066E+07         0.00000E+00
    0.43066E+07        -0.51941E+08         0.00000E+00
    0.00000E+00         0.00000E+00        -0.27002E+08
 
   -0.32215E+08        -0.28071E+05         0.00000E+00
   -0.28071E+05        -0.50001E+08         0.00000E+00
    0.00000E+00         0.00000E+00        -0.26070E+08
 
   -0.32151E+08        -0.66764E+05         0.00000E+00
   -0.66764E+05        -0.50005E+08         0.00000E+00
    0.00000E+00         0.00000E+00        -0.26070E+08
 
   -0.32080E+08        -0.99042E+05         0.00000E+00
   -0.99042E+05        -0.50013E+08         0.00000E+00
    0.00000E+00         0.00000E+00        -0.26071E+08
 
   -0.32001E+08        -0.12490E+06         0.00000E+00
   -0.12490E+06        -0.50024E+08         0.00000E+00
    0.00000E+00         0.00000E+00        -0.26071E+08
 
   -0.31917E+08        -0.14435E+06         0.00000E+00
   -0.14435E+06        -0.50038E+08         0.00000E+00
    0.00000E+00         0.00000E+00        -0.26071E+08
 
   -0.31826E+08        -0.15744E+06         0.00000E+00
   -0.15744E+06        -0.50055E+08         0.00000E+00
    0.00000E+00         0.00000E+00        -0.26071E+08
 
   -0.31730E+08        -0.16424E+06         0.00000E+00
   -0.16424E+06        -0.50075E+08         0.00000E+00
    0.00000E+00         0.00000E+00        -0.26071E+08
 
   -0.31628E+08        -0.16481E+06         0.00000E+00
   -0.16481E+06        -0.50097E+08         0.00000E+00
    0.00000E+00         0.00000E+00        -0.26071E+08
 
   -0.31523E+08        -0.15927E+06         0.00000E+00
   -0.15927E+06        -0.50121E+08         0.00000E+00
    0.00000E+00         0.00000E+00        -0.26072E+08
 
   -0.31413E+08        -0.14772E+06         0.00000E+00
   -0.14772E+06        -0.50147E+08         0.00000E+00
    0.00000E+00         0.00000E+00        -0.26072E+08
 
   -0.31300E+08        -0.13028E+06         0.00000E+00
   -0.13028E+06        -0.50174E+08         0.00000E+00
    0.00000E+00         0.00000E+00        -0.26072E+08
 
   -0.31183E+08        -0.10711E+06         0.00000E+00
   -0.10711E+06        -0.50204E+08         0.00000E+00
    0.00000E+00         0.00000E+00        -0.26072E+08
 
   -0.31064E+08        -0.78328E+05         0.00000E+00
   -0.78328E+05        -0.50234E+08         0.00000E+00
    0.00000E+00         0.00000E+00        -0.26073E+08
 
   -0.30942E+08        -0.44097E+05         0.00000E+00
   -0.44097E+05        -0.50267E+08         0.00000E+00
    0.00000E+00         0.00000E+00        -0.26073E+08
 
   -0.30818E+08        -0.45616E+04         0.00000E+00
   -0.45616E+04        -0.50300E+08         0.00000E+00
    0.00000E+00         0.00000E+00        -0.26074E+08
 
   -0.30692E+08         0.40127E+05         0.00000E+00
    0.40127E+05        -0.50334E+08         0.00000E+00
    0.00000E+00         0.00000E+00        -0.26074E+08
 
   -0.30563E+08         0.89819E+05         0.00000E+00
    0.89819E+05        -0.50370E+08         0.00000E+00
    0.00000E+00         0.00000E+00        -0.26074E+08
 
   -0.30434E+08         0.14437E+06         0.00000E+00
    0.14437E+06        -0.50407E+08         0.00000E+00
    0.00000E+00         0.00000E+00        -0.26075E+08
 
   -0.30303E+08         0.20365E+06         0.00000E+00
    0.20365E+06        -0.50444E+08         0.00000E+00
    0.00000E+00         0.00000E+00        -0.26075E+08
 
   -0.30171E+08         0.26751E+06         0.00000E+00
    0.26751E+06        -0.50483E+08         0.00000E+00
    0.00000E+00         0.00000E+00        -0.26076E+08
 
   -0.30037E+08         0.33583E+06         0.00000E+00
    0.33583E+06        -0.50522E+08         0.00000E+00
    0.00000E+00         0.00000E+00        -0.26076E+08
 
   -0.29903E+08         0.40851E+06         0.00000E+00
    0.40851E+06        -0.50563E+08         0.00000E+00
    0.00000E+00         0.00000E+00        -0.26077E+08
 
   -0.29768E+08         0.48543E+06         0.00000E+00
    0.48543E+06        -0.50604E+08         0.00000E+00
    0.00000E+00         0.00000E+00        -0.26077E+08
 
   -0.29632E+08         0.56650E+06         0.00000E+00
    0.56650E+06        -0.50646E+08         0.00000E+00
    0.00000E+00         0.00000E+00        -0.26077E+08
 
   -0.29496E+08         0.65164E+06         0.00000E+00
    0.65164E+06        -0.50689E+08         0.00000E+00
    0.00000E+00         0.00000E+00        -0.26078E+08
 
   -0.29359E+08         0.74077E+06         0.00000E+00
    0.74077E+06        -0.50734E+08         0.00000E+00
    0.00000E+00         0.00000E+00        -0.26078E+08
 
   -0.29222E+08         0.83384E+06         0.00000E+00
    0.83384E+06        -0.50779E+08         0.00000E+00
    0.00000E+00         0.00000E+00        -0.26079E+08
 
   -0.29085E+08         0.93079E+06         0.00000E+00
    0.93079E+06        -0.50824E+08         0.00000E+00
    0.00000E+00         0.00000E+00        -0.26079E+08
 
   -0.28947E+08         0.10316E+07         0.00000E+00
    0.10316E+07        -0.50871E+08         0.00000E+00
    0.00000E+00         0.00000E+00        -0.26080E+08
 
   -0.28809E+08         0.11362E+07         0.00000E+00
    0.11362E+07        -0.50919E+08         0.00000E+00
    0.00000E+00         0.00000E+00        -0.26080E+08
 
   -0.28671E+08         0.12446E+07         0.00000E+00
    0.12446E+07        -0.50968E+08         0.00000E+00
    0.00000E+00         0.00000E+00        -0.26081E+08
 
   -0.28532E+08         0.13568E+07         0.00000E+00
    0.13568E+07        -0.51018E+08         0.00000E+00
    0.00000E+00         0.00000E+00        -0.26081E+08
 
   -0.28394E+08         0.14727E+07         0.00000E+00
    0.14727E+07        -0.51069E+08         0.00000E+00
    0.00000E+00         0.00000E+00        -0.26081E+08
 
   -0.28256E+08         0.15925E+07         0.00000E+00
    0.15925E+07        -0.51120E+08         0.00000E+00
    0.00000E+00         0.00000E+00        -0.26082E+08
 
   -0.28118E+08         0.17160E+07         0.00000E+00
    0.17160E+07        -0.51173E+08         0.00000E+00
    0.00000E+00         0.00000E+00        -0.26082E+08
 
   -0.27980E+08         0.18433E+07         0.00000E+00
    0.18433E+07        -0.51227E+08         0.00000E+00
    0.00000E+00         0.00000E+00        -0.26083E+08
 
   -0.27843E+08         0.19745E+07         0.00000E+00
    0.19745E+07        -0.51281E+08         0.00000E+00
    0.00000E+00         0.00000E+00        -0.26083E+08
 
   -0.27706E+08         0.21095E+07         0.00000E+00
    0.21095E+07        -0.51336E+08         0.00000E+00
    0.00000E+00         0.00000E+00        -0.26083E+08
 
   -0.27569E+08         0.22483E+07         0.00000E+00
    0.22483E+07        -0.51392E+08         0.00000E+00
    0.00000E+00         0.00000E+00        -0.26084E+08
 
   -0.27434E+08         0.23910E+07         0.00000E+00
    0.23910E+07        -0.51449E+08         0.00000E+00
    0.00000E+00         0.00000E+00        -0.26084E+08
 
   -0.27299E+08         0.25375E+07         0.00000E+00
    0.25375E+07        -0.51507E+08         0.00000E+00
    0.00000E+00         0.00000E+00        -0.26084E+08
 
   -0.27165E+08         0.26880E+07         0.00000E+00
    0.26880E+07        -0.51565E+08         0.00000E+00
    0.00000E+00         0.00000E+00        -0.26084E+08
 
   -0.27032E+08         0.28423E+07         0.00000E+00
    0.28423E+07        -0.51624E+08         0.00000E+00
    0.00000E+00         0.00000E+00        -0.26085E+08
 
   -0.26900E+08         0.30006E+07         0.00000E+00
    0.30006E+07        -0.51683E+08         0.00000E+00
    0.00000E+00         0.00000E+00        -0.26085E+08
 
   -0.26770E+08         0.31627E+07         0.00000E+00
    0.31627E+07        -0.51742E+08         0.00000E+00
    0.00000E+00         0.00000E+00        -0.26085E+08
 
   -0.26641E+08         0.33286E+07         0.00000E+00
    0.33286E+07        -0.51802E+08         0.00000E+00
    0.00000E+00         0.00000E+00        -0.26085E+08
 
   -0.26514E+08         0.34984E+07         0.00000E+00
    0.34984E+07        -0.51862E+08         0.00000E+00
    0.00000E+00         0.00000E+00        -0.26085E+08
 
   -0.26389E+08         0.36719E+07         0.00000E+00
    0.36719E+07        -0.51922E+08         0.00000E+00
    0.00000E+00         0.00000E+00        -0.26085E+08
 
   -0.26266E+08         0.38491E+07         0.00000E+00
    0.38491E+07        -0.51981E+08         0.00000E+00
    0.00000E+00         0.00000E+00        -0.26085E+08
 
   -0.26145E+08         0.40299E+07         0.00000E+00
    0.40299E+07        -0.52041E+08         0.00000E+00
    0.00000E+00         0.00000E+00        -0.26085E+08
 
   -0.32474E+08        -0.39901E+05         0.00000E+00
   -0.39901E+05        -0.50001E+08         0.00000E+00
    0.00000E+00         0.00000E+00        -0.25135E+08
 
   -0.32374E+08        -0.97655E+05         0.00000E+00
   -0.97655E+05        -0.50006E+08         0.00000E+00
    0.00000E+00         0.00000E+00        -0.25135E+08
 
   -0.32267E+08        -0.14739E+06         0.00000E+00
   -0.14739E+06        -0.50014E+08         0.00000E+00
    0.00000E+00         0.00000E+00        -0.25135E+08
 
   -0.32153E+08        -0.18917E+06         0.00000E+00
   -0.18917E+06        -0.50025E+08         0.00000E+00
    0.00000E+00         0.00000E+00        -0.25135E+08
 
   -0.32033E+08        -0.22307E+06         0.00000E+00
   -0.22307E+06        -0.50039E+08         0.00000E+00
    0.00000E+00         0.00000E+00        -0.25135E+08
 
   -0.31907E+08        -0.24921E+06         0.00000E+00
   -0.24921E+06        -0.50056E+08         0.00000E+00
    0.00000E+00         0.00000E+00        -0.25136E+08
 
   -0.31776E+08        -0.26774E+06         0.00000E+00
   -0.26774E+06        -0.50076E+08         0.00000E+00
    0.00000E+00         0.00000E+00        -0.25136E+08
 
   -0.31642E+08        -0.27887E+06         0.00000E+00
   -0.27887E+06        -0.50097E+08         0.00000E+00
    0.00000E+00         0.00000E+00        -0.25137E+08
 
   -0.31503E+08        -0.28280E+06         0.00000E+00
   -0.28280E+06        -0.50120E+08         0.00000E+00
    0.00000E+00         0.00000E+00        -0.25137E+08
 
   -0.31362E+08        -0.27975E+06         0.00000E+00
   -0.27975E+06        -0.50145E+08         0.00000E+00
    0.00000E+00         0.00000E+00        -0.25138E+08
 
   -0.31217E+08        -0.26997E+06         0.00000E+00
   -0.26997E+06        -0.50172E+08         0.00000E+00
    0.00000E+00         0.00000E+00        -0.25138E+08
 
   -0.31071E+08        -0.25371E+06         0.00000E+00
   -0.25371E+06        -0.50199E+08         0.00000E+00
    0.00000E+00         0.00000E+00        -0.25139E+08
 
   -0.30923E+08        -0.23122E+06         0.00000E+00
   -0.23122E+06        -0.50228E+08         0.00000E+00
    0.00000E+00         0.00000E+00        -0.25139E+08
 
   -0.30772E+08        -0.20277E+06         0.00000E+00
   -0.20277E+06        -0.50258E+08         0.00000E+00
    0.00000E+00         0.00000E+00        -0.25140E+08
 
   -0.30621E+08        -0.16860E+06         0.00000E+00
   -0.16860E+06        -0.50288E+08         0.00000E+00
    0.00000E+00         0.00000E+00        -0.25141E+08
 
   -0.30469E+08        -0.12897E+06         0.00000E+00
   -0.12897E+06        -0.50320E+08         0.00000E+00
    0.00000E+00         0.00000E+00        -0.25141E+08
 
   -0.30316E+08        -0.84110E+05         0.00000E+00
   -0.84110E+05        -0.50352E+08         0.00000E+00
    0.00000E+00         0.00000E+00        -0.25142E+08
 
   -0.30162E+08        -0.34249E+05         0.00000E+00
   -0.34249E+05        -0.50386E+08         0.00000E+00
    0.00000E+00         0.00000E+00        -0.25143E+08
 
   -0.30007E+08         0.20403E+05         0.00000E+00
    0.20403E+05        -0.50420E+08         0.00000E+00
    0.00000E+00         0.00000E+00        -0.25144E+08
 
   -0.29852E+08         0.79653E+05         0.00000E+00
    0.79653E+05        -0.50455E+08         0.00000E+00
    0.00000E+00         0.00000E+00        -0.25144E+08
 
   -0.29697E+08         0.14332E+06         0.00000E+00
    0.14332E+06        -0.50491E+08         0.00000E+00
    0.00000E+00         0.00000E+00        -0.25145E+08
 
   -0.29542E+08         0.21126E+06         0.00000E+00
    0.21126E+06        -0.50528E+08         0.00000E+00
    0.00000E+00         0.00000E+00        -0.25146E+08
 
   -0.29386E+08         0.28332E+06         0.00000E+00
    0.28332E+06        -0.50566E+08         0.00000E+00
    0.00000E+00         0.00000E+00        -0.25147E+08
 
   -0.29230E+08         0.35939E+06         0.00000E+00
    0.35939E+06        -0.50605E+08         0.00000E+00
    0.00000E+00         0.00000E+00        -0.25147E+08
 
   -0.29074E+08         0.43936E+06         0.00000E+00
    0.43936E+06        -0.50645E+08         0.00000E+00
    0.00000E+00         0.00000E+00        -0.25148E+08
 
   -0.28918E+08         0.52317E+06         0.00000E+00
    0.52317E+06        -0.50687E+08         0.00000E+00
    0.00000E+00         0.00000E+00        -0.25149E+08
 
   -0.28761E+08         0.61073E+06         0.00000E+00
    0.61073E+06        -0.50729E+08         0.00000E+00
    0.00000E+00         0.00000E+00        -0.25150E+08
 
   -0.28605E+08         0.70202E+06         0.00000E+00
    0.70202E+06        -0.50773E+08         0.00000E+00
    0.00000E+00         0.00000E+00        -0.25150E+08
 
   -0.28448E+08         0.79700E+06         0.00000E+00
    0.79700E+06        -0.50819E+08         0.00000E+00
    0.00000E+00         0.00000E+00        -0.25151E+08
 
   -0.28291E+08         0.89566E+06         0.00000E+00
    0.89566E+06        -0.50866E+08         0.00000E+00
    0.00000E+00         0.00000E+00        -0.25152E+08
 
   -0.28134E+08         0.99801E+06         0.00000E+00
    0.99801E+06        -0.50914E+08         0.00000E+00
    0.00000E+00         0.00000E+00        -0.25153E+08
 
   -0.27977E+08         0.11041E+07         0.00000E+00
    0.11041E+07        -0.50964E+08         0.00000E+00
    0.00000E+00         0.00000E+00        -0.25153E+08
 
   -0.27820E+08         0.12139E+07         0.00000E+00
    0.12139E+07        -0.51015E+08         0.00000E+00
    0.00000E+00         0.00000E+00        -0.25154E+08
 
   -0.27663E+08         0.13274E+07         0.00000E+00
    0.13274E+07        -0.51068E+08         0.00000E+00
    0.00000E+00         0.00000E+00        -0.25155E+08
 
   -0.27506E+08         0.14448E+07         0.00000E+00
    0.14448E+07        -0.51122E+08         0.00000E+00
    0.00000E+00         0.00000E+00        -0.25155E+08
 
   -0.27349E+08         0.15662E+07         0.00000E+00
    0.15662E+07        -0.51178E+08         0.00000E+00
    0.00000E+00         0.00000E+00        -0.25156E+08
 
   -0.27192E+08         0.16914E+07         0.00000E+00
    0.16914E+07        -0.51235E+08         0.00000E+00
    0.00000E+00         0.00000E+00        -0.25156E+08
 
   -0.27035E+08         0.18207E+07         0.00000E+00
    0.18207E+07        -0.51294E+08         0.00000E+00
    0.00000E+00         0.00000E+00        -0.25157E+08
 
   -0.26878E+08         0.19542E+07         0.00000E+00
    0.19542E+07        -0.51355E+08         0.00000E+00
    0.00000E+00         0.00000E+00        -0.25157E+08
 
   -0.26722E+08         0.20918E+07         0.00000E+00
    0.20918E+07        -0.51417E+08         0.00000E+00
    0.00000E+00         0.00000E+00        -0.25158E+08
 
   -0.26567E+08         0.22337E+07         0.00000E+00
    0.22337E+07        -0.51480E+08         0.00000E+00
    0.00000E+00         0.00000E+00        -0.25158E+08
 
   -0.26413E+08         0.23799E+07         0.00000E+00
    0.23799E+07        -0.51544E+08         0.00000E+00
    0.00000E+00         0.00000E+00        -0.25159E+08
 
   -0.26259E+08         0.25305E+07         0.00000E+00
    0.25305E+07        -0.51609E+08         0.00000E+00
    0.00000E+00         0.00000E+00        -0.25159E+08
 
   -0.26107E+08         0.26856E+07         0.00000E+00
    0.26856E+07        -0.51676E+08         0.00000E+00
    0.00000E+00         0.00000E+00        -0.25159E+08
 
   -0.25956E+08         0.28451E+07         0.00000E+00
    0.28451E+07        -0.51743E+08         0.00000E+00
    0.00000E+00         0.00000E+00        -0.25160E+08
 
   -0.25806E+08         0.30090E+07         0.00000E+00
    0.30090E+07        -0.51811E+08         0.00000E+00
    0.00000E+00         0.00000E+00        -0.25160E+08
 
   -0.25659E+08         0.31775E+07         0.00000E+00
    0.31775E+07        -0.51880E+08         0.00000E+00
    0.00000E+00         0.00000E+00        -0.25160E+08
 
   -0.25513E+08         0.33504E+07         0.00000E+00
    0.33504E+07        -0.51948E+08         0.00000E+00
    0.00000E+00         0.00000E+00        -0.25160E+08
 
   -0.25370E+08         0.35277E+07         0.00000E+00
    0.35277E+07        -0.52017E+08         0.00000E+00
    0.00000E+00         0.00000E+00        -0.25160E+08
 
   -0.25230E+08         0.37094E+07         0.00000E+00
    0.37094E+07        -0.52087E+08         0.00000E+00
    0.00000E+00         0.00000E+00        -0.25160E+08
 
   -0.32834E+08        -0.52531E+05         0.00000E+00
   -0.52531E+05        -0.50001E+08         0.00000E+00
    0.00000E+00         0.00000E+00        -0.24194E+08
 
   -0.32689E+08        -0.12961E+06         0.00000E+00
   -0.12961E+06        -0.50006E+08         0.00000E+00
    0.00000E+00         0.00000E+00        -0.24194E+08
 
   -0.32537E+08        -0.19652E+06         0.00000E+00
   -0.19652E+06        -0.50014E+08         0.00000E+00
    0.00000E+00         0.00000E+00        -0.24194E+08
 
   -0.32378E+08        -0.25335E+06         0.00000E+00
   -0.25335E+06        -0.50025E+08         0.00000E+00
    0.00000E+00         0.00000E+00        -0.24195E+08
 
   -0.32214E+08        -0.30036E+06         0.00000E+00
   -0.30036E+06        -0.50039E+08         0.00000E+00
    0.00000E+00         0.00000E+00        -0.24195E+08
 
   -0.32046E+08        -0.33786E+06         0.00000E+00
   -0.33786E+06        -0.50055E+08         0.00000E+00
    0.00000E+00         0.00000E+00        -0.24195E+08
 
   -0.31874E+08        -0.36617E+06         0.00000E+00
   -0.36617E+06        -0.50073E+08         0.00000E+00
    0.00000E+00         0.00000E+00        -0.24196E+08
 
   -0.31700E+08        -0.38566E+06         0.00000E+00
   -0.38566E+06        -0.50092E+08         0.00000E+00
    0.00000E+00         0.00000E+00        -0.24197E+08
 
   -0.31523E+08        -0.39671E+06         0.00000E+00
   -0.39671E+06        -0.50112E+08         0.00000E+00
    0.00000E+00         0.00000E+00        -0.24197E+08
 
   -0.31345E+08        -0.39974E+06         0.00000E+00
   -0.39974E+06        -0.50134E+08         0.00000E+00
    0.00000E+00         0.00000E+00        -0.24198E+08
 
   -0.31166E+08        -0.39519E+06         0.00000E+00
   -0.39519E+06        -0.50156E+08         0.00000E+00
    0.00000E+00         0.00000E+00        -0.24199E+08
 
   -0.30986E+08        -0.38350E+06         0.00000E+00
   -0.38350E+06        -0.50179E+08         0.00000E+00
    0.00000E+00         0.00000E+00        -0.24200E+08
 
   -0.30806E+08        -0.36511E+06         0.00000E+00
   -0.36511E+06        -0.50202E+08         0.00000E+00
    0.00000E+00         0.00000E+00        -0.24201E+08
 
   -0.30627E+08        -0.34046E+06         0.00000E+00
   -0.34046E+06        -0.50226E+08         0.00000E+00
    0.00000E+00         0.00000E+00        -0.24202E+08
 
   -0.30447E+08        -0.30994E+06         0.00000E+00
   -0.30994E+06        -0.50250E+08         0.00000E+00
    0.00000E+00         0.00000E+00        -0.24203E+08
 
   -0.30268E+08        -0.27394E+06         0.00000E+00
   -0.27394E+06        -0.50275E+08         0.00000E+00
    0.00000E+00         0.00000E+00        -0.24204E+08
 
   -0.30089E+08        -0.23282E+06         0.00000E+00
   -0.23282E+06        -0.50301E+08         0.00000E+00
    0.00000E+00         0.00000E+00        -0.24205E+08
 
   -0.29912E+08        -0.18689E+06         0.00000E+00
   -0.18689E+06        -0.50327E+08         0.00000E+00
    0.00000E+00         0.00000E+00        -0.24206E+08
 
   -0.29734E+08        -0.13646E+06         0.00000E+00
   -0.13646E+06        -0.50354E+08         0.00000E+00
    0.00000E+00         0.00000E+00        -0.24207E+08
 
   -0.29558E+08        -0.81760E+05         0.00000E+00
   -0.81760E+05        -0.50382E+08         0.00000E+00
    0.00000E+00         0.00000E+00        -0.24208E+08
 
   -0.29382E+08        -0.23031E+05         0.00000E+00
   -0.23031E+05        -0.50411E+08         0.00000E+00
    0.00000E+00         0.00000E+00        -0.24209E+08
 
   -0.29206E+08         0.39540E+05         0.00000E+00
    0.39540E+05        -0.50440E+08         0.00000E+00
    0.00000E+00         0.00000E+00        -0.24210E+08
 
   -0.29031E+08         0.10579E+06         0.00000E+00
    0.10579E+06        -0.50472E+08         0.00000E+00
    0.00000E+00         0.00000E+00        -0.24211E+08
 
   -0.28857E+08         0.17559E+06         0.00000E+00
    0.17559E+06        -0.50504E+08         0.00000E+00
    0.00000E+00         0.00000E+00        -0.24212E+08
 
   -0.28682E+08         0.24884E+06         0.00000E+00
    0.24884E+06        -0.50538E+08         0.00000E+00
    0.00000E+00         0.00000E+00        -0.24213E+08
 
   -0.28508E+08         0.32546E+06         0.00000E+00
    0.32546E+06        -0.50574E+08         0.00000E+00
    0.00000E+00         0.00000E+00        -0.24214E+08
 
   -0.28334E+08         0.40540E+06         0.00000E+00
    0.40540E+06        -0.50611E+08         0.00000E+00
    0.00000E+00         0.00000E+00        -0.24215E+08
 
   -0.28160E+08         0.48864E+06         0.00000E+00
    0.48864E+06        -0.50650E+08         0.00000E+00
    0.00000E+00         0.00000E+00        -0.24216E+08
 
   -0.27986E+08         0.57517E+06         0.00000E+00
    0.57517E+06        -0.50692E+08         0.00000E+00
    0.00000E+00         0.00000E+00        -0.24217E+08
 
   -0.27811E+08         0.66503E+06         0.00000E+00
    0.66503E+06        -0.50735E+08         0.00000E+00
    0.00000E+00         0.00000E+00        -0.24218E+08
 
   -0.27636E+08         0.75825E+06         0.00000E+00
    0.75825E+06        -0.50780E+08         0.00000E+00
    0.00000E+00         0.00000E+00        -0.24218E+08
 
   -0.27461E+08         0.85491E+06         0.00000E+00
    0.85491E+06        -0.50828E+08         0.00000E+00
    0.00000E+00         0.00000E+00        -0.24219E+08
 
   -0.27286E+08         0.95508E+06         0.00000E+00
    0.95508E+06        -0.50878E+08         0.00000E+00
    0.00000E+00         0.00000E+00        -0.24220E+08
 
   -0.27110E+08         0.10589E+07         0.00000E+00
    0.10589E+07        -0.50930E+08         0.00000E+00
    0.00000E+00         0.00000E+00        -0.24221E+08
 
   -0.26933E+08         0.11664E+07         0.00000E+00
    0.11664E+07        -0.50985E+08         0.00000E+00
    0.00000E+00         0.00000E+00        -0.24222E+08
 
   -0.26756E+08         0.12779E+07         0.00000E+00
    0.12779E+07        -0.51042E+08         0.00000E+00
    0.00000E+00         0.00000E+00        -0.24223E+08
 
   -0.26579E+08         0.13934E+07         0.00000E+00
    0.13934E+07        -0.51102E+08         0.00000E+00
    0.00000E+00         0.00000E+00        -0.24223E+08
 
   -0.26401E+08         0.15130E+07         0.00000E+00
    0.15130E+07        -0.51164E+08         0.00000E+00
    0.00000E+00         0.00000E+00        -0.24224E+08
 
   -0.26223E+08         0.16371E+07         0.00000E+00
    0.16371E+07        -0.51228E+08         0.00000E+00
    0.00000E+00         0.00000E+00        -0.24225E+08
 
   -0.26045E+08         0.17658E+07         0.00000E+00
    0.17658E+07        -0.51295E+08         0.00000E+00
    0.00000E+00         0.00000E+00        -0.24225E+08
 
   -0.25867E+08         0.18991E+07         0.00000E+00
    0.18991E+07        -0.51364E+08         0.00000E+00
    0.00000E+00         0.00000E+00        -0.24226E+08
 
   -0.25689E+08         0.20374E+07         0.00000E+00
    0.20374E+07        -0.51436E+08         0.00000E+00
    0.00000E+00         0.00000E+00        -0.24226E+08
 
   -0.25512E+08         0.21808E+07         0.00000E+00
    0.21808E+07        -0.51509E+08         0.00000E+00
    0.00000E+00         0.00000E+00        -0.24227E+08
 
   -0.25335E+08         0.23294E+07         0.00000E+00
    0.23294E+07        -0.51584E+08         0.00000E+00
    0.00000E+00         0.00000E+00        -0.24227E+08
 
   -0.25159E+08         0.24833E+07         0.00000E+00
    0.24833E+07        -0.51661E+08         0.00000E+00
    0.00000E+00         0.00000E+00        -0.24228E+08
 
   -0.24985E+08         0.26427E+07         0.00000E+00
    0.26427E+07        -0.51739E+08         0.00000E+00
    0.00000E+00         0.00000E+00        -0.24228E+08
 
   -0.24813E+08         0.28076E+07         0.00000E+00
    0.28076E+07        -0.51818E+08         0.00000E+00
    0.00000E+00         0.00000E+00        -0.24228E+08
 
   -0.24642E+08         0.29781E+07         0.00000E+00
    0.29781E+07        -0.51898E+08         0.00000E+00
    0.00000E+00         0.00000E+00        -0.24229E+08
 
   -0.24475E+08         0.31542E+07         0.00000E+00
    0.31542E+07        -0.51979E+08         0.00000E+00
    0.00000E+00         0.00000E+00        -0.24229E+08
 
   -0.24310E+08         0.33357E+07         0.00000E+00
    0.33357E+07        -0.52059E+08         0.00000E+00
    0.00000E+00         0.00000E+00        -0.24229E+08
 
   -0.33296E+08        -0.66458E+05         0.00000E+00
   -0.66458E+05        -0.50002E+08         0.00000E+00
    0.00000E+00         0.00000E+00        -0.23252E+08
 
   -0.33092E+08        -0.16193E+06         0.00000E+00
   -0.16193E+06        -0.50006E+08         0.00000E+00
    0.00000E+00         0.00000E+00        -0.23252E+08
 
   -0.32882E+08        -0.24401E+06         0.00000E+00
   -0.24401E+06        -0.50014E+08         0.00000E+00
    0.00000E+00         0.00000E+00        -0.23252E+08
 
   -0.32667E+08        -0.31338E+06         0.00000E+00
   -0.31338E+06        -0.50024E+08         0.00000E+00
    0.00000E+00         0.00000E+00        -0.23253E+08
 
   -0.32449E+08        -0.37042E+06         0.00000E+00
   -0.37042E+06        -0.50036E+08         0.00000E+00
    0.00000E+00         0.00000E+00        -0.23253E+08
 
   -0.32229E+08        -0.41557E+06         0.00000E+00
   -0.41557E+06        -0.50049E+08         0.00000E+00
    0.00000E+00         0.00000E+00        -0.23254E+08
 
   -0.32008E+08        -0.44940E+06         0.00000E+00
   -0.44940E+06        -0.50063E+08         0.00000E+00
    0.00000E+00         0.00000E+00        -0.23254E+08
 
   -0.31787E+08        -0.47264E+06         0.00000E+00
   -0.47264E+06        -0.50077E+08         0.00000E+00
    0.00000E+00         0.00000E+00        -0.23255E+08
 
   -0.31566E+08        -0.48610E+06         0.00000E+00
   -0.48610E+06        -0.50091E+08         0.00000E+00
    0.00000E+00         0.00000E+00        -0.23256E+08
 
   -0.31347E+08        -0.49061E+06         0.00000E+00
   -0.49061E+06        -0.50105E+08         0.00000E+00
    0.00000E+00         0.00000E+00        -0.23257E+08
 
   -0.31130E+08        -0.48697E+06         0.00000E+00
   -0.48697E+06        -0.50118E+08         0.00000E+00
    0.00000E+00         0.00000E+00        -0.23258E+08
 
   -0.30915E+08        -0.47598E+06         0.00000E+00
   -0.47598E+06        -0.50131E+08         0.00000E+00
    0.00000E+00         0.00000E+00        -0.23259E+08
 
   -0.30703E+08        -0.45834E+06         0.00000E+00
   -0.45834E+06        -0.50144E+08         0.00000E+00
    0.00000E+00         0.00000E+00        -0.23260E+08
 
   -0.30494E+08        -0.43471E+06         0.00000E+00
   -0.43471E+06        -0.50156E+08         0.00000E+00
    0.00000E+00         0.00000E+00        -0.23261E+08
 
   -0.30287E+08        -0.40568E+06         0.00000E+00
   -0.40568E+06        -0.50169E+08         0.00000E+00
    0.00000E+00         0.00000E+00        -0.23262E+08
 
   -0.30083E+08        -0.37177E+06         0.00000E+00
   -0.37177E+06        -0.50181E+08         0.00000E+00
    0.00000E+00         0.00000E+00        -0.23264E+08
 
   -0.29881E+08        -0.33341E+06         0.00000E+00
   -0.33341E+06        -0.50195E+08         0.00000E+00
    0.00000E+00         0.00000E+00        -0.23265E+08
 
   -0.29682E+08        -0.29101E+06         0.00000E+00
   -0.29101E+06        -0.50208E+08         0.00000E+00
    0.00000E+00         0.00000E+00        -0.23266E+08
 
   -0.29484E+08        -0.24490E+06         0.00000E+00
   -0.24490E+06        -0.50223E+08         0.00000E+00
    0.00000E+00         0.00000E+00        -0.23267E+08
 
   -0.29289E+08        -0.19536E+06         0.00000E+00
   -0.19536E+06        -0.50239E+08         0.00000E+00
    0.00000E+00         0.00000E+00        -0.23268E+08
 
   -0.29095E+08        -0.14261E+06         0.00000E+00
   -0.14261E+06        -0.50256E+08         0.00000E+00
    0.00000E+00         0.00000E+00        -0.23269E+08
 
   -0.28903E+08        -0.86856E+05         0.00000E+00
   -0.86856E+05        -0.50274E+08         0.00000E+00
    0.00000E+00         0.00000E+00        -0.23271E+08
 
   -0.28712E+08        -0.28241E+05         0.00000E+00
   -0.28241E+05        -0.50295E+08         0.00000E+00
    0.00000E+00         0.00000E+00        -0.23272E+08
 
   -0.28521E+08         0.33122E+05         0.00000E+00
    0.33122E+05        -0.50317E+08         0.00000E+00
    0.00000E+00         0.00000E+00        -0.23273E+08
 
   -0.28332E+08         0.97150E+05         0.00000E+00
    0.97150E+05        -0.50341E+08         0.00000E+00
    0.00000E+00         0.00000E+00        -0.23274E+08
 
   -0.28143E+08         0.16380E+06         0.00000E+00
    0.16380E+06        -0.50367E+08         0.00000E+00
    0.00000E+00         0.00000E+00        -0.23275E+08
 
   -0.27954E+08         0.23304E+06         0.00000E+00
    0.23304E+06        -0.50396E+08         0.00000E+00
    0.00000E+00         0.00000E+00        -0.23276E+08
 
   -0.27764E+08         0.30490E+06         0.00000E+00
    0.30490E+06        -0.50428E+08         0.00000E+00
    0.00000E+00         0.00000E+00        -0.23278E+08
 
   -0.27575E+08         0.37939E+06         0.00000E+00
    0.37939E+06        -0.50462E+08         0.00000E+00
    0.00000E+00         0.00000E+00        -0.23279E+08
 
   -0.27385E+08         0.45660E+06         0.00000E+00
    0.45660E+06        -0.50499E+08         0.00000E+00
    0.00000E+00         0.00000E+00        -0.23280E+08
 
   -0.27195E+08         0.53660E+06         0.00000E+00
    0.53660E+06        -0.50539E+08         0.00000E+00
    0.00000E+00         0.00000E+00        -0.23281E+08
 
   -0.27003E+08         0.61952E+06         0.00000E+00
    0.61952E+06        -0.50583E+08         0.00000E+00
    0.00000E+00         0.00000E+00        -0.23282E+08
 
   -0.26811E+08         0.70550E+06         0.00000E+00
    0.70550E+06        -0.50629E+08         0.00000E+00
    0.00000E+00         0.00000E+00        -0.23283E+08
 
   -0.26617E+08         0.79471E+06         0.00000E+00
    0.79471E+06        -0.50680E+08         0.00000E+00
    0.00000E+00         0.00000E+00        -0.23284E+08
 
   -0.26422E+08         0.88736E+06         0.00000E+00
    0.88736E+06        -0.50733E+08         0.00000E+00
    0.00000E+00         0.00000E+00        -0.23285E+08
 
   -0.26226E+08         0.98367E+06         0.00000E+00
    0.98367E+06        -0.50790E+08         0.00000E+00
    0.00000E+00         0.00000E+00        -0.23285E+08
 
   -0.26028E+08         0.10839E+07         0.00000E+00
    0.10839E+07        -0.50851E+08         0.00000E+00
    0.00000E+00         0.00000E+00        -0.23286E+08
 
   -0.25829E+08         0.11883E+07         0.00000E+00
    0.11883E+07        -0.50916E+08         0.00000E+00
    0.00000E+00         0.00000E+00        -0.23287E+08
 
   -0.25628E+08         0.12973E+07         0.00000E+00
    0.12973E+07        -0.50984E+08         0.00000E+00
    0.00000E+00         0.00000E+00        -0.23288E+08
 
   -0.25425E+08         0.14112E+07         0.00000E+00
    0.14112E+07        -0.51056E+08         0.00000E+00
    0.00000E+00         0.00000E+00        -0.23288E+08
 
   -0.25221E+08         0.15303E+07         0.00000E+00
    0.15303E+07        -0.51132E+08         0.00000E+00
    0.00000E+00         0.00000E+00        -0.23289E+08
 
   -0.25017E+08         0.16550E+07         0.00000E+00
    0.16550E+07        -0.51211E+08         0.00000E+00
    0.00000E+00         0.00000E+00        -0.23290E+08
 
   -0.24811E+08         0.17857E+07         0.00000E+00
    0.17857E+07        -0.51294E+08         0.00000E+00
    0.00000E+00         0.00000E+00        -0.23290E+08
 
   -0.24605E+08         0.19227E+07         0.00000E+00
    0.19227E+07        -0.51379E+08         0.00000E+00
    0.00000E+00         0.00000E+00        -0.23291E+08
 
   -0.24399E+08         0.20665E+07         0.00000E+00
    0.20665E+07        -0.51468E+08         0.00000E+00
    0.00000E+00         0.00000E+00        -0.23291E+08
 
   -0.24194E+08         0.22172E+07         0.00000E+00
    0.22172E+07        -0.51559E+08         0.00000E+00
    0.00000E+00         0.00000E+00        -0.23292E+08
 
   -0.23989E+08         0.23750E+07         0.00000E+00
    0.23750E+07        -0.51652E+08         0.00000E+00
    0.00000E+00         0.00000E+00        -0.23292E+08
 
   -0.23787E+08         0.25401E+07         0.00000E+00
    0.25401E+07        -0.51747E+08         0.00000E+00
    0.00000E+00         0.00000E+00        -0.23292E+08
 
   -0.23587E+08         0.27126E+07         0.00000E+00
    0.27126E+07        -0.51843E+08         0.00000E+00
    0.00000E+00         0.00000E+00        -0.23292E+08
 
   -0.23390E+08         0.28932E+07         0.00000E+00
    0.28932E+07        -0.51940E+08         0.00000E+00
    0.00000E+00         0.00000E+00        -0.23292E+08
 
   -0.33855E+08        -0.80706E+05         0.00000E+00
   -0.80706E+05        -0.50000E+08         0.00000E+00
    0.00000E+00         0.00000E+00        -0.22312E+08
 
   -0.33573E+08        -0.19276E+06         0.00000E+00
   -0.19276E+06        -0.50005E+08         0.00000E+00
    0.00000E+00         0.00000E+00        -0.22312E+08
 
   -0.33287E+08        -0.28748E+06         0.00000E+00
   -0.28748E+06        -0.50013E+08         0.00000E+00
    0.00000E+00         0.00000E+00        -0.22312E+08
 
   -0.32998E+08        -0.36386E+06         0.00000E+00
   -0.36386E+06        -0.50022E+08         0.00000E+00
    0.00000E+00         0.00000E+00        -0.22313E+08
 
   -0.32710E+08        -0.42282E+06         0.00000E+00
   -0.42282E+06        -0.50030E+08         0.00000E+00
    0.00000E+00         0.00000E+00        -0.22313E+08
 
   -0.32424E+08        -0.46606E+06         0.00000E+00
   -0.46606E+06        -0.50036E+08         0.00000E+00
    0.00000E+00         0.00000E+00        -0.22314E+08
 
   -0.32144E+08        -0.49554E+06         0.00000E+00
   -0.49554E+06        -0.50040E+08         0.00000E+00
    0.00000E+00         0.00000E+00        -0.22315E+08
 
   -0.31869E+08        -0.51317E+06         0.00000E+00
   -0.51317E+06        -0.50041E+08         0.00000E+00
    0.00000E+00         0.00000E+00        -0.22316E+08
 
   -0.31601E+08        -0.52068E+06         0.00000E+00
   -0.52068E+06        -0.50040E+08         0.00000E+00
    0.00000E+00         0.00000E+00        -0.22317E+08
 
   -0.31341E+08        -0.51960E+06         0.00000E+00
   -0.51960E+06        -0.50037E+08         0.00000E+00
    0.00000E+00         0.00000E+00        -0.22318E+08
 
   -0.31087E+08        -0.51121E+06         0.00000E+00
   -0.51121E+06        -0.50032E+08         0.00000E+00
    0.00000E+00         0.00000E+00        -0.22319E+08
 
   -0.30840E+08        -0.49661E+06         0.00000E+00
   -0.49661E+06        -0.50026E+08         0.00000E+00
    0.00000E+00         0.00000E+00        -0.22320E+08
 
   -0.30599E+08        -0.47671E+06         0.00000E+00
   -0.47671E+06        -0.50020E+08         0.00000E+00
    0.00000E+00         0.00000E+00        -0.22321E+08
 
   -0.30365E+08        -0.45227E+06         0.00000E+00
   -0.45227E+06        -0.50013E+08         0.00000E+00
    0.00000E+00         0.00000E+00        -0.22322E+08
 
   -0.30135E+08        -0.42390E+06         0.00000E+00
   -0.42390E+06        -0.50006E+08         0.00000E+00
    0.00000E+00         0.00000E+00        -0.22323E+08
 
   -0.29911E+08        -0.39211E+06         0.00000E+00
   -0.39211E+06        -0.50000E+08         0.00000E+00
    0.00000E+00         0.00000E+00        -0.22325E+08
 
   -0.29691E+08        -0.35732E+06         0.00000E+00
   -0.35732E+06        -0.49995E+08         0.00000E+00
    0.00000E+00         0.00000E+00        -0.22326E+08
 
   -0.29476E+08        -0.31988E+06         0.00000E+00
   -0.31988E+06        -0.49990E+08         0.00000E+00
    0.00000E+00         0.00000E+00        -0.22327E+08
 
   -0.29264E+08        -0.28004E+06         0.00000E+00
   -0.28004E+06        -0.49988E+08         0.00000E+00
    0.00000E+00         0.00000E+00        -0.22328E+08
 
   -0.29054E+08        -0.23802E+06         0.00000E+00
   -0.23802E+06        -0.49987E+08         0.00000E+00
    0.00000E+00         0.00000E+00        -0.22329E+08
 
   -0.28848E+08        -0.19400E+06         0.00000E+00
   -0.19400E+06        -0.49988E+08         0.00000E+00
    0.00000E+00         0.00000E+00        -0.22330E+08
 
   -0.28643E+08        -0.14811E+06         0.00000E+00
   -0.14811E+06        -0.49992E+08         0.00000E+00
    0.00000E+00         0.00000E+00        -0.22332E+08
 
   -0.28441E+08        -0.10042E+06         0.00000E+00
   -0.10042E+06        -0.49998E+08         0.00000E+00
    0.00000E+00         0.00000E+00        -0.22333E+08
 
   -0.28239E+08        -0.51006E+05         0.00000E+00
   -0.51006E+05        -0.50007E+08         0.00000E+00
    0.00000E+00         0.00000E+00        -0.22334E+08
 
   -0.28039E+08         0.10133E+03         0.00000E+00
    0.10133E+03        -0.50018E+08         0.00000E+00
    0.00000E+00         0.00000E+00        -0.22335E+08
 
   -0.27838E+08         0.52898E+05         0.00000E+00
    0.52898E+05        -0.50033E+08         0.00000E+00
    0.00000E+00         0.00000E+00        -0.22336E+08
 
   -0.27639E+08         0.10740E+06         0.00000E+00
    0.10740E+06        -0.50051E+08         0.00000E+00
    0.00000E+00         0.00000E+00        -0.22337E+08
 
   -0.27438E+08         0.16366E+06         0.00000E+00
    0.16366E+06        -0.50073E+08         0.00000E+00
    0.00000E+00         0.00000E+00        -0.22338E+08
 
   -0.27238E+08         0.22173E+06         0.00000E+00
    0.22173E+06        -0.50098E+08         0.00000E+00
    0.00000E+00         0.00000E+00        -0.22339E+08
 
   -0.27036E+08         0.28171E+06         0.00000E+00
    0.28171E+06        -0.50127E+08         0.00000E+00
    0.00000E+00         0.00000E+00        -0.22340E+08
 
   -0.26833E+08         0.34371E+06         0.00000E+00
    0.34371E+06        -0.50160E+08         0.00000E+00
    0.00000E+00         0.00000E+00        -0.22341E+08
 
   -0.26628E+08         0.40788E+06         0.00000E+00
    0.40788E+06        -0.50198E+08         0.00000E+00
    0.00000E+00         0.00000E+00        -0.22342E+08
 
   -0.26422E+08         0.47438E+06         0.00000E+00
    0.47438E+06        -0.50239E+08         0.00000E+00
    0.00000E+00         0.00000E+00        -0.22343E+08
 
   -0.26213E+08         0.54343E+06         0.00000E+00
    0.54343E+06        -0.50286E+08         0.00000E+00
    0.00000E+00         0.00000E+00        -0.22344E+08
 
   -0.26002E+08         0.61526E+06         0.00000E+00
    0.61526E+06        -0.50336E+08         0.00000E+00
    0.00000E+00         0.00000E+00        -0.22345E+08
 
   -0.25788E+08         0.69015E+06         0.00000E+00
    0.69015E+06        -0.50392E+08         0.00000E+00
    0.00000E+00         0.00000E+00        -0.22346E+08
 
   -0.25570E+08         0.76842E+06         0.00000E+00
    0.76842E+06        -0.50453E+08         0.00000E+00
    0.00000E+00         0.00000E+00        -0.22347E+08
 
   -0.25350E+08         0.85047E+06         0.00000E+00
    0.85047E+06        -0.50518E+08         0.00000E+00
    0.00000E+00         0.00000E+00        -0.22348E+08
 
   -0.25126E+08         0.93673E+06         0.00000E+00
    0.93673E+06        -0.50590E+08         0.00000E+00
    0.00000E+00         0.00000E+00        -0.22348E+08
 
   -0.24898E+08         0.10277E+07         0.00000E+00
    0.10277E+07        -0.50666E+08         0.00000E+00
    0.00000E+00         0.00000E+00        -0.22349E+08
 
   -0.24666E+08         0.11240E+07         0.00000E+00
    0.11240E+07        -0.50748E+08         0.00000E+00
    0.00000E+00         0.00000E+00        -0.22350E+08
 
   -0.24431E+08         0.12262E+07         0.00000E+00
    0.12262E+07        -0.50836E+08         0.00000E+00
    0.00000E+00         0.00000E+00        -0.22350E+08
 
   -0.24192E+08         0.13352E+07         0.00000E+00
    0.13352E+07        -0.50929E+08         0.00000E+00
    0.00000E+00         0.00000E+00        -0.22351E+08
 
   -0.23949E+08         0.14518E+07         0.00000E+00
    0.14518E+07        -0.51028E+08         0.00000E+00
    0.00000E+00         0.00000E+00        -0.22351E+08
 
   -0.23704E+08         0.15769E+07         0.00000E+00
    0.15769E+07        -0.51132E+08         0.00000E+00
    0.00000E+00         0.00000E+00        -0.22352E+08
 
   -0.23457E+08         0.17113E+07         0.00000E+00
    0.17113E+07        -0.51241E+08         0.00000E+00
    0.00000E+00         0.00000E+00        -0.22352E+08
 
   -0.23210E+08         0.18560E+07         0.00000E+00
    0.18560E+07        -0.51354E+08         0.00000E+00
    0.00000E+00         0.00000E+00        -0.22353E+08
 
   -0.22962E+08         0.20114E+07         0.00000E+00
    0.20114E+07        -0.51471E+08         0.00000E+00
    0.00000E+00         0.00000E+00        -0.22353E+08
 
   -0.22717E+08         0.21776E+07         0.00000E+00
    0.21776E+07        -0.51589E+08         0.00000E+00
    0.00000E+00         0.00000E+00        -0.22353E+08
 
   -0.22474E+08         0.23529E+07         0.00000E+00
    0.23529E+07        -0.51708E+08         0.00000E+00
    0.00000E+00         0.00000E+00        -0.22353E+08
 
   -0.34508E+08        -0.10691E+06         0.00000E+00
   -0.10691E+06        -0.50009E+08         0.00000E+00
    0.00000E+00         0.00000E+00        -0.21379E+08
 
   -0.34100E+08        -0.23074E+06         0.00000E+00
   -0.23074E+06        -0.50020E+08         0.00000E+00
    0.00000E+00         0.00000E+00        -0.21379E+08
 
   -0.33693E+08        -0.31636E+06         0.00000E+00
   -0.31636E+06        -0.50023E+08         0.00000E+00
    0.00000E+00         0.00000E+00        -0.21379E+08
 
   -0.33300E+08        -0.37393E+06         0.00000E+00
   -0.37393E+06        -0.50017E+08         0.00000E+00
    0.00000E+00         0.00000E+00        -0.21380E+08
 
   -0.32924E+08        -0.41087E+06         0.00000E+00
   -0.41087E+06        -0.50002E+08         0.00000E+00
    0.00000E+00         0.00000E+00        -0.21380E+08
 
   -0.32566E+08        -0.43252E+06         0.00000E+00
   -0.43252E+06        -0.49981E+08         0.00000E+00
    0.00000E+00         0.00000E+00        -0.21381E+08
 
   -0.32227E+08        -0.44274E+06         0.00000E+00
   -0.44274E+06        -0.49955E+08         0.00000E+00
    0.00000E+00         0.00000E+00        -0.21382E+08
 
   -0.31904E+08        -0.44434E+06         0.00000E+00
   -0.44434E+06        -0.49926E+08         0.00000E+00
    0.00000E+00         0.00000E+00        -0.21382E+08
 
   -0.31597E+08        -0.43933E+06         0.00000E+00
   -0.43933E+06        -0.49893E+08         0.00000E+00
    0.00000E+00         0.00000E+00        -0.21383E+08
 
   -0.31303E+08        -0.42922E+06         0.00000E+00
   -0.42922E+06        -0.49859E+08         0.00000E+00
    0.00000E+00         0.00000E+00        -0.21384E+08
 
   -0.31023E+08        -0.41510E+06         0.00000E+00
   -0.41510E+06        -0.49825E+08         0.00000E+00
    0.00000E+00         0.00000E+00        -0.21385E+08
 
   -0.30753E+08        -0.39779E+06         0.00000E+00
   -0.39779E+06        -0.49790E+08         0.00000E+00
    0.00000E+00         0.00000E+00        -0.21386E+08
 
   -0.30494E+08        -0.37792E+06         0.00000E+00
   -0.37792E+06        -0.49756E+08         0.00000E+00
    0.00000E+00         0.00000E+00        -0.21387E+08
 
   -0.30243E+08        -0.35595E+06         0.00000E+00
   -0.35595E+06        -0.49723E+08         0.00000E+00
    0.00000E+00         0.00000E+00        -0.21388E+08
 
   -0.30001E+08        -0.33224E+06         0.00000E+00
   -0.33224E+06        -0.49692E+08         0.00000E+00
    0.00000E+00         0.00000E+00        -0.21389E+08
 
   -0.29765E+08        -0.30705E+06         0.00000E+00
   -0.30705E+06        -0.49662E+08         0.00000E+00
    0.00000E+00         0.00000E+00        -0.21390E+08
 
   -0.29535E+08        -0.28060E+06         0.00000E+00
   -0.28060E+06        -0.49635E+08         0.00000E+00
    0.00000E+00         0.00000E+00        -0.21391E+08
 
   -0.29310E+08        -0.25303E+06         0.00000E+00
   -0.25303E+06        -0.49611E+08         0.00000E+00
    0.00000E+00         0.00000E+00        -0.21392E+08
 
   -0.29089E+08        -0.22446E+06         0.00000E+00
   -0.22446E+06        -0.49589E+08         0.00000E+00
    0.00000E+00         0.00000E+00        -0.21393E+08
 
   -0.28873E+08        -0.19498E+06         0.00000E+00
   -0.19498E+06        -0.49570E+08         0.00000E+00
    0.00000E+00         0.00000E+00        -0.21393E+08
 
   -0.28659E+08        -0.16465E+06         0.00000E+00
   -0.16465E+06        -0.49555E+08         0.00000E+00
    0.00000E+00         0.00000E+00        -0.21394E+08
 
   -0.28448E+08        -0.13350E+06         0.00000E+00
   -0.13350E+06        -0.49543E+08         0.00000E+00
    0.00000E+00         0.00000E+00        -0.21395E+08
 
   -0.28238E+08        -0.10155E+06         0.00000E+00
   -0.10155E+06        -0.49534E+08         0.00000E+00
    0.00000E+00         0.00000E+00        -0.21396E+08
 
   -0.28031E+08        -0.68806E+05         0.00000E+00
   -0.68806E+05        -0.49530E+08         0.00000E+00
    0.00000E+00         0.00000E+00        -0.21397E+08
 
   -0.27824E+08        -0.35255E+05         0.00000E+00
   -0.35255E+05        -0.49529E+08         0.00000E+00
    0.00000E+00         0.00000E+00        -0.21398E+08
 
   -0.27617E+08        -0.87054E+03         0.00000E+00
   -0.87054E+03        -0.49532E+08         0.00000E+00
    0.00000E+00         0.00000E+00        -0.21399E+08
 
   -0.27411E+08         0.34386E+05         0.00000E+00
    0.34386E+05        -0.49540E+08         0.00000E+00
    0.00000E+00         0.00000E+00        -0.21400E+08
 
   -0.27203E+08         0.70566E+05         0.00000E+00
    0.70566E+05        -0.49552E+08         0.00000E+00
    0.00000E+00         0.00000E+00        -0.21401E+08
 
   -0.26995E+08         0.10774E+06         0.00000E+00
    0.10774E+06        -0.49568E+08         0.00000E+00
    0.00000E+00         0.00000E+00        -0.21401E+08
 
   -0.26786E+08         0.14598E+06         0.00000E+00
    0.14598E+06        -0.49589E+08         0.00000E+00
    0.00000E+00         0.00000E+00        -0.21402E+08
 
   -0.26574E+08         0.18539E+06         0.00000E+00
    0.18539E+06        -0.49615E+08         0.00000E+00
    0.00000E+00         0.00000E+00        -0.21403E+08
 
   -0.26361E+08         0.22610E+06         0.00000E+00
    0.22610E+06        -0.49646E+08         0.00000E+00
    0.00000E+00         0.00000E+00        -0.21404E+08
 
   -0.26144E+08         0.26822E+06         0.00000E+00
    0.26822E+06        -0.49682E+08         0.00000E+00
    0.00000E+00         0.00000E+00        -0.21404E+08
 
   -0.25924E+08         0.31194E+06         0.00000E+00
    0.31194E+06        -0.49723E+08         0.00000E+00
    0.00000E+00         0.00000E+00        -0.21405E+08
 
   -0.25701E+08         0.35745E+06         0.00000E+00
    0.35745E+06        -0.49770E+08         0.00000E+00
    0.00000E+00         0.00000E+00        -0.21406E+08
 
   -0.25473E+08         0.40498E+06         0.00000E+00
    0.40498E+06        -0.49823E+08         0.00000E+00
    0.00000E+00         0.00000E+00        -0.21407E+08
 
   -0.25240E+08         0.45480E+06         0.00000E+00
    0.45480E+06        -0.49882E+08         0.00000E+00
    0.00000E+00         0.00000E+00        -0.21407E+08
 
   -0.25002E+08         0.50726E+06         0.00000E+00
    0.50726E+06        -0.49947E+08         0.00000E+00
    0.00000E+00         0.00000E+00        -0.21408E+08
 
   -0.24758E+08         0.56276E+06         0.00000E+00
    0.56276E+06        -0.50019E+08         0.00000E+00
    0.00000E+00         0.00000E+00        -0.21408E+08
 
   -0.24508E+08         0.62178E+06         0.00000E+00
    0.62178E+06        -0.50098E+08         0.00000E+00
    0.00000E+00         0.00000E+00        -0.21409E+08
 
   -0.24250E+08         0.68495E+06         0.00000E+00
    0.68495E+06        -0.50184E+08         0.00000E+00
    0.00000E+00         0.00000E+00        -0.21409E+08
 
   -0.23985E+08         0.75301E+06         0.00000E+00
    0.75301E+06        -0.50278E+08         0.00000E+00
    0.00000E+00         0.00000E+00        -0.21410E+08
 
   -0.23711E+08         0.82692E+06         0.00000E+00
    0.82692E+06        -0.50380E+08         0.00000E+00
    0.00000E+00         0.00000E+00        -0.21410E+08
 
   -0.23429E+08         0.90787E+06         0.00000E+00
    0.90787E+06        -0.50491E+08         0.00000E+00
    0.00000E+00         0.00000E+00        -0.21411E+08
 
   -0.23136E+08         0.99741E+06         0.00000E+00
    0.99741E+06        -0.50611E+08         0.00000E+00
    0.00000E+00         0.00000E+00        -0.21411E+08
 
   -0.22835E+08         0.10975E+07         0.00000E+00
    0.10975E+07        -0.50741E+08         0.00000E+00
    0.00000E+00         0.00000E+00        -0.21412E+08
 
   -0.22524E+08         0.12107E+07         0.00000E+00
    0.12107E+07        -0.50880E+08         0.00000E+00
    0.00000E+00         0.00000E+00        -0.21412E+08
 
   -0.22206E+08         0.13404E+07         0.00000E+00
    0.13404E+07        -0.51028E+08         0.00000E+00
    0.00000E+00         0.00000E+00        -0.21412E+08
 
   -0.21884E+08         0.14909E+07         0.00000E+00
    0.14909E+07        -0.51186E+08         0.00000E+00
    0.00000E+00         0.00000E+00        -0.21412E+08
 
   -0.21568E+08         0.16677E+07         0.00000E+00
    0.16677E+07        -0.51350E+08         0.00000E+00
    0.00000E+00         0.00000E+00        -0.21412E+08
 
   -0.35124E+08        -0.13689E+06         0.00000E+00
   -0.13689E+06        -0.49982E+08         0.00000E+00
    0.00000E+00         0.00000E+00        -0.20457E+08
 
   -0.34495E+08        -0.17203E+06         0.00000E+00
   -0.17203E+06        -0.49941E+08         0.00000E+00
    0.00000E+00         0.00000E+00        -0.20457E+08
 
   -0.33946E+08        -0.18984E+06         0.00000E+00
   -0.18984E+06        -0.49886E+08         0.00000E+00
    0.00000E+00         0.00000E+00        -0.20457E+08
 
   -0.33457E+08        -0.19775E+06         0.00000E+00
   -0.19775E+06        -0.49823E+08         0.00000E+00
    0.00000E+00         0.00000E+00        -0.20458E+08
 
   -0.33015E+08        -0.19975E+06         0.00000E+00
   -0.19975E+06        -0.49755E+08         0.00000E+00
    0.00000E+00         0.00000E+00        -0.20458E+08
 
   -0.32610E+08        -0.19807E+06         0.00000E+00
   -0.19807E+06        -0.49684E+08         0.00000E+00
    0.00000E+00         0.00000E+00        -0.20458E+08
 
   -0.32237E+08        -0.19398E+06         0.00000E+00
   -0.19398E+06        -0.49614E+08         0.00000E+00
    0.00000E+00         0.00000E+00        -0.20458E+08
 
   -0.31889E+08        -0.18827E+06         0.00000E+00
   -0.18827E+06        -0.49544E+08         0.00000E+00
    0.00000E+00         0.00000E+00        -0.20459E+08
 
   -0.31563E+08        -0.18141E+06         0.00000E+00
   -0.18141E+06        -0.49475E+08         0.00000E+00
    0.00000E+00         0.00000E+00        -0.20459E+08
 
   -0.31256E+08        -0.17371E+06         0.00000E+00
   -0.17371E+06        -0.49408E+08         0.00000E+00
    0.00000E+00         0.00000E+00        -0.20460E+08
 
   -0.30964E+08        -0.16537E+06         0.00000E+00
   -0.16537E+06        -0.49344E+08         0.00000E+00
    0.00000E+00         0.00000E+00        -0.20460E+08
 
   -0.30686E+08        -0.15655E+06         0.00000E+00
   -0.15655E+06        -0.49283E+08         0.00000E+00
    0.00000E+00         0.00000E+00        -0.20460E+08
 
   -0.30419E+08        -0.14733E+06         0.00000E+00
   -0.14733E+06        -0.49225E+08         0.00000E+00
    0.00000E+00         0.00000E+00        -0.20461E+08
 
   -0.30163E+08        -0.13779E+06         0.00000E+00
   -0.13779E+06        -0.49171E+08         0.00000E+00
    0.00000E+00         0.00000E+00        -0.20461E+08
 
   -0.29915E+08        -0.12798E+06         0.00000E+00
   -0.12798E+06        -0.49120E+08         0.00000E+00
    0.00000E+00         0.00000E+00        -0.20461E+08
 
   -0.29675E+08        -0.11794E+06         0.00000E+00
   -0.11794E+06        -0.49073E+08         0.00000E+00
    0.00000E+00         0.00000E+00        -0.20462E+08
 
   -0.29442E+08        -0.10768E+06         0.00000E+00
   -0.10768E+06        -0.49029E+08         0.00000E+00
    0.00000E+00         0.00000E+00        -0.20462E+08
 
   -0.29213E+08        -0.97229E+05         0.00000E+00
   -0.97229E+05        -0.48990E+08         0.00000E+00
    0.00000E+00         0.00000E+00        -0.20463E+08
 
   -0.28990E+08        -0.86594E+05         0.00000E+00
   -0.86594E+05        -0.48955E+08         0.00000E+00
    0.00000E+00         0.00000E+00        -0.20463E+08
 
   -0.28771E+08        -0.75779E+05         0.00000E+00
   -0.75779E+05        -0.48923E+08         0.00000E+00
    0.00000E+00         0.00000E+00        -0.20463E+08
 
   -0.28554E+08        -0.64786E+05         0.00000E+00
   -0.64786E+05        -0.48897E+08         0.00000E+00
    0.00000E+00         0.00000E+00        -0.20464E+08
 
   -0.28341E+08        -0.53611E+05         0.00000E+00
   -0.53611E+05        -0.48874E+08         0.00000E+00
    0.00000E+00         0.00000E+00        -0.20464E+08
 
   -0.28129E+08        -0.42247E+05         0.00000E+00
   -0.42247E+05        -0.48856E+08         0.00000E+00
    0.00000E+00         0.00000E+00        -0.20464E+08
 
   -0.27918E+08        -0.30684E+05         0.00000E+00
   -0.30684E+05        -0.48842E+08         0.00000E+00
    0.00000E+00         0.00000E+00        -0.20465E+08
 
   -0.27709E+08        -0.18908E+05         0.00000E+00
   -0.18908E+05        -0.48833E+08         0.00000E+00
    0.00000E+00         0.00000E+00        -0.20465E+08
 
   -0.27500E+08        -0.69032E+04         0.00000E+00
   -0.69032E+04        -0.48829E+08         0.00000E+00
    0.00000E+00         0.00000E+00        -0.20465E+08
 
   -0.27290E+08         0.53516E+04         0.00000E+00
    0.53516E+04        -0.48829E+08         0.00000E+00
    0.00000E+00         0.00000E+00        -0.20466E+08
 
   -0.27080E+08         0.17880E+05         0.00000E+00
    0.17880E+05        -0.48835E+08         0.00000E+00
    0.00000E+00         0.00000E+00        -0.20466E+08
 
   -0.26868E+08         0.30710E+05         0.00000E+00
    0.30710E+05        -0.48845E+08         0.00000E+00
    0.00000E+00         0.00000E+00        -0.20466E+08
 
   -0.26655E+08         0.43875E+05         0.00000E+00
    0.43875E+05        -0.48860E+08         0.00000E+00
    0.00000E+00         0.00000E+00        -0.20467E+08
 
   -0.26439E+08         0.57414E+05         0.00000E+00
    0.57414E+05        -0.48881E+08         0.00000E+00
    0.00000E+00         0.00000E+00        -0.20467E+08
 
   -0.26221E+08         0.71370E+05         0.00000E+00
    0.71370E+05        -0.48907E+08         0.00000E+00
    0.00000E+00         0.00000E+00        -0.20467E+08
 
   -0.25999E+08         0.85798E+05         0.00000E+00
    0.85798E+05        -0.48939E+08         0.00000E+00
    0.00000E+00         0.00000E+00        -0.20468E+08
 
   -0.25774E+08         0.10076E+06         0.00000E+00
    0.10076E+06        -0.48977E+08         0.00000E+00
    0.00000E+00         0.00000E+00        -0.20468E+08
 
   -0.25544E+08         0.11633E+06         0.00000E+00
    0.11633E+06        -0.49021E+08         0.00000E+00
    0.00000E+00         0.00000E+00        -0.20468E+08
 
   -0.25309E+08         0.13260E+06         0.00000E+00
    0.13260E+06        -0.49071E+08         0.00000E+00
    0.00000E+00         0.00000E+00        -0.20468E+08
 
   -0.25067E+08         0.14967E+06         0.00000E+00
    0.14967E+06        -0.49128E+08         0.00000E+00
    0.00000E+00         0.00000E+00        -0.20469E+08
 
   -0.24819E+08         0.16768E+06         0.00000E+00
    0.16768E+06        -0.49192E+08         0.00000E+00
    0.00000E+00         0.00000E+00        -0.20469E+08
 
   -0.24564E+08         0.18679E+06         0.00000E+00
    0.18679E+06        -0.49263E+08         0.00000E+00
    0.00000E+00         0.00000E+00        -0.20469E+08
 
   -0.24300E+08         0.20721E+06         0.00000E+00
    0.20721E+06        -0.49342E+08         0.00000E+00
    0.00000E+00         0.00000E+00        -0.20469E+08
 
   -0.24026E+08         0.22920E+06         0.00000E+00
    0.22920E+06        -0.49429E+08         0.00000E+00
    0.00000E+00         0.00000E+00        -0.20470E+08
 
   -0.23741E+08         0.25310E+06         0.00000E+00
    0.25310E+06        -0.49525E+08         0.00000E+00
    0.00000E+00         0.00000E+00        -0.20470E+08
 
   -0.23443E+08         0.27937E+06         0.00000E+00
    0.27937E+06        -0.49632E+08         0.00000E+00
    0.00000E+00         0.00000E+00        -0.20470E+08
 
   -0.23131E+08         0.30864E+06         0.00000E+00
    0.30864E+06        -0.49749E+08         0.00000E+00
    0.00000E+00         0.00000E+00        -0.20470E+08
 
   -0.22800E+08         0.34175E+06         0.00000E+00
    0.34175E+06        -0.49878E+08         0.00000E+00
    0.00000E+00         0.00000E+00        -0.20470E+08
 
   -0.22450E+08         0.37996E+06         0.00000E+00
    0.37996E+06        -0.50021E+08         0.00000E+00
    0.00000E+00         0.00000E+00        -0.20470E+08
 
   -0.22075E+08         0.42513E+06         0.00000E+00
    0.42513E+06        -0.50180E+08         0.00000E+00
    0.00000E+00         0.00000E+00        -0.20471E+08
 
   -0.21669E+08         0.48009E+06         0.00000E+00
    0.48009E+06        -0.50358E+08         0.00000E+00
    0.00000E+00         0.00000E+00        -0.20471E+08
 
   -0.21226E+08         0.54946E+06         0.00000E+00
    0.54946E+06        -0.50558E+08         0.00000E+00
    0.00000E+00         0.00000E+00        -0.20471E+08
 
   -0.20732E+08         0.64093E+06         0.00000E+00
    0.64093E+06        -0.50786E+08         0.00000E+00
    0.00000E+00         0.00000E+00        -0.20471E+08
 
SCALARS stresss double 
LOOKUP_TABLE default
  -49842076.5626420     
  -49847794.6394159     
  -49852928.0228155     
  -49857605.5558626     
  -49861916.3374122     
  -49865924.7657052     
  -49869679.1356072     
  -49873216.7841362     
  -49876567.3087012     
  -49879754.6632654     
  -49882798.5742965     
  -49885715.5284538     
  -49888519.4811400     
  -49891222.3773802     
  -49893834.5430001     
  -49896364.9839801     
  -49898821.6194110     
  -49901211.4655449     
  -49903540.7832491     
  -49905815.1976929     
  -49908039.7967232     
  -49910219.2127331     
  -49912357.6916541     
  -49914459.1518683     
  -49916527.2352317     
  -49918565.3519622     
  -49920576.7208269     
  -49922564.4058462     
  -49924531.3505768     
  -49926480.4109536     
  -49928414.3876348     
  -49930336.0588235     
  -49932248.2146253     
  -49934153.6941637     
  -49936055.4269407     
  -49937956.4803261     
  -49939860.1156616     
  -49941769.8563619     
  -49943689.5727615     
  -49945623.5905638     
  -49947576.8330831     
  -49949555.0128903     
  -49951564.8975356     
  -49953614.6896805     
  -49955714.5899346     
  -49957877.6623496     
  -49960121.2212516     
  -49962469.1530654     
  -49964955.9840661     
  -49967634.3383706     
  -49838511.4081032     
  -49841628.4799045     
  -49844867.7294205     
  -49848119.7906135     
  -49851328.9280144     
  -49854467.4967959     
  -49857522.9144230     
  -49860490.8116150     
  -49863371.3274839     
  -49866167.0535231     
  -49868881.8682371     
  -49871520.2665129     
  -49874086.9708938     
  -49876586.7070659     
  -49879024.0767391     
  -49881403.4890677     
  -49883729.1275321     
  -49886004.9383299     
  -49888234.6317214     
  -49890421.6910296     
  -49892569.3859931     
  -49894680.7884168     
  -49896758.7888460     
  -49898806.1134926     
  -49900825.3409552     
  -49902818.9184816     
  -49904789.1776456     
  -49906738.3493902     
  -49908668.5784275     
  -49910581.9370006     
  -49912480.4380031     
  -49914366.0474149     
  -49916240.6959429     
  -49918106.2896416     
  -49919964.7190963     
  -49921817.8664502     
  -49923667.6090564     
  -49925515.8177166     
  -49927364.3460942     
  -49929215.0055301     
  -49931069.5153787     
  -49932929.4116151     
  -49934795.8829678     
  -49936669.4784351     
  -49938549.5809919     
  -49940433.4450211     
  -49942314.3970272     
  -49944178.3860621     
  -49945997.1875329     
  -49947714.6357076     
  -49835307.5273215     
  -49837383.5921260     
  -49839512.6086027     
  -49841700.1254614     
  -49843933.6616454     
  -49846196.8332693     
  -49848474.4920277     
  -49850754.2310322     
  -49853026.4960308     
  -49855284.2238959     
  -49857522.3754195     
  -49859737.4975626     
  -49861927.3555814     
  -49864090.6386966     
  -49866226.7303582     
  -49868335.5312458     
  -49870417.3238334     
  -49872472.6691315     
  -49874502.3281110     
  -49876507.2019686     
  -49878488.2867406     
  -49880446.6388237     
  -49882383.3487665     
  -49884299.5213034     
  -49886196.2600588     
  -49888074.6556867     
  -49889935.7764558     
  -49891780.6604623     
  -49893610.3087684     
  -49895425.6788232     
  -49897227.6775438     
  -49899017.1534010     
  -49900794.8867765     
  -49902561.5777226     
  -49904317.8300514     
  -49906064.1303924     
  -49907800.8204708     
  -49909528.0603581     
  -49911245.7798459     
  -49912953.6144560     
  -49914650.8221743     
  -49916336.1773872     
  -49918007.8412927     
  -49919663.2169710     
  -49921298.8211882     
  -49922910.2646346     
  -49924492.5764825     
  -49926041.4530343     
  -49927556.8270435     
  -49929052.0967041     
  -49830785.7714742     
  -49832237.5157002     
  -49833757.5710997     
  -49835333.9581827     
  -49836960.1875369     
  -49838630.2942191     
  -49840337.9186718     
  -49842076.5175908     
  -49843839.7430108     
  -49845621.7258937     
  -49847417.2302955     
  -49849221.7066834     
  -49851031.2803989     
  -49852842.7037344     
  -49854653.2908510     
  -49856460.8473804     
  -49858263.6014694     
  -49860060.1397550     
  -49861849.3497851     
  -49863630.3692399     
  -49865402.5416862     
  -49867165.3782751     
  -49868918.5246599     
  -49870661.7323791     
  -49872394.8339713     
  -49874117.7211306     
  -49875830.3252687     
  -49877532.5998976     
  -49879224.5042934     
  -49880905.9879377     
  -49882576.9752633     
  -49884237.3502529     
  -49885886.9404638     
  -49887525.5000819     
  -49889152.6916620     
  -49890768.0663079     
  -49892371.0422296     
  -49893960.8819382     
  -49895536.6689011     
  -49897097.2854179     
  -49898641.3949626     
  -49900167.4344605     
  -49901673.6249149     
  -49903158.0117197     
  -49904618.5457566     
  -49906053.2030669     
  -49907460.0862768     
  -49908837.2784851     
  -49910181.7282476     
  -49911485.1090749     
  -49825036.4642172     
  -49826063.5228387     
  -49827155.9544123     
  -49828309.3475862     
  -49829518.0306587     
  -49830776.6610978     
  -49832080.3371134     
  -49833424.4644837     
  -49834804.6676915     
  -49836216.7691159     
  -49837656.8064033     
  -49839121.0608927     
  -49840606.0818435     
  -49842108.7004295     
  -49843626.0327106     
  -49845155.4731931     
  -49846694.6813389     
  -49848241.5633361     
  -49849794.2510599     
  -49851351.0796965     
  -49852910.5650813     
  -49854471.3814514     
  -49856032.3400408     
  -49857592.3687519     
  -49859150.4929907     
  -49860705.8176587     
  -49862257.5102337     
  -49863804.7848300     
  -49865346.8871186     
  -49866883.0799806     
  -49868412.6297854     
  -49869934.7932118     
  -49871448.8045744     
  -49872953.8636809     
  -49874449.1243322     
  -49875933.6836863     
  -49877406.5728429     
  -49878866.7491552     
  -49880313.0909076     
  -49881744.3950512     
  -49883159.3785122     
  -49884556.6829488     
  -49885934.8813303     
  -49887292.4819199     
  -49888627.9211716     
  -49889939.5340982     
  -49891225.4997059     
  -49892483.8174832     
  -49893712.5935901     
  -49894911.6356039     
  -49817998.5448297     
  -49818734.1632621     
  -49819532.0129529     
  -49820388.2058704     
  -49821299.2036675     
  -49822261.4038299     
  -49823271.1985560     
  -49824325.0563236     
  -49825419.5621008     
  -49826551.4307218     
  -49827717.5106490     
  -49828914.7865289     
  -49830140.3827097     
  -49831391.5671632     
  -49832665.7546154     
  -49833960.5079299     
  -49835273.5372583     
  -49836602.6968720     
  -49837945.9798698     
  -49839301.5110989     
  -49840667.5386774     
  -49842042.4245011     
  -49843424.6340738     
  -49844812.7259496     
  -49846205.3410174     
  -49847601.1918080     
  -49848999.0519625     
  -49850397.7459681     
  -49851796.1392423     
  -49853193.1286373     
  -49854587.6334268     
  -49855978.5868431     
  -49857364.9282387     
  -49858745.5959574     
  -49860119.5210087     
  -49861485.6216435     
  -49862842.7989135     
  -49864189.9332561     
  -49865525.8820715     
  -49866849.4781305     
  -49868159.5285088     
  -49869454.8136424     
  -49870734.0862345     
  -49871996.0704973     
  -49873239.4641088     
  -49874462.9485109     
  -49875665.2151902     
  -49876845.0022749     
  -49878001.0533208     
  -49879131.5791670     
  -49809669.8449534     
  -49810204.2299752     
  -49810796.8657256     
  -49811444.9602918     
  -49812145.6618012     
  -49812896.1818662     
  -49813693.7784504     
  -49814535.7465463     
  -49815419.4241509     
  -49816342.2031700     
  -49817301.5393097     
  -49818294.9594225     
  -49819320.0666294     
  -49820374.5438693     
  -49821456.1563338     
  -49822562.7529939     
  -49823692.2672646     
  -49824842.7167938     
  -49826012.2023635     
  -49827198.9059244     
  -49828401.0878206     
  -49829617.0832941     
  -49830845.2983788     
  -49832084.2053040     
  -49833332.3375297     
  -49834588.2845329     
  -49835850.6864552     
  -49837118.2287167     
  -49838389.6366870     
  -49839663.6705022     
  -49840939.1201013     
  -49842214.8005543     
  -49843489.5477409     
  -49844762.2144328     
  -49846031.6668203     
  -49847296.7815092     
  -49848556.4430027     
  -49849809.5416677     
  -49851054.9721832     
  -49852291.6324856     
  -49853518.4232715     
  -49854734.2482057     
  -49855938.0150636     
  -49857128.6379880     
  -49858305.0405501     
  -49859466.1579065     
  -49860610.9341032     
  -49861738.3116238     
  -49862847.2362762     
  -49863936.8366648     
  -49800058.9167664     
  -49800459.5551687     
  -49800914.0539664     
  -49801420.2362370     
  -49801975.9375825     
  -49802578.9843857     
  -49803227.2109628     
  -49803918.4698116     
  -49804650.6366055     
  -49805421.6140446     
  -49806229.3359110     
  -49807071.7712334     
  -49807946.9281716     
  -49808852.8573613     
  -49809787.6546186     
  -49810749.4630079     
  -49811736.4743113     
  -49812746.9299433     
  -49813779.1213507     
  -49814831.3899317     
  -49815902.1265073     
  -49816989.7703813     
  -49818092.8080322     
  -49819209.7714835     
  -49820339.2364048     
  -49821479.8200004     
  -49822630.1787417     
  -49823789.0060017     
  -49824955.0296465     
  -49826127.0096382     
  -49827303.7356984     
  -49828484.0250762     
  -49829666.7204638     
  -49830850.6880928     
  -49832034.8160426     
  -49833218.0127895     
  -49834399.2060189     
  -49835577.3417287     
  -49836751.3836458     
  -49837920.3129816     
  -49839083.1285388     
  -49840238.8471489     
  -49841386.5043706     
  -49842525.1553145     
  -49843653.8755088     
  -49844771.7621218     
  -49845877.9369088     
  -49846971.5531280     
  -49848051.8016725     
  -49849117.8599793     
  -49789185.9703959     
  -49789504.2840344     
  -49789871.9928393     
  -49790287.4001183     
  -49790748.7950295     
  -49791254.4637291     
  -49791802.6899307     
  -49792391.7582161     
  -49793019.9584004     
  -49793685.5895856     
  -49794386.9636732     
  -49795122.4084654     
  -49795890.2704719     
  -49796688.9174554     
  -49797516.7407055     
  -49798372.1570188     
  -49799253.6103702     
  -49800159.5732738     
  -49801088.5478406     
  -49802039.0665477     
  -49803009.6927352     
  -49803999.0208545     
  -49805005.6764876     
  -49806028.3161652     
  -49807065.6270078     
  -49808116.3262185     
  -49809179.1604564     
  -49810252.9051202     
  -49811336.3635706     
  -49812428.3663228     
  -49813527.7702349     
  -49814633.4577215     
  -49815744.3360161     
  -49816859.3365079     
  -49817977.4141735     
  -49819097.5471241     
  -49820218.7362852     
  -49821340.0052238     
  -49822460.4001321     
  -49823578.9899733     
  -49824694.8667899     
  -49825807.1461773     
  -49826914.9679376     
  -49828017.4969568     
  -49829113.9243722     
  -49830203.4690150     
  -49831285.3787425     
  -49832358.9306329     
  -49833423.4305337     
  -49834478.2309196     
  -49777077.3071218     
  -49777353.1166034     
  -49777673.9446339     
  -49778038.4629205     
  -49778445.3268933     
  -49778893.1774630     
  -49779380.6453731     
  -49779906.3543795     
  -49780468.9240414     
  -49781066.9724759     
  -49781699.1190530     
  -49782363.9869537     
  -49783060.2055459     
  -49783786.4125718     
  -49784541.2561492     
  -49785323.3965895     
  -49786131.5080364     
  -49786964.2799262     
  -49787820.4182711     
  -49788698.6467730     
  -49789597.7077718     
  -49790516.3630396     
  -49791453.3944308     
  -49792407.6044011     
  -49793377.8164087     
  -49794362.8752128     
  -49795361.6470842     
  -49796373.0199447     
  -49797395.9034495     
  -49798429.2290315     
  -49799471.9499197     
  -49800523.0411506     
  -49801581.4995849     
  -49802646.3439447     
  -49803716.6148836     
  -49804791.3751018     
  -49805869.7095158     
  -49806950.7254929     
  -49808033.5531565     
  -49809117.3457713     
  -49810201.2802152     
  -49811284.5575438     
  -49812366.4036505     
  -49813446.0700148     
  -49814522.8345098     
  -49815596.0022445     
  -49816664.9065189     
  -49817728.9102603     
  -49818787.4081065     
  -49819839.8230092     
  -49763761.3039921     
  -49764025.4111779     
  -49764330.3998641     
  -49764675.2309503     
  -49765058.8448066     
  -49765480.1642711     
  -49765938.0968995     
  -49766431.5374793     
  -49766959.3704958     
  -49767520.4724595     
  -49768113.7141123     
  -49768737.9625315     
  -49769392.0831315     
  -49770074.9415601     
  -49770785.4054818     
  -49771522.3462462     
  -49772284.6404420     
  -49773071.1713365     
  -49773880.8302036     
  -49774712.5175438     
  -49775565.1441993     
  -49776437.6323690     
  -49777328.9165294     
  -49778237.9442679     
  -49779163.6770346     
  -49780105.0908214     
  -49781061.1767755     
  -49782030.9417569     
  -49783013.4088475     
  -49784007.6178206     
  -49785012.6255808     
  -49786027.5065811     
  -49787051.3532265     
  -49788083.2762717     
  -49789122.4052201     
  -49790167.8887315     
  -49791218.8950442     
  -49792274.6124175     
  -49793334.2495989     
  -49794397.0363215     
  -49795462.2238323     
  -49796529.0854539     
  -49797596.9171792     
  -49798665.0383008     
  -49799732.7920822     
  -49800799.5464833     
  -49801864.6949272     
  -49802927.6569871     
  -49803987.8788360     
  -49805044.8353670     
  -49749264.7193214     
  -49749540.7874197     
  -49749853.9358955     
  -49750203.3527745     
  -49750588.2037706     
  -49751007.6343899     
  -49751460.7721454     
  -49751946.7286074     
  -49752464.6013936     
  -49753013.4761092     
  -49753592.4282242     
  -49754200.5248788     
  -49754836.8266143     
  -49755500.3890300     
  -49756190.2643653     
  -49756905.5030071     
  -49757645.1549210     
  -49758408.2710080     
  -49759193.9043864     
  -49760001.1116015     
  -49760828.9537635     
  -49761676.4976178     
  -49762542.8165501     
  -49763426.9915286     
  -49764328.1119887     
  -49765245.2766628     
  -49766177.5943609     
  -49767124.1847047     
  -49768084.1788215     
  -49769056.7200014     
  -49770040.9643234     
  -49771036.0812538     
  -49772041.2542235     
  -49773055.6811852     
  -49774078.5751586     
  -49775109.1647639     
  -49776146.6947489     
  -49777190.4265121     
  -49778239.6386248     
  -49779293.6273531     
  -49780351.7071829     
  -49781413.2113485     
  -49782477.4923651     
  -49783543.9225678     
  -49784611.8946519     
  -49785680.8222105     
  -49786750.1402642     
  -49787819.3058164     
  -49788887.7985046     
  -49789955.1207638     
  -49733609.7757938     
  -49733915.7739758     
  -49734255.4493883     
  -49734628.1661188     
  -49735033.2653476     
  -49735470.0671721     
  -49735937.8723534     
  -49736435.9640533     
  -49736963.6095242     
  -49737520.0617503     
  -49738104.5610407     
  -49738716.3365766     
  -49739354.6079077     
  -49740018.5863991     
  -49740707.4766263     
  -49741420.4777179     
  -49742156.7846467     
  -49742915.5894680     
  -49743696.0825068     
  -49744497.4534934     
  -49745318.8926498     
  -49746159.5917259     
  -49747018.7449890     
  -49747895.5501678     
  -49748789.2093513     
  -49749698.9298470     
  -49750623.9249984     
  -49751563.4149658     
  -49752516.6274715     
  -49753482.7985131     
  -49754461.1730453     
  -49755451.0056352     
  -49756451.5610914     
  -49757462.1150701     
  -49758481.9546593     
  -49759510.3789449     
  -49760546.6995581     
  -49761590.2412075     
  -49762640.3421958     
  -49763696.3549234     
  -49764757.6463780     
  -49765823.5986122     
  -49766893.6092075     
  -49767967.0917259     
  -49769043.4761463     
  -49770122.2092890     
  -49771202.7552268     
  -49772284.5956740     
  -49773367.2303185     
  -49774450.1772711     
  -49716812.0415385     
  -49717161.4269344     
  -49717541.5141441     
  -49717951.8010121     
  -49718391.7628638     
  -49718860.8539987     
  -49719358.5091674     
  -49719884.1450132     
  -49720437.1614865     
  -49721016.9432289     
  -49721622.8609266     
  -49722254.2726295     
  -49722910.5250365     
  -49723590.9547458     
  -49724294.8894689     
  -49725021.6492090     
  -49725770.5474020     
  -49726540.8920211     
  -49727331.9866434     
  -49728143.1314809     
  -49728973.6243737     
  -49729822.7617477     
  -49730689.8395362     
  -49731574.1540674     
  -49732475.0029163     
  -49733391.6857252     
  -49734323.5049905     
  -49735269.7668189     
  -49736229.7816544     
  -49737202.8649745     
  -49738188.3379608     
  -49739185.5281411     
  -49740193.7700074     
  -49741212.4056083     
  -49742240.7851184     
  -49743278.2673849     
  -49744324.2204525     
  -49745378.0220662     
  -49746439.0601542     
  -49747506.7332897     
  -49748580.4511325     
  -49749659.6348504     
  -49750743.7175197     
  -49751832.1445051     
  -49752924.3738183     
  -49754019.8764534     
  -49755118.1366986     
  -49756218.6524232     
  -49757320.9353519     
  -49758424.5112719     
  -49698879.0635946     
  -49699281.7650635     
  -49699712.6260977     
  -49700171.2431550     
  -49700657.1912317     
  -49701170.0250894     
  -49701709.2804653     
  -49702274.4752676     
  -49702865.1107522     
  -49703480.6726792     
  -49704120.6324495     
  -49704784.4482185     
  -49705471.5659872     
  -49706181.4206698     
  -49706913.4371357     
  -49707667.0312266     
  -49708441.6107473     
  -49709236.5764308     
  -49710051.3228754     
  -49710885.2394560     
  -49711737.7112073     
  -49712608.1196803     
  -49713495.8437718     
  -49714400.2605261     
  -49715320.7459108     
  -49716256.6755652     
  -49717207.4255233     
  -49718172.3729099     
  -49719150.8966121     
  -49720142.3779253     
  -49721146.2011740     
  -49722161.7543096     
  -49723188.4294827     
  -49724225.6235932     
  -49725272.7388163     
  -49726329.1831062     
  -49727394.3706768     
  -49728467.7224596     
  -49729548.6665396     
  -49730636.6385685     
  -49731731.0821551     
  -49732831.4492332     
  -49733937.2004065     
  -49735047.8052697     
  -49736162.7427057     
  -49737281.5011581     
  -49738403.5788792     
  -49739528.4841515     
  -49740655.7354783     
  -49741784.8617579     
  -49679809.6288650     
  -49680272.8678121     
  -49680762.1447917     
  -49681277.1259690     
  -49681817.4575250     
  -49682382.7666506     
  -49682972.6625322     
  -49683586.7373286     
  -49684224.5671386     
  -49684885.7129562     
  -49685569.7216139     
  -49686276.1267118     
  -49687004.4495323     
  -49687754.1999383     
  -49688524.8772558     
  -49689315.9711381     
  -49690126.9624125     
  -49690957.3239084     
  -49691806.5212653     
  -49692674.0137220     
  -49693559.2548853     
  -49694461.6934780     
  -49695380.7740668     
  -49696315.9377686     
  -49697266.6229362     
  -49698232.2658223     
  -49699212.3012228     
  -49700206.1630982     
  -49701213.2851742     
  -49702233.1015202     
  -49703265.0471070     
  -49704308.5583432     
  -49705363.0735895     
  -49706428.0336530     
  -49707502.8822583     
  -49708587.0664994     
  -49709680.0372679     
  -49710781.2496618     
  -49711890.1633706     
  -49713006.2430403     
  -49714128.9586152     
  -49715257.7856577     
  -49716392.2056460     
  -49717531.7062478     
  -49718675.7815717     
  -49719823.9323938     
  -49720975.6663608     
  -49722130.4981673     
  -49723287.9497092     
  -49724447.5502080     
  -49659593.5061546     
  -49660122.4756616     
  -49660675.7580398     
  -49661253.0656638     
  -49661854.0926289     
  -49662478.5155451     
  -49663125.9943288     
  -49663796.1729922     
  -49664488.6804285     
  -49665203.1311913     
  -49665939.1262677     
  -49666696.2538436     
  -49667474.0900604     
  -49668272.1997615     
  -49669090.1372289     
  -49669927.4469078     
  -49670783.6641192     
  -49671658.3157598     
  -49672550.9209877     
  -49673460.9918946     
  -49674388.0341631     
  -49675331.5477086     
  -49676291.0273058     
  -49677265.9631987     
  -49678255.8416950     
  -49679260.1457432     
  -49680278.3554923     
  -49681309.9488351     
  -49682354.4019334     
  -49683411.1897252     
  -49684479.7864145     
  -49685559.6659425     
  -49686650.3024404     
  -49687751.1706640     
  -49688861.7464088     
  -49689981.5069071     
  -49691109.9312052     
  -49692246.5005214     
  -49693390.6985847     
  -49694542.0119532     
  -49695699.9303132     
  -49696863.9467566     
  -49698033.5580397     
  -49699208.2648191     
  -49700387.5718672     
  -49701570.9882669     
  -49702758.0275827     
  -49703948.2080110     
  -49705141.0525070     
  -49706336.0888888     
  -49638211.5278214     
  -49638809.9475420     
  -49639431.3199302     
  -49640075.3847314     
  -49640741.8651975     
  -49641430.4687127     
  -49642140.8874218     
  -49642872.7988598     
  -49643625.8665813     
  -49644399.7407889     
  -49645194.0589593     
  -49646008.4464657     
  -49646842.5171964     
  -49647695.8741678     
  -49648568.1101314     
  -49649458.8081736     
  -49650367.5423077     
  -49651293.8780582     
  -49652237.3730344     
  -49653197.5774954     
  -49654174.0349040     
  -49655166.2824700     
  -49656173.8516813     
  -49657196.2688234     
  -49658233.0554862     
  -49659283.7290580     
  -49660347.8032059     
  -49661424.7883423     
  -49662514.1920777     
  -49663615.5196590     
  -49664728.2743924     
  -49665851.9580520     
  -49666986.0712727     
  -49668130.1139272     
  -49669283.5854876     
  -49670445.9853705     
  -49671616.8132654     
  -49672795.5694473     
  -49673981.7550711     
  -49675174.8724499     
  -49676374.4253155     
  -49677579.9190607     
  -49678790.8609644     
  -49680006.7603986     
  -49681227.1290159     
  -49682451.4809194     
  -49683679.3328137     
  -49684910.2041356     
  -49686143.6171671     
  -49687379.0971272     
  -49615635.8897224     
  -49616306.4527585     
  -49616998.9384477     
  -49617713.0990123     
  -49618448.6719458     
  -49619205.3805007     
  -49619982.9341806     
  -49620781.0292368     
  -49621599.3491669     
  -49622437.5652160     
  -49623295.3368774     
  -49624172.3123944     
  -49625068.1292596     
  -49625982.4147134     
  -49626914.7862380     
  -49627864.8520493     
  -49628832.2115833     
  -49629816.4559776     
  -49630817.1685469     
  -49631833.9252522     
  -49632866.2951624     
  -49633913.8409086     
  -49634976.1191295     
  -49636052.6809089     
  -49637143.0722025     
  -49638246.8342565     
  -49639363.5040141     
  -49640492.6145131     
  -49641633.6952711     
  -49642786.2726599     
  -49643949.8702679     
  -49645124.0092502     
  -49646308.2086661     
  -49647501.9858044     
  -49648704.8564948     
  -49649916.3354063     
  -49651135.9363321     
  -49652363.1724599     
  -49653597.5566289     
  -49654838.6015717     
  -49656085.8201419     
  -49657338.7255265     
  -49658596.8314436     
  -49659859.6523246     
  -49661126.7034813     
  -49662397.5012562     
  -49663671.5631590     
  -49664948.4079851     
  -49666227.5559191     
  -49667508.5286221     
  -49591830.5731661     
  -49592575.3005777     
  -49593341.2153714     
  -49594128.0706321     
  -49594935.6063941     
  -49595763.5500158     
  -49596611.6165621     
  -49597479.5091908     
  -49598366.9195450     
  -49599273.5281475     
  -49600199.0047990     
  -49601143.0089772     
  -49602105.1902376     
  -49603085.1886138     
  -49604082.6350176     
  -49605097.1516372     
  -49606128.3523341     
  -49607175.8430365     
  -49608239.2221294     
  -49609318.0808414     
  -49610412.0036258     
  -49611520.5685370     
  -49612643.3476016     
  -49613779.9071822     
  -49614929.8083356     
  -49616092.6071628     
  -49617267.8551521     
  -49618455.0995134     
  -49619653.8835046     
  -49620863.7467490     
  -49622084.2255430     
  -49623314.8531547     
  -49624555.1601126     
  -49625804.6744836     
  -49627062.9221408     
  -49628329.4270207     
  -49629603.7113687     
  -49630885.2959740     
  -49632173.7003923     
  -49633468.4431573     
  -49634769.0419796     
  -49636075.0139342     
  -49637385.8756346     
  -49638701.1433959     
  -49640020.3333834     
  -49641342.9617503     
  -49642668.5447608     
  -49643996.5989018     
  -49645326.6409799     
  -49646658.1882069     
  -49566751.8171100     
  -49567572.3349129     
  -49568413.5652626     
  -49569275.2531699     
  -49570157.1321458     
  -49571058.9244874     
  -49571980.3415715     
  -49572921.0841541     
  -49573880.8426751     
  -49574859.2975680     
  -49575856.1195727     
  -49576870.9700521     
  -49577903.5013103     
  -49578953.3569129     
  -49580020.1720079     
  -49581103.5736470     
  -49582203.1811064     
  -49583318.6062068     
  -49584449.4536314     
  -49585595.3212421     
  -49586755.8003931     
  -49587930.4762407     
  -49589118.9280498     
  -49590320.7294963     
  -49591535.4489643     
  -49592762.6498386     
  -49594001.8907914     
  -49595252.7260635     
  -49596514.7057385     
  -49597787.3760107     
  -49599070.2794462     
  -49600362.9552359     
  -49601664.9394415     
  -49602975.7652333     
  -49604294.9631198     
  -49605622.0611683     
  -49606956.5852177     
  -49608298.0590814     
  -49609646.0047415     
  -49610999.9425337     
  -49612359.3913218     
  -49613723.8686640     
  -49615092.8909675     
  -49616465.9736346     
  -49617842.6311979     
  -49619222.3774452     
  -49620604.7255351     
  -49621989.1881005     
  -49623375.2773436     
  -49624762.5051191     
  -49540348.5901579     
  -49541246.3425063     
  -49542164.5609669     
  -49543102.9756824     
  -49544061.3067005     
  -49545039.2641907     
  -49546036.5486687     
  -49547052.8512266     
  -49548087.8537692     
  -49549141.2292554     
  -49550212.6419435     
  -49551301.7476405     
  -49552408.1939547     
  -49553531.6205504     
  -49554671.6594044     
  -49555827.9350642     
  -49557000.0649070     
  -49558187.6593979     
  -49559390.3223496     
  -49560607.6511794     
  -49561839.2371660     
  -49563084.6657044     
  -49564343.5165583     
  -49565615.3641098     
  -49566899.7776065     
  -49568196.3214045     
  -49569504.5552083     
  -49570824.0343053     
  -49572154.3097974     
  -49573494.9288257     
  -49574845.4347921     
  -49576205.3675733     
  -49577574.2637309     
  -49578951.6567137     
  -49580337.0770553     
  -49581730.0525639     
  -49583130.1085059     
  -49584536.7677822     
  -49585949.5510982     
  -49587367.9771252     
  -49588791.5626550     
  -49590219.8227472     
  -49591652.2708680     
  -49593088.4190216     
  -49594527.7778736     
  -49595969.8568665     
  -49597414.1643267     
  -49598860.2075639     
  -49600307.4929620     
  -49601755.5260620     
  -49512563.0291454     
  -49513539.4399596     
  -49514536.2697086     
  -49515553.2285561     
  -49516590.0178244     
  -49517646.3301591     
  -49518721.8496996     
  -49519816.2522570     
  -49520929.2054970     
  -49522060.3691276     
  -49523209.3950921     
  -49524375.9277653     
  -49525559.6041536     
  -49526760.0540982     
  -49527976.9004795     
  -49529209.7594255     
  -49530458.2405196     
  -49531721.9470109     
  -49533000.4760240     
  -49534293.4187696     
  -49535600.3607545     
  -49536920.8819909     
  -49538254.5572043     
  -49539600.9560405     
  -49540959.6432704     
  -49542330.1789923     
  -49543712.1188320     
  -49545105.0141404     
  -49546508.4121866     
  -49547921.8563493     
  -49549344.8863028     
  -49550777.0381999     
  -49552217.8448505     
  -49553666.8358954     
  -49555123.5379751     
  -49556587.4748947     
  -49558058.1677826     
  -49559535.1352442     
  -49561017.8935104     
  -49562505.9565802     
  -49563998.8363581     
  -49565496.0427843     
  -49566997.0839608     
  -49568501.4662697     
  -49570008.6944868     
  -49571518.2718878     
  -49573029.7003491     
  -49574542.4804424     
  -49576056.1115221     
  -49577570.0918078     
  -49483330.8242916     
  -49484387.4180117     
  -49485464.5567457     
  -49486561.9268614     
  -49487679.2069925     
  -49488816.0681642     
  -49489972.1739247     
  -49491147.1804830     
  -49492340.7368512     
  -49493552.4849921     
  -49494782.0599714     
  -49496029.0901132     
  -49497293.1971598     
  -49498573.9964336     
  -49499871.0970024     
  -49501184.1018467     
  -49502512.6080288     
  -49503856.2068634     
  -49505214.4840892     
  -49506587.0200412     
  -49507973.3898233     
  -49509373.1634810     
  -49510785.9061737     
  -49512211.1783462     
  -49513648.5358994     
  -49515097.5303594     
  -49516557.7090454     
  -49518028.6152355     
  -49519509.7883303     
  -49521000.7640143     
  -49522501.0744145     
  -49524010.2482565     
  -49525527.8110167     
  -49527053.2850723     
  -49528586.1898472     
  -49530126.0419539     
  -49531672.3553328     
  -49533224.6413862     
  -49534782.4091088     
  -49536345.1652144     
  -49537912.4142572     
  -49539483.6587499     
  -49541058.3992761     
  -49542636.1345990     
  -49544216.3617649     
  -49545798.5762025     
  -49547382.2718168     
  -49548966.9410788     
  -49550552.0751105     
  -49552137.1637649     
  -49452581.5405422     
  -49453720.0311020     
  -49454879.3431493     
  -49456059.1364102     
  -49457259.0638488     
  -49458478.7717652     
  -49459717.8998980     
  -49460976.0815333     
  -49462252.9436175     
  -49463548.1068748     
  -49464861.1859289     
  -49466191.7894281     
  -49467539.5201741     
  -49468903.9752535     
  -49470284.7461719     
  -49471681.4189903     
  -49473093.5744638     
  -49474520.7881818     
  -49475962.6307089     
  -49477418.6677279     
  -49478888.4601822     
  -49480371.5644204     
  -49481867.5323390     
  -49483375.9115265     
  -49484896.2454064     
  -49486428.0733797     
  -49487970.9309663     
  -49489524.3499457     
  -49491087.8584961     
  -49492660.9813317     
  -49494243.2398383     
  -49495834.1522073     
  -49497433.2335674     
  -49499039.9961132     
  -49500653.9492325     
  -49502274.5996303     
  -49503901.4514497     
  -49505534.0063907     
  -49507171.7638254     
  -49508814.2209100     
  -49510460.8726942     
  -49512111.2122263     
  -49513764.7306559     
  -49515420.9173326     
  -49517079.2599012     
  -49518739.2443936     
  -49520400.3553172     
  -49522062.0757392     
  -49523723.8873684     
  -49525385.2706319     
  -49420238.8714761     
  -49421461.2270869     
  -49422704.8111575     
  -49423969.2546356     
  -49425254.1825582     
  -49426559.2141312     
  -49427883.9628119     
  -49429228.0363978     
  -49430591.0371186     
  -49431972.5617318     
  -49433372.2016230     
  -49434789.5429085     
  -49436224.1665409     
  -49437675.6484187     
  -49439143.5594966     
  -49440627.4658992     
  -49442126.9290360     
  -49443641.5057188     
  -49445170.7482791     
  -49446714.2046884     
  -49448271.4186775     
  -49449841.9298583     
  -49451425.2738445     
  -49453020.9823732     
  -49454628.5834265     
  -49456247.6013528     
  -49457877.5569870     
  -49459517.9677711     
  -49461168.3478732     
  -49462828.2083060     
  -49464497.0570433     
  -49466174.3991363     
  -49467859.7368274     
  -49469552.5696628     
  -49471252.3946033     
  -49472958.7061332     
  -49474670.9963668     
  -49476388.7551536     
  -49478111.4701803     
  -49479838.6270711     
  -49481569.7094856     
  -49483304.1992138     
  -49485041.5762691     
  -49486781.3189783     
  -49488522.9040694     
  -49490265.8067564     
  -49492009.5008219     
  -49493753.4586963     
  -49495497.1515352     
  -49497240.0492936     
  -49386220.8266486     
  -49387529.3166142     
  -49388859.5553082     
  -49390211.1432605     
  -49391583.6758385     
  -49392976.7433141     
  -49394389.9309344     
  -49395822.8189966     
  -49397274.9829259     
  -49398745.9933569     
  -49400235.4162182     
  -49401742.8128200     
  -49403267.7399433     
  -49404809.7499330     
  -49406368.3907917     
  -49407943.2062764     
  -49409533.7359966     
  -49411139.5155139     
  -49412760.0764426     
  -49414394.9465520     
  -49416043.6498692     
  -49417705.7067826     
  -49419380.6341460     
  -49421067.9453828     
  -49422767.1505909     
  -49424477.7566469     
  -49426199.2673104     
  -49427931.1833281     
  -49429673.0025371     
  -49431424.2199677     
  -49433184.3279453     
  -49434952.8161915     
  -49436729.1719240     
  -49438512.8799556     
  -49440303.4227915     
  -49442100.2807254     
  -49443902.9319343     
  -49445710.8525717     
  -49447523.5168585     
  -49449340.3971734     
  -49451160.9641401     
  -49452984.6867140     
  -49454811.0322662     
  -49456639.4666656     
  -49458469.4543594     
  -49460300.4584515     
  -49462131.9407788     
  -49463963.3619855     
  -49465794.1815957     
  -49467623.8580837     
  -49350439.8560636     
  -49351837.0846487     
  -49353256.6806873     
  -49354698.2129836     
  -49356161.2458410     
  -49357645.3391228     
  -49359150.0483158     
  -49360674.9245972     
  -49362219.5149039     
  -49363783.3620051     
  -49365366.0045768     
  -49366966.9772787     
  -49368585.8108336     
  -49370222.0321082     
  -49371875.1641962     
  -49373544.7265026     
  -49375230.2348297     
  -49376931.2014642     
  -49378647.1352653     
  -49380377.5417539     
  -49382121.9232027     
  -49383879.7787267     
  -49385650.6043740     
  -49387433.8932175     
  -49389229.1354459     
  -49391035.8184558     
  -49392853.4269428     
  -49394681.4429927     
  -49396519.3461725     
  -49398366.6136210     
  -49400222.7201380     
  -49402087.1382741     
  -49403959.3384187     
  -49405838.7888877     
  -49407724.9560097     
  -49409617.3042116     
  -49411515.2961033     
  -49413418.3925600     
  -49415326.0528049     
  -49417237.7344895     
  -49419152.8937724     
  -49421070.9853976     
  -49422991.4627708     
  -49424913.7780338     
  -49426837.3821386     
  -49428761.7249187     
  -49430686.2551596     
  -49432610.4206677     
  -49434533.6683376     
  -49436455.4442181     
  -49312802.9170776     
  -49314291.8484250     
  -49315803.8515764     
  -49317338.4625027     
  -49318895.2132676     
  -49320473.6320859     
  -49322073.2433842     
  -49323693.5678642     
  -49325334.1225679     
  -49326994.4209447     
  -49328673.9729203     
  -49330372.2849683     
  -49332088.8601820     
  -49333823.1983485     
  -49335574.7960243     
  -49337343.1466114     
  -49339127.7404350     
  -49340928.0648222     
  -49342743.6041808     
  -49344573.8400798     
  -49346418.2513297     
  -49348276.3140636     
  -49350147.5018183     
  -49352031.2856159     
  -49353927.1340456     
  -49355834.5133451     
  -49357752.8874820     
  -49359681.7182352     
  -49361620.4652757     
  -49363568.5862472     
  -49365525.5368462     
  -49367490.7709013     
  -49369463.7404519     
  -49371443.8958266     
  -49373430.6857203     
  -49375423.5572702     
  -49377421.9561319     
  -49379425.3265535     
  -49381433.1114493     
  -49383444.7524718     
  -49385459.6900835     
  -49387477.3636267     
  -49389497.2113927     
  -49391518.6706893     
  -49393541.1779080     
  -49395564.1685886     
  -49397587.0774842     
  -49399609.3386235     
  -49401630.3853730     
  -49403649.6504971     
  -49273211.4898188     
  -49274795.4670544     
  -49276403.2948854     
  -49278034.4754431     
  -49279688.5074938     
  -49281364.8864988     
  -49283063.1046747     
  -49284782.6510565     
  -49286523.0115616     
  -49288283.6690553     
  -49290064.1034173     
  -49291863.7916102     
  -49293682.2077478     
  -49295518.8231655     
  -49297373.1064911     
  -49299244.5237162     
  -49301132.5382685     
  -49303036.6110846     
  -49304956.2006836     
  -49306890.7632399     
  -49308839.7526581     
  -49310802.6206464     
  -49312778.8167912     
  -49314767.7886310     
  -49316768.9817306     
  -49318781.8397552     
  -49320805.8045440     
  -49322840.3161834     
  -49324884.8130805     
  -49326938.7320352     
  -49329001.5083122     
  -49331072.5757130     
  -49333151.3666458     
  -49335237.3121966     
  -49337329.8421976     
  -49339428.3852964     
  -49341532.3690233     
  -49343641.2198582     
  -49345754.3632967     
  -49347871.2239148     
  -49349991.2254328     
  -49352113.7907784     
  -49354238.3421489     
  -49356364.3010717     
  -49358491.0884643     
  -49360618.1246934     
  -49362744.8296324     
  -49364870.6227181     
  -49366994.9230069     
  -49369117.1492289     
  -49231561.5474365     
  -49233244.3083907     
  -49234951.7632817     
  -49236683.3794201     
  -49238438.6212601     
  -49240216.9504624     
  -49242017.8259575     
  -49243840.7040105     
  -49245685.0382863     
  -49247550.2799161     
  -49249435.8775635     
  -49251341.2774928     
  -49253265.9236361     
  -49255209.2576616     
  -49257170.7190430     
  -49259149.7451279     
  -49261145.7712068     
  -49263158.2305830     
  -49265186.5546417     
  -49267230.1729193     
  -49269288.5131731     
  -49271361.0014501     
  -49273447.0621563     
  -49275546.1181252     
  -49277657.5906867     
  -49279780.8997346     
  -49281915.4637946     
  -49284060.7000912     
  -49286216.0246143     
  -49288380.8521853     
  -49290554.5965226     
  -49292736.6703058     
  -49294926.4852397     
  -49297123.4521180     
  -49299326.9808851     
  -49301536.4806977     
  -49303751.3599856     
  -49305971.0265115     
  -49308194.8874297     
  -49310422.3493441     
  -49312652.8183653     
  -49314885.7001661     
  -49317120.4000372     
  -49319356.3229410     
  -49321592.8735647     
  -49323829.4563722     
  -49326065.4756555     
  -49328300.3355848     
  -49330533.4402576     
  -49332764.1937471     
  -49187743.4873865     
  -49189529.1787907     
  -49191340.4630833     
  -49193176.7717437     
  -49195037.5338850     
  -49196922.1763223     
  -49198830.1236404     
  -49200760.7982626     
  -49202713.6205183     
  -49204688.0087121     
  -49206683.3791918     
  -49208699.1464173     
  -49210734.7230288     
  -49212789.5199154     
  -49214862.9462831     
  -49216954.4097230     
  -49219063.3162786     
  -49221189.0705139     
  -49223331.0755801     
  -49225488.7332822     
  -49227661.4441455     
  -49229848.6074813     
  -49232049.6214520     
  -49234263.8831358     
  -49236490.7885907     
  -49238729.7329183     
  -49240980.1103256     
  -49243241.3141875     
  -49245512.7371083     
  -49247793.7709811     
  -49250083.8070484     
  -49252382.2359599     
  -49254688.4478311     
  -49257001.8322995     
  -49259321.7785810     
  -49261647.6755248     
  -49263978.9116675     
  -49266314.8752861     
  -49268654.9544502     
  -49270998.5370728     
  -49273345.0109612     
  -49275693.7638650     
  -49278044.1835250     
  -49280395.6577199     
  -49282747.5743125     
  -49285099.3212949     
  -49287450.2868322     
  -49289799.8593060     
  -49292147.4273563     
  -49294492.3799230     
  -49141642.0296661     
  -49143535.2212228     
  -49145454.9519144     
  -49147400.6163077     
  -49149371.6070919     
  -49151367.3151534     
  -49153387.1296480     
  -49155430.4380753     
  -49157496.6263502     
  -49159585.0788750     
  -49161695.1786114     
  -49163826.3071507     
  -49165977.8447839     
  -49168149.1705720     
  -49170339.6624138     
  -49172548.6971150     
  -49174775.6504548     
  -49177019.8972531     
  -49179280.8114360     
  -49181557.7661005     
  -49183850.1335794     
  -49186157.2855037     
  -49188478.5928652     
  -49190813.4260783     
  -49193161.1550396     
  -49195521.1491880     
  -49197892.7775630     
  -49200275.4088617     
  -49202668.4114958     
  -49205071.1536465     
  -49207483.0033188     
  -49209903.3283949     
  -49212331.4966861     
  -49214766.8759835     
  -49217208.8341086     
  -49219656.7389611     
  -49222109.9585675     
  -49224567.8611268     
  -49227029.8150561     
  -49229495.1890351     
  -49231963.3520491     
  -49234433.6734306     
  -49236905.5229009     
  -49239378.2706095     
  -49241851.2871725     
  -49244323.9437110     
  -49246795.6118871     
  -49249265.6639394     
  -49251733.4727180     
  -49254198.4117174     
  -49093136.0875420     
  -49095141.7869029     
  -49097175.0109323     
  -49099235.1161072     
  -49101321.4575296     
  -49103433.3890071     
  -49105570.2631325     
  -49107731.4313625     
  -49109916.2440948     
  -49112124.0507442     
  -49114354.1998174     
  -49116606.0389874     
  -49118878.9151652     
  -49121172.1745717     
  -49123485.1628077     
  -49125817.2249226     
  -49128167.7054821     
  -49130535.9486346     
  -49132921.2981763     
  -49135323.0976145     
  -49137740.6902308     
  -49140173.4191417     
  -49142620.6273587     
  -49145081.6578467     
  -49147555.8535813     
  -49150042.5576043     
  -49152541.1130789     
  -49155050.8633422     
  -49157571.1519571     
  -49160101.3227631     
  -49162640.7199251     
  -49165188.6879814     
  -49167744.5718898     
  -49170307.7170729     
  -49172877.4694617     
  -49175453.1755379     
  -49178034.1823753     
  -49180619.8376791     
  -49183209.4898247     
  -49185802.4878947     
  -49188398.1817143     
  -49190995.9218866     
  -49193595.0598255     
  -49196194.9477877     
  -49198794.9389038     
  -49201394.3872076     
  -49203992.6476650     
  -49206589.0762009     
  -49209183.0297255     
  -49211773.8661594     
  -49042098.6159395     
  -49044222.2853339     
  -49046374.4962148     
  -49048554.5656797     
  -49050761.8099822     
  -49052995.5446199     
  -49055255.0844203     
  -49057539.7436250     
  -49059848.8359718     
  -49062181.6747757     
  -49064537.5730071     
  -49066915.8433692     
  -49069315.7983727     
  -49071736.7504096     
  -49074178.0118245     
  -49076638.8949844     
  -49079118.7123466     
  -49081616.7765251     
  -49084132.4003550     
  -49086664.8969552     
  -49089213.5797890     
  -49091777.7627238     
  -49094356.7600879     
  -49096949.8867269     
  -49099556.4580569     
  -49102175.7901172     
  -49104807.1996205     
  -49107450.0040021     
  -49110103.5214667     
  -49112767.0710337     
  -49115439.9725815     
  -49118121.5468893     
  -49120811.1156774     
  -49123508.0016464     
  -49126211.5285143     
  -49128921.0210522     
  -49131635.8051184     
  -49134355.2076909     
  -49137078.5568986     
  -49139805.1820505     
  -49142534.4136641     
  -49145265.5834917     
  -49147998.0245456     
  -49150731.0711216     
  -49153464.0588218     
  -49156196.3245752     
  -49158927.2066572     
  -49161656.0447083     
  -49164382.1797507     
  -49167104.9542045     
  -48988396.4423250     
  -48990644.0173535     
  -48992921.1736747     
  -48995227.1875972     
  -48997561.3351619     
  -48999922.8922359     
  -49002311.1346048     
  -49004725.3380624     
  -49007164.7784982     
  -49009628.7319822     
  -49012116.4748470     
  -49014627.2837681     
  -49017160.4358408     
  -49019715.2086563     
  -49022290.8803738     
  -49024886.7297914     
  -49027502.0364139     
  -49030136.0805189     
  -49032788.1432201     
  -49035457.5065291     
  -49038143.4534140     
  -49040845.2678562     
  -49043562.2349055     
  -49046293.6407324     
  -49049038.7726780     
  -49051796.9193029     
  -49054567.3704328     
  -49057349.4172026     
  -49060142.3520988     
  -49062945.4689987     
  -49065758.0632089     
  -49068579.4315013     
  -49071408.8721465     
  -49074245.6849468     
  -49077089.1712655     
  -49079938.6340560     
  -49082793.3778878     
  -49085652.7089714     
  -49088515.9351814     
  -49091382.3660772     
  -49094251.3129229     
  -49097122.0887053     
  -49099994.0081491     
  -49102866.3877326     
  -49105738.5456999     
  -49108609.8020725     
  -49111479.4786592     
  -49114346.8990648     
  -49117211.3886964     
  -49120072.2747698     
  -48931890.0846582     
  -48934267.9955782     
  -48936676.5417011     
  -48939114.9570201     
  -48941582.4758956     
  -48944078.3331564     
  -48946601.7641970     
  -48949152.0050733     
  -48951728.2925936     
  -48954329.8644077     
  -48956955.9590920     
  -48959605.8162320     
  -48962278.6765019     
  -48964973.7817407     
  -48967690.3750262     
  -48970427.7007450     
  -48973185.0046606     
  -48975961.5339782     
  -48978756.5374066     
  -48981569.2652176     
  -48984398.9693025     
  -48987244.9032263     
  -48990106.3222782     
  -48992982.4835209     
  -48995872.6458361     
  -48998776.0699685     
  -49001692.0185659     
  -49004619.7562185     
  -49007558.5494948     
  -49010507.6669746     
  -49013466.3792812     
  -49016433.9591099     
  -49019409.6812546     
  -49022392.8226326     
  -49025382.6623070     
  -49028378.4815061     
  -49031379.5636422     
  -49034385.1943274     
  -49037394.6613869     
  -49040407.2548719     
  -49043422.2670686     
  -49046438.9925070     
  -49049456.7279666     
  -49052474.7724811     
  -49055492.4273409     
  -49058508.9960936     
  -49061523.7845438     
  -49064536.1007498     
  -49067545.2550204     
  -49070550.5599084     
  -48872433.5608210     
  -48874948.7564989     
  -48877495.6456264     
  -48880073.4182449     
  -48882681.2654740     
  -48885318.3796180     
  -48887983.9542691     
  -48890677.1844064     
  -48893397.2664911     
  -48896143.3985579     
  -48898914.7803028     
  -48901710.6131670     
  -48904530.1004174     
  -48907372.4472233     
  -48910236.8607293     
  -48913122.5501255     
  -48916028.7267136     
  -48918954.6039698     
  -48921899.3976042     
  -48924862.3256173     
  -48927842.6083528     
  -48930839.4685477     
  -48933852.1313788     
  -48936879.8245067     
  -48939921.7781156     
  -48942977.2249521     
  -48946045.4003588     
  -48949125.5423070     
  -48952216.8914252     
  -48955318.6910256     
  -48958430.1871277     
  -48961550.6284788     
  -48964679.2665729     
  -48967815.3556659     
  -48970958.1527891     
  -48974106.9177597     
  -48977260.9131897     
  -48980419.4044913     
  -48983581.6598808     
  -48986746.9503804     
  -48989914.5498172     
  -48993083.7348201     
  -48996253.7848154     
  -48999423.9820192     
  -49002593.6114291     
  -49005761.9608124     
  -49008928.3206941     
  -49012091.9843417     
  -49015252.2477489     
  -49018408.4096176     
  -48809874.1938678     
  -48812534.1684388     
  -48815226.8880904     
  -48817951.4971830     
  -48820707.1419581     
  -48823492.9706496     
  -48826308.1335904     
  -48829151.7833144     
  -48832023.0746543     
  -48834921.1648345     
  -48837845.2135598     
  -48840794.3830995     
  -48843767.8383674     
  -48846764.7469980     
  -48849784.2794174     
  -48852825.6089114     
  -48855887.9116886     
  -48858970.3669403     
  -48862072.1568962     
  -48865192.4668756     
  -48868330.4853365     
  -48871485.4039193     
  -48874656.4174881     
  -48877842.7241675     
  -48881043.5253771     
  -48884258.0258613     
  -48887485.4337165     
  -48890724.9604154     
  -48893975.8208268     
  -48897237.2332338     
  -48900508.4193476     
  -48903788.6043192     
  -48907077.0167479     
  -48910372.8886864     
  -48913675.4556440     
  -48916983.9565864     
  -48920297.6339330     
  -48923615.7335514     
  -48926937.5047498     
  -48930262.2002664     
  -48933589.0762567     
  -48936917.3922781     
  -48940246.4112725     
  -48943575.3995465     
  -48946903.6267495     
  -48950230.3658494     
  -48953554.8931065     
  -48956876.4880453     
  -48960194.4334243     
  -48963508.0152039     
  -48744052.4174774     
  -48746865.2396360     
  -48749711.8394438     
  -48752591.3137830     
  -48755502.7623279     
  -48758445.2876604     
  -48761417.9953779     
  -48764419.9941971     
  -48767450.3960526     
  -48770508.3161892     
  -48773592.8732499     
  -48776703.1893592     
  -48779838.3902006     
  -48782997.6050897     
  -48786179.9670422     
  -48789384.6128383     
  -48792610.6830808     
  -48795857.3222499     
  -48799123.6787537     
  -48802408.9049731     
  -48805712.1573036     
  -48809032.5961930     
  -48812369.3861738     
  -48815721.6958933     
  -48819088.6981379     
  -48822469.5698554     
  -48825863.4921719     
  -48829269.6504068     
  -48832687.2340820     
  -48836115.4369299     
  -48839553.4568961     
  -48843000.4961400     
  -48846455.7610314     
  -48849918.4621442     
  -48853387.8142469     
  -48856863.0362903     
  -48860343.3513917     
  -48863827.9868166     
  -48867316.1739578     
  -48870807.1483111     
  -48874300.1494488     
  -48877794.4209905     
  -48881289.2105716     
  -48884783.7698086     
  -48888277.3542629     
  -48891769.2234017     
  -48895258.6405571     
  -48898744.8728822     
  -48902227.1913064     
  -48905704.8704871     
  -48674801.5861397     
  -48677775.9308664     
  -48680785.0524884     
  -48683827.9985755     
  -48686903.8205279     
  -48690011.5736919     
  -48693150.3174684     
  -48696319.1154160     
  -48699517.0353473     
  -48702743.1494200     
  -48705996.5342216     
  -48709276.2708492     
  -48712581.4449823     
  -48715911.1469518     
  -48719264.4718021     
  -48722640.5193491     
  -48726038.3942324     
  -48729457.2059621     
  -48732896.0689616     
  -48736354.1026046     
  -48739830.4312479     
  -48743324.1842596     
  -48746834.4960419     
  -48750360.5060509     
  -48753901.3588101     
  -48757456.2039218     
  -48761024.1960728     
  -48764604.4950364     
  -48768196.2656706     
  -48771798.6779127     
  -48775410.9067695     
  -48779032.1323041     
  -48782661.5396190     
  -48786298.3188366     
  -48789941.6650744     
  -48793590.7784189     
  -48797244.8638947     
  -48800903.1314318     
  -48804564.7958285     
  -48808229.0767124     
  -48811895.1984981     
  -48815562.3903417     
  -48819229.8860937     
  -48822896.9242475     
  -48826562.7478874     
  -48830226.6046324     
  -48833887.7465783     
  -48837545.4302379     
  -48841198.9164779     
  -48844847.4704545     
  -48601947.7948588     
  -48605092.9772757     
  -48608273.8861028     
  -48611489.5177697     
  -48614738.8737192     
  -48618020.9605203     
  -48621334.7899744     
  -48624679.3792151     
  -48628053.7508008     
  -48631456.9328001     
  -48634887.9588723     
  -48638345.8683395     
  -48641829.7062537     
  -48645338.5234578     
  -48648871.3766396     
  -48652427.3283810     
  -48656005.4472012     
  -48659604.8075935     
  -48663224.4900574     
  -48666863.5811254     
  -48670521.1733836     
  -48674196.3654886     
  -48677888.2621779     
  -48681595.9742763     
  -48685318.6186975     
  -48689055.3184403     
  -48692805.2025817     
  -48696567.4062637     
  -48700341.0706773     
  -48704125.3430415     
  -48707919.3765787     
  -48711722.3304852     
  -48715533.3698996     
  -48719351.6658649     
  -48723176.3952892     
  -48727006.7409017     
  -48730841.8912053     
  -48734681.0404263     
  -48738523.3884602     
  -48742368.1408145     
  -48746214.5085489     
  -48750061.7082122     
  -48753908.9617757     
  -48757755.4965650     
  -48761600.5451878     
  -48765443.3454603     
  -48769283.1403300     
  -48773119.1777967     
  -48776950.7108308     
  -48780776.9972898     
  -48525309.7135100     
  -48528635.7244325     
  -48531998.3426450     
  -48535396.5116681     
  -48538829.1813799     
  -48542295.3081249     
  -48545793.8548139     
  -48549323.7910176     
  -48552884.0930516     
  -48556473.7440546     
  -48560091.7340593     
  -48563737.0600558     
  -48567408.7260485     
  -48571105.7431063     
  -48574827.1294056     
  -48578571.9102676     
  -48582339.1181888     
  -48586127.7928653     
  -48589936.9812114     
  -48593765.7373721     
  -48597613.1227299     
  -48601478.2059060     
  -48605360.0627563     
  -48609257.7763613     
  -48613170.4370122     
  -48617097.1421904     
  -48621036.9965432     
  -48624989.1118544     
  -48628952.6070102     
  -48632926.6079603     
  -48636910.2476753     
  -48640902.6660992     
  -48644903.0100981     
  -48648910.4334045     
  -48652924.0965584     
  -48656943.1668437     
  -48660966.8182217     
  -48664994.2312602     
  -48669024.5930603     
  -48673057.0971787     
  -48677090.9435474     
  -48681125.3383900     
  -48685159.4941354     
  -48689192.6293275     
  -48693223.9685338     
  -48697252.7422493     
  -48701278.1867993     
  -48705299.5442388     
  -48709316.0622499     
  -48713326.9940363     
  -48444698.4414413     
  -48448215.9840629     
  -48451770.9244590     
  -48455362.1515937     
  -48458988.5623151     
  -48462649.0614541     
  -48466342.5619164     
  -48470067.9847649     
  -48473824.2592938     
  -48477610.3230953     
  -48481425.1221179     
  -48485267.6107167     
  -48489136.7516969     
  -48493031.5163492     
  -48496950.8844782     
  -48500893.8444243     
  -48504859.3930778     
  -48508846.5358871     
  -48512854.2868604     
  -48516881.6685601     
  -48520927.7120923     
  -48524991.4570895     
  -48529071.9516877     
  -48533168.2524977     
  -48537279.4245710     
  -48541404.5413603     
  -48545542.6846746     
  -48549692.9446293     
  -48553854.4195916     
  -48558026.2161208     
  -48562207.4489041     
  -48566397.2406878     
  -48570594.7222042     
  -48574799.0320942     
  -48579009.3168260     
  -48583224.7306094     
  -48587444.4353070     
  -48591667.6003404     
  -48595893.4025944     
  -48600121.0263162     
  -48604349.6630126     
  -48608578.5113427     
  -48612806.7770084     
  -48617033.6726413     
  -48621258.4176873     
  -48625480.2382875     
  -48629698.3671573     
  -48633912.0434622     
  -48638120.5126917     
  -48642323.0265301     
  -48359917.3884622     
  -48363637.9154616     
  -48367396.5153331     
  -48371192.0210365     
  -48375023.2751408     
  -48378889.1299114     
  -48382788.4473870     
  -48386720.0994475     
  -48390682.9678732     
  -48394675.9443945     
  -48398697.9307341     
  -48402747.8386395     
  -48406824.5899087     
  -48410927.1164066     
  -48415054.3600750     
  -48419205.2729338     
  -48423378.8170760     
  -48427573.9646545     
  -48431789.6978631     
  -48436025.0089095     
  -48440278.8999824     
  -48444550.3832128     
  -48448838.4806277     
  -48453142.2240989     
  -48457460.6552856     
  -48461792.8255712     
  -48466137.7959949     
  -48470494.6371775     
  -48474862.4292426     
  -48479240.2617322     
  -48483627.2335183     
  -48488022.4527084     
  -48492425.0365483     
  -48496834.1113186     
  -48501248.8122285     
  -48505668.2833045     
  -48510091.6772758     
  -48514518.1554553     
  -48518946.8876170     
  -48523377.0518707     
  -48527807.8345317     
  -48532238.4299886     
  -48536668.0405673     
  -48541095.8763919     
  -48545521.1552427     
  -48549943.1024117     
  -48554360.9505549     
  -48558773.9395422     
  -48563181.3163050     
  -48567582.3346809     
  -48270762.1889984     
  -48274697.9391980     
  -48278672.2933738     
  -48282684.0273224     
  -48286731.9283945     
  -48290814.7955635     
  -48294931.4394827     
  -48299080.6825337     
  -48303261.3588650     
  -48307472.3144206     
  -48311712.4069597     
  -48315980.5060672     
  -48320275.4931567     
  -48324596.2614628     
  -48328941.7160272     
  -48333310.7736760     
  -48337702.3629892     
  -48342115.4242624     
  -48346548.9094620     
  -48351001.7821727     
  -48355473.0175378     
  -48359961.6021933     
  -48364466.5341960     
  -48368986.8229440     
  -48373521.4890920     
  -48378069.5644606     
  -48382630.0919400     
  -48387202.1253877     
  -48391784.7295210     
  -48396376.9798053     
  -48400977.9623355     
  -48405586.7737145     
  -48410202.5209259     
  -48414824.3212024     
  -48419451.3018902     
  -48424082.6003093     
  -48428717.3636086     
  -48433354.7486192     
  -48437993.9217019     
  -48442634.0585923     
  -48447274.3442423     
  -48451913.9726581     
  -48456552.1467350     
  -48461188.0780892     
  -48465820.9868870     
  -48470450.1016707     
  -48475074.6591819     
  -48479693.9041827     
  -48484307.0892743     
  -48488913.4747124     
  -48177020.6569237     
  -48181184.6904500     
  -48185387.6824501     
  -48189628.3507956     
  -48193905.4270937     
  -48198217.6567307     
  -48202563.7989042     
  -48206942.6266459     
  -48211352.9268327     
  -48215793.5001891     
  -48220263.1612787     
  -48224760.7384869     
  -48229285.0739949     
  -48233835.0237433     
  -48238409.4573886     
  -48243007.2582501     
  -48247627.3232500     
  -48252268.5628444     
  -48256929.9009471     
  -48261610.2748463     
  -48266308.6351137     
  -48271023.9455071     
  -48275755.1828661     
  -48280501.3370010     
  -48285261.4105762     
  -48290034.4189866     
  -48294819.3902294     
  -48299615.3647688     
  -48304421.3953967     
  -48309236.5470870     
  -48314059.8968453     
  -48318890.5335546     
  -48323727.5578142     
  -48328570.0817764     
  -48333417.2289771     
  -48338268.1341638     
  -48343121.9431180     
  -48347977.8124750     
  -48352834.9095392     
  -48357692.4120964     
  -48362549.5082226     
  -48367405.3960891     
  -48372259.2837653     
  -48377110.3890179     
  -48381957.9391076     
  -48386801.1705826     
  -48391639.3290706     
  -48396471.6690670     
  -48401297.4537218     
  -48406115.9546240     
  -48078472.7893915     
  -48082879.0200941     
  -48087324.3501514     
  -48091807.4392686     
  -48096326.9633209     
  -48100881.6143656     
  -48105470.1006422     
  -48110091.1465621     
  -48114743.4926871     
  -48119425.8956968     
  -48124137.1283473     
  -48128875.9794183     
  -48133641.2536523     
  -48138431.7716829     
  -48143246.3699560     
  -48148083.9006408     
  -48152943.2315328     
  -48157823.2459495     
  -48162722.8426171     
  -48167640.9355507     
  -48172576.4539262     
  -48177528.3419461     
  -48182495.5586978     
  -48187477.0780058     
  -48192471.8882771     
  -48197478.9923410     
  -48202497.4072831     
  -48207526.1642727     
  -48212564.3083861     
  -48217610.8984236     
  -48222665.0067225     
  -48227725.7189639     
  -48232792.1339764     
  -48237863.3635342     
  -48242938.5321517     
  -48248016.7768733     
  -48253097.2470603     
  -48258179.1041730     
  -48263261.5215499     
  -48268343.6841835     
  -48273424.7884922     
  -48278504.0420900     
  -48283580.6635529     
  -48288653.8821818     
  -48293722.9377644     
  -48298787.0803323     
  -48303845.5699182     
  -48308897.6763084     
  -48313942.6787953     
  -48318979.8659265     
  -47974890.8288793     
  -47979554.0525549     
  -47984256.2610582     
  -47988996.0563476     
  -47993772.0592549     
  -47998582.9094573     
  -48003427.2654378     
  -48008303.8044342     
  -48013211.2223765     
  -48018148.2338136     
  -48023113.5718299     
  -48028105.9879511     
  -48033124.2520405     
  -48038167.1521863     
  -48043233.4945791     
  -48048322.1033811     
  -48053431.8205862     
  -48058561.5058724     
  -48063710.0364467     
  -48068876.3068811     
  -48074059.2289426     
  -48079257.7314155     
  -48084470.7599169     
  -48089697.2767057     
  -48094936.2604862     
  -48100186.7062037     
  -48105447.6248369     
  -48110718.0431823     
  -48115997.0036352     
  -48121283.5639641     
  -48126576.7970818     
  -48131875.7908104     
  -48137179.6476424     
  -48142487.4844980     
  -48147798.4324774     
  -48153111.6366102     
  -48158426.2556005     
  -48163741.4615682     
  -48169056.4397879     
  -48174370.3884238     
  -48179682.5182622     
  -48184992.0524401     
  -48190298.2261727     
  -48195600.2864767     
  -48200897.4918924     
  -48206189.1122028     
  -48211474.4281508     
  -48216752.7311548     
  -48222023.3230214     
  -48227285.5156574     
  -47866039.3936292     
  -47870975.3103744     
  -47875949.7950705     
  -47880961.3931717     
  -47886008.6719891     
  -47891090.2206151     
  -47896204.6498347     
  -47901350.5920255     
  -47906526.7010454     
  -47911731.6521101     
  -47916964.1416597     
  -47922222.8872151     
  -47927506.6272244     
  -47932814.1209002     
  -47938144.1480471     
  -47943495.5088809     
  -47948867.0238395     
  -47954257.5333848     
  -47959665.8977981     
  -47965090.9969668     
  -47970531.7301643     
  -47975987.0158236     
  -47981455.7913031     
  -47986937.0126475     
  -47992429.6543413     
  -47997932.7090572     
  -48003445.1873989     
  -48008966.1176385     
  -48014494.5454491     
  -48020029.5336316     
  -48025570.1618388     
  -48031115.5262928     
  -48036664.7395000     
  -48042216.9299617     
  -48047771.2418802     
  -48053326.8348625     
  -48058882.8836194     
  -48064438.5776627     
  -48069993.1209981     
  -48075545.7318162     
  -48081095.6421804     
  -48086642.0977121     
  -48092184.3572742     
  -48097721.6926516     
  -48103253.3882299     
  -48108778.7406727     
  -48114297.0585959     
  -48119807.6622417     
  -48125309.8831503     
  -48130803.0638297     
  -47751675.6877077     
  -47756900.9164896     
  -47762163.9415635     
  -47767463.2541225     
  -47772797.3704915     
  -47778164.8319931     
  -47783564.2047996     
  -47788994.0797748     
  -47794453.0723031     
  -47799939.8221086     
  -47805452.9930628     
  -47810991.2729827     
  -47816553.3734189     
  -47822138.0294344     
  -47827743.9993750     
  -47833370.0646297     
  -47839015.0293844     
  -47844677.7203671     
  -47850356.9865853     
  -47856051.6990563     
  -47861760.7505312     
  -47867483.0552116     
  -47873217.5484602     
  -47878963.1865059     
  -47884718.9461424     
  -47890483.8244220     
  -47896256.8383441     
  -47902037.0245385     
  -47907823.4389444     
  -47913615.1564852     
  -47919411.2707380     
  -47925210.8936008     
  -47931013.1549542     
  -47936817.2023215     
  -47942622.2005235     
  -47948427.3313314     
  -47954231.7931168     
  -47960034.8004981     
  -47965835.5839854     
  -47971633.3896216     
  -47977427.4786229     
  -47983217.1270159     
  -47989001.6252734     
  -47994780.2779483     
  -48000552.4033058     
  -48006317.3329539     
  -48012074.4114731     
  -48017822.9960445     
  -48023562.4560764     
  -48029292.1728306     
  -47631549.8030148     
  -47637081.8863114     
  -47642650.5812324     
  -47648254.3281548     
  -47653891.5961575     
  -47659560.8828173     
  -47665260.7139928     
  -47670989.6435964     
  -47676746.2533550     
  -47682529.1525605     
  -47688336.9778097     
  -47694168.3927341     
  -47700022.0877212     
  -47705896.7796260     
  -47711791.2114742     
  -47717704.1521575     
  -47723634.3961209     
  -47729580.7630423     
  -47735542.0975059     
  -47741517.2686680     
  -47747505.1699167     
  -47753504.7185260     
  -47759514.8553035     
  -47765534.5442333     
  -47771562.7721128     
  -47777598.5481860     
  -47783640.9037710     
  -47789688.8918838     
  -47795741.5868578     
  -47801798.0839597     
  -47807857.4990013     
  -47813918.9679487     
  -47819981.6465277     
  -47826044.7098262     
  -47832107.3518946     
  -47838168.7853429     
  -47844228.2409358     
  -47850284.9671854     
  -47856338.2299423     
  -47862387.3119841     
  -47868431.5126032     
  -47874470.1471925     
  -47880502.5468295     
  -47886528.0578595     
  -47892546.0414780     
  -47898555.8733115     
  -47904556.9429977     
  -47910548.6537651     
  -47916530.4220120     
  -47922501.6768849     
  -47505405.1267474     
  -47511262.5228697     
  -47517154.8686739     
  -47523080.5585839     
  -47529038.0195906     
  -47535025.7109675     
  -47541042.1239730     
  -47547085.7815433     
  -47553155.2379730     
  -47559249.0785869     
  -47565365.9194014     
  -47571504.4067768     
  -47577663.2170614     
  -47583841.0562265     
  -47590036.6594941     
  -47596248.7909569     
  -47602476.2431914     
  -47608717.8368641     
  -47614972.4203316     
  -47621238.8692348     
  -47627516.0860869     
  -47633802.9998570     
  -47640098.5655478     
  -47646401.7637697     
  -47652711.6003092     
  -47659027.1056948     
  -47665347.3347573     
  -47671671.3661882     
  -47677998.3020937     
  -47684327.2675459     
  -47690657.4101318     
  -47696987.8994986     
  -47703317.9268974     
  -47709646.7047244     
  -47715973.4660601     
  -47722297.4642071     
  -47728617.9722255     
  -47734934.2824674     
  -47741245.7061102     
  -47747551.5726880     
  -47753851.2296232     
  -47760144.0417560     
  -47766429.3908741     
  -47772706.6752416     
  -47778975.3091270     
  -47785234.7223315     
  -47791484.3597165     
  -47797723.6807320     
  -47803952.1589433     
  -47810169.2815596     
  -47372978.8690599     
  -47379180.9295397     
  -47385415.7300000     
  -47391681.6254277     
  -47397977.0075313     
  -47404300.3043621     
  -47410649.9799242     
  -47417024.5337754     
  -47423422.5006170     
  -47429842.4498759     
  -47436282.9852760     
  -47442742.7444035     
  -47449220.3982629     
  -47455714.6508264     
  -47462224.2385764     
  -47468747.9300409     
  -47475284.5253240     
  -47481832.8556295     
  -47488391.7827802     
  -47494960.1987313     
  -47501537.0250805     
  -47508121.2125721     
  -47514711.7405990     
  -47521307.6166996     
  -47527907.8760519     
  -47534511.5809651     
  -47541117.8203668     
  -47547725.7092897     
  -47554334.3883540     
  -47560943.0232493     
  -47567550.8042135     
  -47574156.9455108     
  -47580760.6849078     
  -47587361.2831485     
  -47593958.0234281     
  -47600550.2108665     
  -47607137.1719797     
  -47613718.2541522     
  -47620292.8251080     
  -47626860.2723816     
  -47633420.0027884     
  -47639971.4418961     
  -47646514.0334950     
  -47653047.2390694     
  -47659570.5372687     
  -47666083.4233793     
  -47672585.4087969     
  -47679076.0204993     
  -47685554.8005202     
  -47692021.3054232     
  -47234002.7269703     
  -47240569.6561830     
  -47247166.4911245     
  -47253791.5557651     
  -47260443.2152254     
  -47267119.8752908     
  -47273819.9819166     
  -47280542.0207244     
  -47287284.5164893     
  -47294046.0326203     
  -47300825.1706317     
  -47307620.5696099     
  -47314430.9056713     
  -47321254.8914159     
  -47328091.2753750     
  -47334938.8414530     
  -47341796.4083657     
  -47348662.8290734     
  -47355536.9902103     
  -47362417.8115103     
  -47369304.2452294     
  -47376195.2755655     
  -47383089.9180750     
  -47389987.2190872     
  -47396886.2551173     
  -47403786.1322764     
  -47410685.9856810     
  -47417584.9788601     
  -47424482.3031627     
  -47431377.1771628     
  -47438268.8460645     
  -47445156.5811068     
  -47452039.6789678     
  -47458917.4611689     
  -47465789.2734783     
  -47472654.4853161     
  -47479512.4891585     
  -47486362.6999430     
  -47493204.5544737     
  -47500037.5108285     
  -47506861.0477652     
  -47513674.6641305     
  -47520477.8782687     
  -47527270.2274318     
  -47534051.2671912     
  -47540820.5708504     
  -47547577.7288587     
  -47554322.3482269     
  -47561054.0519441     
  -47567772.4783963     
  -47088203.7019295     
  -47095156.4959329     
  -47102135.6537823     
  -47109139.4790170     
  -47116166.3210071     
  -47123214.5743487     
  -47130282.6782501     
  -47137369.1159114     
  -47144472.4138973     
  -47151591.1415041     
  -47158723.9101200     
  -47165869.3725817     
  -47173026.2225249     
  -47180193.1937317     
  -47187369.0594731     
  -47194552.6318496     
  -47201742.7611269     
  -47208938.3350705     
  -47216138.2782771     
  -47223341.5515048     
  -47230547.1510007     
  -47237754.1078280     
  -47244961.4871917     
  -47252168.3877634     
  -47259373.9410058     
  -47266577.3104971     
  -47273777.6912546     
  -47280974.3090594     
  -47288166.4197806     
  -47295353.3087010     
  -47302534.2898424     
  -47309708.7052928     
  -47316875.9245340     
  -47324035.3437708     
  -47331186.3852613     
  -47338328.4966487     
  -47345461.1502947     
  -47352583.8426144     
  -47359696.0934133     
  -47366797.4452260     
  -47373887.4626564     
  -47380965.7317209     
  -47388031.8591926     
  -47395085.4719484     
  -47402126.2163178     
  -47409153.7574343     
  -47416167.7785890     
  -47423167.9805861     
  -47430154.0811015     
  -47437125.8140431     
  -46935305.0899145     
  -46942665.4513382     
  -46950047.8378635     
  -46957450.5456195     
  -46964871.9214667     
  -46972310.3622582     
  -46979764.3140948     
  -46987232.2715754     
  -46994712.7770426     
  -47002204.4198251     
  -47009705.8354752     
  -47017215.7050054     
  -47024732.7541208     
  -47032255.7524503     
  -47039783.5127755     
  -47047314.8902590     
  -47054848.7816714     
  -47062384.1246177     
  -47069919.8967634     
  -47077455.1150611     
  -47084988.8349766     
  -47092520.1497168     
  -47100048.1894574     
  -47107572.1205720     
  -47115091.1448630     
  -47122604.4987937     
  -47130111.4527219     
  -47137611.3101359     
  -47145103.4068924     
  -47152587.1104566     
  -47160061.8191445     
  -47167526.9613681     
  -47174981.9948834     
  -47182426.4060402     
  -47189859.7090356     
  -47197281.4451703     
  -47204691.1821076     
  -47212088.5131355     
  -47219473.0564324     
  -47226844.4543353     
  -47234202.3726114     
  -47241546.4997335     
  -47248876.5461578     
  -47256192.2436056     
  -47263493.3443482     
  -47270779.6204947     
  -47278050.8632838     
  -47285306.8823784     
  -47292547.5051636     
  -47299772.5760481     
  -46775027.6644534     
  -46782817.8901674     
  -46790624.9102787     
  -46798447.0292347     
  -46806282.6072915     
  -46814130.0596276     
  -46821987.8554545     
  -46829854.5171258     
  -46837728.6192442     
  -46845608.7877674     
  -46853493.6991132     
  -46861382.0792646     
  -46869272.7028749     
  -46877164.3923731     
  -46885056.0170708     
  -46892946.4922697     
  -46900834.7783710     
  -46908719.8799871     
  -46916600.8450546     
  -46924476.7639504     
  -46932346.7686105     
  -46940210.0316514     
  -46948065.7654946     
  -46955913.2214953     
  -46963751.6890733     
  -46971580.4948487     
  -46979399.0017808     
  -46987206.6083113     
  -46995002.7475115     
  -47002786.8862336     
  -47010558.5242665     
  -47018317.1934956     
  -47026062.4570679     
  -47033793.9085604     
  -47041511.1711539     
  -47049213.8968114     
  -47056901.7654606     
  -47064574.4841815     
  -47072231.7863985     
  -47079873.4310768     
  -47087499.2019242     
  -47095108.9065970     
  -47102702.3759102     
  -47110279.4630531     
  -47117840.0428086     
  -47125384.0107779     
  -47132911.2826083     
  -47140421.7932270     
  -47147915.4960779     
  -47155392.3623635     
  -46607091.0746307     
  -46615333.9128754     
  -46623587.3223261     
  -46631849.6344540     
  -46640119.2417368     
  -46648394.5966133     
  -46656674.2104371     
  -46664956.6524325     
  -46673240.5486517     
  -46681524.5809342     
  -46689807.4858684     
  -46698088.0537570     
  -46706365.1275848     
  -46714637.6019906     
  -46722904.4222429     
  -46731164.5832199     
  -46739417.1283943     
  -46747661.1488226     
  -46755895.7821391     
  -46764120.2115561     
  -46772333.6648686     
  -46780535.4134653     
  -46788724.7713445     
  -46796901.0941371     
  -46805063.7781349     
  -46813212.2593248     
  -46821346.0124300     
  -46829464.5499570     
  -46837567.4212489     
  -46845654.2115458     
  -46853724.5410511     
  -46861778.0640039     
  -46869814.4677592     
  -46877833.4718735     
  -46885834.8271972     
  -46893818.3149733     
  -46901783.7459434     
  -46909730.9594588     
  -46917659.8225988     
  -46925570.2292954     
  -46933462.0994632     
  -46941335.3781370     
  -46949190.0346141     
  -46957026.0616029     
  -46964843.4743780     
  -46972642.3099406     
  -46980422.6261841     
  -46988184.5010663     
  -46995928.0317862     
  -47003653.3339664     
  -46431215.4819124     
  -46439933.9555927     
  -46448655.6794535     
  -46457379.0339274     
  -46466102.4657069     
  -46474824.4865254     
  -46483543.6719444     
  -46492258.6601452     
  -46500968.1507257     
  -46509670.9035045     
  -46518365.7373301     
  -46527051.5288973     
  -46535727.2115710     
  -46544391.7742160     
  -46553044.2600356     
  -46561683.7654171     
  -46570309.4387857     
  -46578920.4794663     
  -46587516.1365534     
  -46596095.7077900     
  -46604658.5384545     
  -46613204.0202563     
  -46621731.5902407     
  -46630240.7297022     
  -46638730.9631068     
  -46647201.8570230     
  -46655653.0190623     
  -46664084.0968280     
  -46672494.7768736     
  -46680884.7836697     
  -46689253.8785802     
  -46697601.8588467     
  -46705928.5565826     
  -46714233.8377754     
  -46722517.6012974     
  -46730779.7779258     
  -46739020.3293706     
  -46747239.2473110     
  -46755436.5524399     
  -46763612.2935172     
  -46771766.5464299     
  -46779899.4132610     
  -46788011.0213658     
  -46796101.5224552     
  -46804171.0916872     
  -46812219.9267645     
  -46820248.2470404     
  -46828256.2926303     
  -46836244.3235302     
  -46844212.6187420     
  -46247123.4616159     
  -46256340.6545453     
  -46265552.5694104     
  -46274757.6610154     
  -46283954.4556504     
  -46293141.5496912     
  -46302317.6082085     
  -46311481.3635861     
  -46320631.6141503     
  -46329767.2228089     
  -46338887.1157017     
  -46347990.2808605     
  -46357075.7668822     
  -46366142.6816112     
  -46375190.1908349     
  -46384217.5169898     
  -46393223.9378801     
  -46402208.7854076     
  -46411171.4443138     
  -46420111.3509341     
  -46429027.9919642     
  -46437920.9032379     
  -46446789.6685179     
  -46455633.9182985     
  -46464453.3286197     
  -46473247.6198943     
  -46482016.5557463     
  -46490759.9418618     
  -46499477.6248508     
  -46508169.4911223     
  -46516835.4657692     
  -46525475.5114660     
  -46534089.6273775     
  -46542677.8480787     
  -46551240.2424852     
  -46559776.9127959     
  -46568287.9934448     
  -46576773.6500642     
  -46585234.0784580     
  -46593669.5035853     
  -46602080.1785534     
  -46610466.3836206     
  -46618828.4252087     
  -46627166.6349248     
  -46635481.3685907     
  -46643773.0052827     
  -46652041.9463787     
  -46660288.6146138     
  -46668513.4531435     
  -46676716.9246149     
  -46054542.1970629     
  -46064281.0000939     
  -46074004.6771365     
  -46083711.7864562     
  -46093400.9629129     
  -46103070.9163695     
  -46112720.4301158     
  -46122348.3593063     
  -46131953.6294150     
  -46141535.2347038     
  -46151092.2367072     
  -46160623.7627328     
  -46170129.0043774     
  -46179607.2160590     
  -46189057.7135643     
  -46198479.8726134     
  -46207873.1274390     
  -46217236.9693831     
  -46226570.9455084     
  -46235874.6572270     
  -46245147.7589439     
  -46254389.9567172     
  -46263601.0069340     
  -46272780.7150013     
  -46281928.9340540     
  -46291045.5636766     
  -46300130.5486418     
  -46309183.8776632     
  -46318205.5821635     
  -46327195.7350576     
  -46336154.4495501     
  -46345081.8779470     
  -46353978.2104822     
  -46362843.6741573     
  -46371678.5315956     
  -46380483.0799090     
  -46389257.6495786     
  -46398002.6033474     
  -46406718.3351269     
  -46415405.2689140     
  -46424063.8577218     
  -46432694.5825207     
  -46441297.9511918     
  -46449874.4974897     
  -46458424.7800181     
  -46466949.3812135     
  -46475448.9063402     
  -46483923.9824945     
  -46492375.2576175     
  -46500803.3995178     
  -45853205.9969972     
  -45863488.8111799     
  -45873745.2173628     
  -45883973.9102168     
  -45894173.6658918     
  -45904343.3402299     
  -45914481.8669970     
  -45924588.2561369     
  -45934661.5920453     
  -45944701.0318647     
  -45954705.8038004     
  -45964675.2054572     
  -45974608.6021966     
  -45984505.4255161     
  -45994365.1714480     
  -46004187.3989796     
  -46013971.7284939     
  -46023717.8402316     
  -46033425.4727720     
  -46043094.4215363     
  -46052724.5373095     
  -46062315.7247830     
  -46071867.9411173     
  -46081381.1945238     
  -46090855.5428668     
  -46100291.0922836     
  -46109687.9958253     
  -46119046.4521144     
  -46128366.7040226     
  -46137649.0373656     
  -46146893.7796164     
  -46156101.2986359     
  -46165272.0014210     
  -46174406.3328693     
  -46183504.7745608     
  -46192567.8435550     
  -46201596.0912052     
  -46210590.1019864     
  -46219550.4923399     
  -46228477.9095319     
  -46237373.0305257     
  -46246236.5608690     
  -46255069.2335933     
  -46263871.8081266     
  -46272645.0692195     
  -46281389.8258815     
  -46290106.9103303     
  -46298797.1769516     
  -46307461.5012696     
  -46316100.7789270     
  -45642859.1698022     
  -45653707.5639420     
  -45664516.7189064     
  -45675285.5026961     
  -45686012.8693383     
  -45696697.8568998     
  -45707339.5855253     
  -45717937.2555039     
  -45728490.1453617     
  -45738997.6099814     
  -45749459.0787481     
  -45759874.0537222     
  -45770242.1078380     
  -45780562.8831293     
  -45790836.0889804     
  -45801061.5004033     
  -45811238.9563411     
  -45821368.3579958     
  -45831449.6671827     
  -45841482.9047084     
  -45851468.1487754     
  -45861405.5334095     
  -45871295.2469126     
  -45881137.5303389     
  -45890932.6759951     
  -45900681.0259634     
  -45910382.9706483     
  -45920038.9473453     
  -45929649.4388318     
  -45939214.9719805     
  -45948736.1163936     
  -45958213.4830587     
  -45967647.7230246     
  -45977039.5260975     
  -45986389.6195575     
  -45995698.7668933     
  -46004967.7665567     
  -46014197.4507345     
  -46023388.6841387     
  -46032542.3628138     
  -46041659.4129607     
  -46050740.7897771     
  -46059787.4763130     
  -46068800.4823414     
  -46077780.8432442     
  -46086729.6189107     
  -46095647.8926505     
  -46104536.7701189     
  -46113397.3782535     
  -46122230.8642239     
  -45423259.2915221     
  -45434693.6117267     
  -45446074.1980616     
  -45457400.1328397     
  -45468670.5884870     
  -45479884.8253554     
  -45491042.1895679     
  -45502142.1108986     
  -45513184.1006848     
  -45524167.7497718     
  -45535092.7264914     
  -45545958.7746720     
  -45556765.7116811     
  -45567513.4265000     
  -45578201.8778297     
  -45588831.0922286     
  -45599401.1622810     
  -45609912.2447964     
  -45620364.5590389     
  -45630758.3849873     
  -45641094.0616245     
  -45651371.9852562     
  -45661592.6078584     
  -45671756.4354544     
  -45681864.0265180     
  -45691915.9904070     
  -45701912.9858215     
  -45711855.7192904     
  -45721744.9436839     
  -45731581.4567519     
  -45741366.0996876     
  -45751099.7557156     
  -45760783.3487053     
  -45770417.8418066     
  -45780004.2361104     
  -45789543.5693302     
  -45799036.9145063     
  -45808485.3787319     
  -45817890.1018989     
  -45827252.2554651     
  -45836573.0412392     
  -45845853.6901867     
  -45855095.4612519     
  -45864299.6401989     
  -45873467.5384684     
  -45882600.4920509     
  -45891699.8603752     
  -45900767.0252114     
  -45909803.3895875     
  -45918810.3767195     
  -45194180.9088130     
  -45206219.8377550     
  -45218188.7624410     
  -45230087.0245587     
  -45241914.0594058     
  -45253669.3935060     
  -45265352.6422648     
  -45276963.5076656     
  -45288501.7760060     
  -45299967.3156721     
  -45311360.0749528     
  -45322680.0798928     
  -45333927.4321830     
  -45345102.3070892     
  -45356204.9514182     
  -45367235.6815210     
  -45378194.8813325     
  -45389083.0004472     
  -45399900.5522311     
  -45410648.1119686     
  -45421326.3150447     
  -45431935.8551607     
  -45442477.4825848     
  -45452952.0024357     
  -45463360.2729992     
  -45473703.2040770     
  -45483981.7553677     
  -45494196.9348787     
  -45504349.7973692     
  -45514441.4428233     
  -45524473.0149527     
  -45534445.6997279     
  -45544360.7239380     
  -45554219.3537788     
  -45564022.8934665     
  -45573772.6838788     
  -45583470.1012217     
  -45593116.5557197     
  -45602713.4903321     
  -45612262.3794912     
  -45621764.7278638     
  -45631222.0691343     
  -45640635.9648088     
  -45650008.0030394     
  -45659339.7974677     
  -45668632.9860869     
  -45677889.2301215     
  -45687110.2129236     
  -45696297.6388850     
  -45705453.2323645     
  -44955419.7228509     
  -44968079.7864325     
  -44980651.6911460     
  -44993135.0871660     
  -45005529.7210546     
  -45017835.4331868     
  -45030052.1552231     
  -45042179.9076290     
  -45054218.7972410     
  -45066169.0148776     
  -45078030.8329963     
  -45089804.6033952     
  -45101490.7549586     
  -45113089.7914465     
  -45124602.2893280     
  -45136028.8956571     
  -45147370.3259904     
  -45158627.3623477     
  -45169800.8512131     
  -45180891.7015773     
  -45191900.8830201     
  -45202829.4238323     
  -45213678.4091777     
  -45224448.9792925     
  -45235142.3277239     
  -45245759.6996050     
  -45256302.3899675     
  -45266771.7420903     
  -45277169.1458829     
  -45287496.0363049     
  -45297753.8918190     
  -45307944.2328772     
  -45318068.6204405     
  -45328128.6545299     
  -45338125.9728092     
  -45348062.2491981     
  -45357939.1925143     
  -45367758.5451456     
  -45377522.0817489     
  -45387231.6079768     
  -45396888.9592303     
  -45406495.9994365     
  -45416054.6198512     
  -45425566.7378836     
  -45435034.2959454     
  -45444459.2603187     
  -45453843.6200464     
  -45463189.3858406     
  -45472498.5890092     
  -45481773.2804008     
  -44706797.3060525     
  -44720092.3248088     
  -44733279.0423377     
  -44746357.4703871     
  -44759327.7190232     
  -44772189.9938756     
  -44784944.5934349     
  -44797591.9064050     
  -44810132.4091068     
  -44822566.6629351     
  -44834895.3118656     
  -44847119.0800139     
  -44859238.7692449     
  -44871255.2568310     
  -44883169.4931608     
  -44894982.4994958     
  -44906695.3657754     
  -44918309.2484699     
  -44929825.3684799     
  -44941245.0090827     
  -44952569.5139248     
  -44963800.2850588     
  -44974938.7810265     
  -44985986.5149844     
  -44996945.0528744     
  -45007816.0116358     
  -45018601.0574605     
  -45029301.9040893     
  -45039920.3111494     
  -45050458.0825307     
  -45060917.0648035     
  -45071299.1456726     
  -45081606.2524705     
  -45091840.3506868     
  -45102003.4425343     
  -45112097.5655496     
  -45122124.7912282     
  -45132087.2236933     
  -45141986.9983969     
  -45151826.2808513     
  -45161607.2653922     
  -45171332.1739708     
  -45181003.2549736     
  -45190622.7820697     
  -45200193.0530843     
  -45209716.3888963     
  -45219195.1323605     
  -45228631.6472510     
  -45238028.3172263     
  -45247387.5448151     
  -44448166.4103279     
  -44462106.8920619     
  -44475916.8451372     
  -44489596.6998317     
  -44503146.9857097     
  -44516568.3286966     
  -44529861.4482130     
  -44543027.1543692     
  -44556066.3452169     
  -44568980.0040604     
  -44581769.1968234     
  -44594435.0694751     
  -44606978.8455097     
  -44619401.8234843     
  -44631705.3746098     
  -44643890.9403979     
  -44655960.0303614     
  -44667914.2197681     
  -44679755.1474478     
  -44691484.5136517     
  -44703104.0779633     
  -44714615.6572605     
  -44726021.1237292     
  -44737322.4029253     
  -44748521.4718876     
  -44759620.3572982     
  -44770621.1336919     
  -44781525.9217118     
  -44792336.8864128     
  -44803056.2356098     
  -44813686.2182716     
  -44824229.1229586     
  -44834687.2763042     
  -44845063.0415385     
  -44855358.8170540     
  -44865577.0350113     
  -44875720.1599847     
  -44885790.6876470     
  -44895791.1434914     
  -44905724.0815893     
  -44915592.0833848     
  -44925397.7565225     
  -44935143.7337084     
  -44944832.6716025     
  -44954467.2497419     
  -44964050.1694935     
  -44973584.1530333     
  -44983071.9423529     
  -44992516.2982906     
  -45001919.9995857     
  -44179416.9335622     
  -44194009.4021294     
  -44208446.9392820     
  -44222730.4545544     
  -44236860.9566711     
  -44250839.5504615     
  -44264667.4338421     
  -44278345.8948618     
  -44291876.3088119     
  -44305260.1353995     
  -44318498.9159837     
  -44331594.2708740     
  -44344547.8966912     
  -44357361.5637887     
  -44370037.1137358     
  -44382576.4568604     
  -44394981.5698524     
  -44407254.4934262     
  -44419397.3300420     
  -44431412.2416858     
  -44443301.4477074     
  -44455067.2227155     
  -44466711.8945299     
  -44478237.8421899     
  -44489647.4940189     
  -44500943.3257428     
  -44512127.8586648     
  -44523203.6578919     
  -44534173.3306165     
  -44545039.5244487     
  -44555804.9258010     
  -44566472.2583238     
  -44577044.2813907     
  -44587523.7886324     
  -44597913.6065194     
  -44608216.5929912     
  -44618435.6361319     
  -44628573.6528909     
  -44638633.5878467     
  -44648618.4120145     
  -44658531.1216944     
  -44668374.7373603     
  -44678152.3025869     
  -44687866.8830155     
  -44697521.5653542     
  -44707119.4564137     
  -44716663.6821760     
  -44726157.3868942     
  -44735603.7322216     
  -44745005.8963701     
  -43900482.6200974     
  -43915728.8726455     
  -43930793.5329553     
  -43945678.0542604     
  -43960383.9877433     
  -43974912.9793021     
  -43989266.7663864     
  -44003447.1749031     
  -44017456.1161896     
  -44031295.5840561     
  -44044967.6518958     
  -44058474.4698616     
  -44071818.2621110     
  -44085001.3241171     
  -44098026.0200464     
  -44110894.7802025     
  -44123610.0985359     
  -44136174.5302189     
  -44148590.6892863     
  -44160861.2463400     
  -44172988.9263190     
  -44184976.5063329     
  -44196826.8135594     
  -44208542.7232046     
  -44220127.1565261     
  -44231583.0789194     
  -44242913.4980644     
  -44254121.4621342     
  -44265210.0580641     
  -44276182.4098802     
  -44287041.6770879     
  -44297791.0531180     
  -44308433.7638306     
  -44318973.0660760     
  -44329412.2463114     
  -44339754.6192721     
  -44350003.5266963     
  -44360162.3361034     
  -44370234.4396233     
  -44380223.2528756     
  -44390132.2138985     
  -44399964.7821250     
  -44409724.4374051     
  -44419414.6790733     
  -44429039.0250582     
  -44438601.0110350     
  -44448104.1896163     
  -44457552.1295818     
  -44466948.4151437     
  -44476296.6452467     
  -43611348.5809747     
  -43627244.8619077     
  -43642930.5563445     
  -43658407.7294329     
  -43673678.5418349     
  -43688745.2463483     
  -43703610.1846009     
  -43718275.7838165     
  -43732744.5536534     
  -43747019.0831162     
  -43761102.0375374     
  -43774996.1556335     
  -43788704.2466309     
  -43802229.1874653     
  -43815573.9200525     
  -43828741.4486304     
  -43841734.8371742     
  -43854557.2068818     
  -43867211.7337324     
  -43879701.6461160     
  -43892030.2225338     
  -43904200.7893717     
  -43916216.7187430     
  -43928081.4264036     
  -43939798.3697374     
  -43951371.0458115     
  -43962802.9895027     
  -43974097.7716926     
  -43985258.9975325     
  -43996290.3047768     
  -44007195.3621842     
  -44017977.8679873     
  -44028641.5484276     
  -44039190.1563575     
  -44049627.4699073     
  -44059957.2912159     
  -44070183.4452253     
  -44080309.7785365     
  -44090340.1583272     
  -44100278.4713284     
  -44110128.6228603     
  -44119894.5359239     
  -44129580.1503495     
  -44139189.4219979     
  -44148726.3220148     
  -44158194.8361344     
  -44167598.9640331     
  -44176942.7187284     
  -44186230.1260231     
  -44195465.2239922     
  -43312059.7301877     
  -43328595.8041949     
  -43344889.8952020     
  -43360944.7525149     
  -43376763.2173092     
  -43392348.2191015     
  -43407702.7722942     
  -43422829.9727957     
  -43437732.9947143     
  -43452415.0871292     
  -43466879.5709355     
  -43481129.8357662     
  -43495169.3369910     
  -43509001.5927913     
  -43522630.1813127     
  -43536058.7378963     
  -43549290.9523864     
  -43562330.5665185     
  -43575181.3713850     
  -43587847.2049802     
  -43600331.9498252     
  -43612639.5306720     
  -43624773.9122874     
  -43636739.0973169     
  -43648539.1242283     
  -43660178.0653356     
  -43671660.0249024     
  -43682989.1373256     
  -43694169.5653971     
  -43705205.4986469     
  -43716101.1517628     
  -43726860.7630904     
  -43737488.5932093     
  -43747988.9235877     
  -43758366.0553130     
  -43768624.3078979     
  -43778768.0181617     
  -43788801.5391853     
  -43798729.2393384     
  -43808555.5013790     
  -43818284.7216222     
  -43827921.3091787     
  -43837469.6852594     
  -43846934.2825468     
  -43856319.5446287     
  -43865629.9254960     
  -43874869.8890982     
  -43884043.9089585     
  -43893156.4678432     
  -43902212.0574860     
  -43002730.2433640     
  -43019888.3414752     
  -43036770.5939851     
  -43053380.5111998     
  -43069721.6904619     
  -43085797.8124505     
  -43101612.6375565     
  -43117170.0023328     
  -43132473.8160226     
  -43147528.0571638     
  -43162336.7702738     
  -43176904.0626134     
  -43191234.1010328     
  -43205331.1088983     
  -43219199.3631034     
  -43232843.1911634     
  -43246266.9683959     
  -43259475.1151865     
  -43272472.0943415     
  -43285262.4085293     
  -43297850.5978090     
  -43310241.2372494     
  -43322438.9346368     
  -43334448.3282741     
  -43346274.0848695     
  -43357920.8975180     
  -43369393.4837733     
  -43380696.5838112     
  -43391834.9586864     
  -43402813.3886793     
  -43413636.6717359     
  -43424309.6219989     
  -43434837.0684298     
  -43445223.8535226     
  -43455474.8321079     
  -43465594.8702459     
  -43475588.8442100     
  -43485461.6395568     
  -43495218.1502854     
  -43504863.2780814     
  -43514401.9316462     
  -43523839.0261104     
  -43533179.4825282     
  -43542428.2274535     
  -43551590.1925938     
  -43560670.3145409     
  -43569673.5345768     
  -43578604.7985520     
  -43587469.0568329     
  -43596271.2643186     
  -42683554.1537982     
  -42701307.7549387     
  -42718749.1205099     
  -42735882.6042857     
  -42752712.6411101     
  -42769243.7429849     
  -42785480.4952326     
  -42801427.5527352     
  -42817089.6362503     
  -42832471.5288081     
  -42847578.0721907     
  -42862414.1634947     
  -42876984.7517809     
  -42891294.8348114     
  -42905349.4558765     
  -42919153.7007136     
  -42932712.6945189     
  -42946031.5990548     
  -42959115.6098529     
  -42971969.9535161     
  -42984599.8851186     
  -42997010.6857085     
  -43009207.6599104     
  -43021196.1336327     
  -43032981.4518776     
  -43044568.9766563     
  -43055964.0850110     
  -43067172.1671412     
  -43078198.6246387     
  -43089048.8688291     
  -43099728.3192210     
  -43110242.4020631     
  -43120596.5490091     
  -43130796.1958906     
  -43140846.7815974     
  -43150753.7470648     
  -43160522.5343687     
  -43170158.5859252     
  -43179667.3437967     
  -43189054.2491025     
  -43198324.7415321     
  -43207484.2589611     
  -43216538.2371674     
  -43225492.1096468     
  -43234351.3075270     
  -43243121.2595750     
  -43251807.3922997     
  -43260415.1301459     
  -43268949.8957758     
  -43277417.1104376     
  -42354817.2054100     
  -42373129.6006149     
  -42391090.7811654     
  -42408706.0340571     
  -42425980.7203392     
  -42442920.2709202     
  -42459530.1824475     
  -42475816.0132628     
  -42491783.3794379     
  -42507437.9508922     
  -42522785.4475982     
  -42537831.6358749     
  -42552582.3247742     
  -42567043.3625622     
  -42581220.6332994     
  -42595120.0535205     
  -42608747.5690189     
  -42622109.1517367     
  -42635210.7967630     
  -42648058.5194430     
  -42660658.3525998     
  -42673016.3438718     
  -42685138.5531655     
  -42697031.0502281     
  -42708699.9123394     
  -42720151.2221260     
  -42731391.0654977     
  -42742425.5297088     
  -42753260.7015444     
  -42763902.6656326     
  -42774357.5028841     
  -42784631.2890593     
  -42794730.0934630     
  -42804659.9777679     
  -42814426.9949668     
  -42824037.1884530     
  -42833496.5912289     
  -42842811.2252436     
  -42851987.1008570     
  -42861030.2164314     
  -42869946.5580495     
  -42878742.0993571     
  -42887422.8015293     
  -42895994.6133604     
  -42904463.4714740     
  -42912835.3006521     
  -42921116.0142821     
  -42929311.5149183     
  -42937427.6949565     
  -42945470.4374184     
  -42016910.0797056     
  -42035732.6462400     
  -42054162.3642181     
  -42072205.5534003     
  -42089868.5996266     
  -42107157.9502319     
  -42124080.1095351     
  -42140641.6344055     
  -42156849.1299126     
  -42172709.2450627     
  -42188228.6686289     
  -42203414.1250767     
  -42218272.3705915     
  -42232810.1892104     
  -42247034.3890639     
  -42260951.7987311     
  -42274569.2637100     
  -42287893.6430095     
  -42300931.8058648     
  -42313690.6285789     
  -42326176.9914946     
  -42338397.7760984     
  -42350359.8622605     
  -42362070.1256121     
  -42373535.4350620     
  -42384762.6504576     
  -42395758.6203872     
  -42406530.1801309     
  -42417084.1497577     
  -42427427.3323720     
  -42437566.5125108     
  -42447508.4546922     
  -42457259.9021163     
  -42466827.5755202     
  -42476218.1721857     
  -42485438.3651025     
  -42494494.8022853     
  -42503394.1062461     
  -42512142.8736208     
  -42520747.6749503     
  -42529215.0546159     
  -42537551.5309269     
  -42545763.5963618     
  -42553857.7179594     
  -42561840.3378617     
  -42569717.8740032     
  -42577496.7209487     
  -42585183.2508749     
  -42592783.8146949     
  -42600304.7433228     
  -41670343.0993811     
  -41689613.1867379     
  -41708446.0638343     
  -41726849.1961078     
  -41744830.1062126     
  -41762396.3688897     
  -41779555.6059132     
  -41796315.4811186     
  -41812683.6955206     
  -41828667.9825269     
  -41844276.1032539     
  -41859515.8419503     
  -41874395.0015349     
  -41888921.3992532     
  -41903102.8624594     
  -41916947.2245276     
  -41930462.3208971     
  -41943655.9852581     
  -41956536.0458793     
  -41969110.3220840     
  -41981386.6208772     
  -41993372.7337276     
  -42005076.4335087     
  -42016505.4716010     
  -42027667.5751588     
  -42038570.4445455     
  -42049221.7509379     
  -42059629.1341036     
  -42069800.2003533     
  -42079742.5206698     
  -42089463.6290154     
  -42098971.0208199     
  -42108272.1516505     
  -42117374.4360645     
  -42126285.2466469     
  -42135011.9132321     
  -42143561.7223127     
  -42151941.9166340     
  -42160159.6949760     
  -42168222.2121224     
  -42176136.5790165     
  -42183909.8631043     
  -42191549.0888641     
  -42199061.2385223     
  -42206453.2529542     
  -42213732.0327684     
  -42220904.4395750     
  -42227977.2974348     
  -42234957.3944868     
  -42241851.4847547     
  -41315762.4779410     
  -41335400.7764027     
  -41354554.6925253     
  -41373232.9686115     
  -41391444.3944245     
  -41409197.8013011     
  -41426502.0563510     
  -41443366.0567467     
  -41459798.7241169     
  -41475808.9990494     
  -41491405.8357120     
  -41506598.1965994     
  -41521395.0474132     
  -41535805.3520812     
  -41549838.0679247     
  -41563502.1409767     
  -41576806.5014599     
  -41589760.0594288     
  -41602371.7005812     
  -41614650.2822437     
  -41626604.6295364     
  -41638243.5317221     
  -41649575.7387413     
  -41660609.9579402     
  -41671354.8509927     
  -41681819.0310216     
  -41692011.0599205     
  -41701939.4458813     
  -41711612.6411279     
  -41721039.0398601     
  -41730226.9764100     
  -41739184.7236116     
  -41747920.4913882     
  -41756442.4255562     
  -41764758.6068497     
  -41772877.0501664     
  -41780805.7040347     
  -41788552.4503064     
  -41796125.1040721     
  -41803531.4138036     
  -41810779.0617213     
  -41817875.6643889     
  -41824828.7735348     
  -41831645.8770998     
  -41838334.4005125     
  -41844901.7081906     
  -41851355.1052683     
  -41857701.8395486     
  -41863949.1036797     
  -41870104.0375540     
  -40953968.1231588     
  -40973875.3479141     
  -40993248.1158451     
  -41012096.6020672     
  -41030431.0183513     
  -41048261.6062083     
  -41065598.6300743     
  -41082452.3706092     
  -41098833.1181198     
  -41114751.1661160     
  -41130216.8050118     
  -41145240.3159783     
  -41159831.9649595     
  -41174001.9968566     
  -41187760.6298909     
  -41201118.0501508     
  -41214084.4063303     
  -41226669.8046653     
  -41238884.3040741     
  -41250737.9115058     
  -41262240.5775047     
  -41273402.1919930     
  -41284232.5802777     
  -41294741.4992852     
  -41304938.6340281     
  -41314833.5943075     
  -41324435.9116547     
  -41333755.0365143     
  -41342800.3356743     
  -41351581.0899423     
  -41360106.4920743     
  -41368385.6449558     
  -41376427.5600387     
  -41384241.1560369     
  -41391835.2578808     
  -41399218.5959349     
  -41406399.8054781     
  -41413387.4264510     
  -41420189.9034693     
  -41426815.5861069     
  -41433272.7294487     
  -41439569.4949152     
  -41445713.9513600     
  -41451714.0764410     
  -41457577.7582660     
  -41463312.7973143     
  -41468926.9086334     
  -41474427.7243132     
  -41479822.7962351     
  -41485119.5990986     
  -40585932.8996840     
  -40605985.5794463     
  -40625450.7285971     
  -40644340.1440448     
  -40662665.6470921     
  -40680439.0751492     
  -40697672.2735801     
  -40714377.0876980     
  -40730565.3549195     
  -40746248.8970926     
  -40761439.5130072     
  -40776148.9711000     
  -40790389.0023620     
  -40804171.2934594     
  -40817507.4800746     
  -40830409.1404758     
  -40842887.7893230     
  -40854954.8717150     
  -40866621.7574857     
  -40877899.7357543     
  -40888800.0097340     
  -40899333.6918056     
  -40909511.7988587     
  -40919345.2479056     
  -40928844.8519717     
  -40938021.3162647     
  -40946885.2346282     
  -40955447.0862795     
  -40963717.2328382     
  -40971705.9156453     
  -40979423.2533767     
  -40986879.2399540     
  -40994083.7427543     
  -41001046.5011215     
  -41007777.1251823     
  -41014285.0949678     
  -41020579.7598448     
  -41026670.3382571     
  -41032565.9177812     
  -41038275.4554977     
  -41043807.7786804     
  -41049171.5858062     
  -41054375.4478884     
  -41059427.8101342     
  -41064336.9939312     
  -41069111.1991625     
  -41073758.5068541     
  -41078286.8821572     
  -41082704.1776651     
  -41087018.1370693     
  -40212823.0961081     
  -40232868.2056085     
  -40252269.6215539     
  -40271040.9948626     
  -40289195.9863241     
  -40306748.2565347     
  -40323711.4560192     
  -40340099.2155584     
  -40355925.1367314     
  -40371202.7826910     
  -40385945.6691787     
  -40400167.2557958     
  -40413880.9375340     
  -40427100.0365819     
  -40439837.7944090     
  -40452107.3641390     
  -40463921.8032176     
  -40475294.0663800     
  -40486236.9989257     
  -40496763.3303032     
  -40506885.6680100     
  -40516616.4918121     
  -40525968.1482853     
  -40534952.8456823     
  -40543582.6491280     
  -40551869.4761457     
  -40559825.0925158     
  -40567461.1084699     
  -40574788.9752227     
  -40581819.9818421     
  -40588565.2524606     
  -40595035.7438301     
  -40601242.2432215     
  -40607195.3666712     
  -40612905.5575773     
  -40618383.0856476     
  -40623638.0462017     
  -40628680.3598305     
  -40633519.7724154     
  -40638165.8555110     
  -40642628.0070952     
  -40646915.4526878     
  -40651037.2468459     
  -40655002.2750349     
  -40658819.2558846     
  -40662496.7438300     
  -40666043.1321454     
  -40669466.6563730     
  -40672775.3981543     
  -40675977.2894643     
  -39836019.6038439     
  -39855867.7263833     
  -39875012.8434569     
  -39893470.7475811     
  -39911257.2229784     
  -39928388.0332702     
  -39944878.9094427     
  -39960745.5381006     
  -39976003.5500227     
  -39990668.5090331     
  -40004755.9011988     
  -40018281.1243645     
  -40031259.4780330     
  -40043706.1536013     
  -40055636.2249556     
  -40067064.6394349     
  -40078006.2091660     
  -40088475.6027751     
  -40098487.3374780     
  -40108055.7715544     
  -40117195.0972047     
  -40125919.3337945     
  -40134242.3214851     
  -40142177.7152518     
  -40149738.9792917     
  -40156939.3818176     
  -40163791.9902428     
  -40170309.6667519     
  -40176505.0642614     
  -40182390.6227676     
  -40187978.5660832     
  -40193280.8989625     
  -40198309.4046157     
  -40203075.6426135     
  -40207590.9471834     
  -40211866.4258988     
  -40215912.9587644     
  -40219741.1976992     
  -40223361.5664215     
  -40226784.2607390     
  -40230019.2492501     
  -40233076.2744584     
  -40235964.8543103     
  -40238694.2841571     
  -40241273.6391537     
  -40243711.7770960     
  -40246017.3417094     
  -40248198.7663949     
  -40250264.2784372     
  -40252221.9036967     
  -39457138.9752433     
  -39476555.6280544     
  -39495206.8236664     
  -39513110.8530257     
  -39530285.9747979     
  -39546750.4003202     
  -39562522.2789550     
  -39577619.6838464     
  -39592060.5981034     
  -39605862.9014163     
  -39619044.3571191     
  -39631622.5997024     
  -39643615.1227864     
  -39655039.2675583     
  -39665912.2116786     
  -39676250.9586579     
  -39686072.3277071     
  -39695392.9440607     
  -39704229.2297732     
  -39712597.3949872     
  -39720513.4296713     
  -39727993.0958244     
  -39735051.9201445     
  -39741705.1871568     
  -39747967.9327986     
  -39753854.9384549     
  -39759380.7254427     
  -39764559.5499374     
  -39769405.3983385     
  -39773931.9830708     
  -39778152.7388166     
  -39782080.8191763     
  -39785729.0937555     
  -39789110.1456750     
  -39792236.2695063     
  -39795119.4696275     
  -39797771.4590050     
  -39800203.6583997     
  -39802427.1960030     
  -39804452.9075049     
  -39806291.3366003     
  -39807952.7359403     
  -39809447.0685355     
  -39810784.0096210     
  -39811972.9489925     
  -39813022.9938265     
  -39813942.9719938     
  -39814741.4358803     
  -39815426.6667457     
  -39816006.6795887     
  -39078053.0609470     
  -39096747.7674517     
  -39114611.5638993     
  -39131665.6808826     
  -39147931.2836942     
  -39163429.4540412     
  -39178181.1723128     
  -39192207.3004466     
  -39205528.5653758     
  -39218165.5430712     
  -39230138.6431887     
  -39241468.0943253     
  -39252173.9298844     
  -39262275.9745523     
  -39271793.8313854     
  -39280746.8695043     
  -39289154.2123923     
  -39297034.7267912     
  -39304407.0121900     
  -39311289.3908971     
  -39317699.8986865     
  -39323656.2760113     
  -39329175.9597696     
  -39334276.0756164     
  -39338973.4308055     
  -39343284.5075540     
  -39347225.4569134     
  -39350812.0931386     
  -39354059.8885419     
  -39356983.9688214     
  -39359599.1088526     
  -39361919.7289358     
  -39363959.8914879     
  -39365733.2981738     
  -39367253.2874707     
  -39368532.8326607     
  -39369584.5402482     
  -39370420.6488042     
  -39371053.0282353     
  -39371493.1794816     
  -39371752.2346507     
  -39371840.9575928     
  -39371769.7449278     
  -39371548.6275361     
  -39371187.2725265     
  -39370694.9856999     
  -39370080.7145284     
  -39369353.0516746     
  -39368520.2390193     
  -39367590.1723890     
  -38700905.3093136     
  -38718517.9647651     
  -38735231.6129777     
  -38751070.9655695     
  -38766060.6222881     
  -38780225.0489952     
  -38793588.5565127     
  -38806175.2801941     
  -38818009.1603271     
  -38829113.9233579     
  -38839513.0639253     
  -38849229.8277074     
  -38858287.1950766     
  -38866707.8655603     
  -38874514.2430997     
  -38881728.4220959     
  -38888372.1742312     
  -38894466.9360521     
  -38900033.7972987     
  -38905093.4899610     
  -38909666.3780457     
  -38913772.4480302     
  -38917431.2999837     
  -38920662.1393305     
  -38923483.7692349     
  -38925914.5835789     
  -38927972.5605133     
  -38929675.2565527     
  -38931039.8011946     
  -38932082.8920365     
  -38932820.7903694     
  -38933269.3172265     
  -38933443.8498682     
  -38933359.3186843     
  -38933030.2045001     
  -38932470.5362719     
  -38931693.8891626     
  -38930713.3829908     
  -38929541.6810492     
  -38928190.9892915     
  -38926673.0558935     
  -38924999.1711917     
  -38923180.1680136     
  -38921226.4224153     
  -38919147.8548453     
  -38916953.9317557     
  -38914653.6676717     
  -38912255.6277664     
  -38909767.9311245     
  -38907198.2541621     
  -38328121.0346789     
  -38344205.0906069     
  -38359320.0953829     
  -38373494.8986417     
  -38386758.1721133     
  -38399138.3835898     
  -38410663.7716756     
  -38421362.3219071     
  -38431261.7439104     
  -38440389.4496080     
  -38448772.5325212     
  -38456437.7481659     
  -38463411.4955264     
  -38469719.7995944     
  -38475388.2949541     
  -38480442.2103984     
  -38484906.3545552     
  -38488805.1024983     
  -38492162.3833136     
  -38495001.6685914     
  -38497345.9618068     
  -38499217.7885545     
  -38500639.1875944     
  -38501631.7026709     
  -38502216.3750568     
  -38502413.7367826     
  -38502243.8045011     
  -38501726.0739444     
  -38500879.5149256     
  -38499722.5668414     
  -38498273.1346314     
  -38496548.5851530     
  -38494565.7439313     
  -38492340.8922493     
  -38489889.7645446     
  -38487227.5460833     
  -38484368.8708887     
  -38481327.8199023     
  -38478117.9193663     
  -38474752.1394174     
  -38471242.8928914     
  -38467602.0343409     
  -38463840.8592777     
  -38459970.1036509     
  -38455999.9435843     
  -38451939.9954231     
  -38447799.3161592     
  -38443586.4042040     
  -38439309.2001219     
  -38434975.0893618     
  -37962408.0470124     
  -37976410.0357060     
  -37989372.1806595     
  -38001328.2580188     
  -38012311.7729891     
  -38022355.9286238     
  -38031493.5973527     
  -38039757.2929285     
  -38047179.1439258     
  -38053790.8688458     
  -38059623.7526871     
  -38064708.6249363     
  -38069075.8389823     
  -38072755.2529571     
  -38075776.2119898     
  -38078167.5318437     
  -38079957.4839053     
  -38081173.7814822     
  -38081843.5673675     
  -38081993.4026181     
  -38081649.2564916     
  -38080836.4974786     
  -38079579.8853636     
  -38077903.5642407     
  -38075831.0564097     
  -38073385.2570717     
  -38070588.4297444     
  -38067462.2023125     
  -38064027.5636327     
  -38060304.8606076     
  -38056313.7956512     
  -38052073.4244640     
  -38047602.1540469     
  -38042917.7408806     
  -38038037.2892085     
  -38032977.2493638     
  -38027753.4160909     
  -38022380.9268177     
  -38016874.2598452     
  -38011247.2324269     
  -38005512.9987245     
  -37999684.0476338     
  -37993772.2004968     
  -37987788.6087229     
  -37981743.7513393     
  -37975647.4324456     
  -37969508.7785469     
  -37963336.2361742     
  -37957137.5710503     
  -37950919.8621142     
  -37606743.0644434     
  -37617977.9746307     
  -37628103.3975578     
  -37637158.9714361     
  -37645183.9342277     
  -37652217.0902137     
  -37658296.7728808     
  -37663460.8132038     
  -37667746.5098326     
  -37671190.6006877     
  -37673829.2363693     
  -37675697.9556035     
  -37676831.6627331     
  -37677264.6072009     
  -37677030.3649846     
  -37676161.8219477     
  -37674691.1590744     
  -37672649.8395409     
  -37670068.5975579     
  -37666977.4289087     
  -37663405.5830855     
  -37659381.5569262     
  -37654933.0896296     
  -37650087.1590317     
  -37644869.9790072     
  -37639306.9978580     
  -37633422.8975466     
  -37627241.5936243     
  -37620786.2357073     
  -37614079.2083504     
  -37607142.1321725     
  -37599995.8650898     
  -37592660.5035221     
  -37585155.3834395     
  -37577499.0811313     
  -37569709.4135857     
  -37561803.4383831     
  -37553797.4530195     
  -37545706.9935929     
  -37537546.8327994     
  -37529330.9772003     
  -37521072.6637281     
  -37512784.3554051     
  -37504477.7362735     
  -37496163.7056385     
  -37487852.3718763     
  -37479553.0459393     
  -37471274.2333090     
  -37463023.6215721     
  -37454808.0864748     
  -37264338.4783077     
  -37271960.4239431     
  -37278407.1986536     
  -37283725.4183803     
  -37287961.1281693     
  -37291159.7475598     
  -37293366.0409196     
  -37294624.0785820     
  -37294977.1991859     
  -37294467.9761825     
  -37293138.1878130     
  -37291028.7898550     
  -37288179.8910070     
  -37284630.7310307     
  -37280419.6617671     
  -37275584.1310574     
  -37270160.6695304     
  -37264184.8801686     
  -37257691.4305447     
  -37250714.0475975     
  -37243285.5147927     
  -37235437.6715003     
  -37227201.4143906     
  -37218606.7006349     
  -37209682.5526761     
  -37200457.0643224     
  -37190957.4079028     
  -37181209.8422216     
  -37171239.7210374     
  -37161071.5018027     
  -37150728.7543961     
  -37140234.1695900     
  -37129609.5670092     
  -37118875.9023476     
  -37108053.2736263     
  -37097160.9262973     
  -37086217.2570115     
  -37075239.8158953     
  -37064245.3071976     
  -37053249.5882044     
  -37042267.6663607     
  -37031313.6945912     
  -37020400.9648477     
  -37009541.8998440     
  -36998748.0427149     
  -36988030.0441199     
  -36977397.6472827     
  -36966859.6757285     
  -36956424.0298004     
  -36946097.6174275     
  -36938583.6598728     
  -36941550.9146694     
  -36943285.2626845     
  -36943841.6399881     
  -36943274.1592900     
  -36941636.1080682     
  -36938979.8589435     
  -36935356.8188734     
  -36930817.3906704     
  -36925410.9348343     
  -36919185.7323389     
  -36912188.9509586     
  -36904466.6164408     
  -36896063.5887309     
  -36887023.5430721     
  -36877388.9557780     
  -36867201.0945519     
  -36856500.0132525     
  -36845324.5509871     
  -36833712.3353537     
  -36821699.7895803     
  -36809322.1432560     
  -36796613.4462886     
  -36783606.5856830     
  -36770333.3047030     
  -36756824.2239575     
  -36743108.8639301     
  -36729215.6684704     
  -36715172.0287484     
  -36701004.3071924     
  -36686737.8609253     
  -36672397.0642419     
  -36658005.3296833     
  -36643585.1273005     
  -36629158.0017290     
  -36614744.5867431     
  -36600364.6169989     
  -36586036.9367235     
  -36571779.5051358     
  -36557609.3983988     
  -36543542.8078922     
  -36529595.0346080     
  -36515780.4796140     
  -36502112.6309649     
  -36488604.0481347     
  -36475266.3449886     
  -36462110.1682270     
  -36449145.1569089     
  -36436379.8765843     
  -36423821.9673009     
  -36632955.4882479     
  -36629988.1425050     
  -36625743.3259682     
  -36620286.0294345     
  -36613680.2445016     
  -36605988.6599576     
  -36597272.7135133     
  -36587592.5497518     
  -36577006.9413387     
  -36565573.2192417     
  -36553347.2195349     
  -36540383.2422136     
  -36526734.0180104     
  -36512450.6819243     
  -36497582.7537709     
  -36482178.1264184     
  -36466283.0621321     
  -36449942.1970723     
  -36433198.5536708     
  -36416093.5604169     
  -36398667.0784502     
  -36380957.4342936     
  -36363001.4579937     
  -36344834.5258902     
  -36326490.6071886     
  -36308002.3134668     
  -36289400.9502249     
  -36270716.5695644     
  -36251978.0230888     
  -36233213.0141363     
  -36214448.1484851     
  -36195708.9827151     
  -36177020.0694646     
  -36158404.9988750     
  -36139886.4355745     
  -36121486.1506238     
  -36103225.0479206     
  -36085123.1846747     
  -36067199.7857096     
  -36049473.2515240     
  -36031961.1601926     
  -36014680.2631127     
  -35997646.4740772     
  -35980874.8500141     
  -35964379.5608820     
  -35948173.8492857     
  -35932269.9949081     
  -35916679.3238314     
  -35901412.2433854     
  -35886477.5622341     
  -36350895.2314247     
  -36340420.3300743     
  -36328643.6891128     
  -36315642.9421393     
  -36301493.7331486     
  -36286270.5379058     
  -36270046.1750335     
  -36252891.5480438     
  -36234875.5619692     
  -36216065.0759244     
  -36196524.8460551     
  -36176317.4619822     
  -36155503.2896128     
  -36134140.4289921     
  -36112284.6903716     
  -36089989.5883670     
  -36067306.3528502     
  -36044283.9550690     
  -36020969.1477087     
  -35997406.5177974     
  -35973638.5513971     
  -35949705.7089385     
  -35925646.5098954     
  -35901497.6253137     
  -35877293.9765642     
  -35853068.8385755     
  -35828853.9457605     
  -35804679.5988467     
  -35780574.7708738     
  -35756567.2107138     
  -35732683.5425842     
  -35708949.3601838     
  -35685389.3142307     
  -35662027.1923596     
  -35638885.9904810     
  -35615987.9748238     
  -35593354.7339351     
  -35571007.2199006     
  -35548965.7779964     
  -35527250.1640345     
  -35505879.5490731     
  -35484872.5123280     
  -35464247.0252612     
  -35444020.4320456     
  -35424209.4298139     
  -35404830.0364052     
  -35385897.4921126     
  -35367426.0079464     
  -35349428.5463019     
  -35331918.8377781     
  -36095650.9656158     
  -36075727.1859383     
  -36054505.2704011     
  -36032078.5209046     
  -36008540.6132156     
  -35983981.5603437     
  -35958488.4037285     
  -35932145.6367445     
  -35905035.1096238     
  -35877235.7648720     
  -35848823.4027228     
  -35819870.5276247     
  -35790446.2646741     
  -35760616.3237979     
  -35730442.9961902     
  -35699985.1760591     
  -35669298.4061589     
  -35638434.9476720     
  -35607443.8749629     
  -35576371.1946896     
  -35545259.9875414     
  -35514150.5698402     
  -35483080.6715710     
  -35452085.6270615     
  -35421198.5744718     
  -35390450.6603679     
  -35359871.2458869     
  -35329488.1112714     
  -35299327.6558363     
  -35269415.0906978     
  -35239774.6218392     
  -35210429.6213449     
  -35181402.7848842     
  -35152716.2738543     
  -35124391.8409742     
  -35096450.9386094     
  -35068914.8096255     
  -35041804.5610204     
  -35015141.2206739     
  -34988945.7768817     
  -34963239.1984139     
  -34938042.4295509     
  -34913376.3512785     
  -34889261.7017355     
  -34865718.9681486     
  -34842768.3170852     
  -34820429.7170573     
  -34798723.3663129     
  -34777669.5231866     
  -34757281.5216370     
  -35870099.1506121     
  -35838283.0143117     
  -35805213.5368122     
  -35771013.8770726     
  -35735793.7536378     
  -35699663.5200713     
  -35662732.3265585     
  -35625105.5190356     
  -35586883.4260526     
  -35548161.0412893     
  -35509028.0209775     
  -35469568.7131322     
  -35429862.1457791     
  -35389981.9930610     
  -35349996.5595607     
  -35309968.8150423     
  -35269956.4962556     
  -35230012.2788297     
  -35190184.0131727     
  -35150515.0134924     
  -35111044.3873791     
  -35071807.3937156     
  -35032835.8180581     
  -34994158.3564463     
  -34955801.0004520     
  -34917787.4179437     
  -34880139.3254176     
  -34842876.8487817     
  -34806018.8701728     
  -34769583.3587539     
  -34733587.6835117     
  -34698048.9059020     
  -34662984.0498153     
  -34628410.3458913     
  -34594345.4468091     
  -34560807.6100869     
  -34527815.8454466     
  -34495390.0253738     
  -34463550.9605750     
  -34432320.4467831     
  -34401721.2951017     
  -34371777.3618962     
  -34342513.5887795     
  -34313956.0339399     
  -34286131.8018730     
  -34259068.6520826     
  -34232793.9891916     
  -34207333.4571616     
  -34182712.5798555     
  -34158977.8068047     
  -35676501.7176181     
  -35629647.4596419     
  -35581642.2530084     
  -35532617.1476538     
  -35482743.9055780     
  -35432181.7389392     
  -35381073.7921931     
  -35329551.8310667     
  -35277739.4160971     
  -35225752.7694629     
  -35173700.3440222     
  -35121682.0077636     
  -35069788.3559966     
  -35018100.3535156     
  -34966689.3328139     
  -34915617.2944080     
  -34864937.4304811     
  -34814694.7952414     
  -34764927.0583704     
  -34715665.2934282     
  -34666934.7673354     
  -34618755.7087691     
  -34571144.0423163     
  -34524112.0818292     
  -34477669.1810824     
  -34431822.3429689     
  -34386576.7904706     
  -34341936.5037651     
  -34297904.7282920     
  -34254484.4585104     
  -34211678.9014721     
  -34169491.9232224     
  -34127928.4793202     
  -34086995.0283553     
  -34046699.9240675     
  -34007053.7774526     
  -33968069.7750778     
  -33929763.9341271     
  -33892155.2695996     
  -33855265.8472831     
  -33819120.7029844     
  -33783747.6336865     
  -33749176.9247800     
  -33715441.1863862     
  -33682575.6301390     
  -33650619.2320713     
  -33619616.8731820     
  -33589620.2689177     
  -33560676.8099076     
  -33532767.3391704     
  -35516463.7925085     
  -35450076.4594021     
  -35382678.8085071     
  -35314642.4763112     
  -35246152.9407672     
  -35177376.9727978     
  -35108493.7838254     
  -35039688.1588314     
  -34971137.9460407     
  -34903004.7562430     
  -34835428.9944974     
  -34768528.2522817     
  -34702397.8455061     
  -34637112.5415649     
  -34572728.8321443     
  -34509287.3577208     
  -34446815.2611848     
  -34385328.3574587     
  -34324833.0721887     
  -34265328.1407412     
  -34206806.0794131     
  -34149254.4509828     
  -34092656.9508540     
  -34036994.3408174     
  -33982245.2565087     
  -33928386.9129344     
  -33875395.7305390     
  -33823247.9024956     
  -33771919.9223734     
  -33721389.0901140     
  -33671634.0133253     
  -33622635.1201679     
  -33574375.1993862     
  -33526839.9820001     
  -33480018.7772774     
  -33433905.1719457     
  -33388497.7947222     
  -33343801.1357770     
  -33299826.3890959     
  -33256592.2495589     
  -33214125.5389360     
  -33172461.4489877     
  -33131643.0756039     
  -33091719.8049384     
  -33052744.1229780     
  -33014766.9402442     
  -32977833.6547190     
  -32941989.9033552     
  -32907325.1431122     
  -32874134.2719433     
  -35389214.5556933     
  -35296724.5148544     
  -35204011.9229338     
  -35110839.0217082     
  -35017573.4867066     
  -34924713.2720560     
  -34832714.4241938     
  -34741941.1298846     
  -34652662.5399377     
  -34565065.3284682     
  -34479269.6616867     
  -34395344.0623614     
  -34313317.8407294     
  -34233190.9932230     
  -34154941.8887937     
  -34078533.1555880     
  -34003916.1535287     
  -33931034.3554649     
  -33859825.8938441     
  -33790225.4725739     
  -33722165.7973979     
  -33655578.6419856     
  -33590395.6393459     
  -33526548.8673726     
  -33463971.2818094     
  -33402597.0384853     
  -33342361.7384119     
  -33283202.6236000     
  -33225058.7477822     
  -33167871.1443590     
  -33111583.0136833     
  -33056139.9532758     
  -33001490.2578852     
  -32947585.3217789     
  -32894380.1837144     
  -32841834.2663276     
  -32789912.3768200     
  -32738586.0553405     
  -32687835.3809914     
  -32637651.3701600     
  -32588039.1188162     
  -32539021.8251353     
  -32490645.7206135     
  -32442985.5910097     
  -32396149.6385058     
  -32350280.1139845     
  -32305540.5305195     
  -32262066.8669385     
  -32219828.3315339     
  -32178267.5323263     
  -35298482.3523763     
  -35166296.3595067     
  -35031871.8227568     
  -34898798.6639210     
  -34768861.6480781     
  -34642903.5263439     
  -34521264.9682685     
  -34404015.4916482     
  -34291078.0786012     
  -34182298.0741588     
  -34077482.0209914     
  -33976419.8222162     
  -33878897.4281859     
  -33784704.0228173     
  -33693635.9635610     
  -33605498.7833385     
  -33520108.0294354     
  -33437289.4062268     
  -33356878.5066396     
  -33278720.3077030     
  -33202668.5384406     
  -33128584.9867147     
  -33056338.7854857     
  -32985805.7024258     
  -32916867.4463437     
  -32849410.9972679     
  -32783327.9629332     
  -32718513.9620028     
  -32654868.0331304     
  -32592292.0686662     
  -32530690.2723553     
  -32469968.6418504     
  -32410034.4795552     
  -32350795.9397968     
  -32292161.6275692     
  -32234040.2758243     
  -32176340.5474213     
  -32118971.0394882     
  -32061840.6211784     
  -32004859.3270148     
  -31947940.1876946     
  -31891002.6662176     
  -31833978.8920780     
  -31776824.8744619     
  -31719540.7851988     
  -31662208.1912791     
  -31605059.8308741     
  -31548613.6281548     
  -31493937.0527848     
  -31443183.1075069     
  -35187659.0339348     
  -34964469.7242636     
  -34763076.5924180     
  -34578978.7410820     
  -34409039.3091498     
  -34250972.3934164     
  -34103049.1307630     
  -33963921.3229482     
  -33832510.8128470     
  -33707937.2182967     
  -33589468.9680256     
  -33476489.0408971     
  -33368470.3099049     
  -33264957.3582920     
  -33165552.7784196     
  -33069906.6513032     
  -32977708.3310041     
  -32888679.9301244     
  -32802571.0808815     
  -32719154.6657372     
  -32638223.2933845     
  -32559586.3529110     
  -32483067.5193207     
  -32408502.6125053     
  -32335737.7326254     
  -32264627.6099597     
  -32195034.1181144     
  -32126824.9070747     
  -32059872.1175522     
  -31994051.1408481     
  -31929239.3891581     
  -31865315.0398544     
  -31802155.7135404     
  -31739637.0390329     
  -31677631.0479583     
  -31616004.3258550     
  -31554615.8230943     
  -31493314.1936724     
  -31431934.4764697     
  -31370293.8510337     
  -31308186.0694722     
  -31245373.9542017     
  -31181578.9969615     
  -31116466.4826529     
  -31049623.4692730     
  -30980524.9377828     
  -30908479.5713807     
  -30832539.0134339     
  -30751338.9502020     
  -30662807.8497442     
SCALARS 2waySource double 
LOOKUP_TABLE default
 -5.795532296807551E-006
 -5.590249697712716E-006
 -5.405569323599716E-006
 -5.236701994011213E-006
 -5.080489644165834E-006
 -4.934723388958125E-006
 -4.797778878973495E-006
 -4.668412039069282E-006
 -4.545638905156446E-006
 -4.428661356823340E-006
 -4.316818983833688E-006
 -4.209556498438414E-006
 -4.106400804542157E-006
 -4.006944318387538E-006
 -3.910832492510183E-006
 -3.817754262246058E-006
 -3.727434584042639E-006
 -3.639628508066537E-006
 -3.554116399159843E-006
 -3.470700031765755E-006
 -3.389199358784617E-006
 -3.309449805487981E-006
 -3.231299975326891E-006
 -3.154609680033668E-006
 -3.079248224864112E-006
 -3.005092893057942E-006
 -2.932027583359344E-006
 -2.859941561080178E-006
 -2.788728287726058E-006
 -2.718284296686144E-006
 -2.648508083090045E-006
 -2.579298974671733E-006
 -2.510555946999979E-006
 -2.442176340079822E-006
 -2.374054423431733E-006
 -2.306079741249722E-006
 -2.238135146006503E-006
 -2.170094393166777E-006
 -2.101819114443040E-006
 -2.033154899623641E-006
 -1.963926075251009E-006
 -1.893928532214543E-006
 -1.822919548647195E-006
 -1.750602836046805E-006
 -1.676605723039354E-006
 -1.600442911504149E-006
 -1.521456410359872E-006
 -1.438711556677458E-006
 -1.350809004369725E-006
 -1.255530064740693E-006
 -5.896181439669364E-006
 -5.778062161338435E-006
 -5.657053187348533E-006
 -5.536664350732827E-006
 -5.418560227732455E-006
 -5.303490979249957E-006
 -5.191744411083755E-006
 -5.083371270644040E-006
 -4.978300502023185E-006
 -4.876399704035966E-006
 -4.777507554956309E-006
 -4.681451495867677E-006
 -4.588057448689310E-006
 -4.497155118424787E-006
 -4.408580790768230E-006
 -4.322178682727315E-006
 -4.237801446905747E-006
 -4.155310178915679E-006
 -4.074574135368263E-006
 -3.995470287561686E-006
 -3.917882787104831E-006
 -3.841702389943277E-006
 -3.766825866843465E-006
 -3.693155416755409E-006
 -3.620598092128423E-006
 -3.549065240379954E-006
 -3.478471962762973E-006
 -3.408736589741758E-006
 -3.339780170929277E-006
 -3.271525976738812E-006
 -3.203899008849570E-006
 -3.136825516577055E-006
 -3.070232517094522E-006
 -3.004047318892829E-006
 -2.938197050811313E-006
 -2.872608203997590E-006
 -2.807206203311241E-006
 -2.741915040839301E-006
 -2.676657033425248E-006
 -2.611352819239791E-006
 -2.545921807282786E-006
 -2.480283480431620E-006
 -2.414360312826272E-006
 -2.348083772262725E-006
 -2.281406307278849E-006
 -2.214325159186730E-006
 -2.146930020204590E-006
 -2.079499821688813E-006
 -2.012702959354753E-006
 -1.948019954257141E-006
 -6.001519313514023E-006
 -5.921094211182718E-006
 -5.838978515956274E-006
 -5.755238380238305E-006
 -5.670424506027947E-006
 -5.585135397982299E-006
 -5.499878985815910E-006
 -5.415045880068381E-006
 -5.330920304641236E-006
 -5.247700481944075E-006
 -5.165518520752315E-006
 -5.084456939848757E-006
 -5.004561537668897E-006
 -4.925851126866151E-006
 -4.848324802038685E-006
 -4.771967339472470E-006
 -4.696753206093099E-006
 -4.622649539404559E-006
 -4.549618366467715E-006
 -4.477618258780695E-006
 -4.406605567507236E-006
 -4.336535345346002E-006
 -4.267362033903592E-006
 -4.199039975485940E-006
 -4.131523794011987E-006
 -4.064768679399963E-006
 -3.998730602517858E-006
 -3.933366482678936E-006
 -3.868634326352953E-006
 -3.804493353921108E-006
 -3.740904130828039E-006
 -3.677828720240549E-006
 -3.615230876751599E-006
 -3.553076304786133E-006
 -3.491333011816973E-006
 -3.429971796176668E-006
 -3.368966923078826E-006
 -3.308297061890226E-006
 -3.247946584455011E-006
 -3.187907359418421E-006
 -3.128181219857686E-006
 -3.068783322908031E-006
 -3.009746631926473E-006
 -2.951127653945500E-006
 -2.893013148938767E-006
 -2.835526264774764E-006
 -2.778827137359074E-006
 -2.723094222652174E-006
 -2.668450643603312E-006
 -2.614745398422939E-006
 -6.155465708980083E-006
 -6.097624601633956E-006
 -6.037789302784087E-006
 -5.976323406569191E-006
 -5.913456065818550E-006
 -5.849413754285805E-006
 -5.784433950328798E-006
 -5.718751685981749E-006
 -5.652585945882984E-006
 -5.586131589694199E-006
 -5.519556276885438E-006
 -5.453000677616424E-006
 -5.386580484293414E-006
 -5.320389221161819E-006
 -5.254501255478325E-006
 -5.188974690608631E-006
 -5.123853991376872E-006
 -5.059172289455047E-006
 -4.994953368398443E-006
 -4.931213353246200E-006
 -4.867962139862835E-006
 -4.805204601466094E-006
 -4.742941608221817E-006
 -4.681170892517485E-006
 -4.619887788802695E-006
 -4.559085873359398E-006
 -4.498757526309805E-006
 -4.438894435593974E-006
 -4.379488060838634E-006
 -4.320530073631751E-006
 -4.262012790039147E-006
 -4.203929610890950E-006
 -4.146275485495094E-006
 -4.089047414872898E-006
 -4.032245011003525E-006
 -3.975871128460037E-006
 -3.919932583352518E-006
 -3.864440970052356E-006
 -3.809413576151814E-006
 -3.754874375846195E-006
 -3.700855044767180E-006
 -3.647395875189828E-006
 -3.594546369222869E-006
 -3.542365147754737E-006
 -3.490918676406511E-006
 -3.440278363630076E-006
 -3.390516447132780E-006
 -3.341704575238171E-006
 -3.293930196867680E-006
 -3.247378564708539E-006
 -6.354844361449539E-006
 -6.312814123715372E-006
 -6.268793696973870E-006
 -6.222957702612865E-006
 -6.175505314596853E-006
 -6.126620934171323E-006
 -6.076474322839012E-006
 -6.025225023054517E-006
 -5.973024305569608E-006
 -5.920014977509357E-006
 -5.866330341187086E-006
 -5.812093172899237E-006
 -5.757415102984276E-006
 -5.702396474668690E-006
 -5.647126616671364E-006
 -5.591684418440483E-006
 -5.536139098585607E-006
 -5.480551076801096E-006
 -5.424972883302451E-006
 -5.369450061131793E-006
 -5.314022033355363E-006
 -5.258722919770894E-006
 -5.203582296297429E-006
 -5.148625896122634E-006
 -5.093876255389789E-006
 -5.039353308460414E-006
 -4.985074939130016E-006
 -4.931057494698515E-006
 -4.877316269977243E-006
 -4.823865968170741E-006
 -4.770721144991830E-006
 -4.717896641783085E-006
 -4.665408012123550E-006
 -4.613271944969400E-006
 -4.561506684933140E-006
 -4.510132447194471E-006
 -4.459171820040139E-006
 -4.408650142248860E-006
 -4.358595835640621E-006
 -4.309040665801669E-006
 -4.260019899582894E-006
 -4.211572331896734E-006
 -4.163740178578745E-006
 -4.116568894080845E-006
 -4.070107090686608E-006
 -4.024406893021784E-006
 -3.979525077162661E-006
 -3.935524458123638E-006
 -3.892470620897488E-006
 -3.850403264501780E-006
 -6.600735229644894E-006
 -6.569894014626577E-006
 -6.537143749961787E-006
 -6.502619465121265E-006
 -6.466448371032943E-006
 -6.428758777032247E-006
 -6.389677337775706E-006
 -6.349326603861480E-006
 -6.307823991805542E-006
 -6.265281478547085E-006
 -6.221805489344314E-006
 -6.177496780411612E-006
 -6.132450300833485E-006
 -6.086755077646746E-006
 -6.040494167289088E-006
 -5.993744697228777E-006
 -5.946578002274060E-006
 -5.899059846739127E-006
 -5.851250716984006E-006
 -5.803206166564090E-006
 -5.754977197156238E-006
 -5.706610660803209E-006
 -5.658149671741222E-006
 -5.609634019050463E-006
 -5.561100573818648E-006
 -5.512583686560714E-006
 -5.464115572276705E-006
 -5.415726681679494E-006
 -5.367446057816176E-006
 -5.319301677791654E-006
 -5.271320779291415E-006
 -5.223530171418801E-006
 -5.175956528860849E-006
 -5.128626667735972E-006
 -5.081567800579033E-006
 -5.034807767143853E-006
 -4.988375236996277E-006
 -4.942299879767075E-006
 -4.896612499931017E-006
 -4.851345135389494E-006
 -4.806531123495655E-006
 -4.762205143770694E-006
 -4.718403249746248E-006
 -4.675162895075238E-006
 -4.632522924233723E-006
 -4.590523417194071E-006
 -4.549205170477809E-006
 -4.508608703441437E-006
 -4.468774087424770E-006
 -4.429749568075922E-006
 -6.892575802990135E-006
 -6.869760486868669E-006
 -6.845142948963548E-006
 -6.818823821644483E-006
 -6.790903896061835E-006
 -6.761481388353844E-006
 -6.730652475295427E-006
 -6.698511384040424E-006
 -6.665150065041500E-006
 -6.630657792700227E-006
 -6.595120845185292E-006
 -6.558622282873188E-006
 -6.521241802589053E-006
 -6.483055644679334E-006
 -6.444136540372608E-006
 -6.404553695113551E-006
 -6.364372807428736E-006
 -6.323656123378266E-006
 -6.282462525530685E-006
 -6.240847653884658E-006
 -6.198864054905583E-006
 -6.156561354032822E-006
 -6.113986446726051E-006
 -6.071183703216909E-006
 -6.028195182436095E-006
 -5.985060851133429E-006
 -5.941818804540399E-006
 -5.898505485634963E-006
 -5.855155900267792E-006
 -5.811803825841939E-006
 -5.768482011471511E-006
 -5.725222367663125E-006
 -5.682056143701057E-006
 -5.639014091066003E-006
 -5.596126611231204E-006
 -5.553423886567419E-006
 -5.510935993159150E-006
 -5.468692994976426E-006
 -5.426725018967143E-006
 -5.385062310854032E-006
 -5.343735270683939E-006
 -5.302774465323248E-006
 -5.262210612201429E-006
 -5.222074526388208E-006
 -5.182397028340492E-006
 -5.143208835383019E-006
 -5.104540518174041E-006
 -5.066422640220107E-006
 -5.028885817979951E-006
 -4.991957882410435E-006
 -7.229398957410053E-006
 -7.212220241483125E-006
 -7.193370150174378E-006
 -7.172926752211043E-006
 -7.150967391182214E-006
 -7.127569000676779E-006
 -7.102807570788192E-006
 -7.076757857588394E-006
 -7.049493225906277E-006
 -7.021085510678783E-006
 -6.991604871917141E-006
 -6.961119654190453E-006
 -6.929696263994439E-006
 -6.897399071817128E-006
 -6.864290340321618E-006
 -6.830430177407607E-006
 -6.795876512262804E-006
 -6.760685092613978E-006
 -6.724909501595868E-006
 -6.688601192752729E-006
 -6.651809541674909E-006
 -6.614581912484103E-006
 -6.576963737342501E-006
 -6.538998606839595E-006
 -6.500728369160237E-006
 -6.462193235792913E-006
 -6.423431891637501E-006
 -6.384481607387389E-006
 -6.345378352215698E-006
 -6.306156904890444E-006
 -6.266850961583536E-006
 -6.227493238796048E-006
 -6.188115569991477E-006
 -6.148748994609215E-006
 -6.109423838352548E-006
 -6.070169783773736E-006
 -6.031015930203553E-006
 -5.991990842214153E-006
 -5.953122585709452E-006
 -5.914438750763581E-006
 -5.875966460394141E-006
 -5.837732364885633E-006
 -5.799762622612169E-006
 -5.762082870078057E-006
 -5.724718185188528E-006
 -5.687693042537156E-006
 -5.651031238635352E-006
 -5.614755732480507E-006
 -5.578888429463707E-006
 -5.543450851172435E-006
 -7.609824746310034E-006
 -7.596441726943139E-006
 -7.581528579077148E-006
 -7.565146516118575E-006
 -7.547356631745342E-006
 -7.528219630659197E-006
 -7.507795781388313E-006
 -7.486144788782598E-006
 -7.463325648309198E-006
 -7.439396516561469E-006
 -7.414414600481519E-006
 -7.388436060278834E-006
 -7.361515923295948E-006
 -7.333708008506657E-006
 -7.305064862476742E-006
 -7.275637707531932E-006
 -7.245476402388987E-006
 -7.214629415095918E-006
 -7.183143807774856E-006
 -7.151065232435079E-006
 -7.118437937058659E-006
 -7.085304781005612E-006
 -7.051707258779082E-006
 -7.017685531059386E-006
 -6.983278461928570E-006
 -6.948523661117499E-006
 -6.913457530085020E-006
 -6.878115310774522E-006
 -6.842531135862613E-006
 -6.806738079349701E-006
 -6.770768206401864E-006
 -6.734652621428218E-006
 -6.698421513410440E-006
 -6.662104197543212E-006
 -6.625729152424164E-006
 -6.589324051991017E-006
 -6.552915791529849E-006
 -6.516530507175507E-006
 -6.480193588410342E-006
 -6.443929683248128E-006
 -6.407762695956658E-006
 -6.371715777245933E-006
 -6.335811306795670E-006
 -6.300070867412027E-006
 -6.264515209215652E-006
 -6.229164202721759E-006
 -6.194036785729137E-006
 -6.159150924435804E-006
 -6.124523598438767E-006
 -6.090170508870771E-006
 -8.032232635928945E-006
 -8.021206031502568E-006
 -8.008794804772028E-006
 -7.995046880919057E-006
 -7.980010281676824E-006
 -7.963733042129654E-006
 -7.946263078151333E-006
 -7.927648086664903E-006
 -7.907935455065488E-006
 -7.887172172293894E-006
 -7.865404743605161E-006
 -7.842679111567010E-006
 -7.819040584333822E-006
 -7.794533771309260E-006
 -7.769202526121432E-006
 -7.743089896797416E-006
 -7.716238083077449E-006
 -7.688688400800941E-006
 -7.660481253214105E-006
 -7.631656108918362E-006
 -7.602251486138315E-006
 -7.572304942841512E-006
 -7.541853072249218E-006
 -7.510931503147067E-006
 -7.479574904410533E-006
 -7.447816993118953E-006
 -7.415690545599112E-006
 -7.383227410760692E-006
 -7.350458525009579E-006
 -7.317413928129258E-006
 -7.284122779449990E-006
 -7.250613373677867E-006
 -7.216913155807965E-006
 -7.183048734529647E-006
 -7.149045893597207E-006
 -7.114929600724338E-006
 -7.080724013525470E-006
 -7.046452482192085E-006
 -7.012137548519895E-006
 -6.977800941102084E-006
 -6.943463566338510E-006
 -6.909145495129179E-006
 -6.874865945011629E-006
 -6.840643257802867E-006
 -6.806494873213499E-006
 -6.772437299311698E-006
 -6.738486079333650E-006
 -6.704655748670385E-006
 -6.670959774153233E-006
 -6.637410568936337E-006
 -8.494900820677960E-006
 -8.485106520642575E-006
 -8.474071350458857E-006
 -8.461832610288428E-006
 -8.448427881714112E-006
 -8.433894936497700E-006
 -8.418271660798880E-006
 -8.401595973847844E-006
 -8.383905749883354E-006
 -8.365238745138190E-006
 -8.345632529174795E-006
 -8.325124420221991E-006
 -8.303751424586760E-006
 -8.281550180410376E-006
 -8.258556905889261E-006
 -8.234807352079806E-006
 -8.210336760235918E-006
 -8.185179823595869E-006
 -8.159370653544005E-006
 -8.132942749957882E-006
 -8.105928975583083E-006
 -8.078361534189658E-006
 -8.050271952266392E-006
 -8.021691063958597E-006
 -7.992648998898535E-006
 -7.963175172641900E-006
 -7.933298279292472E-006
 -7.903046285972651E-006
 -7.872446428779598E-006
 -7.841525209795358E-006
 -7.810308394830308E-006
 -7.778821011499036E-006
 -7.747087347287212E-006
 -7.715130947296073E-006
 -7.682974611285111E-006
 -7.650640389808701E-006
 -7.618149579108326E-006
 -7.585522714564153E-006
 -7.552779562488570E-006
 -7.519939110087091E-006
 -7.487019553442054E-006
 -7.454038283464015E-006
 -7.421011869766501E-006
 -7.387956042433212E-006
 -7.354885671626796E-006
 -7.321814744759882E-006
 -7.288756341189480E-006
 -7.255722606389300E-006
 -7.222724729634018E-006
 -7.189772897417101E-006
 -8.996133613404422E-006
 -8.986699773654280E-006
 -8.976162889837127E-006
 -8.964551685417721E-006
 -8.951895282166341E-006
 -8.938223130094067E-006
 -8.923564936743886E-006
 -8.907950601399124E-006
 -8.891410151552245E-006
 -8.873973681632515E-006
 -8.855671294418977E-006
 -8.836533045352302E-006
 -8.816588889823381E-006
 -8.795868633413207E-006
 -8.774401885132001E-006
 -8.752218013657940E-006
 -8.729346106548314E-006
 -8.705814932433125E-006
 -8.681652906091178E-006
 -8.656888056367323E-006
 -8.631547996785088E-006
 -8.605659898750359E-006
 -8.579250467204630E-006
 -8.552345918552876E-006
 -8.524971960694889E-006
 -8.497153774963971E-006
 -8.468915999795120E-006
 -8.440282715874004E-006
 -8.411277432596225E-006
 -8.381923075602242E-006
 -8.352241975171163E-006
 -8.322255855275674E-006
 -8.291985823090955E-006
 -8.261452358755540E-006
 -8.230675305213276E-006
 -8.199673857955820E-006
 -8.168466554527056E-006
 -8.137071263631074E-006
 -8.105505173736553E-006
 -8.073784781086689E-006
 -8.041925877039499E-006
 -8.009943534662098E-006
 -7.977852094554029E-006
 -7.945665149895099E-006
 -7.913395530673464E-006
 -7.881055287342265E-006
 -7.848655673957840E-006
 -7.816207130521818E-006
 -7.783719263014100E-006
 -7.751200829529856E-006
 -9.534362239431128E-006
 -9.524620396734069E-006
 -9.513904508441999E-006
 -9.502236418655891E-006
 -9.489638434284972E-006
 -9.476133265359492E-006
 -9.461743967715212E-006
 -9.446493886805780E-006
 -9.430406603484827E-006
 -9.413505881844589E-006
 -9.395815619012173E-006
 -9.377359796945213E-006
 -9.358162436283338E-006
 -9.338247552269324E-006
 -9.317639112795834E-006
 -9.296360998532569E-006
 -9.274436965167571E-006
 -9.251890607695793E-006
 -9.228745326760695E-006
 -9.205024296957013E-006
 -9.180750437099218E-006
 -9.155946382308130E-006
 -9.130634457917384E-006
 -9.104836655016563E-006
 -9.078574607638096E-006
 -9.051869571390558E-006
 -9.024742403481983E-006
 -8.997213543993715E-006
 -8.969302998300656E-006
 -8.941030320499761E-006
 -8.912414597758445E-006
 -8.883474435424430E-006
 -8.854227942816222E-006
 -8.824692719596049E-006
 -8.794885842557176E-006
 -8.764823852816680E-006
 -8.734522743269923E-006
 -8.703997946247971E-006
 -8.673264321333250E-006
 -8.642336143239350E-006
 -8.611227089749213E-006
 -8.579950229683894E-006
 -8.548518010876561E-006
 -8.516942248168131E-006
 -8.485234111450701E-006
 -8.453404113770572E-006
 -8.421462099451433E-006
 -8.389417232462214E-006
 -8.357277985627904E-006
 -8.325052128396423E-006
 -1.010821702903265E-005
 -1.009766184364243E-005
 -1.008625108984839E-005
 -1.007400114786956E-005
 -1.006092888487638E-005
 -1.004705160519754E-005
 -1.003238700165533E-005
 -1.001695310836870E-005
 -1.000076825490248E-005
 -9.983851021740829E-006
 -9.966220197221075E-006
 -9.947894735931039E-006
 -9.928893718579466E-006
 -9.909236313385577E-006
 -9.888941738942671E-006
 -9.868029228629460E-006
 -9.846517996514602E-006
 -9.824427204753075E-006
 -9.801775932488956E-006
 -9.778583146192738E-006
 -9.754867671437674E-006
 -9.730648166071783E-006
 -9.705943094724818E-006
 -9.680770704612189E-006
 -9.655149002620204E-006
 -9.629095733519038E-006
 -9.602628359374131E-006
 -9.575764039974672E-006
 -9.548519614295724E-006
 -9.520911582889249E-006
 -9.492956091143905E-006
 -9.464668913373415E-006
 -9.436065437646059E-006
 -9.407160651318977E-006
 -9.377969127188766E-006
 -9.348505010253272E-006
 -9.318782005025491E-006
 -9.288813363316213E-006
 -9.258611872535981E-006
 -9.228189844426329E-006
 -9.197559104218100E-006
 -9.166730980242827E-006
 -9.135716293942393E-006
 -9.104525350322643E-006
 -9.073167928883450E-006
 -9.041653274974374E-006
 -9.009990091751142E-006
 -8.978186532649208E-006
 -8.946250194330696E-006
 -8.914188110760494E-006
 -1.071657263763292E-005
 -1.070482818769771E-005
 -1.069233538379531E-005
 -1.067910632687605E-005
 -1.066515359859412E-005
 -1.065049021998555E-005
 -1.063512961107121E-005
 -1.061908555130982E-005
 -1.060237214104425E-005
 -1.058500376391686E-005
 -1.056699505030879E-005
 -1.054836084182071E-005
 -1.052911615682792E-005
 -1.050927615709799E-005
 -1.048885611551946E-005
 -1.046787138493565E-005
 -1.044633736807241E-005
 -1.042426948859606E-005
 -1.040168316324878E-005
 -1.037859377511075E-005
 -1.035501664791912E-005
 -1.033096702146851E-005
 -1.030646002806095E-005
 -1.028151066996472E-005
 -1.025613379789985E-005
 -1.023034409046062E-005
 -1.020415603451895E-005
 -1.017758390650821E-005
 -1.015064175460023E-005
 -1.012334338173902E-005
 -1.009570232946598E-005
 -1.006773186254145E-005
 -1.003944495433493E-005
 -1.001085427290940E-005
 -9.981972167828566E-006
 -9.952810657631935E-006
 -9.923381417954027E-006
 -9.893695770287147E-006
 -9.863764671383490E-006
 -9.833598703243454E-006
 -9.803208063731829E-006
 -9.772602557802017E-006
 -9.741791589337663E-006
 -9.710784153613909E-006
 -9.679588830415470E-006
 -9.648213777802274E-006
 -9.616666726582754E-006
 -9.584954975485820E-006
 -9.553085387154114E-006
 -9.521064384810791E-006
 -1.135857067931534E-005
 -1.134536222126302E-005
 -1.133150134314323E-005
 -1.131699684778458E-005
 -1.130185799143316E-005
 -1.128609444995041E-005
 -1.126971628555470E-005
 -1.125273391420078E-005
 -1.123515807356911E-005
 -1.121699979174871E-005
 -1.119827035662141E-005
 -1.117898128596742E-005
 -1.115914429832690E-005
 -1.113877128465063E-005
 -1.111787428072707E-005
 -1.109646544041623E-005
 -1.107455700970512E-005
 -1.105216130159005E-005
 -1.102929067177405E-005
 -1.100595749522461E-005
 -1.098217414352461E-005
 -1.095795296309113E-005
 -1.093330625419234E-005
 -1.090824625078106E-005
 -1.088278510116942E-005
 -1.085693484944992E-005
 -1.083070741775280E-005
 -1.080411458924210E-005
 -1.077716799189442E-005
 -1.074987908301537E-005
 -1.072225913448755E-005
 -1.069431921875639E-005
 -1.066607019550857E-005
 -1.063752269904165E-005
 -1.060868712634570E-005
 -1.057957362583912E-005
 -1.055019208677907E-005
 -1.052055212933740E-005
 -1.049066309534184E-005
 -1.046053403968246E-005
 -1.043017372234666E-005
 -1.039959060117201E-005
 -1.036879282523214E-005
 -1.033778822892237E-005
 -1.030658432673519E-005
 -1.027518830875984E-005
 -1.024360703689815E-005
 -1.021184704185447E-005
 -1.017991452086019E-005
 -1.014781533626547E-005
 -1.203362497163532E-005
 -1.201875549459109E-005
 -1.200331874106805E-005
 -1.198732101797087E-005
 -1.197076904469660E-005
 -1.195366992586288E-005
 -1.193603112437743E-005
 -1.191786043488249E-005
 -1.189916595757932E-005
 -1.187995607252753E-005
 -1.186023941437470E-005
 -1.184002484760230E-005
 -1.181932144229424E-005
 -1.179813845043126E-005
 -1.177648528276934E-005
 -1.175437148628925E-005
 -1.173180672224983E-005
 -1.170880074483767E-005
 -1.168536338045890E-005
 -1.166150450765534E-005
 -1.163723403764468E-005
 -1.161256189554046E-005
 -1.158749800218016E-005
 -1.156205225663244E-005
 -1.153623451935760E-005
 -1.151005459599592E-005
 -1.148352222184352E-005
 -1.145664704694695E-005
 -1.142943862187239E-005
 -1.140190638410502E-005
 -1.137405964510208E-005
 -1.134590757796718E-005
 -1.131745920579742E-005
 -1.128872339063379E-005
 -1.125970882306035E-005
 -1.123042401243782E-005
 -1.120087727776223E-005
 -1.117107673916919E-005
 -1.114103031006002E-005
 -1.111074568986609E-005
 -1.108023035747889E-005
 -1.104949156529768E-005
 -1.101853633395040E-005
 -1.098737144767478E-005
 -1.095600345037370E-005
 -1.092443864236170E-005
 -1.089268307778153E-005
 -1.086074256277982E-005
 -1.082862265438000E-005
 -1.079632866009005E-005
 -1.274141438625658E-005
 -1.272474539579539E-005
 -1.270758430241520E-005
 -1.268993556311760E-005
 -1.267180399853583E-005
 -1.265319477130147E-005
 -1.263411336454816E-005
 -1.261456556064161E-005
 -1.259455742010846E-005
 -1.257409526085846E-005
 -1.255318563767471E-005
 -1.253183532204818E-005
 -1.251005128234638E-005
 -1.248784066434536E-005
 -1.246521077217889E-005
 -1.244216904967656E-005
 -1.241872306215381E-005
 -1.239488047862645E-005
 -1.237064905451737E-005
 -1.234603661481111E-005
 -1.232105103771961E-005
 -1.229570023883760E-005
 -1.226999215579970E-005
 -1.224393473347136E-005
 -1.221753590964730E-005
 -1.219080360129085E-005
 -1.216374569130336E-005
 -1.213637001583392E-005
 -1.210868435213939E-005
 -1.208069640697980E-005
 -1.205241380558523E-005
 -1.202384408114432E-005
 -1.199499466488795E-005
 -1.196587287670268E-005
 -1.193648591632378E-005
 -1.190684085508109E-005
 -1.187694462823558E-005
 -1.184680402785257E-005
 -1.181642569628830E-005
 -1.178581612023782E-005
 -1.175498162537617E-005
 -1.172392837158288E-005
 -1.169266234878003E-005
 -1.166118937335629E-005
 -1.162951508522674E-005
 -1.159764494548185E-005
 -1.156558423470181E-005
 -1.153333805187826E-005
 -1.150091131399360E-005
 -1.146830875626926E-005
 -1.348186756812995E-005
 -1.346330356102227E-005
 -1.344431366594040E-005
 -1.342490100198161E-005
 -1.340506899927400E-005
 -1.338482138208195E-005
 -1.336416215191955E-005
 -1.334309557080061E-005
 -1.332162614455150E-005
 -1.329975860626820E-005
 -1.327749789998247E-005
 -1.325484916447273E-005
 -1.323181771733019E-005
 -1.320840903924973E-005
 -1.318462875860505E-005
 -1.316048263628608E-005
 -1.313597655087500E-005
 -1.311111648411941E-005
 -1.308590850675890E-005
 -1.306035876469844E-005
 -1.303447346557480E-005
 -1.300825886566618E-005
 -1.298172125724523E-005
 -1.295486695629830E-005
 -1.292770229067819E-005
 -1.290023358868929E-005
 -1.287246716809224E-005
 -1.284440932555132E-005
 -1.281606632655480E-005
 -1.278744439575622E-005
 -1.275854970779650E-005
 -1.272938837860636E-005
 -1.269996645715782E-005
 -1.267028991770559E-005
 -1.264036465251532E-005
 -1.261019646508429E-005
 -1.257979106384143E-005
 -1.254915405636612E-005
 -1.251829094408321E-005
 -1.248720711750869E-005
 -1.245590785196245E-005
 -1.242439830383240E-005
 -1.239268350735088E-005
 -1.236076837189847E-005
 -1.232865767984810E-005
 -1.229635608493976E-005
 -1.226386811121435E-005
 -1.223119815248146E-005
 -1.219835047234949E-005
 -1.216532920482902E-005
 -1.425514288708320E-005
 -1.423461899126801E-005
 -1.421372756431688E-005
 -1.419247078649430E-005
 -1.417085109558705E-005
 -1.414887117394675E-005
 -1.412653393548324E-005
 -1.410384251265273E-005
 -1.408080024350527E-005
 -1.405741065875097E-005
 -1.403367746894329E-005
 -1.400960455175285E-005
 -1.398519593937794E-005
 -1.396045580610742E-005
 -1.393538845605275E-005
 -1.390999831109342E-005
 -1.388428989900773E-005
 -1.385826784186335E-005
 -1.383193684462728E-005
 -1.380530168406567E-005
 -1.377836719790816E-005
 -1.375113827429097E-005
 -1.372361984153628E-005
 -1.369581685821922E-005
 -1.366773430357303E-005
 -1.363937716824347E-005
 -1.361075044536049E-005
 -1.358185912200700E-005
 -1.355270817102408E-005
 -1.352330254318593E-005
 -1.349364715980063E-005
 -1.346374690562959E-005
 -1.343360662227323E-005
 -1.340323110190341E-005
 -1.337262508143131E-005
 -1.334179323707914E-005
 -1.331074017937867E-005
 -1.327947044857237E-005
 -1.324798851047348E-005
 -1.321629875272280E-005
 -1.318440548151901E-005
 -1.315231291876500E-005
 -1.312002519965951E-005
 -1.308754637076904E-005
 -1.305488038849547E-005
 -1.302203111806929E-005
 -1.298900233294018E-005
 -1.295579771466830E-005
 -1.292242085326839E-005
 -1.288887524801322E-005
 -1.506160611376342E-005
 -1.503907839193620E-005
 -1.501623475670204E-005
 -1.499307675497158E-005
 -1.496960613862407E-005
 -1.494582485473895E-005
 -1.492173503577433E-005
 -1.489733898967307E-005
 -1.487263918998079E-005
 -1.484763826595043E-005
 -1.482233899268986E-005
 -1.479674428133630E-005
 -1.477085716932784E-005
 -1.474468081074852E-005
 -1.471821846680088E-005
 -1.469147349638008E-005
 -1.466444934682318E-005
 -1.463714954480801E-005
 -1.460957768742104E-005
 -1.458173743343711E-005
 -1.455363249478602E-005
 -1.452526662826290E-005
 -1.449664362744523E-005
 -1.446776731486947E-005
 -1.443864153446760E-005
 -1.440927014426006E-005
 -1.437965700932055E-005
 -1.434980599503998E-005
 -1.431972096068070E-005
 -1.428940575321818E-005
 -1.425886420151716E-005
 -1.422810011080817E-005
 -1.419711725748251E-005
 -1.416591938424474E-005
 -1.413451019556380E-005
 -1.410289335350677E-005
 -1.407107247387902E-005
 -1.403905112274030E-005
 -1.400683281327822E-005
 -1.397442100302777E-005
 -1.394181909146250E-005
 -1.390903041795724E-005
 -1.387605826010508E-005
 -1.384290583242905E-005
 -1.380957628545125E-005
 -1.377607270514679E-005
 -1.374239811277662E-005
 -1.370855546510078E-005
 -1.367454765496241E-005
 -1.364037751227303E-005
 -1.590180755792189E-005
 -1.587724551206083E-005
 -1.585241352330978E-005
 -1.582731273442137E-005
 -1.580194444251119E-005
 -1.577631009190751E-005
 -1.575041126686819E-005
 -1.572424968427021E-005
 -1.569782718622262E-005
 -1.567114573268544E-005
 -1.564420739406541E-005
 -1.561701434384282E-005
 -1.558956885120109E-005
 -1.556187327375650E-005
 -1.553393005031058E-005
 -1.550574169370471E-005
 -1.547731078376847E-005
 -1.544863996040132E-005
 -1.541973191674337E-005
 -1.539058939252675E-005
 -1.536121516755424E-005
 -1.533161205535244E-005
 -1.530178289701096E-005
 -1.527173055518993E-005
 -1.524145790834492E-005
 -1.521096784515493E-005
 -1.518026325915325E-005
 -1.514934704361199E-005
 -1.511822208663591E-005
 -1.508689126650425E-005
 -1.505535744728390E-005
 -1.502362347466113E-005
 -1.499169217206071E-005
 -1.495956633702893E-005
 -1.492724873789070E-005
 -1.489474211066855E-005
 -1.486204915631286E-005
 -1.482917253820416E-005
 -1.479611487993200E-005
 -1.476287876340645E-005
 -1.472946672721360E-005
 -1.469588126532893E-005
 -1.466212482609194E-005
 -1.462819981149229E-005
 -1.459410857677306E-005
 -1.455985343034125E-005
 -1.452543663395367E-005
 -1.449086040325748E-005
 -1.445612690859991E-005
 -1.442123827615814E-005
 -1.677645980030463E-005
 -1.674984066392359E-005
 -1.672299294635055E-005
 -1.669591755398949E-005
 -1.666861549946384E-005
 -1.664108789651118E-005
 -1.661333595478638E-005
 -1.658536097458376E-005
 -1.655716434152594E-005
 -1.652874752121176E-005
 -1.650011205383627E-005
 -1.647125954881530E-005
 -1.644219167943635E-005
 -1.641291017749850E-005
 -1.638341682804000E-005
 -1.635371346408590E-005
 -1.632380196147215E-005
 -1.629368423376758E-005
 -1.626336222725736E-005
 -1.623283791606128E-005
 -1.620211329734948E-005
 -1.617119038668024E-005
 -1.614007121348760E-005
 -1.610875781670724E-005
 -1.607725224056642E-005
 -1.604555653050053E-005
 -1.601367272929312E-005
 -1.598160287335603E-005
 -1.594934898921657E-005
 -1.591691309017920E-005
 -1.588429717319885E-005
 -1.585150321595471E-005
 -1.581853317414589E-005
 -1.578538897897595E-005
 -1.575207253488227E-005
 -1.571858571747651E-005
 -1.568493037172436E-005
 -1.565110831033836E-005
 -1.561712131242329E-005
 -1.558297112235570E-005
 -1.554865944889115E-005
 -1.551418796451701E-005
 -1.547955830506302E-005
 -1.544477206954380E-005
 -1.540983082022597E-005
 -1.537473608299069E-005
 -1.533948934788678E-005
 -1.530409206995947E-005
 -1.526854567030807E-005
 -1.523285153739785E-005
 -1.768641668553667E-005
 -1.765772114521322E-005
 -1.762883474898938E-005
 -1.759975828597837E-005
 -1.757049260585014E-005
 -1.754103861537485E-005
 -1.751139727485410E-005
 -1.748156959451414E-005
 -1.745155663084524E-005
 -1.742135948290266E-005
 -1.739097928859008E-005
 -1.736041722093698E-005
 -1.732967448437517E-005
 -1.729875231102568E-005
 -1.726765195702673E-005
 -1.723637469889792E-005
 -1.720492182993001E-005
 -1.717329465667175E-005
 -1.714149449545748E-005
 -1.710952266902983E-005
 -1.707738050323810E-005
 -1.704506932384204E-005
 -1.701259045342006E-005
 -1.697994520839227E-005
 -1.694713489615802E-005
 -1.691416081236966E-005
 -1.688102423833514E-005
 -1.684772643856074E-005
 -1.681426865845607E-005
 -1.678065212217305E-005
 -1.674687803060324E-005
 -1.671294755956715E-005
 -1.667886185813214E-005
 -1.664462204711780E-005
 -1.661022921779985E-005
 -1.657568443075474E-005
 -1.654098871490610E-005
 -1.650614306676433E-005
 -1.647114844982468E-005
 -1.643600579418637E-005
 -1.640071599634416E-005
 -1.636527991917159E-005
 -1.632969839210805E-005
 -1.629397221151588E-005
 -1.625810214126006E-005
 -1.622208891345867E-005
 -1.618593322943965E-005
 -1.614963576086723E-005
 -1.611319715108569E-005
 -1.607661801662943E-005
 -1.863265390396887E-005
 -1.860186294696236E-005
 -1.857091612682613E-005
 -1.853981419599426E-005
 -1.850855792409992E-005
 -1.847714809576343E-005
 -1.844558550839023E-005
 -1.841387096985433E-005
 -1.838200529618599E-005
 -1.834998930922070E-005
 -1.831782383424885E-005
 -1.828550969762529E-005
 -1.825304772442467E-005
 -1.822043873607614E-005
 -1.818768354804506E-005
 -1.815478296752055E-005
 -1.812173779117897E-005
 -1.808854880295902E-005
 -1.805521677191350E-005
 -1.802174245011657E-005
 -1.798812657064957E-005
 -1.795436984565259E-005
 -1.792047296447594E-005
 -1.788643659190684E-005
 -1.785226136650657E-005
 -1.781794789903740E-005
 -1.778349677101180E-005
 -1.774890853333643E-005
 -1.771418370509284E-005
 -1.767932277243606E-005
 -1.764432618759489E-005
 -1.760919436804805E-005
 -1.757392769578998E-005
 -1.753852651676573E-005
 -1.750299114042004E-005
 -1.746732183940603E-005
 -1.743151884942867E-005
 -1.739558236924827E-005
 -1.735951256080700E-005
 -1.732330954952808E-005
 -1.728697342475492E-005
 -1.725050424033283E-005
 -1.721390201536466E-005
 -1.717716673508895E-005
 -1.714029835192679E-005
 -1.710329678667326E-005
 -1.706616192983602E-005
 -1.702889364312611E-005
 -1.699149176107968E-005
 -1.695395609284480E-005
 -1.961625125156602E-005
 -1.958334388911025E-005
 -1.955031376314313E-005
 -1.951716163990517E-005
 -1.948388826133671E-005
 -1.945049434391778E-005
 -1.941698057748358E-005
 -1.938334762401597E-005
 -1.934959611640194E-005
 -1.931572665719617E-005
 -1.928173981737463E-005
 -1.924763613508207E-005
 -1.921341611441228E-005
 -1.917908022418533E-005
 -1.914462889675833E-005
 -1.911006252687080E-005
 -1.907538147051419E-005
 -1.904058604386165E-005
 -1.900567652223280E-005
 -1.897065313912587E-005
 -1.893551608530594E-005
 -1.890026550794623E-005
 -1.886490150986365E-005
 -1.882942414881090E-005
 -1.879383343686472E-005
 -1.875812933987598E-005
 -1.872231177703464E-005
 -1.868638062050127E-005
 -1.865033569516282E-005
 -1.861417677844999E-005
 -1.857790360029470E-005
 -1.854151584316520E-005
 -1.850501314222200E-005
 -1.846839508557060E-005
 -1.843166121464067E-005
 -1.839481102466255E-005
 -1.835784396527318E-005
 -1.832075944121499E-005
 -1.828355681318329E-005
 -1.824623539875003E-005
 -1.820879447344308E-005
 -1.817123327191117E-005
 -1.813355098922782E-005
 -1.809574678229682E-005
 -1.805781977137907E-005
 -1.801976904174271E-005
 -1.798159364539586E-005
 -1.794329260296809E-005
 -1.790486490567867E-005
 -1.786630951741755E-005
 -2.063837649593770E-005
 -2.060332815980639E-005
 -2.056818904982225E-005
 -2.053295997280247E-005
 -2.049764167115220E-005
 -2.046223482254710E-005
 -2.042674003960555E-005
 -2.039115786956970E-005
 -2.035548879395915E-005
 -2.031973322826930E-005
 -2.028389152164533E-005
 -2.024796395659564E-005
 -2.021195074872575E-005
 -2.017585204647651E-005
 -2.013966793093549E-005
 -2.010339841563311E-005
 -2.006704344642211E-005
 -2.003060290138008E-005
 -1.999407659074669E-005
 -1.995746425695853E-005
 -1.992076557468537E-005
 -1.988398015096982E-005
 -1.984710752539403E-005
 -1.981014717034781E-005
 -1.977309849132649E-005
 -1.973596082734739E-005
 -1.969873345138533E-005
 -1.966141557094683E-005
 -1.962400632865960E-005
 -1.958650480299938E-005
 -1.954891000906427E-005
 -1.951122089944689E-005
 -1.947343636518795E-005
 -1.943555523682223E-005
 -1.939757628551750E-005
 -1.935949822428375E-005
 -1.932131970929247E-005
 -1.928303934127341E-005
 -1.924465566700874E-005
 -1.920616718091642E-005
 -1.916757232671556E-005
 -1.912886949919551E-005
 -1.909005704606215E-005
 -1.905113326987633E-005
 -1.901209643007628E-005
 -1.897294474509700E-005
 -1.893367639455116E-005
 -1.889428952151584E-005
 -1.885478223488796E-005
 -1.881515261180818E-005
 -2.170027067322050E-005
 -2.166305212589066E-005
 -2.162577442225798E-005
 -2.158843841758888E-005
 -2.155104486345796E-005
 -2.151359440814626E-005
 -2.147608759702838E-005
 -2.143852487300502E-005
 -2.140090657694345E-005
 -2.136323294815639E-005
 -2.132550412489014E-005
 -2.128772014487338E-005
 -2.124988094587762E-005
 -2.121198636631811E-005
 -2.117403614591908E-005
 -2.113602992638172E-005
 -2.109796725213734E-005
 -2.105984757111953E-005
 -2.102167023560675E-005
 -2.098343450310575E-005
 -2.094513953729460E-005
 -2.090678440901855E-005
 -2.086836809735550E-005
 -2.082988949072448E-005
 -2.079134738807512E-005
 -2.075274050012626E-005
 -2.071406745067656E-005
 -2.067532677798032E-005
 -2.063651693619282E-005
 -2.059763629687641E-005
 -2.055868315058890E-005
 -2.051965570852691E-005
 -2.048055210423913E-005
 -2.044137039544354E-005
 -2.040210856586025E-005
 -2.036276452716169E-005
 -2.032333612096596E-005
 -2.028382112092261E-005
 -2.024421723483702E-005
 -2.020452210690439E-005
 -2.016473331997578E-005
 -2.012484839791234E-005
 -2.008486480800097E-005
 -2.004477996342869E-005
 -2.000459122583404E-005
 -1.996429590790923E-005
 -1.992389127605847E-005
 -1.988337455313932E-005
 -1.984274292122368E-005
 -1.980199352444666E-005
 -2.280323457850929E-005
 -2.276381121418461E-005
 -2.272436064366550E-005
 -2.268488376305620E-005
 -2.264538132576385E-005
 -2.260585394349664E-005
 -2.256630208731353E-005
 -2.252672608871099E-005
 -2.248712614078393E-005
 -2.244750229938648E-005
 -2.240785448438524E-005
 -2.236818248092314E-005
 -2.232848594077237E-005
 -2.228876438369645E-005
 -2.224901719890504E-005
 -2.220924364652368E-005
 -2.216944285914159E-005
 -2.212961384340336E-005
 -2.208975548167308E-005
 -2.204986653371343E-005
 -2.200994563847317E-005
 -2.196999131588969E-005
 -2.193000196877236E-005
 -2.188997588474643E-005
 -2.184991123822346E-005
 -2.180980609247646E-005
 -2.176965840173858E-005
 -2.172946601337059E-005
 -2.168922667010160E-005
 -2.164893801230024E-005
 -2.160859758033960E-005
 -2.156820281698390E-005
 -2.152775106986045E-005
 -2.148723959397613E-005
 -2.144666555430207E-005
 -2.140602602838911E-005
 -2.136531800907568E-005
 -2.132453840721477E-005
 -2.128368405448221E-005
 -2.124275170620797E-005
 -2.120173804429208E-005
 -2.116063968014576E-005
 -2.111945315767556E-005
 -2.107817495634533E-005
 -2.103680149424756E-005
 -2.099532913123923E-005
 -2.095375417211101E-005
 -2.091207286978913E-005
 -2.087028142859505E-005
 -2.082837600750002E-005
 -2.394861617882266E-005
 -2.390694762426859E-005
 -2.386528483032610E-005
 -2.382362871305180E-005
 -2.378198000647205E-005
 -2.374033926416667E-005
 -2.369870686094462E-005
 -2.365708299456615E-005
 -2.361546768753516E-005
 -2.357386078897378E-005
 -2.353226197654297E-005
 -2.349067075843905E-005
 -2.344908647545681E-005
 -2.340750830310986E-005
 -2.336593525381548E-005
 -2.332436617915028E-005
 -2.328279977215796E-005
 -2.324123456971569E-005
 -2.319966895498714E-005
 -2.315810115988993E-005
 -2.311652926767182E-005
 -2.307495121551140E-005
 -2.303336479719302E-005
 -2.299176766583310E-005
 -2.295015733665858E-005
 -2.290853118985911E-005
 -2.286688647346670E-005
 -2.282522030631302E-005
 -2.278352968102154E-005
 -2.274181146707080E-005
 -2.270006241388228E-005
 -2.265827915399010E-005
 -2.261645820621811E-005
 -2.257459597894782E-005
 -2.253268877339709E-005
 -2.249073278695781E-005
 -2.244872411658179E-005
 -2.240665876218639E-005
 -2.236453263012689E-005
 -2.232234153668460E-005
 -2.228008121160693E-005
 -2.223774730165955E-005
 -2.219533537424082E-005
 -2.215284092100572E-005
 -2.211025936151166E-005
 -2.206758604692144E-005
 -2.202481626369312E-005
 -2.198194523732307E-005
 -2.193896813608495E-005
 -2.189588007479778E-005
 -2.513779866278427E-005
 -2.509383861375851E-005
 -2.504991898506155E-005
 -2.500604067964783E-005
 -2.496220437824447E-005
 -2.491841054154877E-005
 -2.487465941251682E-005
 -2.483095101871089E-005
 -2.478728517477997E-005
 -2.474366148499171E-005
 -2.470007934586359E-005
 -2.465653794887535E-005
 -2.461303628323701E-005
 -2.456957313877813E-005
 -2.452614710887303E-005
 -2.448275659345450E-005
 -2.443939980208556E-005
 -2.439607475712752E-005
 -2.435277929695047E-005
 -2.430951107920677E-005
 -2.426626758418994E-005
 -2.422304611822952E-005
 -2.417984381716291E-005
 -2.413665764985038E-005
 -2.409348442175759E-005
 -2.405032077858734E-005
 -2.400716320995073E-005
 -2.396400805311683E-005
 -2.392085149675964E-005
 -2.387768958482490E-005
 -2.383451822035734E-005
 -2.379133316943293E-005
 -2.374813006509740E-005
 -2.370490441135699E-005
 -2.366165158720259E-005
 -2.361836685064676E-005
 -2.357504534283843E-005
 -2.353168209215408E-005
 -2.348827201835124E-005
 -2.344480993673406E-005
 -2.340129056234925E-005
 -2.335770851418424E-005
 -2.331405831940681E-005
 -2.327033441761035E-005
 -2.322653116506588E-005
 -2.318264283899991E-005
 -2.313866364187626E-005
 -2.309458770567162E-005
 -2.305040909618549E-005
 -2.300612181731454E-005
 -2.637218883806144E-005
 -2.632588508982348E-005
 -2.627965879498973E-005
 -2.623351079837635E-005
 -2.618744168103837E-005
 -2.614145176307775E-005
 -2.609554110660170E-005
 -2.604970951876471E-005
 -2.600395655493728E-005
 -2.595828152196143E-005
 -2.591268348150740E-005
 -2.586716125354233E-005
 -2.582171341986784E-005
 -2.577633832775873E-005
 -2.573103409369197E-005
 -2.568579860713207E-005
 -2.564062953443079E-005
 -2.559552432277634E-005
 -2.555048020422105E-005
 -2.550549419977852E-005
 -2.546056312358448E-005
 -2.541568358712737E-005
 -2.537085200352991E-005
 -2.532606459188711E-005
 -2.528131738166592E-005
 -2.523660621715294E-005
 -2.519192676194304E-005
 -2.514727450347655E-005
 -2.510264475763275E-005
 -2.505803267333737E-005
 -2.501343323722778E-005
 -2.496884127834618E-005
 -2.492425147285275E-005
 -2.487965834879140E-005
 -2.483505629085572E-005
 -2.479043954520222E-005
 -2.474580222425761E-005
 -2.470113831157430E-005
 -2.465644166668285E-005
 -2.461170602995020E-005
 -2.456692502747382E-005
 -2.452209217595875E-005
 -2.447720088761828E-005
 -2.443224447506047E-005
 -2.438721615619306E-005
 -2.434210905911356E-005
 -2.429691622699053E-005
 -2.425163062296085E-005
 -2.420624513498879E-005
 -2.416075258073298E-005
 -2.765320559108123E-005
 -2.760450024083534E-005
 -2.755591244653102E-005
 -2.750744293724080E-005
 -2.745909213488182E-005
 -2.741086015777283E-005
 -2.736274682431352E-005
 -2.731475165678679E-005
 -2.726687388530190E-005
 -2.721911245184180E-005
 -2.717146601442237E-005
 -2.712393295136867E-005
 -2.707651136567664E-005
 -2.702919908950429E-005
 -2.698199368871262E-005
 -2.693489246753477E-005
 -2.688789247331072E-005
 -2.684099050129732E-005
 -2.679418309956439E-005
 -2.674746657396033E-005
 -2.670083699314247E-005
 -2.665429019367046E-005
 -2.660782178515061E-005
 -2.656142715545409E-005
 -2.651510147597663E-005
 -2.646883970692998E-005
 -2.642263660271140E-005
 -2.637648671727431E-005
 -2.633038440957584E-005
 -2.628432384901110E-005
 -2.623829902092685E-005
 -2.619230373211824E-005
 -2.614633161637182E-005
 -2.610037614003037E-005
 -2.605443060755409E-005
 -2.600848816711237E-005
 -2.596254181618103E-005
 -2.591658440714214E-005
 -2.587060865289772E-005
 -2.582460713246921E-005
 -2.577857229660486E-005
 -2.573249647338422E-005
 -2.568637187381061E-005
 -2.564019059738712E-005
 -2.559394463769346E-005
 -2.554762588793507E-005
 -2.550122614647842E-005
 -2.545473712236102E-005
 -2.540815044078340E-005
 -2.536145764858401E-005
 -2.898226813053460E-005
 -2.893109794610847E-005
 -2.888008921200079E-005
 -2.882924246990492E-005
 -2.877855790877351E-005
 -2.872803536916917E-005
 -2.867767434782042E-005
 -2.862747400227492E-005
 -2.857743315572542E-005
 -2.852755030194225E-005
 -2.847782361033729E-005
 -2.842825093113712E-005
 -2.837882980069146E-005
 -2.832955744684654E-005
 -2.828043079445560E-005
 -2.823144647094868E-005
 -2.818260081202825E-005
 -2.813388986740624E-005
 -2.808530940665358E-005
 -2.803685492508995E-005
 -2.798852164975440E-005
 -2.794030454546105E-005
 -2.789219832085614E-005
 -2.784419743457145E-005
 -2.779629610141482E-005
 -2.774848829859102E-005
 -2.770076777197253E-005
 -2.765312804239521E-005
 -2.760556241199079E-005
 -2.755806397052788E-005
 -2.751062560180646E-005
 -2.746323999002832E-005
 -2.741589962620728E-005
 -2.736859681459067E-005
 -2.732132367905611E-005
 -2.727407216954797E-005
 -2.722683406847868E-005
 -2.717960099715569E-005
 -2.713236442216504E-005
 -2.708511566178156E-005
 -2.703784589231938E-005
 -2.699054615450518E-005
 -2.694320735979751E-005
 -2.689582029671166E-005
 -2.684837563708455E-005
 -2.680086394232992E-005
 -2.675327566966543E-005
 -2.670560117827431E-005
 -2.665783073546523E-005
 -2.660995452276047E-005
 -3.036078374418831E-005
 -3.030708070773935E-005
 -3.025358756589602E-005
 -3.020030458528223E-005
 -3.014723163159529E-005
 -3.009436817497471E-005
 -3.004171329551145E-005
 -2.998926568894049E-005
 -2.993702367244314E-005
 -2.988498519062019E-005
 -2.983314782156836E-005
 -2.978150878310762E-005
 -2.973006493908504E-005
 -2.967881280582222E-005
 -2.962774855865487E-005
 -2.957686803854910E-005
 -2.952616675882538E-005
 -2.947563991195157E-005
 -2.942528237641832E-005
 -2.937508872368024E-005
 -2.932505322514936E-005
 -2.927516985926821E-005
 -2.922543231861051E-005
 -2.917583401702981E-005
 -2.912636809687262E-005
 -2.907702743618880E-005
 -2.902780465599355E-005
 -2.897869212755725E-005
 -2.892968197969009E-005
 -2.888076610606973E-005
 -2.883193617255704E-005
 -2.878318362453095E-005
 -2.873449969421618E-005
 -2.868587540800025E-005
 -2.863730159376046E-005
 -2.858876888816841E-005
 -2.854026774396757E-005
 -2.849178843727108E-005
 -2.844332107476644E-005
 -2.839485560096814E-005
 -2.834638180538390E-005
 -2.829788932968803E-005
 -2.824936767482108E-005
 -2.820080620806513E-005
 -2.815219417009000E-005
 -2.810352068193061E-005
 -2.805477475191974E-005
 -2.800594528256977E-005
 -2.795702107742445E-005
 -2.790799084779529E-005
 -3.179013480648136E-005
 -3.173382685468249E-005
 -3.167778259372377E-005
 -3.162200190856845E-005
 -3.156648423230272E-005
 -3.151122855263053E-005
 -3.145623341857239E-005
 -3.140149694730093E-005
 -3.134701683114040E-005
 -3.129279034469296E-005
 -3.123881435210602E-005
 -3.118508531447225E-005
 -3.113159929731994E-005
 -3.107835197823361E-005
 -3.102533865455787E-005
 -3.097255425120915E-005
 -3.091999332854382E-005
 -3.086765009032984E-005
 -3.081551839177406E-005
 -3.076359174760771E-005
 -3.071186334022925E-005
 -3.066032602790248E-005
 -3.060897235298555E-005
 -3.055779455020010E-005
 -3.050678455493049E-005
 -3.045593401153649E-005
 -3.040523428169576E-005
 -3.035467645274883E-005
 -3.030425134605887E-005
 -3.025394952535171E-005
 -3.020376130508018E-005
 -3.015367675875332E-005
 -3.010368572726453E-005
 -3.005377782719584E-005
 -3.000394245909889E-005
 -2.995416881575332E-005
 -2.990444589037731E-005
 -2.985476248482392E-005
 -2.980510721770412E-005
 -2.975546853251231E-005
 -2.970583470565208E-005
 -2.965619385445224E-005
 -2.960653394509700E-005
 -2.955684280051635E-005
 -2.950710810820943E-005
 -2.945731742800885E-005
 -2.940745819975862E-005
 -2.935751775094215E-005
 -2.930748330423192E-005
 -2.925734198495693E-005
 -3.327166478166505E-005
 -3.321267677537765E-005
 -3.315401246076579E-005
 -3.309567121229219E-005
 -3.303765189863544E-005
 -3.297995289056554E-005
 -3.292257206898186E-005
 -3.286550683313958E-005
 -3.280875410898003E-005
 -3.275231035763327E-005
 -3.269617158404285E-005
 -3.264033334569748E-005
 -3.258479076148784E-005
 -3.252953852065351E-005
 -3.247457089181706E-005
 -3.241988173212131E-005
 -3.236546449640917E-005
 -3.231131224650534E-005
 -3.225741766051672E-005
 -3.220377304221094E-005
 -3.215037033042794E-005
 -3.209720110852816E-005
 -3.204425661385424E-005
 -3.199152774723299E-005
 -3.193900508248217E-005
 -3.188667887591557E-005
 -3.183453907587486E-005
 -3.178257533221069E-005
 -3.173077700581055E-005
 -3.167913317804874E-005
 -3.162763266027091E-005
 -3.157626400320649E-005
 -3.152501550636410E-005
 -3.147387522739762E-005
 -3.142283099141041E-005
 -3.137187040022618E-005
 -3.132098084160210E-005
 -3.127014949838954E-005
 -3.121936335761540E-005
 -3.116860921952746E-005
 -3.111787370655724E-005
 -3.106714327219849E-005
 -3.101640420983022E-005
 -3.096564266144597E-005
 -3.091484462631402E-005
 -3.086399596953916E-005
 -3.081308243054102E-005
 -3.076208963144112E-005
 -3.071100308536884E-005
 -3.065980820464282E-005
 -3.480666297364464E-005
 -3.474491794062578E-005
 -3.468356371292766E-005
 -3.462259899935130E-005
 -3.456202194607240E-005
 -3.450183014612883E-005
 -3.444202064904143E-005
 -3.438258997060644E-005
 -3.432353410282107E-005
 -3.426484852394026E-005
 -3.420652820866544E-005
 -3.414856763841417E-005
 -3.409096081170346E-005
 -3.403370125462193E-005
 -3.397678203138134E-005
 -3.392019575491664E-005
 -3.386393459756322E-005
 -3.380799030178548E-005
 -3.375235419091728E-005
 -3.369701717998119E-005
 -3.364196978648295E-005
 -3.358720214125389E-005
 -3.353270399928473E-005
 -3.347846475056958E-005
 -3.342447343094387E-005
 -3.337071873288141E-005
 -3.331718901632530E-005
 -3.326387231943465E-005
 -3.321075636932735E-005
 -3.315782859278622E-005
 -3.310507612690506E-005
 -3.305248582968760E-005
 -3.300004429060352E-005
 -3.294773784106062E-005
 -3.289555256482880E-005
 -3.284347430838109E-005
 -3.279148869117086E-005
 -3.273958111580721E-005
 -3.268773677817487E-005
 -3.263594067743883E-005
 -3.258417762596508E-005
 -3.253243225916704E-005
 -3.248068904520261E-005
 -3.242893229462358E-005
 -3.237714616988259E-005
 -3.232531469473636E-005
 -3.227342176356122E-005
 -3.222145115050827E-005
 -3.216938651859497E-005
 -3.211721142863407E-005
 -3.639634777957305E-005
 -3.633176848360851E-005
 -3.626765518588945E-005
 -3.620400574347088E-005
 -3.614081739116063E-005
 -3.607808675285988E-005
 -3.601580985303497E-005
 -3.595398212833202E-005
 -3.589259843931727E-005
 -3.583165308232582E-005
 -3.577113980143172E-005
 -3.571105180046158E-005
 -3.565138175513410E-005
 -3.559212182523913E-005
 -3.553326366688309E-005
 -3.547479844476452E-005
 -3.541671684450424E-005
 -3.535900908500030E-005
 -3.530166493076650E-005
 -3.524467370433554E-005
 -3.518802429860137E-005
 -3.513170518919960E-005
 -3.507570444683553E-005
 -3.502000974960070E-005
 -3.496460839526888E-005
 -3.490948731352273E-005
 -3.485463307815463E-005
 -3.480003191921245E-005
 -3.474566973505959E-005
 -3.469153210440975E-005
 -3.463760429824654E-005
 -3.458387129169625E-005
 -3.453031777579657E-005
 -3.447692816918036E-005
 -3.442368662967145E-005
 -3.437057706577454E-005
 -3.431758314805553E-005
 -3.426468832043523E-005
 -3.421187581133416E-005
 -3.415912864474238E-005
 -3.410642965113986E-005
 -3.405376147829034E-005
 -3.400110660194228E-005
 -3.394844733635965E-005
 -3.389576584473358E-005
 -3.384304414947638E-005
 -3.379026414234374E-005
 -3.373740759443734E-005
 -3.368445616606203E-005
 -3.363139141643289E-005
 -3.804184821010417E-005
 -3.797435910910364E-005
 -3.790742030344414E-005
 -3.784102857622609E-005
 -3.777518002623381E-005
 -3.770987008141484E-005
 -3.764509351247336E-005
 -3.758084444657797E-005
 -3.751711638117766E-005
 -3.745390219788458E-005
 -3.739119417646922E-005
 -3.732898400885306E-005
 -3.726726281321898E-005
 -3.720602114810048E-005
 -3.714524902654031E-005
 -3.708493593023450E-005
 -3.702507082369441E-005
 -3.696564216839388E-005
 -3.690663793691480E-005
 -3.684804562705124E-005
 -3.678985227589867E-005
 -3.673204447387503E-005
 -3.667460837870839E-005
 -3.661752972937635E-005
 -3.656079385994610E-005
 -3.650438571336843E-005
 -3.644828985517472E-005
 -3.639249048709992E-005
 -3.633697146059869E-005
 -3.628171629025410E-005
 -3.622670816711247E-005
 -3.617192997186287E-005
 -3.611736428793363E-005
 -3.606299341444279E-005
 -3.600879937903445E-005
 -3.595476395057454E-005
 -3.590086865171214E-005
 -3.584709477131290E-005
 -3.579342337670447E-005
 -3.573983532583883E-005
 -3.568631127924841E-005
 -3.563283171185268E-005
 -3.557937692464761E-005
 -3.552592705617874E-005
 -3.547246209387929E-005
 -3.541896188524748E-005
 -3.536540614883348E-005
 -3.531177448506258E-005
 -3.525804638690141E-005
 -3.520420125031680E-005
 -3.974418344566779E-005
 -3.967371310982209E-005
 -3.960388755085632E-005
 -3.953470221389773E-005
 -3.946615179578394E-005
 -3.939823026100330E-005
 -3.933093085769243E-005
 -3.926424613375329E-005
 -3.919816795298348E-005
 -3.913268751129959E-005
 -3.906779535296031E-005
 -3.900348138683127E-005
 -3.893973490265521E-005
 -3.887654458730854E-005
 -3.881389854105906E-005
 -3.875178429378756E-005
 -3.869018882117441E-005
 -3.862909856084462E-005
 -3.856849942844686E-005
 -3.850837683367606E-005
 -3.844871569621438E-005
 -3.838950046158700E-005
 -3.833071511693733E-005
 -3.827234320668802E-005
 -3.821436784809423E-005
 -3.815677174670080E-005
 -3.809953721164657E-005
 -3.804264617087011E-005
 -3.798608018616366E-005
 -3.792982046809090E-005
 -3.787384789074514E-005
 -3.781814300638589E-005
 -3.776268605988732E-005
 -3.770745700303669E-005
 -3.765243550866656E-005
 -3.759760098462432E-005
 -3.754293258754792E-005
 -3.748840923646960E-005
 -3.743400962624722E-005
 -3.737971224080391E-005
 -3.732549536617235E-005
 -3.727133710335150E-005
 -3.721721538097217E-005
 -3.716310796776008E-005
 -3.710899248480747E-005
 -3.705484641762886E-005
 -3.700064712803277E-005
 -3.694637186576558E-005
 -3.689199777997390E-005
 -3.683750193044507E-005
 -4.150424020622858E-005
 -4.143072427496508E-005
 -4.135795891550419E-005
 -4.128593792297519E-005
 -4.121465427918186E-005
 -4.114410017131688E-005
 -4.107426701068385E-005
 -4.100514545149538E-005
 -4.093672540964690E-005
 -4.086899608150979E-005
 -4.080194596269247E-005
 -4.073556286678320E-005
 -4.066983394403885E-005
 -4.060474570003959E-005
 -4.054028401424534E-005
 -4.047643415851077E-005
 -4.041318081548663E-005
 -4.035050809693037E-005
 -4.028839956191973E-005
 -4.022683823492326E-005
 -4.016580662377501E-005
 -4.010528673749685E-005
 -4.004526010398148E-005
 -3.998570778751973E-005
 -3.992661040618654E-005
 -3.986794814905140E-005
 -3.980970079321008E-005
 -3.975184772065795E-005
 -3.969436793496671E-005
 -3.963724007778170E-005
 -3.958044244511616E-005
 -3.952395300344700E-005
 -3.946774940563345E-005
 -3.941180900658206E-005
 -3.935610887873749E-005
 -3.930062582734717E-005
 -3.924533640550621E-005
 -3.919021692898024E-005
 -3.913524349079596E-005
 -3.908039197562825E-005
 -3.902563807392517E-005
 -3.897095729582968E-005
 -3.891632498483318E-005
 -3.886171633123420E-005
 -3.880710638532676E-005
 -3.875247007035863E-005
 -3.869778219525287E-005
 -3.864301746708068E-005
 -3.858815050330125E-005
 -3.853315584374009E-005
 -4.332274772256057E-005
 -4.324613248585315E-005
 -4.317038609555814E-005
 -4.309550033031593E-005
 -4.302146609044445E-005
 -4.294827341975600E-005
 -4.287591152735265E-005
 -4.280436880939895E-005
 -4.273363287083552E-005
 -4.266369054701309E-005
 -4.259452792526082E-005
 -4.252613036634712E-005
 -4.245848252585467E-005
 -4.239156837538922E-005
 -4.232537122373143E-005
 -4.225987373777507E-005
 -4.219505796335852E-005
 -4.213090534591539E-005
 -4.206739675097260E-005
 -4.200451248444334E-005
 -4.194223231275706E-005
 -4.188053548278021E-005
 -4.181940074154705E-005
 -4.175880635576057E-005
 -4.169873013109636E-005
 -4.163914943128225E-005
 -4.158004119693296E-005
 -4.152138196417287E-005
 -4.146314788301127E-005
 -4.140531473547184E-005
 -4.134785795347170E-005
 -4.129075263646570E-005
 -4.123397356881146E-005
 -4.117749523690062E-005
 -4.112129184599420E-005
 -4.106533733683884E-005
 -4.100960540197428E-005
 -4.095406950178627E-005
 -4.089870288029883E-005
 -4.084347858065943E-005
 -4.078836946039703E-005
 -4.073334820635169E-005
 -4.067838734935427E-005
 -4.062345927863282E-005
 -4.056853625591384E-005
 -4.051359042925246E-005
 -4.045859384659066E-005
 -4.040351846902396E-005
 -4.034833618377763E-005
 -4.029301881692014E-005
 -4.520025011138275E-005
 -4.512049680616141E-005
 -4.504174428889436E-005
 -4.496398189401716E-005
 -4.488719801414152E-005
 -4.481138012535332E-005
 -4.473651481238715E-005
 -4.466258779367032E-005
 -4.458958394627538E-005
 -4.451748733066160E-005
 -4.444628121530332E-005
 -4.437594810112836E-005
 -4.430646974576040E-005
 -4.423782718756796E-005
 -4.417000076952013E-005
 -4.410297016280055E-005
 -4.403671439020811E-005
 -4.397121184931626E-005
 -4.390644033538831E-005
 -4.384237706404980E-005
 -4.377899869367149E-005
 -4.371628134752493E-005
 -4.365420063563946E-005
 -4.359273167638333E-005
 -4.353184911776528E-005
 -4.347152715845377E-005
 -4.341173956848228E-005
 -4.335245970967193E-005
 -4.329366055574797E-005
 -4.323531471215454E-005
 -4.317739443555157E-005
 -4.311987165299813E-005
 -4.306271798084228E-005
 -4.300590474326545E-005
 -4.294940299052451E-005
 -4.289318351687856E-005
 -4.283721687816695E-005
 -4.278147340909785E-005
 -4.272592324018871E-005
 -4.267053631437867E-005
 -4.261528240334614E-005
 -4.256013112345503E-005
 -4.250505195141050E-005
 -4.245001423956091E-005
 -4.239498723089979E-005
 -4.233994007372229E-005
 -4.228484183595276E-005
 -4.222966151916272E-005
 -4.217436807225690E-005
 -4.211893040482608E-005
 -4.713707597566123E-005
 -4.705416589175236E-005
 -4.697240338980397E-005
 -4.689177486432268E-005
 -4.681226570789857E-005
 -4.673386034028181E-005
 -4.665654223725380E-005
 -4.658029395925686E-005
 -4.650509717981739E-005
 -4.643093271369456E-005
 -4.635778054477870E-005
 -4.628561985372643E-005
 -4.621442904529634E-005
 -4.614418577539707E-005
 -4.607486697784667E-005
 -4.600644889080730E-005
 -4.593890708289916E-005
 -4.587221647901035E-005
 -4.580635138573988E-005
 -4.574128551654610E-005
 -4.567699201650806E-005
 -4.561344348675497E-005
 -4.555061200856190E-005
 -4.548846916704191E-005
 -4.542698607452387E-005
 -4.536613339352011E-005
 -4.530588135935887E-005
 -4.524619980243087E-005
 -4.518705817005481E-005
 -4.512842554798074E-005
 -4.507027068150927E-005
 -4.501256199622807E-005
 -4.495526761836877E-005
 -4.489835539478777E-005
 -4.484179291256804E-005
 -4.478554751822196E-005
 -4.472958633652971E-005
 -4.467387628898474E-005
 -4.461838411186516E-005
 -4.456307637391696E-005
 -4.450791949365892E-005
 -4.445287975632115E-005
 -4.439792333036823E-005
 -4.434301628369902E-005
 -4.428812459941719E-005
 -4.423321419126804E-005
 -4.417825091867430E-005
 -4.412320060142345E-005
 -4.406802903397234E-005
 -4.401270199938086E-005
 -4.913330507665673E-005
 -4.904724556772196E-005
 -4.896249644139442E-005
 -4.887904058196669E-005
 -4.879685981742795E-005
 -4.871593495262844E-005
 -4.863624580212351E-005
 -4.855777122266723E-005
 -4.848048914534127E-005
 -4.840437660732547E-005
 -4.832940978330079E-005
 -4.825556401642251E-005
 -4.818281384896452E-005
 -4.811113305249498E-005
 -4.804049465767654E-005
 -4.797087098364239E-005
 -4.790223366694829E-005
 -4.783455369009250E-005
 -4.776780140960427E-005
 -4.770194658369249E-005
 -4.763695839946662E-005
 -4.757280549969231E-005
 -4.750945600911455E-005
 -4.744687756031730E-005
 -4.738503731916820E-005
 -4.732390200975073E-005
 -4.726343793890051E-005
 -4.720361102026081E-005
 -4.714438679787591E-005
 -4.708573046935218E-005
 -4.702760690854734E-005
 -4.696998068781925E-005
 -4.691281609981083E-005
 -4.685607717879031E-005
 -4.679972772153510E-005
 -4.674373130778054E-005
 -4.668805132020924E-005
 -4.663265096398349E-005
 -4.657749328587672E-005
 -4.652254119292176E-005
 -4.646775747064049E-005
 -4.641310480082946E-005
 -4.635854577893060E-005
 -4.630404293095098E-005
 -4.624955872996156E-005
 -4.619505561218117E-005
 -4.614049599262546E-005
 -4.608584228034980E-005
 -4.603105689328245E-005
 -4.597610227261810E-005
 -5.118873195670113E-005
 -5.109956344986099E-005
 -5.101188521810276E-005
 -5.092567598456207E-005
 -5.084091337018507E-005
 -5.075757393128291E-005
 -5.067563319656542E-005
 -5.059506570370672E-005
 -5.051584503541344E-005
 -5.043794385497127E-005
 -5.036133394128062E-005
 -5.028598622338542E-005
 -5.021187081445051E-005
 -5.013895704522321E-005
 -5.006721349696227E-005
 -4.999660803378955E-005
 -4.992710783455447E-005
 -4.985867942410246E-005
 -4.979128870402383E-005
 -4.972490098283910E-005
 -4.965948100564739E-005
 -4.959499298319805E-005
 -4.953140062045211E-005
 -4.946866714455306E-005
 -4.940675533226670E-005
 -4.934562753688403E-005
 -4.928524571454846E-005
 -4.922557145007161E-005
 -4.916656598217824E-005
 -4.910819022823137E-005
 -4.905040480841518E-005
 -4.899317006937804E-005
 -4.893644610735135E-005
 -4.888019279074026E-005
 -4.882436978219142E-005
 -4.876893656014041E-005
 -4.871385243984117E-005
 -4.865907659389581E-005
 -4.860456807225587E-005
 -4.855028582174763E-005
 -4.849618870507428E-005
 -4.844223551933869E-005
 -4.838838501408479E-005
 -4.833459590882795E-005
 -4.828082691013247E-005
 -4.822703672820584E-005
 -4.817318409301530E-005
 -4.811922776994770E-005
 -4.806512657501654E-005
 -4.801083938959095E-005
 -5.330282643287570E-005
 -5.321063052498646E-005
 -5.312012284614410E-005
 -5.303127722145543E-005
 -5.294406633984287E-005
 -5.285846179613624E-005
 -5.277443413251815E-005
 -5.269195287929691E-005
 -5.261098659504433E-005
 -5.253150290602577E-005
 -5.245346854498601E-005
 -5.237684938923755E-005
 -5.230161049810120E-005
 -5.222771614962487E-005
 -5.215512987666246E-005
 -5.208381450224307E-005
 -5.201373217428145E-005
 -5.194484439958964E-005
 -5.187711207723716E-005
 -5.181049553121097E-005
 -5.174495454241365E-005
 -5.168044838001010E-005
 -5.161693583207564E-005
 -5.155437523560547E-005
 -5.149272450586387E-005
 -5.143194116508816E-005
 -5.137198237051349E-005
 -5.131280494180687E-005
 -5.125436538781538E-005
 -5.119661993271248E-005
 -5.113952454151068E-005
 -5.108303494495133E-005
 -5.102710666379316E-005
 -5.097169503248194E-005
 -5.091675522222117E-005
 -5.086224226346365E-005
 -5.080811106779468E-005
 -5.075431644926074E-005
 -5.070081314509193E-005
 -5.064755583588953E-005
 -5.059449916524770E-005
 -5.054159775879761E-005
 -5.048880624274362E-005
 -5.043607926183413E-005
 -5.038337149681148E-005
 -5.033063768133608E-005
 -5.027783261838946E-005
 -5.022491119616811E-005
 -5.017182840347874E-005
 -5.011853934462939E-005
 -5.547469093291990E-005
 -5.537959965120239E-005
 -5.528641341176019E-005
 -5.519510031493446E-005
 -5.510562730664976E-005
 -5.501796022519201E-005
 -5.493206384712902E-005
 -5.484790193237922E-005
 -5.476543726843132E-005
 -5.468463171369534E-005
 -5.460544624002832E-005
 -5.452784097438415E-005
 -5.445177523963021E-005
 -5.437720759451012E-005
 -5.430409587277068E-005
 -5.423239722147002E-005
 -5.416206813842066E-005
 -5.409306450883518E-005
 -5.402534164114320E-005
 -5.395885430200764E-005
 -5.389355675050734E-005
 -5.382940277156692E-005
 -5.376634570856769E-005
 -5.370433849515926E-005
 -5.364333368636548E-005
 -5.358328348883800E-005
 -5.352413979044335E-005
 -5.346585418902199E-005
 -5.340837802047928E-005
 -5.335166238609682E-005
 -5.329565817916885E-005
 -5.324031611089198E-005
 -5.318558673558466E-005
 -5.313142047520017E-005
 -5.307776764318521E-005
 -5.302457846762197E-005
 -5.297180311377435E-005
 -5.291939170592991E-005
 -5.286729434862701E-005
 -5.281546114725942E-005
 -5.276384222803547E-005
 -5.271238775735706E-005
 -5.266104796056879E-005
 -5.260977314013940E-005
 -5.255851369324021E-005
 -5.250722012877848E-005
 -5.245584308383306E-005
 -5.240433333955754E-005
 -5.235264183654647E-005
 -5.230071968963025E-005
 -5.770301470710949E-005
 -5.760522099590813E-005
 -5.750956855844724E-005
 -5.741601885149123E-005
 -5.732453217945329E-005
 -5.723506774584611E-005
 -5.714758370365683E-005
 -5.706203720465281E-005
 -5.697838444761458E-005
 -5.689658072551967E-005
 -5.681658047165647E-005
 -5.673833730473635E-005
 -5.666180407290826E-005
 -5.658693289679699E-005
 -5.651367521151920E-005
 -5.644198180766723E-005
 -5.637180287132461E-005
 -5.630308802309129E-005
 -5.623578635613194E-005
 -5.616984647326734E-005
 -5.610521652313019E-005
 -5.604184423536025E-005
 -5.597967695491400E-005
 -5.591866167542315E-005
 -5.585874507170353E-005
 -5.579987353134737E-005
 -5.574199318545962E-005
 -5.568504993855456E-005
 -5.562898949757860E-005
 -5.557375740014281E-005
 -5.551929904191687E-005
 -5.546555970323214E-005
 -5.541248457490510E-005
 -5.536001878327825E-005
 -5.530810741450648E-005
 -5.525669553810978E-005
 -5.520572822977998E-005
 -5.515515059346586E-005
 -5.510490778278301E-005
 -5.505494502169640E-005
 -5.500520762454782E-005
 -5.495564101540370E-005
 -5.490619074676268E-005
 -5.485680251761570E-005
 -5.480742219087198E-005
 -5.475799581017662E-005
 -5.470846961612026E-005
 -5.465879006185829E-005
 -5.460890382814486E-005
 -5.455875783779365E-005
 -5.998602502472081E-005
 -5.988579449774234E-005
 -5.978796113624539E-005
 -5.969247874274483E-005
 -5.959929999488017E-005
 -5.950837650137859E-005
 -5.941965885671090E-005
 -5.933309669441849E-005
 -5.924863873916741E-005
 -5.916623285748303E-005
 -5.908582610724475E-005
 -5.900736478590966E-005
 -5.893079447749439E-005
 -5.885606009835319E-005
 -5.878310594173636E-005
 -5.871187572115086E-005
 -5.864231261257536E-005
 -5.857435929551166E-005
 -5.850795799288682E-005
 -5.844305050986962E-005
 -5.837957827155830E-005
 -5.831748235961546E-005
 -5.825670354782634E-005
 -5.819718233663799E-005
 -5.813885898663385E-005
 -5.808167355106880E-005
 -5.802556590736177E-005
 -5.797047578765668E-005
 -5.791634280843515E-005
 -5.786310649918097E-005
 -5.781070633017897E-005
 -5.775908173937108E-005
 -5.770817215837760E-005
 -5.765791703766280E-005
 -5.760825587084474E-005
 -5.755912821821120E-005
 -5.751047372942327E-005
 -5.746223216543586E-005
 -5.741434341965888E-005
 -5.736674753835691E-005
 -5.731938474034703E-005
 -5.727219543593103E-005
 -5.722512024518892E-005
 -5.717810001552302E-005
 -5.713107583858714E-005
 -5.708398906653858E-005
 -5.703678132763106E-005
 -5.698939454122747E-005
 -5.694177093216740E-005
 -5.689385304454380E-005
 -6.232143555226303E-005
 -6.221911951962907E-005
 -6.211947603990088E-005
 -6.202245016208919E-005
 -6.192798586889897E-005
 -6.183602613688080E-005
 -6.174651299498663E-005
 -6.165938758157324E-005
 -6.157459019982657E-005
 -6.149206037166138E-005
 -6.141173689014432E-005
 -6.133355787039950E-005
 -6.125746079906619E-005
 -6.118338258235141E-005
 -6.111125959263762E-005
 -6.104102771374513E-005
 -6.097262238480473E-005
 -6.090597864283702E-005
 -6.084103116400112E-005
 -6.077771430358070E-005
 -6.071596213470308E-005
 -6.065570848585765E-005
 -6.059688697718590E-005
 -6.053943105562003E-005
 -6.048327402885285E-005
 -6.042834909820160E-005
 -6.037458939036533E-005
 -6.032192798810741E-005
 -6.027029795988892E-005
 -6.021963238848228E-005
 -6.016986439858521E-005
 -6.012092718344467E-005
 -6.007275403055000E-005
 -6.002527834638021E-005
 -5.997843368024417E-005
 -5.993215374724484E-005
 -5.988637245038394E-005
 -5.984102390180211E-005
 -5.979604244322952E-005
 -5.975136266561715E-005
 -5.970691942800164E-005
 -5.966264787560876E-005
 -5.961848345720860E-005
 -5.957436194175864E-005
 -5.953021943436396E-005
 -5.948599239150531E-005
 -5.944161763567036E-005
 -5.939703236927095E-005
 -5.935217418797508E-005
 -5.930698109340482E-005
 -6.470639221376400E-005
 -6.460244195459068E-005
 -6.450145845894541E-005
 -6.440337684156735E-005
 -6.430813124680198E-005
 -6.421565491237618E-005
 -6.412588023128605E-005
 -6.403873881184001E-005
 -6.395416153587816E-005
 -6.387207861519652E-005
 -6.379241964622490E-005
 -6.371511366299364E-005
 -6.364008918840285E-005
 -6.356727428384143E-005
 -6.349659659722319E-005
 -6.342798340940279E-005
 -6.336136167905738E-005
 -6.329665808610437E-005
 -6.323379907356946E-005
 -6.317271088806469E-005
 -6.311331961885545E-005
 -6.305555123553244E-005
 -6.299933162437318E-005
 -6.294458662335512E-005
 -6.289124205596433E-005
 -6.283922376367355E-005
 -6.278845763729713E-005
 -6.273886964710440E-005
 -6.269038587182880E-005
 -6.264293252653567E-005
 -6.259643598941466E-005
 -6.255082282751781E-005
 -6.250601982146699E-005
 -6.246195398916762E-005
 -6.241855260854045E-005
 -6.237574323932359E-005
 -6.233345374396238E-005
 -6.229161230758830E-005
 -6.225014745715512E-005
 -6.220898807973829E-005
 -6.216806343999148E-005
 -6.212730319685273E-005
 -6.208663741946061E-005
 -6.204599660232469E-005
 -6.200531167979950E-005
 -6.196451403982231E-005
 -6.192353553700989E-005
 -6.188230850506676E-005
 -6.184076576858228E-005
 -6.179884065418775E-005
 -6.713741695186503E-005
 -6.703239915505459E-005
 -6.693065986276513E-005
 -6.683212300489502E-005
 -6.673671168091165E-005
 -6.664434822643434E-005
 -6.655495427759966E-005
 -6.646845083330811E-005
 -6.638475831534310E-005
 -6.630379662644578E-005
 -6.622548520639985E-005
 -6.614974308611856E-005
 -6.607648893985774E-005
 -6.600564113552369E-005
 -6.593711778318912E-005
 -6.587083678181686E-005
 -6.580671586423214E-005
 -6.574467264046496E-005
 -6.568462463937126E-005
 -6.562648934871633E-005
 -6.557018425367238E-005
 -6.551562687382015E-005
 -6.546273479863779E-005
 -6.541142572162042E-005
 -6.536161747295318E-005
 -6.531322805087514E-005
 -6.526617565170753E-005
 -6.522037869860744E-005
 -6.517575586912868E-005
 -6.513222612152214E-005
 -6.508970871994322E-005
 -6.504812325847740E-005
 -6.500738968412196E-005
 -6.496742831868629E-005
 -6.492815987968746E-005
 -6.488950550023918E-005
 -6.485138674801424E-005
 -6.481372564325176E-005
 -6.477644467589626E-005
 -6.473946682185600E-005
 -6.470271555843431E-005
 -6.466611487895208E-005
 -6.462958930660145E-005
 -6.459306390752253E-005
 -6.455646430318726E-005
 -6.451971668205316E-005
 -6.448274781056020E-005
 -6.444548504346260E-005
 -6.440785633354677E-005
 -6.436979024072421E-005
 -6.961034994294060E-005
 -6.950496318047329E-005
 -6.940318215808813E-005
 -6.930491831764159E-005
 -6.921008246167998E-005
 -6.911858482166726E-005
 -6.903033512370237E-005
 -6.894524265177812E-005
 -6.886321630867137E-005
 -6.878416467451102E-005
 -6.870799606307346E-005
 -6.863461857589510E-005
 -6.856394015422457E-005
 -6.849586862887956E-005
 -6.843031176812828E-005
 -6.836717732354356E-005
 -6.830637307397539E-005
 -6.824780686764885E-005
 -6.819138666249258E-005
 -6.813702056466579E-005
 -6.808461686544011E-005
 -6.803408407640658E-005
 -6.798533096310093E-005
 -6.793826657709277E-005
 -6.789280028657069E-005
 -6.784884180548672E-005
 -6.780630122130821E-005
 -6.776508902141474E-005
 -6.772511611819639E-005
 -6.768629387287542E-005
 -6.764853411813675E-005
 -6.761174917956116E-005
 -6.757585189593134E-005
 -6.754075563845518E-005
 -6.750637432892719E-005
 -6.747262245686091E-005
 -6.743941509568924E-005
 -6.740666791796087E-005
 -6.737429720968667E-005
 -6.734221988378720E-005
 -6.731035349270270E-005
 -6.727861624021057E-005
 -6.724692699246886E-005
 -6.721520528829954E-005
 -6.718337134877692E-005
 -6.715134608613465E-005
 -6.711905111200663E-005
 -6.708640874503462E-005
 -6.705334201789710E-005
 -6.701977468373252E-005
 -7.212029096992668E-005
 -7.201538299775449E-005
 -7.191442058573604E-005
 -7.181730135548434E-005
 -7.172392253883649E-005
 -7.163418104627851E-005
 -7.154797353245276E-005
 -7.146519645899821E-005
 -7.138574615469923E-005
 -7.130951887307925E-005
 -7.123641084745209E-005
 -7.116631834357877E-005
 -7.109913770993516E-005
 -7.103476542572511E-005
 -7.097309814662781E-005
 -7.091403274846324E-005
 -7.085746636872743E-005
 -7.080329644613842E-005
 -7.075142075825316E-005
 -7.070173745717120E-005
 -7.065414510343851E-005
 -7.060854269822650E-005
 -7.056482971376784E-005
 -7.052290612219185E-005
 -7.048267242278715E-005
 -7.044402966772989E-005
 -7.040687948635641E-005
 -7.037112410803768E-005
 -7.033666638368776E-005
 -7.030340980597935E-005
 -7.027125852829916E-005
 -7.024011738250624E-005
 -7.020989189553606E-005
 -7.018048830487585E-005
 -7.015181357301539E-005
 -7.012377540084395E-005
 -7.009628224008761E-005
 -7.006924330480626E-005
 -7.004256858199783E-005
 -7.001616884134526E-005
 -6.998995564414789E-005
 -6.996384135148061E-005
 -6.993773913158645E-005
 -6.991156296658054E-005
 -6.988522765846922E-005
 -6.985864883452431E-005
 -6.983174295204087E-005
 -6.980442730252431E-005
 -6.977662001531326E-005
 -6.974824006067575E-005
 -7.466154082326755E-005
 -7.455812642434212E-005
 -7.445900606850913E-005
 -7.436406222677733E-005
 -7.427317729567348E-005
 -7.418623366387161E-005
 -7.410311377569240E-005
 -7.402370019163793E-005
 -7.394787564594951E-005
 -7.387552310140509E-005
 -7.380652580134378E-005
 -7.374076731907447E-005
 -7.367813160471826E-005
 -7.361850302959218E-005
 -7.356176642822637E-005
 -7.350780713803975E-005
 -7.345651103687006E-005
 -7.340776457829749E-005
 -7.336145482495488E-005
 -7.331746947984919E-005
 -7.327569691574916E-005
 -7.323602620278524E-005
 -7.319834713424993E-005
 -7.316255025070344E-005
 -7.312852686247426E-005
 -7.309616907058851E-005
 -7.306536978619249E-005
 -7.303602274855514E-005
 -7.300802254168459E-005
 -7.298126460963885E-005
 -7.295564527057257E-005
 -7.293106172957407E-005
 -7.290741209037822E-005
 -7.288459536595698E-005
 -7.286251148807898E-005
 -7.284106131586671E-005
 -7.282014664342119E-005
 -7.279967020651745E-005
 -7.277953568848009E-005
 -7.275964772520862E-005
 -7.273991190947295E-005
 -7.272023479443652E-005
 -7.270052389651641E-005
 -7.268068769760379E-005
 -7.266063564661959E-005
 -7.264027816054975E-005
 -7.261952662490322E-005
 -7.259829339364382E-005
 -7.257649178869739E-005
 -7.255403609893945E-005
 -7.722754378236684E-005
 -7.712682277479427E-005
 -7.703074788268163E-005
 -7.693918513700668E-005
 -7.685200088223621E-005
 -7.676906183890067E-005
 -7.669023516277630E-005
 -7.661538850080159E-005
 -7.654439004389099E-005
 -7.647710857669645E-005
 -7.641341352444204E-005
 -7.635317499698249E-005
 -7.629626383011596E-005
 -7.624255162432144E-005
 -7.619191078094107E-005
 -7.614421453603184E-005
 -7.609933699181379E-005
 -7.605715314596534E-005
 -7.601753891873530E-005
 -7.598037117804486E-005
 -7.594552776260747E-005
 -7.591288750318131E-005
 -7.588233024202591E-005
 -7.585373685063057E-005
 -7.582698924582052E-005
 -7.580197040427738E-005
 -7.577856437556444E-005
 -7.575665629375652E-005
 -7.573613238766650E-005
 -7.571687998981038E-005
 -7.569878754414811E-005
 -7.568174461263207E-005
 -7.566564188068508E-005
 -7.565037116158889E-005
 -7.563582539992471E-005
 -7.562189867403184E-005
 -7.560848619763430E-005
 -7.559548432057084E-005
 -7.558279052879451E-005
 -7.557030344360581E-005
 -7.555792282019196E-005
 -7.554554954554347E-005
 -7.553308563573916E-005
 -7.552043423268140E-005
 -7.550749960030857E-005
 -7.549418712031000E-005
 -7.548040328741421E-005
 -7.546605570424597E-005
 -7.545105307580426E-005
 -7.543530520361334E-005
 -7.981083242669406E-005
 -7.971420735772094E-005
 -7.962257770221189E-005
 -7.953579185050879E-005
 -7.945369897353304E-005
 -7.937614907852373E-005
 -7.930299306113173E-005
 -7.923408275409383E-005
 -7.916927097259956E-005
 -7.910841155645674E-005
 -7.905135940922529E-005
 -7.899797053439954E-005
 -7.894810206879617E-005
 -7.890161231320945E-005
 -7.885836076054143E-005
 -7.881820812140976E-005
 -7.878101634741004E-005
 -7.874664865214044E-005
 -7.871496953001517E-005
 -7.868584477309707E-005
 -7.865914148587168E-005
 -7.863472809825047E-005
 -7.861247437672249E-005
 -7.859225143382832E-005
 -7.857393173606595E-005
 -7.855738911021187E-005
 -7.854249874825130E-005
 -7.852913721089248E-005
 -7.851718242982090E-005
 -7.850651370870484E-005
 -7.849701172307419E-005
 -7.848855851908887E-005
 -7.848103751129738E-005
 -7.847433347944213E-005
 -7.846833256434338E-005
 -7.846292226298906E-005
 -7.845799142278231E-005
 -7.845343023510632E-005
 -7.844913022820231E-005
 -7.844498425939919E-005
 -7.844088650680491E-005
 -7.843673246042625E-005
 -7.843241891284340E-005
 -7.842784394940464E-005
 -7.842290693805970E-005
 -7.841750851881086E-005
 -7.841155059283274E-005
 -7.840493631135030E-005
 -7.839757006423113E-005
 -7.838935746838605E-005
 -8.240297623559668E-005
 -8.231206917028763E-005
 -8.222649625644746E-005
 -8.214608718949424E-005
 -8.207067299705006E-005
 -8.200008608453875E-005
 -8.193416027701557E-005
 -8.187273085746928E-005
 -8.181563460166476E-005
 -8.176270980978744E-005
 -8.171379633488084E-005
 -8.166873560837396E-005
 -8.162737066271902E-005
 -8.158954615130891E-005
 -8.155510836584879E-005
 -8.152390525121956E-005
 -8.149578641799662E-005
 -8.147060315278277E-005
 -8.144820842635980E-005
 -8.142845689990420E-005
 -8.141120492924020E-005
 -8.139631056731587E-005
 -8.138363356499713E-005
 -8.137303537021813E-005
 -8.136437912564199E-005
 -8.135752966488384E-005
 -8.135235350740778E-005
 -8.134871885215030E-005
 -8.134649556997384E-005
 -8.134555519502285E-005
 -8.134577091503553E-005
 -8.134701756073835E-005
 -8.134917159429792E-005
 -8.135211109701061E-005
 -8.135571575619322E-005
 -8.135986685139770E-005
 -8.136444723998097E-005
 -8.136934134211362E-005
 -8.137443512522423E-005
 -8.137961608802621E-005
 -8.138477324406483E-005
 -8.138979710492735E-005
 -8.139457966313299E-005
 -8.139901437470657E-005
 -8.140299614153470E-005
 -8.140642129352585E-005
 -8.140918757060824E-005
 -8.141119410460515E-005
 -8.141234140103613E-005
 -8.141253132086076E-005
 -8.499453565683182E-005
 -8.491120335086611E-005
 -8.483352404923786E-005
 -8.476130791192744E-005
 -8.469436707117298E-005
 -8.463251566318662E-005
 -8.457556985604767E-005
 -8.452334787408038E-005
 -8.447567001872225E-005
 -8.443235868621463E-005
 -8.439323838213046E-005
 -8.435813573297097E-005
 -8.432687949501441E-005
 -8.429930056044977E-005
 -8.427523196103579E-005
 -8.425450886938188E-005
 -8.423696859797377E-005
 -8.422245059610216E-005
 -8.421079644478749E-005
 -8.420184984980143E-005
 -8.419545663297361E-005
 -8.419146472179588E-005
 -8.418972413751233E-005
 -8.419008698172904E-005
 -8.419240742170292E-005
 -8.419654167435243E-005
 -8.420234798910794E-005
 -8.420968662968016E-005
 -8.421841985483766E-005
 -8.422841189826180E-005
 -8.423952894755557E-005
 -8.425163912250761E-005
 -8.426461245263570E-005
 -8.427832085411004E-005
 -8.429263810614094E-005
 -8.430743982681205E-005
 -8.432260344854184E-005
 -8.433800819310244E-005
 -8.435353504634754E-005
 -8.436906673265772E-005
 -8.438448768916041E-005
 -8.439968403977781E-005
 -8.441454356913786E-005
 -8.442895569642000E-005
 -8.444281144915191E-005
 -8.445600343699180E-005
 -8.446842582557405E-005
 -8.447997431042291E-005
 -8.449054609098431E-005
 -8.450003984479140E-005
 -8.757502355397022E-005
 -8.750137017520031E-005
 -8.743365780807010E-005
 -8.737167652787266E-005
 -8.731521911255095E-005
 -8.726408105630992E-005
 -8.721806057950410E-005
 -8.717695863507526E-005
 -8.714057891160838E-005
 -8.710872783332984E-005
 -8.708121455705335E-005
 -8.705785096639912E-005
 -8.703845166336372E-005
 -8.702283395739729E-005
 -8.701081785217067E-005
 -8.700222603016968E-005
 -8.699688383521989E-005
 -8.699461925313961E-005
 -8.699526289058715E-005
 -8.699864795227057E-005
 -8.700461021660933E-005
 -8.701298800999790E-005
 -8.702362217971948E-005
 -8.703635606569697E-005
 -8.705103547110659E-005
 -8.706750863199934E-005
 -8.708562618600037E-005
 -8.710524114017342E-005
 -8.712620883815747E-005
 -8.714838692662685E-005
 -8.717163532116964E-005
 -8.719581617166805E-005
 -8.722079382722002E-005
 -8.724643480068642E-005
 -8.727260773296961E-005
 -8.729918335697520E-005
 -8.732603446146619E-005
 -8.735303585472727E-005
 -8.738006432816731E-005
 -8.740699861991453E-005
 -8.743371937841026E-005
 -8.746010912609133E-005
 -8.748605222316393E-005
 -8.751143483155932E-005
 -8.753614487907229E-005
 -8.756007202374616E-005
 -8.758310761851660E-005
 -8.760514467617782E-005
 -8.762607783469712E-005
 -8.764580332289546E-005
 -9.013287617861906E-005
 -9.007126261572214E-005
 -9.001583456574050E-005
 -8.996636184857661E-005
 -8.992261780682372E-005
 -8.988437929663372E-005
 -8.985142667510619E-005
 -8.982354378439988E-005
 -8.980051793282350E-005
 -8.978213987299576E-005
 -8.976820377736409E-005
 -8.975850721119002E-005
 -8.975285110320774E-005
 -8.975103971409272E-005
 -8.975288060296050E-005
 -8.975818459193850E-005
 -8.976676572906043E-005
 -8.977844124957645E-005
 -8.979303153579414E-005
 -8.981036007562834E-005
 -8.983025341991873E-005
 -8.985254113869477E-005
 -8.987705577645111E-005
 -8.990363280655680E-005
 -8.993211058490434E-005
 -8.996233030287461E-005
 -8.999413593974746E-005
 -9.002737421459145E-005
 -9.006189453777933E-005
 -9.009754896213693E-005
 -9.013419213386480E-005
 -9.017168124326428E-005
 -9.020987597536026E-005
 -9.024863846044973E-005
 -9.028783322468639E-005
 -9.032732714072170E-005
 -9.036698937847396E-005
 -9.040669135606329E-005
 -9.044630669098762E-005
 -9.048571115155348E-005
 -9.052478260864326E-005
 -9.056340098783912E-005
 -9.060144822192984E-005
 -9.063880820388005E-005
 -9.067536674026475E-005
 -9.071101150521133E-005
 -9.074563199489618E-005
 -9.077911948260744E-005
 -9.081136697441228E-005
 -9.084226916548503E-005
 -9.265543605219847E-005
 -9.260848472497501E-005
 -9.256790552213476E-005
 -9.253344831239814E-005
 -9.250486739294438E-005
 -9.248192145248614E-005
 -9.246437353135456E-005
 -9.245199097864126E-005
 -9.244454540677490E-005
 -9.244181264360595E-005
 -9.244357268227147E-005
 -9.244960962899328E-005
 -9.245971164895934E-005
 -9.247367091054165E-005
 -9.249128352787017E-005
 -9.251234950209908E-005
 -9.253667266133268E-005
 -9.256406059946494E-005
 -9.259432461404299E-005
 -9.262727964322330E-005
 -9.266274420202970E-005
 -9.270054031795791E-005
 -9.274049346606903E-005
 -9.278243250364181E-005
 -9.282618960453767E-005
 -9.287160019330197E-005
 -9.291850287914887E-005
 -9.296673938984914E-005
 -9.301615450567715E-005
 -9.306659599340531E-005
 -9.311791454048944E-005
 -9.316996368946153E-005
 -9.322259977259835E-005
 -9.327568184695213E-005
 -9.332907162977355E-005
 -9.338263343436875E-005
 -9.343623410646879E-005
 -9.348974296114073E-005
 -9.354303172026099E-005
 -9.359597445064093E-005
 -9.364844750281299E-005
 -9.370032945048564E-005
 -9.375150103076860E-005
 -9.380184508513153E-005
 -9.385124650116911E-005
 -9.389959215518821E-005
 -9.394677085564548E-005
 -9.399267328743174E-005
 -9.403719195709632E-005
 -9.408022113896193E-005
 -9.512894937942600E-005
 -9.509954334955118E-005
 -9.507662208824165E-005
 -9.505991639629493E-005
 -9.504916248656013E-005
 -9.504410191400236E-005
 -9.504448150330284E-005
 -9.505005327426505E-005
 -9.506057436517120E-005
 -9.507580695433829E-005
 -9.509551818002024E-005
 -9.511948005894265E-005
 -9.514746940348910E-005
 -9.517926773785256E-005
 -9.521466121321795E-005
 -9.525344052218548E-005
 -9.529540081249272E-005
 -9.534034160029976E-005
 -9.538806668301754E-005
 -9.543838405191534E-005
 -9.549110580455247E-005
 -9.554604805717118E-005
 -9.560303085713698E-005
 -9.566187809553460E-005
 -9.572241741998736E-005
 -9.578448014779780E-005
 -9.584790117949358E-005
 -9.591251891281845E-005
 -9.597817515729105E-005
 -9.604471504931914E-005
 -9.611198696802271E-005
 -9.617984245171176E-005
 -9.624813611518438E-005
 -9.631672556778990E-005
 -9.638547133236845E-005
 -9.645423676508312E-005
 -9.652288797618014E-005
 -9.659129375171077E-005
 -9.665932547626413E-005
 -9.672685705673482E-005
 -9.679376484711118E-005
 -9.685992757438533E-005
 -9.692522626553998E-005
 -9.698954417569219E-005
 -9.705276671732990E-005
 -9.711478139078169E-005
 -9.717547771580126E-005
 -9.723474716440543E-005
 -9.729248309489815E-005
 -9.734858068710604E-005
 -9.753858084804150E-005
 -9.752985592752401E-005
 -9.752763677596060E-005
 -9.753163669848591E-005
 -9.754157546122943E-005
 -9.755717918288735E-005
 -9.757818022479415E-005
 -9.760431707953073E-005
 -9.763533425842372E-005
 -9.767098217803834E-005
 -9.771101704591092E-005
 -9.775520074564312E-005
 -9.780330072159762E-005
 -9.785508986327668E-005
 -9.791034638958808E-005
 -9.796885373311944E-005
 -9.803040042453066E-005
 -9.809477997720682E-005
 -9.816179077233265E-005
 -9.823123594437324E-005
 -9.830292326718857E-005
 -9.837666504080732E-005
 -9.845227797894867E-005
 -9.852958309740571E-005
 -9.860840560332996E-005
 -9.868857478549219E-005
 -9.876992390559389E-005
 -9.885229009069055E-005
 -9.893551422674829E-005
 -9.901944085341574E-005
 -9.910391806004970E-005
 -9.918879738300789E-005
 -9.927393370427421E-005
 -9.935918515143559E-005
 -9.944441299903657E-005
 -9.952948157135022E-005
 -9.961425814657425E-005
 -9.969861286246482E-005
 -9.978241862346573E-005
 -9.986555100928961E-005
 -9.994788818501737E-005
 -1.000293108126813E-004
 -1.001097019644003E-004
 -1.001889470369923E-004
 -1.002669336681565E-004
 -1.003435516541695E-004
 -1.004186928691339E-004
 -1.004922511857652E-004
 -1.005641223977254E-004
 -1.006342041435096E-004
 -9.986844889191171E-005
 -9.988377736615854E-005
 -9.990552186273097E-005
 -9.993338056547848E-005
 -9.996705921563696E-005
 -1.000062709596720E-004
 -1.000507361965850E-004
 -1.001001824249967E-004
 -1.001543440901493E-004
 -1.002129624309895E-004
 -1.002757853276163E-004
 -1.003425671490876E-004
 -1.004130686019062E-004
 -1.004870565791932E-004
 -1.005643040107513E-004
 -1.006445897141267E-004
 -1.007276982467597E-004
 -1.008134197593585E-004
 -1.009015498505648E-004
 -1.009918894230013E-004
 -1.010842445408052E-004
 -1.011784262886894E-004
 -1.012742506326271E-004
 -1.013715382821681E-004
 -1.014701145545062E-004
 -1.015698092403096E-004
 -1.016704564713259E-004
 -1.017718945898678E-004
 -1.018739660201618E-004
 -1.019765171415901E-004
 -1.020793981638540E-004
 -1.021824630041121E-004
 -1.022855691660300E-004
 -1.023885776208444E-004
 -1.024913526903674E-004
 -1.025937619320168E-004
 -1.026956760257831E-004
 -1.027969686632235E-004
 -1.028975164384265E-004
 -1.029971987409596E-004
 -1.030958976507889E-004
 -1.031934978351629E-004
 -1.032898864474849E-004
 -1.033849530280864E-004
 -1.034785894069906E-004
 -1.035706896085822E-004
 -1.036611497581825E-004
 -1.037498679905484E-004
 -1.038367443602638E-004
 -1.039216807540041E-004
 -1.021016847025701E-004
 -1.021446492333411E-004
 -1.021938090253627E-004
 -1.022488504303336E-004
 -1.023094684775328E-004
 -1.023753666727049E-004
 -1.024462567978603E-004
 -1.025218587122648E-004
 -1.026019001547039E-004
 -1.026861165471818E-004
 -1.027742508002641E-004
 -1.028660531201986E-004
 -1.029612808177853E-004
 -1.030596981193878E-004
 -1.031610759799003E-004
 -1.032651918979524E-004
 -1.033718297333767E-004
 -1.034807795269875E-004
 -1.035918373227991E-004
 -1.037048049926694E-004
 -1.038194900634869E-004
 -1.039357055468882E-004
 -1.040532697716063E-004
 -1.041720062184053E-004
 -1.042917433576903E-004
 -1.044123144897713E-004
 -1.045335575878304E-004
 -1.046553151435411E-004
 -1.047774340154309E-004
 -1.048997652798946E-004
 -1.050221640849303E-004
 -1.051444895065297E-004
 -1.052666044077611E-004
 -1.053883753005150E-004
 -1.055096722098344E-004
 -1.056303685409375E-004
 -1.057503409487953E-004
 -1.058694692102767E-004
 -1.059876360988602E-004
 -1.061047272618442E-004
 -1.062206311000832E-004
 -1.063352386501361E-004
 -1.064484434688689E-004
 -1.065601415204668E-004
 -1.066702310657875E-004
 -1.067786125540543E-004
 -1.068851885168680E-004
 -1.069898634644771E-004
 -1.070925437842784E-004
 -1.071931376415272E-004
 -1.042205184617759E-004
 -1.042948747206269E-004
 -1.043750533978819E-004
 -1.044607333251310E-004
 -1.045516031251408E-004
 -1.046473609572763E-004
 -1.047477142654942E-004
 -1.048523795292534E-004
 -1.049610820173680E-004
 -1.050735555448883E-004
 -1.051895422332641E-004
 -1.053087922737023E-004
 -1.054310636939738E-004
 -1.055561221286415E-004
 -1.056837405927864E-004
 -1.058136992593346E-004
 -1.059457852399919E-004
 -1.060797923698255E-004
 -1.062155209955088E-004
 -1.063527777673077E-004
 -1.064913754347587E-004
 -1.066311326460679E-004
 -1.067718737512421E-004
 -1.069134286089236E-004
 -1.070556323969445E-004
 -1.071983254265665E-004
 -1.073413529603500E-004
 -1.074845650337218E-004
 -1.076278162801071E-004
 -1.077709657596489E-004
 -1.079138767914650E-004
 -1.080564167893883E-004
 -1.081984571011731E-004
 -1.083398728511006E-004
 -1.084805427859069E-004
 -1.086203491240728E-004
 -1.087591774083156E-004
 -1.088969163613020E-004
 -1.090334577444779E-004
 -1.091686962200227E-004
 -1.093025292157961E-004
 -1.094348567932581E-004
 -1.095655815183214E-004
 -1.096946083350426E-004
 -1.098218444421178E-004
 -1.099471991721130E-004
 -1.100705838733862E-004
 -1.101919117946232E-004
 -1.103110979719700E-004
 -1.104280591186668E-004
 -1.062063964288266E-004
 -1.063160230411768E-004
 -1.064309257568565E-004
 -1.065507813203217E-004
 -1.066752773371106E-004
 -1.068041119619567E-004
 -1.069369935916115E-004
 -1.070736405625444E-004
 -1.072137808534803E-004
 -1.073571517929996E-004
 -1.075034997720832E-004
 -1.076525799618489E-004
 -1.078041560363012E-004
 -1.079579999003014E-004
 -1.081138914226467E-004
 -1.082716181743506E-004
 -1.084309751720638E-004
 -1.085917646266337E-004
 -1.087537956968251E-004
 -1.089168842480935E-004
 -1.090808526164708E-004
 -1.092455293774537E-004
 -1.094107491198810E-004
 -1.095763522247325E-004
 -1.097421846488069E-004
 -1.099080977132126E-004
 -1.100739478966054E-004
 -1.102395966330751E-004
 -1.104049101146983E-004
 -1.105697590985449E-004
 -1.107340187181864E-004
 -1.108975682995563E-004
 -1.110602911810838E-004
 -1.112220745380486E-004
 -1.113828092110296E-004
 -1.115423895383999E-004
 -1.117007131927208E-004
 -1.118576810210352E-004
 -1.120131968888726E-004
 -1.121671675279493E-004
 -1.123195023874173E-004
 -1.124701134886417E-004
 -1.126189152833305E-004
 -1.127658245150079E-004
 -1.129107600836901E-004
 -1.130536429137006E-004
 -1.131943958245442E-004
 -1.133329434047291E-004
 -1.134692118885012E-004
 -1.136031290353524E-004
 -1.080401326427291E-004
 -1.081889671040882E-004
 -1.083423367647942E-004
 -1.084999229183324E-004
 -1.086614187011685E-004
 -1.088265287209524E-004
 -1.089949686919097E-004
 -1.091664650773256E-004
 -1.093407547391931E-004
 -1.095175845949796E-004
 -1.096967112815237E-004
 -1.098779008261250E-004
 -1.100609283246408E-004
 -1.102455776266844E-004
 -1.104316410277933E-004
 -1.106189189685988E-004
 -1.108072197407914E-004
 -1.109963591999889E-004
 -1.111861604852596E-004
 -1.113764537453496E-004
 -1.115670758714020E-004
 -1.117578702361904E-004
 -1.119486864396828E-004
 -1.121393800608280E-004
 -1.123298124155510E-004
 -1.125198503206843E-004
 -1.127093658638766E-004
 -1.128982361792758E-004
 -1.130863432288415E-004
 -1.132735735892462E-004
 -1.134598182441595E-004
 -1.136449723818441E-004
 -1.138289351978972E-004
 -1.140116097030169E-004
 -1.141929025356805E-004
 -1.143727237795882E-004
 -1.145509867857386E-004
 -1.147276079990281E-004
 -1.149025067892016E-004
 -1.150756052860921E-004
 -1.152468282189448E-004
 -1.154161027597571E-004
 -1.155833583704906E-004
 -1.157485266540137E-004
 -1.159115412086804E-004
 -1.160723374864104E-004
 -1.162308526541559E-004
 -1.163870254586429E-004
 -1.165407960942674E-004
 -1.166921060740330E-004
 -1.097020990812008E-004
 -1.098940584456249E-004
 -1.100895973955613E-004
 -1.102884096724511E-004
 -1.104902017031914E-004
 -1.106946921675268E-004
 -1.109016115751597E-004
 -1.111107018526409E-004
 -1.113217159398285E-004
 -1.115344173959865E-004
 -1.117485800152918E-004
 -1.119639874517848E-004
 -1.121804328535258E-004
 -1.123977185059449E-004
 -1.126156554842288E-004
 -1.128340633145621E-004
 -1.130527696441338E-004
 -1.132716099198064E-004
 -1.134904270752045E-004
 -1.137090712261173E-004
 -1.139273993740451E-004
 -1.141452751177909E-004
 -1.143625683727900E-004
 -1.145791550981386E-004
 -1.147949170311243E-004
 -1.150097414289909E-004
 -1.152235208179037E-004
 -1.154361527488348E-004
 -1.156475395601987E-004
 -1.158575881471468E-004
 -1.160662097371985E-004
 -1.162733196721502E-004
 -1.164788371960348E-004
 -1.166826852489271E-004
 -1.168847902664795E-004
 -1.170850819849373E-004
 -1.172834932515164E-004
 -1.174799598399275E-004
 -1.176744202709011E-004
 -1.178668156375229E-004
 -1.180570894352150E-004
 -1.182451873961833E-004
 -1.184310573282181E-004
 -1.186146489575753E-004
 -1.187959137759241E-004
 -1.189748048910709E-004
 -1.191512768813850E-004
 -1.193252856537519E-004
 -1.194967883048934E-004
 -1.196657429859450E-004
 -1.111724581418534E-004
 -1.114113434819979E-004
 -1.116526198060833E-004
 -1.118960024947249E-004
 -1.121412202591407E-004
 -1.123880146485739E-004
 -1.126361395703249E-004
 -1.128853608224038E-004
 -1.131354556385483E-004
 -1.133862122453975E-004
 -1.136374294317307E-004
 -1.138889161295167E-004
 -1.141404910065537E-004
 -1.143919820705511E-004
 -1.146432262843773E-004
 -1.148940691923247E-004
 -1.151443645571013E-004
 -1.153939740073527E-004
 -1.156427666954883E-004
 -1.158906189655567E-004
 -1.161374140309693E-004
 -1.163830416618017E-004
 -1.166273978814271E-004
 -1.168703846722697E-004
 -1.171119096904439E-004
 -1.173518859889692E-004
 -1.175902317494066E-004
 -1.178268700215964E-004
 -1.180617284713039E-004
 -1.182947391355605E-004
 -1.185258381853287E-004
 -1.187549656954175E-004
 -1.189820654213083E-004
 -1.192070845826858E-004
 -1.194299736534286E-004
 -1.196506861578609E-004
 -1.198691784729902E-004
 -1.200854096365595E-004
 -1.202993411606390E-004
 -1.205109368505619E-004
 -1.207201626290225E-004
 -1.209269863650458E-004
 -1.211313777076929E-004
 -1.213333079242597E-004
 -1.215327497427841E-004
 -1.217296771986306E-004
 -1.219240654850363E-004
 -1.221158908073098E-004
 -1.223051302406330E-004
 -1.224917615911687E-004
 -1.124314412559429E-004
 -1.127208251544582E-004
 -1.130111629803377E-004
 -1.133022022289512E-004
 -1.135937041101985E-004
 -1.138854429991029E-004
 -1.141772059022733E-004
 -1.144687919399836E-004
 -1.147600118434495E-004
 -1.150506874672261E-004
 -1.153406513162046E-004
 -1.156297460870825E-004
 -1.159178242238402E-004
 -1.162047474870947E-004
 -1.164903865368068E-004
 -1.167746205282304E-004
 -1.170573367205882E-004
 -1.173384300983644E-004
 -1.176178030046615E-004
 -1.178953647864900E-004
 -1.181710314515678E-004
 -1.184447253363614E-004
 -1.187163747849580E-004
 -1.189859138385585E-004
 -1.192532819352271E-004
 -1.195184236195291E-004
 -1.197812882618558E-004
 -1.200418297869701E-004
 -1.203000064116309E-004
 -1.205557803908558E-004
 -1.208091177725777E-004
 -1.210599881603956E-004
 -1.213083644840996E-004
 -1.215542227776941E-004
 -1.217975419646116E-004
 -1.220383036498409E-004
 -1.222764919187127E-004
 -1.225120931420148E-004
 -1.227450957871846E-004
 -1.229754902353402E-004
 -1.232032686038495E-004
 -1.234284245741683E-004
 -1.236509532247453E-004
 -1.238708508687056E-004
 -1.240881148960567E-004
 -1.243027436202077E-004
 -1.245147361285717E-004
 -1.247240921369706E-004
 -1.249308118476893E-004
 -1.251348958109043E-004
 -1.134596772835018E-004
 -1.138027739330283E-004
 -1.141451274180515E-004
 -1.144865290555833E-004
 -1.148267839312053E-004
 -1.151657102987759E-004
 -1.155031389994633E-004
 -1.158389128993763E-004
 -1.161728863455990E-004
 -1.165049246400661E-004
 -1.168349035309419E-004
 -1.171627087210030E-004
 -1.174882353926422E-004
 -1.178113877491248E-004
 -1.181320785714417E-004
 -1.184502287906895E-004
 -1.187657670751721E-004
 -1.190786294321460E-004
 -1.193887588234713E-004
 -1.196961047950429E-004
 -1.200006231193213E-004
 -1.203022754507611E-004
 -1.206010289936070E-004
 -1.208968561816873E-004
 -1.211897343697946E-004
 -1.214796455362871E-004
 -1.217665759964599E-004
 -1.220505161263717E-004
 -1.223314600966828E-004
 -1.226094056161311E-004
 -1.228843536843663E-004
 -1.231563083535940E-004
 -1.234252764988985E-004
 -1.236912675966518E-004
 -1.239542935108847E-004
 -1.242143682870620E-004
 -1.244715079531323E-004
 -1.247257303273416E-004
 -1.249770548326012E-004
 -1.252255023170464E-004
 -1.254710948804747E-004
 -1.257138557063586E-004
 -1.259538088991582E-004
 -1.261909793265739E-004
 -1.264253924665314E-004
 -1.266570742585735E-004
 -1.268860509593581E-004
 -1.271123490020596E-004
 -1.273359948593528E-004
 -1.275570149097355E-004
 -1.142385740287801E-004
 -1.146380918831679E-004
 -1.150349029192377E-004
 -1.154288551084511E-004
 -1.158198098432299E-004
 -1.162076412950190E-004
 -1.165922357948017E-004
 -1.169734912355162E-004
 -1.173513164959053E-004
 -1.177256308850425E-004
 -1.180963636071636E-004
 -1.184634532461532E-004
 -1.188268472690811E-004
 -1.191865015483652E-004
 -1.195423799018855E-004
 -1.198944536505877E-004
 -1.202427011929627E-004
 -1.205871075959841E-004
 -1.209276642018350E-004
 -1.212643682500177E-004
 -1.215972225142598E-004
 -1.219262349537513E-004
 -1.222514183782030E-004
 -1.225727901261826E-004
 -1.228903717563504E-004
 -1.232041887509764E-004
 -1.235142702313890E-004
 -1.238206486848423E-004
 -1.241233597022873E-004
 -1.244224417267306E-004
 -1.247179358116319E-004
 -1.250098853889151E-004
 -1.252983360462471E-004
 -1.255833353130868E-004
 -1.258649324551248E-004
 -1.261431782767201E-004
 -1.264181249309456E-004
 -1.266898257368305E-004
 -1.269583350034597E-004
 -1.272237078605231E-004
 -1.274860000950070E-004
 -1.277452679935954E-004
 -1.280015681905474E-004
 -1.282549575205842E-004
 -1.285054928765651E-004
 -1.287532310715588E-004
 -1.289982287050444E-004
 -1.292405420328936E-004
 -1.294802268408416E-004
 -1.297173383211750E-004
 -1.147507556960226E-004
 -1.152087330141911E-004
 -1.156617730557159E-004
 -1.161097942412119E-004
 -1.165527275906117E-004
 -1.169905160519500E-004
 -1.174231138557473E-004
 -1.178504858944380E-004
 -1.182726071261576E-004
 -1.186894620020300E-004
 -1.191010439163923E-004
 -1.195073546790930E-004
 -1.199084040093551E-004
 -1.203042090503675E-004
 -1.206947939039737E-004
 -1.210801891848475E-004
 -1.214604315934119E-004
 -1.218355635069089E-004
 -1.222056325879801E-004
 -1.225706914100850E-004
 -1.229307970992136E-004
 -1.232860109912395E-004
 -1.236363983043232E-004
 -1.239820278257901E-004
 -1.243229716129185E-004
 -1.246593047070514E-004
 -1.249911048605165E-004
 -1.253184522757907E-004
 -1.256414293563495E-004
 -1.259601204687868E-004
 -1.262746117155624E-004
 -1.265849907179819E-004
 -1.268913464088977E-004
 -1.271937688346310E-004
 -1.274923489656623E-004
 -1.277871785156822E-004
 -1.280783497684703E-004
 -1.283659554122477E-004
 -1.286500883810595E-004
 -1.289308417027332E-004
 -1.292083083530541E-004
 -1.294825811157795E-004
 -1.297537524480221E-004
 -1.300219143507142E-004
 -1.302871582437473E-004
 -1.305495748454273E-004
 -1.308092540558832E-004
 -1.310662848441392E-004
 -1.313207551384036E-004
 -1.315727517194190E-004
 -1.149805582913522E-004
 -1.154981823251830E-004
 -1.160083791214006E-004
 -1.165111520791900E-004
 -1.170065158307767E-004
 -1.174944955567266E-004
 -1.179751263300659E-004
 -1.184484524882659E-004
 -1.189145270323090E-004
 -1.193734110517987E-004
 -1.198251731753972E-004
 -1.202698890456787E-004
 -1.207076408175453E-004
 -1.211385166793849E-004
 -1.215626103963082E-004
 -1.219800208743543E-004
 -1.223908517452877E-004
 -1.227952109708772E-004
 -1.231932104661817E-004
 -1.235849657408651E-004
 -1.239705955580434E-004
 -1.243502216098265E-004
 -1.247239682089375E-004
 -1.250919619956460E-004
 -1.254543316595405E-004
 -1.258112076752588E-004
 -1.261627220517640E-004
 -1.265090080944331E-004
 -1.268502001793866E-004
 -1.271864335394933E-004
 -1.275178440614943E-004
 -1.278445680936189E-004
 -1.281667422632596E-004
 -1.284845033040690E-004
 -1.287979878920578E-004
 -1.291073324901490E-004
 -1.294126732006496E-004
 -1.297141456253042E-004
 -1.300118847323046E-004
 -1.303060247299277E-004
 -1.305966989462685E-004
 -1.308840397147403E-004
 -1.311681782648021E-004
 -1.314492446176029E-004
 -1.317273674861230E-004
 -1.320026741793735E-004
 -1.322752905103371E-004
 -1.325453407072449E-004
 -1.328129473278625E-004
 -1.330782311763519E-004
 -1.149145837435649E-004
 -1.154919947155489E-004
 -1.160592450817984E-004
 -1.166164381912405E-004
 -1.171636866489896E-004
 -1.177011116378788E-004
 -1.182288422715628E-004
 -1.187470149780126E-004
 -1.192557729123835E-004
 -1.197552653980937E-004
 -1.202456473953154E-004
 -1.207270789956827E-004
 -1.211997249423847E-004
 -1.216637541745628E-004
 -1.221193393952104E-004
 -1.225666566615458E-004
 -1.230058849970660E-004
 -1.234372060243013E-004
 -1.238608036175548E-004
 -1.242768635746573E-004
 -1.246855733070046E-004
 -1.250871215470953E-004
 -1.254816980727615E-004
 -1.258694934472918E-004
 -1.262506987749129E-004
 -1.266255054706292E-004
 -1.269941050439575E-004
 -1.273566888957977E-004
 -1.277134481277432E-004
 -1.280645733632629E-004
 -1.284102545800976E-004
 -1.287506809532463E-004
 -1.290860407080284E-004
 -1.294165209825405E-004
 -1.297423076990604E-004
 -1.300635854437974E-004
 -1.303805373544762E-004
 -1.306933450152785E-004
 -1.310021883585575E-004
 -1.313072455730017E-004
 -1.316086930176195E-004
 -1.319067051411702E-004
 -1.322014544066333E-004
 -1.324931112201940E-004
 -1.327818438644127E-004
 -1.330678184351223E-004
 -1.333511987816861E-004
 -1.336321464502220E-004
 -1.339108206293777E-004
 -1.341873780983780E-004
 -1.145423116951797E-004
 -1.151783930568530E-004
 -1.158013631186699E-004
 -1.164114402330615E-004
 -1.170088493637475E-004
 -1.175938214369170E-004
 -1.181665927260752E-004
 -1.187274042691465E-004
 -1.192765013168466E-004
 -1.198141328109065E-004
 -1.203405508911516E-004
 -1.208560104302171E-004
 -1.213607685948118E-004
 -1.218550844324337E-004
 -1.223392184825590E-004
 -1.228134324110928E-004
 -1.232779886674239E-004
 -1.237331501625843E-004
 -1.241791799682015E-004
 -1.246163410347269E-004
 -1.250448959284385E-004
 -1.254651065862085E-004
 -1.258772340871554E-004
 -1.262815384403961E-004
 -1.266782783881488E-004
 -1.270677112232866E-004
 -1.274500926207514E-004
 -1.278256764819524E-004
 -1.281947147914991E-004
 -1.285574574856436E-004
 -1.289141523316778E-004
 -1.292650448176674E-004
 -1.296103780519640E-004
 -1.299503926717981E-004
 -1.302853267604398E-004
 -1.306154157723644E-004
 -1.309408924657955E-004
 -1.312619868422418E-004
 -1.315789260923661E-004
 -1.318919345478164E-004
 -1.322012336384319E-004
 -1.325070418545068E-004
 -1.328095747134722E-004
 -1.331090447307462E-004
 -1.334056613942145E-004
 -1.336996311419839E-004
 -1.339911573429848E-004
 -1.342804402800637E-004
 -1.345676771351814E-004
 -1.348530619763171E-004
 -1.138567652745664E-004
 -1.145489219991682E-004
 -1.152248365557764E-004
 -1.158848570144979E-004
 -1.165293346986255E-004
 -1.171586235920500E-004
 -1.177730797817904E-004
 -1.183730609341333E-004
 -1.189589258029338E-004
 -1.195310337689529E-004
 -1.200897444086076E-004
 -1.206354170913167E-004
 -1.211684106037019E-004
 -1.216890827999108E-004
 -1.221977902765765E-004
 -1.226948880714116E-004
 -1.231807293843825E-004
 -1.236556653202971E-004
 -1.241200446518143E-004
 -1.245742136019167E-004
 -1.250185156447987E-004
 -1.254532913243149E-004
 -1.258788780889782E-004
 -1.262956101427297E-004
 -1.267038183105709E-004
 -1.271038299182341E-004
 -1.274959686851273E-004
 -1.278805546297656E-004
 -1.282579039869541E-004
 -1.286283291360223E-004
 -1.289921385393703E-004
 -1.293496366907479E-004
 -1.297011240725701E-004
 -1.300468971216484E-004
 -1.303872482027648E-004
 -1.307224655895505E-004
 -1.310528334520619E-004
 -1.313786318505427E-004
 -1.317001367349052E-004
 -1.320176199493925E-004
 -1.323313492419624E-004
 -1.326415882779939E-004
 -1.329485966577653E-004
 -1.332526299374368E-004
 -1.335539396529811E-004
 -1.338527733468042E-004
 -1.341493745965587E-004
 -1.344439830459086E-004
 -1.347368344367633E-004
 -1.350281606427752E-004
 -1.128552233989752E-004
 -1.135991502072384E-004
 -1.143235729581799E-004
 -1.150289833356664E-004
 -1.157158721757042E-004
 -1.163847289599299E-004
 -1.170360413446723E-004
 -1.176702947239967E-004
 -1.182879718251908E-004
 -1.188895523352366E-004
 -1.194755125568979E-004
 -1.200463250930572E-004
 -1.206024585577999E-004
 -1.211443773132042E-004
 -1.216725412303933E-004
 -1.221874054736283E-004
 -1.226894203064795E-004
 -1.231790309186312E-004
 -1.236566772724445E-004
 -1.241227939681230E-004
 -1.245778101265370E-004
 -1.250221492885094E-004
 -1.254562293299075E-004
 -1.258804623913800E-004
 -1.262952548219682E-004
 -1.267010071356944E-004
 -1.270981139803635E-004
 -1.274869641176918E-004
 -1.278679404141700E-004
 -1.282414198417144E-004
 -1.286077734876567E-004
 -1.289673665731855E-004
 -1.293205584797768E-004
 -1.296677027828968E-004
 -1.300091472924021E-004
 -1.303452340991960E-004
 -1.306762996273971E-004
 -1.310026746917654E-004
 -1.313246845596582E-004
 -1.316426490172561E-004
 -1.319568824394896E-004
 -1.322676938632992E-004
 -1.325753870638215E-004
 -1.328802606331250E-004
 -1.331826080611220E-004
 -1.334827178183209E-004
 -1.337808734400835E-004
 -1.340773536120399E-004
 -1.343724322564648E-004
 -1.346663786191370E-004
 -1.115399668956111E-004
 -1.123294083186641E-004
 -1.130960146592678E-004
 -1.138404337673858E-004
 -1.145633077908550E-004
 -1.152652727872810E-004
 -1.159469583707679E-004
 -1.166089873920892E-004
 -1.172519756503737E-004
 -1.178765316350304E-004
 -1.184832562960739E-004
 -1.190727428417735E-004
 -1.196455765617785E-004
 -1.202023346747392E-004
 -1.207435861987001E-004
 -1.212698918434355E-004
 -1.217818039230676E-004
 -1.222798662879884E-004
 -1.227646142749678E-004
 -1.232365746742440E-004
 -1.236962657125556E-004
 -1.241441970511339E-004
 -1.245808697976746E-004
 -1.250067765312720E-004
 -1.254224013395483E-004
 -1.258282198670204E-004
 -1.262246993738888E-004
 -1.266122988044983E-004
 -1.269914688647412E-004
 -1.273626521075745E-004
 -1.277262830261411E-004
 -1.280827881537008E-004
 -1.284325861698330E-004
 -1.287760880123039E-004
 -1.291136969940738E-004
 -1.294458089248851E-004
 -1.297728122369568E-004
 -1.300950881143374E-004
 -1.304130106254574E-004
 -1.307269468584740E-004
 -1.310372570590351E-004
 -1.313442947700930E-004
 -1.316484069734251E-004
 -1.319499342325790E-004
 -1.322492108368901E-004
 -1.325465649463735E-004
 -1.328423187371529E-004
 -1.331367885473049E-004
 -1.334302850226784E-004
 -1.337231132628942E-004
 -1.099190385097760E-004
 -1.107455425495197E-004
 -1.115458864636169E-004
 -1.123208849170867E-004
 -1.130713412773780E-004
 -1.137980473787870E-004
 -1.145017833199191E-004
 -1.151833172924752E-004
 -1.158434054397808E-004
 -1.164827917433934E-004
 -1.171022079361388E-004
 -1.177023734399880E-004
 -1.182839953274569E-004
 -1.188477683049861E-004
 -1.193943747168310E-004
 -1.199244845684778E-004
 -1.204387555678441E-004
 -1.209378331834879E-004
 -1.214223507183356E-004
 -1.218929293980018E-004
 -1.223501784725265E-004
 -1.227946953305531E-004
 -1.232270656249562E-004
 -1.236478634089824E-004
 -1.240576512819918E-004
 -1.244569805440395E-004
 -1.248463913583672E-004
 -1.252264129211311E-004
 -1.255975636376321E-004
 -1.259603513043352E-004
 -1.263152732960397E-004
 -1.266628167576465E-004
 -1.270034587998331E-004
 -1.273376666982587E-004
 -1.276658980956178E-004
 -1.279886012062811E-004
 -1.283062150229017E-004
 -1.286191695247224E-004
 -1.289278858871205E-004
 -1.292327766921418E-004
 -1.295342461396651E-004
 -1.298326902589316E-004
 -1.301284971201677E-004
 -1.304220470461661E-004
 -1.307137128235381E-004
 -1.310038599135356E-004
 -1.312928466622284E-004
 -1.315810245099630E-004
 -1.318687382003127E-004
 -1.321563259873362E-004
 -1.080069872034554E-004
 -1.088596540723109E-004
 -1.096829303528625E-004
 -1.104778056920504E-004
 -1.112452521400804E-004
 -1.119862241022872E-004
 -1.127016583207106E-004
 -1.133924738842678E-004
 -1.140595722652917E-004
 -1.147038373805687E-004
 -1.153261356756262E-004
 -1.159273162303880E-004
 -1.165082108850120E-004
 -1.170696343840312E-004
 -1.176123845378702E-004
 -1.181372424000286E-004
 -1.186449724588694E-004
 -1.191363228427305E-004
 -1.196120255372693E-004
 -1.200727966137314E-004
 -1.205193364673841E-004
 -1.209523300648847E-004
 -1.213724471996860E-004
 -1.217803427546399E-004
 -1.221766569708628E-004
 -1.225620157220925E-004
 -1.229370307937448E-004
 -1.233023001659916E-004
 -1.236584083000880E-004
 -1.240059264274725E-004
 -1.243454128408212E-004
 -1.246774131867248E-004
 -1.250024607593152E-004
 -1.253210767944286E-004
 -1.256337707638735E-004
 -1.259410406693933E-004
 -1.262433733359712E-004
 -1.265412447041217E-004
 -1.268351201209673E-004
 -1.271254546297728E-004
 -1.274126932577780E-004
 -1.276972713021562E-004
 -1.279796146139624E-004
 -1.282601398799728E-004
 -1.285392549023047E-004
 -1.288173588758998E-004
 -1.290948426638960E-004
 -1.293720890709117E-004
 -1.296494731131349E-004
 -1.299273622894889E-004
 -1.058255545836034E-004
 -1.066907816304799E-004
 -1.075235842756396E-004
 -1.083251322555441E-004
 -1.090965707703596E-004
 -1.098390206579528E-004
 -1.105535785952988E-004
 -1.112413173211705E-004
 -1.119032858811177E-004
 -1.125405098926643E-004
 -1.131539918288479E-004
 -1.137447113184360E-004
 -1.143136254614498E-004
 -1.148616691585822E-004
 -1.153897554530943E-004
 -1.158987758840297E-004
 -1.163896008492809E-004
 -1.168630799775891E-004
 -1.173200425082195E-004
 -1.177612976772090E-004
 -1.181876351093533E-004
 -1.185998252148463E-004
 -1.189986195897220E-004
 -1.193847514191992E-004
 -1.197589358832085E-004
 -1.201218705632596E-004
 -1.204742358499430E-004
 -1.208166953504357E-004
 -1.211498962953347E-004
 -1.214744699442211E-004
 -1.217910319894781E-004
 -1.221001829577285E-004
 -1.224025086085566E-004
 -1.226985803300351E-004
 -1.229889555306446E-004
 -1.232741780272912E-004
 -1.235547784291622E-004
 -1.238312745171087E-004
 -1.241041716183706E-004
 -1.243739629765573E-004
 -1.246411301166974E-004
 -1.249061432053255E-004
 -1.251694614056341E-004
 -1.254315332277609E-004
 -1.256927968742593E-004
 -1.259536805808883E-004
 -1.262146029525515E-004
 -1.264759732950849E-004
 -1.267381919467046E-004
 -1.270016505948855E-004
 -1.034042456143367E-004
 -1.042654690990527E-004
 -1.050915462938007E-004
 -1.058838285131306E-004
 -1.066436350501985E-004
 -1.073722536112895E-004
 -1.080709407597394E-004
 -1.087409223853838E-004
 -1.093833941880932E-004
 -1.099995221738735E-004
 -1.105904431631846E-004
 -1.111572653103433E-004
 -1.117010686323242E-004
 -1.122229055455511E-004
 -1.127238014093743E-004
 -1.132047550751725E-004
 -1.136667394397812E-004
 -1.141107020024238E-004
 -1.145375654239817E-004
 -1.149482280876285E-004
 -1.153435646601183E-004
 -1.157244266525288E-004
 -1.160916429799387E-004
 -1.164460205191506E-004
 -1.167883446635756E-004
 -1.171193798748174E-004
 -1.174398702300610E-004
 -1.177505399647109E-004
 -1.180520940096927E-004
 -1.183452185227589E-004
 -1.186305814133659E-004
 -1.189088328604839E-004
 -1.191806058230353E-004
 -1.194465165424085E-004
 -1.197071650367995E-004
 -1.199631355869418E-004
 -1.202149972130012E-004
 -1.204633041425228E-004
 -1.207085962690510E-004
 -1.209513996015796E-004
 -1.211922267046750E-004
 -1.214315771292926E-004
 -1.216699378344672E-004
 -1.219077835998862E-004
 -1.221455774296464E-004
 -1.223837709479684E-004
 -1.226228047880160E-004
 -1.228631089720953E-004
 -1.231051032738514E-004
 -1.233491976132476E-004
 -1.007807072741040E-004
 -1.016181411113582E-004
 -1.024181466175743E-004
 -1.031822540757188E-004
 -1.039119538433789E-004
 -1.046086970532784E-004
 -1.052738963651258E-004
 -1.059089266968287E-004
 -1.065151259653030E-004
 -1.070937958376572E-004
 -1.076462024875179E-004
 -1.081735773541529E-004
 -1.086771179031719E-004
 -1.091579883884101E-004
 -1.096173206140077E-004
 -1.100562146958496E-004
 -1.104757398212406E-004
 -1.108769350061057E-004
 -1.112608098487950E-004
 -1.116283452796405E-004
 -1.119804943057365E-004
 -1.123181827499478E-004
 -1.126423099836209E-004
 -1.129537496521392E-004
 -1.132533503926745E-004
 -1.135419365433594E-004
 -1.138203088432535E-004
 -1.140892451223702E-004
 -1.143495009810173E-004
 -1.146018104578971E-004
 -1.148468866862863E-004
 -1.150854225375832E-004
 -1.153180912517955E-004
 -1.155455470542954E-004
 -1.157684257584398E-004
 -1.159873453535826E-004
 -1.162029065781055E-004
 -1.164156934772239E-004
 -1.166262739452448E-004
 -1.168352002522289E-004
 -1.170430095549040E-004
 -1.172502243920379E-004
 -1.174573531645161E-004
 -1.176648906006405E-004
 -1.178733182066591E-004
 -1.180831047015019E-004
 -1.182947064350474E-004
 -1.185085677998973E-004
 -1.187251216634254E-004
 -1.189447896514154E-004
 -9.800081898296190E-005
 -9.879118947920187E-005
 -9.954242920121818E-005
 -1.002562402842974E-004
 -1.009342767584182E-004
 -1.015781456551453E-004
 -1.021894079447844E-004
 -1.027695795723173E-004
 -1.033201324945625E-004
 -1.038424956994987E-004
 -1.043380562164780E-004
 -1.048081601231039E-004
 -1.052541135484141E-004
 -1.056771836706374E-004
 -1.060785997084281E-004
 -1.064595539046152E-004
 -1.068212025024791E-004
 -1.071646667140087E-004
 -1.074910336798182E-004
 -1.078013574203774E-004
 -1.080966597779216E-004
 -1.083779313481977E-004
 -1.086461324017812E-004
 -1.089021937938117E-004
 -1.091470178616348E-004
 -1.093814793092550E-004
 -1.096064260779462E-004
 -1.098226802017502E-004
 -1.100310386471699E-004
 -1.102322741357619E-004
 -1.104271359487922E-004
 -1.106163507127801E-004
 -1.108006231650876E-004
 -1.109806368984498E-004
 -1.111570550836351E-004
 -1.113305211693336E-004
 -1.115016595587165E-004
 -1.116710762618299E-004
 -1.118393595236239E-004
 -1.120070804271739E-004
 -1.121747934718154E-004
 -1.123430371259643E-004
 -1.125123343541222E-004
 -1.126831931184159E-004
 -1.128561068569330E-004
 -1.130315549441187E-004
 -1.132100031338280E-004
 -1.133919039523734E-004
 -1.135776969829118E-004
 -1.137678096062079E-004
 -9.511838064062155E-005
 -9.583465390012604E-005
 -9.651082338367221E-005
 -9.714875153901784E-005
 -9.775024464637291E-005
 -9.831705377985459E-005
 -9.885087644511065E-005
 -9.935335787899147E-005
 -9.982609228578141E-005
 -1.002706240991658E-004
 -1.006884492533508E-004
 -1.010810164422470E-004
 -1.014497283609026E-004
 -1.017959429309608E-004
 -1.021209745143479E-004
 -1.024260951164506E-004
 -1.027125355800682E-004
 -1.029814867698835E-004
 -1.032341007473186E-004
 -1.034714919353780E-004
 -1.036947382733832E-004
 -1.039048823607861E-004
 -1.041029325895374E-004
 -1.042898642641722E-004
 -1.044666207078721E-004
 -1.046341143537497E-004
 -1.047932278190427E-004
 -1.049448149608494E-004
 -1.050897019111845E-004
 -1.052286880894100E-004
 -1.053625471900973E-004
 -1.054920281439963E-004
 -1.056178560504260E-004
 -1.057407330788157E-004
 -1.058613393378309E-004
 -1.059803337102435E-004
 -1.060983546519274E-004
 -1.062160209535818E-004
 -1.063339324639492E-004
 -1.064526707737033E-004
 -1.065727998598000E-004
 -1.066948666910017E-004
 -1.068194017951618E-004
 -1.069469197868373E-004
 -1.070779198481521E-004
 -1.072128861530854E-004
 -1.073522882515534E-004
 -1.074965815265564E-004
 -1.076462078307315E-004
 -1.078015944756491E-004
 -9.219427511794823E-005
 -9.280536513479385E-005
 -9.337626643708647E-005
 -9.390898615167533E-005
 -9.440546650546062E-005
 -9.486758807321514E-005
 -9.529717026396323E-005
 -9.569597274156319E-005
 -9.606569710127224E-005
 -9.640798844363230E-005
 -9.672443683926706E-005
 -9.701657874895358E-005
 -9.728589843624847E-005
 -9.753382938131667E-005
 -9.776175569300776E-005
 -9.797101351623737E-005
 -9.816289243347171E-005
 -9.833863686198876E-005
 -9.849944744858810E-005
 -9.864648246299290E-005
 -9.878085919053301E-005
 -9.890365532354978E-005
 -9.901591034961499E-005
 -9.911862693474408E-005
 -9.921277229841500E-005
 -9.929927957708572E-005
 -9.937904917249931E-005
 -9.945295008068914E-005
 -9.952182119736918E-005
 -9.958647259519008E-005
 -9.964768676842863E-005
 -9.970621984052066E-005
 -9.976280273017469E-005
 -9.981814227184043E-005
 -9.987292228698095E-005
 -9.992780460274873E-005
 -9.998343001541659E-005
 -1.000404191961424E-004
 -1.000993735368488E-004
 -1.001608759335898E-004
 -1.002254915042277E-004
 -1.002937682375691E-004
 -1.003662375746492E-004
 -1.004434149327588E-004
 -1.005258001956094E-004
 -1.006138781834289E-004
 -1.007081190128728E-004
 -1.008089780159004E-004
 -1.009168951869113E-004
 -1.010322999267234E-004
 -8.929498832722593E-005
 -8.976542010947076E-005
 -9.019662567944931E-005
 -9.059073924191111E-005
 -9.094982683013873E-005
 -9.127588102280747E-005
 -9.157082605023548E-005
 -9.183652031119210E-005
 -9.207475758628254E-005
 -9.228726822035391E-005
 -9.247572054026161E-005
 -9.264172240608956E-005
 -9.278682278447228E-005
 -9.291251329997491E-005
 -9.302022976864207E-005
 -9.311135373406477E-005
 -9.318721402404073E-005
 -9.324908833984027E-005
 -9.329820488172645E-005
 -9.333574401126270E-005
 -9.336283994708810E-005
 -9.338058249069124E-005
 -9.339001877633143E-005
 -9.339215503966546E-005
 -9.338795839769238E-005
 -9.337835863203737E-005
 -9.336424996681230E-005
 -9.334649283116460E-005
 -9.332591559671154E-005
 -9.330331627935398E-005
 -9.327946419556586E-005
 -9.325510156342961E-005
 -9.323094503916918E-005
 -9.320768718071576E-005
 -9.318599783050966E-005
 -9.316652541081884E-005
 -9.314989812610151E-005
 -9.313672506889650E-005
 -9.312759722846553E-005
 -9.312308840415514E-005
 -9.312375602662701E-005
 -9.313014188606591E-005
 -9.314277275180525E-005
 -9.316216084409392E-005
 -9.318880410987424E-005
 -9.322318634611464E-005
 -9.326577755202486E-005
 -9.331703536140653E-005
 -9.337740669942662E-005
 -9.344731211030825E-005
 -8.649042230161714E-005
 -8.677985189539561E-005
 -8.703223270702684E-005
 -8.724981808560958E-005
 -8.743476716345867E-005
 -8.758917516112304E-005
 -8.771506509318037E-005
 -8.781438461295945E-005
 -8.788900749276141E-005
 -8.794073604690621E-005
 -8.797130307932303E-005
 -8.798237330696323E-005
 -8.797554456424446E-005
 -8.795234903439576E-005
 -8.791425462177475E-005
 -8.786266649050685E-005
 -8.779892875678150E-005
 -8.772432631549466E-005
 -8.764008678658549E-005
 -8.754738257366577E-005
 -8.744733303000100E-005
 -8.734100672668800E-005
 -8.722942381423837E-005
 -8.711355846466263E-005
 -8.699434137598752E-005
 -8.687266231766121E-005
 -8.674937269268171E-005
 -8.662528809072760E-005
 -8.650119080666962E-005
 -8.637783230001545E-005
 -8.625593557269581E-005
 -8.613619744562016E-005
 -8.601929071715321E-005
 -8.590586619025888E-005
 -8.579655455729629E-005
 -8.569196813335687E-005
 -8.559270242926194E-005
 -8.549933755460679E-005
 -8.541243944025776E-005
 -8.533256087240945E-005
 -8.526024234197566E-005
 -8.519601274056671E-005
 -8.514038997711279E-005
 -8.509388161913721E-005
 -8.505698558113685E-005
 -8.503019048562312E-005
 -8.501397444491166E-005
 -8.500880062552528E-005
 -8.501511504993582E-005
 -8.503339777797401E-005
 -8.385095291226712E-005
 -8.391343728427561E-005
 -8.394239218906424E-005
 -8.394015488898049E-005
 -8.390905523960405E-005
 -8.385130267361850E-005
 -8.376900843441222E-005
 -8.366420394820169E-005
 -8.353884486109187E-005
 -8.339480912648926E-005
 -8.323389469197857E-005
 -8.305781853274678E-005
 -8.286821697741574E-005
 -8.266664682784192E-005
 -8.245458687373381E-005
 -8.223343961344352E-005
 -8.200453314759385E-005
 -8.176912328944610E-005
 -8.152839595182827E-005
 -8.128346985398336E-005
 -8.103539956225557E-005
 -8.078517884931128E-005
 -8.053374433274519E-005
 -8.028197933859034E-005
 -8.003071792553180E-005
 -7.978074900267428E-005
 -7.953282047465124E-005
 -7.928764335056358E-005
 -7.904589575891713E-005
 -7.880822681615060E-005
 -7.857526030333919E-005
 -7.834759811290882E-005
 -7.812582343560353E-005
 -7.791050366754226E-005
 -7.770219302819875E-005
 -7.750143489161057E-005
 -7.730876384393951E-005
 -7.712470748639833E-005
 -7.694978799812884E-005
 -7.678452345039981E-005
 -7.662942881573332E-005
 -7.648501654912535E-005
 -7.635179657717395E-005
 -7.623027563792470E-005
 -7.612095641991741E-005
 -7.602433815397864E-005
 -7.594092187259685E-005
 -7.587122141172426E-005
 -7.581575655443934E-005
 -7.577488771145771E-005
 -8.144411989151230E-005
 -8.122632303281413E-005
 -8.098002178617305E-005
 -8.070792363543071E-005
 -8.041232242263829E-005
 -8.009552032505596E-005
 -7.975980290942492E-005
 -7.940737806195152E-005
 -7.904034677481923E-005
 -7.866069748148713E-005
 -7.827030936150971E-005
 -7.787095652391668E-005
 -7.746431042747389E-005
 -7.705194061833010E-005
 -7.663531474669706E-005
 -7.621579882035665E-005
 -7.579465834322099E-005
 -7.537306065325824E-005
 -7.495207851452389E-005
 -7.453269485352892E-005
 -7.411580844270685E-005
 -7.370224030362798E-005
 -7.329274060514701E-005
 -7.288799585514795E-005
 -7.248863621356035E-005
 -7.209524278618473E-005
 -7.170835478642799E-005
 -7.132847647497332E-005
 -7.095608380490868E-005
 -7.059163071074368E-005
 -7.023555498641481E-005
 -6.988828369962062E-005
 -6.955023808992729E-005
 -6.922183789886797E-005
 -6.890350508445253E-005
 -6.859566688621893E-005
 -6.829875823488306E-005
 -6.801322355100937E-005
 -6.773951805223025E-005
 -6.747810878517124E-005
 -6.722947568623644E-005
 -6.699411297834721E-005
 -6.677253096243426E-005
 -6.656525747904879E-005
 -6.637283667020293E-005
 -6.619582033069131E-005
 -6.603474690727577E-005
 -6.589011770109267E-005
 -6.576245357234778E-005
 -6.565278969310786E-005
 -7.932961571776906E-005
 -7.876829465782997E-005
 -7.818532683118689E-005
 -7.758270185623763E-005
 -7.696366792362375E-005
 -7.633124557808385E-005
 -7.568808794140511E-005
 -7.503659944758879E-005
 -7.437903361402369E-005
 -7.371753229918486E-005
 -7.305412570646410E-005
 -7.239071563327260E-005
 -7.172905645728576E-005
 -7.107074090121764E-005
 -7.041719286979751E-005
 -6.976966716522933E-005
 -6.912925483452178E-005
 -6.849689263637405E-005
 -6.787337522252816E-005
 -6.725936888271107E-005
 -6.665542597973127E-005
 -6.606199945576610E-005
 -6.547945699770646E-005
 -6.490809461046524E-005
 -6.434814946552978E-005
 -6.379981197595866E-005
 -6.326323710389538E-005
 -6.273855494112778E-005
 -6.222588061861425E-005
 -6.172532360271014E-005
 -6.123699642475439E-005
 -6.076102286714665E-005
 -6.029754559364200E-005
 -5.984673316296532E-005
 -5.940878630320015E-005
 -5.898394325121526E-005
 -5.857248388286456E-005
 -5.817473229159222E-005
 -5.779105744812987E-005
 -5.742187165787717E-005
 -5.706762683768402E-005
 -5.672880934307123E-005
 -5.640593543012782E-005
 -5.609955160829843E-005
 -5.581024672894918E-005
 -5.553868302002466E-005
 -5.528564162971706E-005
 -5.505202382540375E-005
 -5.483856235049923E-005
 -5.464442919785836E-005
 -7.756082062395587E-005
 -7.657133764887614E-005
 -7.556658932053785E-005
 -7.455457658718343E-005
 -7.353810709726408E-005
 -7.251936706888838E-005
 -7.150096186118647E-005
 -7.048586933405146E-005
 -6.947716241809458E-005
 -6.847776496208961E-005
 -6.749029628501617E-005
 -6.651699495478512E-005
 -6.555969836782210E-005
 -6.461985680275673E-005
 -6.369856631313990E-005
 -6.279661012804084E-005
 -6.191450221451215E-005
 -6.105252937687454E-005
 -6.021079002335563E-005
 -5.938922881441330E-005
 -5.858766704681095E-005
 -5.780582898589744E-005
 -5.704336454176527E-005
 -5.629986876441410E-005
 -5.557489865280191E-005
 -5.486798775934537E-005
 -5.417865904413386E-005
 -5.350643639840312E-005
 -5.285085522333458E-005
 -5.221147241704349E-005
 -5.158787609184685E-005
 -5.097969531178378E-005
 -5.038661010308866E-005
 -4.980836193940546E-005
 -4.924476482748691E-005
 -4.869571699709784E-005
 -4.816121300379836E-005
 -4.764135573992442E-005
 -4.713636735827945E-005
 -4.664659736600547E-005
 -4.617252506221275E-005
 -4.571475205068050E-005
 -4.527397897503621E-005
 -4.485095985870519E-005
 -4.444643049894890E-005
 -4.406102268959154E-005
 -4.369522592768403E-005
 -4.334960005529353E-005
 -4.302582136323239E-005
 -4.273012667326699E-005
 -7.614392896432580E-005
 -7.460814068971251E-005
 -7.308293194634014E-005
 -7.155536318581442E-005
 -7.002920525456832E-005
 -6.851307681670900E-005
 -6.701577833218182E-005
 -6.554467848481138E-005
 -6.410535612685509E-005
 -6.270172197639433E-005
 -6.133629096812161E-005
 -6.001047158290127E-005
 -5.872482324143676E-005
 -5.747926867848665E-005
 -5.627326247730880E-005
 -5.510592183404740E-005
 -5.397612658154199E-005
 -5.288259494496698E-005
 -5.182394047662259E-005
 -5.079871455492371E-005
 -4.980543789688802E-005
 -4.884262376108307E-005
 -4.790879490903963E-005
 -4.700249591977569E-005
 -4.612230209403479E-005
 -4.526682591592895E-005
 -4.443472184363916E-005
 -4.362469006144803E-005
 -4.283547973377384E-005
 -4.206589224934582E-005
 -4.131478492696975E-005
 -4.058107567128332E-005
 -3.986374911785073E-005
 -3.916186489463380E-005
 -3.847456875381203E-005
 -3.780110749804628E-005
 -3.714084883631509E-005
 -3.649330754376935E-005
 -3.585817952453119E-005
 -3.523538547385837E-005
 -3.462512554333736E-005
 -3.402794512860758E-005
 -3.344480828214084E-005
 -3.287716632348544E-005
 -3.232698834145549E-005
 -3.179667259873797E-005
 -3.128864978377470E-005
 -3.080424396083989E-005
 -3.034079805343292E-005
 -2.988478498441605E-005
 -7.522299743055585E-005
 -7.292562433231554E-005
 -7.056334287595093E-005
 -6.821913523218795E-005
 -6.593553395531491E-005
 -6.373334343266346E-005
 -6.162148731327236E-005
 -5.960233303245677E-005
 -5.767464155925532E-005
 -5.583523427183346E-005
 -5.407994840105327E-005
 -5.240418866955889E-005
 -5.080324518937714E-005
 -4.927247393433658E-005
 -4.780739551735488E-005
 -4.640374511389412E-005
 -4.505749317940179E-005
 -4.376484885193002E-005
 -4.252225329507100E-005
 -4.132636742418810E-005
 -4.017405673437596E-005
 -3.906237488084985E-005
 -3.798854699789357E-005
 -3.694995332792324E-005
 -3.594411347467723E-005
 -3.496867143637625E-005
 -3.402138148158959E-005
 -3.310009487924936E-005
 -3.220274747397831E-005
 -3.132734810007763E-005
 -3.047196785153306E-005
 -2.963473027240876E-005
 -2.881380260859021E-005
 -2.800738838155115E-005
 -2.721372172760656E-005
 -2.643106422937201E-005
 -2.565770540782657E-005
 -2.489196874410302E-005
 -2.413222622938705E-005
 -2.337692629737393E-005
 -2.262464310669713E-005
 -2.187416048431039E-005
 -2.112461324020526E-005
 -2.037572554176558E-005
 -1.962821756067223E-005
 -1.888451182931637E-005
 -1.814998912742921E-005
 -1.743528305589858E-005
 -1.676059955948090E-005
 -1.616410675399075E-005
 -7.376182146646024E-005
 -6.955951545682307E-005
 -6.581027296876330E-005
 -6.242333236944186E-005
 -5.933349852119891E-005
 -5.649243589439272E-005
 -5.386330099159970E-005
 -5.141731668933858E-005
 -4.913151746617144E-005
 -4.698722399073896E-005
 -4.496898540183331E-005
 -4.306382932080522E-005
 -4.126071906655454E-005
 -3.955015331803544E-005
 -3.792386558426881E-005
 -3.637459483659930E-005
 -3.489590770714598E-005
 -3.348205861403760E-005
 -3.212787816911100E-005
 -3.082868293993870E-005
 -2.958020151525359E-005
 -2.837851313557698E-005
 -2.721999608007009E-005
 -2.610128366542011E-005
 -2.501922619126840E-005
 -2.397085751300439E-005
 -2.295336517307571E-005
 -2.196406319924562E-005
 -2.100036680120618E-005
 -2.005976827305411E-005
 -1.913981344800811E-005
 -1.823807805188753E-005
 -1.735214326583151E-005
 -1.647956972857062E-005
 -1.561786907720328E-005
 -1.476447192558048E-005
 -1.391669088827852E-005
 -1.307167683624756E-005
 -1.222636596122822E-005
 -1.137741433554932E-005
 -1.052111533579317E-005
 -9.653293307785700E-006
 -8.769163774369307E-006
 -7.863145604966805E-006
 -6.928602576064945E-006
 -5.957478227178526E-006
 -4.939764172785068E-006
 -3.862698725087990E-006
 -2.709510596159606E-006
 -1.457360888102551E-006
SCALARS elementIsPlast double 
LOOKUP_TABLE default
  0.000000000000000E+000
  0.000000000000000E+000
  0.000000000000000E+000
  0.000000000000000E+000
  0.000000000000000E+000
  0.000000000000000E+000
  0.000000000000000E+000
  0.000000000000000E+000
  0.000000000000000E+000
  0.000000000000000E+000
  0.000000000000000E+000
  0.000000000000000E+000
  0.000000000000000E+000
  0.000000000000000E+000
  0.000000000000000E+000
  0.000000000000000E+000
  0.000000000000000E+000
  0.000000000000000E+000
  0.000000000000000E+000
  0.000000000000000E+000
  0.000000000000000E+000
  0.000000000000000E+000
  0.000000000000000E+000
  0.000000000000000E+000
  0.000000000000000E+000
  0.000000000000000E+000
  0.000000000000000E+000
  0.000000000000000E+000
  0.000000000000000E+000
  0.000000000000000E+000
  0.000000000000000E+000
  0.000000000000000E+000
  0.000000000000000E+000
  0.000000000000000E+000
  0.000000000000000E+000
  0.000000000000000E+000
  0.000000000000000E+000
  0.000000000000000E+000
  0.000000000000000E+000
  0.000000000000000E+000
  0.000000000000000E+000
  0.000000000000000E+000
  0.000000000000000E+000
  0.000000000000000E+000
  0.000000000000000E+000
  0.000000000000000E+000
  0.000000000000000E+000
  0.000000000000000E+000
  0.000000000000000E+000
  0.000000000000000E+000
  0.000000000000000E+000
  0.000000000000000E+000
  0.000000000000000E+000
  0.000000000000000E+000
  0.000000000000000E+000
  0.000000000000000E+000
  0.000000000000000E+000
  0.000000000000000E+000
  0.000000000000000E+000
  0.000000000000000E+000
  0.000000000000000E+000
  0.000000000000000E+000
  0.000000000000000E+000
  0.000000000000000E+000
  0.000000000000000E+000
  0.000000000000000E+000
  0.000000000000000E+000
  0.000000000000000E+000
  0.000000000000000E+000
  0.000000000000000E+000
  0.000000000000000E+000
  0.000000000000000E+000
  0.000000000000000E+000
  0.000000000000000E+000
  0.000000000000000E+000
  0.000000000000000E+000
  0.000000000000000E+000
  0.000000000000000E+000
  0.000000000000000E+000
  0.000000000000000E+000
  0.000000000000000E+000
  0.000000000000000E+000
  0.000000000000000E+000
  0.000000000000000E+000
  0.000000000000000E+000
  0.000000000000000E+000
  0.000000000000000E+000
  0.000000000000000E+000
  0.000000000000000E+000
  0.000000000000000E+000
  0.000000000000000E+000
  0.000000000000000E+000
  0.000000000000000E+000
  0.000000000000000E+000
  0.000000000000000E+000
  0.000000000000000E+000
  0.000000000000000E+000
  0.000000000000000E+000
  0.000000000000000E+000
  0.000000000000000E+000
  0.000000000000000E+000
  0.000000000000000E+000
  0.000000000000000E+000
  0.000000000000000E+000
  0.000000000000000E+000
  0.000000000000000E+000
  0.000000000000000E+000
  0.000000000000000E+000
  0.000000000000000E+000
  0.000000000000000E+000
  0.000000000000000E+000
  0.000000000000000E+000
  0.000000000000000E+000
  0.000000000000000E+000
  0.000000000000000E+000
  0.000000000000000E+000
  0.000000000000000E+000
  0.000000000000000E+000
  0.000000000000000E+000
  0.000000000000000E+000
  0.000000000000000E+000
  0.000000000000000E+000
  0.000000000000000E+000
  0.000000000000000E+000
  0.000000000000000E+000
  0.000000000000000E+000
  0.000000000000000E+000
  0.000000000000000E+000
  0.000000000000000E+000
  0.000000000000000E+000
  0.000000000000000E+000
  0.000000000000000E+000
  0.000000000000000E+000
  0.000000000000000E+000
  0.000000000000000E+000
  0.000000000000000E+000
  0.000000000000000E+000
  0.000000000000000E+000
  0.000000000000000E+000
  0.000000000000000E+000
  0.000000000000000E+000
  0.000000000000000E+000
  0.000000000000000E+000
  0.000000000000000E+000
  0.000000000000000E+000
  0.000000000000000E+000
  0.000000000000000E+000
  0.000000000000000E+000
  0.000000000000000E+000
  0.000000000000000E+000
  0.000000000000000E+000
  0.000000000000000E+000
  0.000000000000000E+000
  0.000000000000000E+000
  0.000000000000000E+000
  0.000000000000000E+000
  0.000000000000000E+000
  0.000000000000000E+000
  0.000000000000000E+000
  0.000000000000000E+000
  0.000000000000000E+000
  0.000000000000000E+000
  0.000000000000000E+000
  0.000000000000000E+000
  0.000000000000000E+000
  0.000000000000000E+000
  0.000000000000000E+000
  0.000000000000000E+000
  0.000000000000000E+000
  0.000000000000000E+000
  0.000000000000000E+000
  0.000000000000000E+000
  0.000000000000000E+000
  0.000000000000000E+000
  0.000000000000000E+000
  0.000000000000000E+000
  0.000000000000000E+000
  0.000000000000000E+000
  0.000000000000000E+000
  0.000000000000000E+000
  0.000000000000000E+000
  0.000000000000000E+000
  0.000000000000000E+000
  0.000000000000000E+000
  0.000000000000000E+000
  0.000000000000000E+000
  0.000000000000000E+000
  0.000000000000000E+000
  0.000000000000000E+000
  0.000000000000000E+000
  0.000000000000000E+000
  0.000000000000000E+000
  0.000000000000000E+000
  0.000000000000000E+000
  0.000000000000000E+000
  0.000000000000000E+000
  0.000000000000000E+000
  0.000000000000000E+000
  0.000000000000000E+000
  0.000000000000000E+000
  0.000000000000000E+000
  0.000000000000000E+000
  0.000000000000000E+000
  0.000000000000000E+000
  0.000000000000000E+000
  0.000000000000000E+000
  0.000000000000000E+000
  0.000000000000000E+000
  0.000000000000000E+000
  0.000000000000000E+000
  0.000000000000000E+000
  0.000000000000000E+000
  0.000000000000000E+000
  0.000000000000000E+000
  0.000000000000000E+000
  0.000000000000000E+000
  0.000000000000000E+000
  0.000000000000000E+000
  0.000000000000000E+000
  0.000000000000000E+000
  0.000000000000000E+000
  0.000000000000000E+000
  0.000000000000000E+000
  0.000000000000000E+000
  0.000000000000000E+000
  0.000000000000000E+000
  0.000000000000000E+000
  0.000000000000000E+000
  0.000000000000000E+000
  0.000000000000000E+000
  0.000000000000000E+000
  0.000000000000000E+000
  0.000000000000000E+000
  0.000000000000000E+000
  0.000000000000000E+000
  0.000000000000000E+000
  0.000000000000000E+000
  0.000000000000000E+000
  0.000000000000000E+000
  0.000000000000000E+000
  0.000000000000000E+000
  0.000000000000000E+000
  0.000000000000000E+000
  0.000000000000000E+000
  0.000000000000000E+000
  0.000000000000000E+000
  0.000000000000000E+000
  0.000000000000000E+000
  0.000000000000000E+000
  0.000000000000000E+000
  0.000000000000000E+000
  0.000000000000000E+000
  0.000000000000000E+000
  0.000000000000000E+000
  0.000000000000000E+000
  0.000000000000000E+000
  0.000000000000000E+000
  0.000000000000000E+000
  0.000000000000000E+000
  0.000000000000000E+000
  0.000000000000000E+000
  0.000000000000000E+000
  0.000000000000000E+000
  0.000000000000000E+000
  0.000000000000000E+000
  0.000000000000000E+000
  0.000000000000000E+000
  0.000000000000000E+000
  0.000000000000000E+000
  0.000000000000000E+000
  0.000000000000000E+000
  0.000000000000000E+000
  0.000000000000000E+000
  0.000000000000000E+000
  0.000000000000000E+000
  0.000000000000000E+000
  0.000000000000000E+000
  0.000000000000000E+000
  0.000000000000000E+000
  0.000000000000000E+000
  0.000000000000000E+000
  0.000000000000000E+000
  0.000000000000000E+000
  0.000000000000000E+000
  0.000000000000000E+000
  0.000000000000000E+000
  0.000000000000000E+000
  0.000000000000000E+000
  0.000000000000000E+000
  0.000000000000000E+000
  0.000000000000000E+000
  0.000000000000000E+000
  0.000000000000000E+000
  0.000000000000000E+000
  0.000000000000000E+000
  0.000000000000000E+000
  0.000000000000000E+000
  0.000000000000000E+000
  0.000000000000000E+000
  0.000000000000000E+000
  0.000000000000000E+000
  0.000000000000000E+000
  0.000000000000000E+000
  0.000000000000000E+000
  0.000000000000000E+000
  0.000000000000000E+000
  0.000000000000000E+000
  0.000000000000000E+000
  0.000000000000000E+000
  0.000000000000000E+000
  0.000000000000000E+000
  0.000000000000000E+000
  0.000000000000000E+000
  0.000000000000000E+000
  0.000000000000000E+000
  0.000000000000000E+000
  0.000000000000000E+000
  0.000000000000000E+000
  0.000000000000000E+000
  0.000000000000000E+000
  0.000000000000000E+000
  0.000000000000000E+000
  0.000000000000000E+000
  0.000000000000000E+000
  0.000000000000000E+000
  0.000000000000000E+000
  0.000000000000000E+000
  0.000000000000000E+000
  0.000000000000000E+000
  0.000000000000000E+000
  0.000000000000000E+000
  0.000000000000000E+000
  0.000000000000000E+000
  0.000000000000000E+000
  0.000000000000000E+000
  0.000000000000000E+000
  0.000000000000000E+000
  0.000000000000000E+000
  0.000000000000000E+000
  0.000000000000000E+000
  0.000000000000000E+000
  0.000000000000000E+000
  0.000000000000000E+000
  0.000000000000000E+000
  0.000000000000000E+000
  0.000000000000000E+000
  0.000000000000000E+000
  0.000000000000000E+000
  0.000000000000000E+000
  0.000000000000000E+000
  0.000000000000000E+000
  0.000000000000000E+000
  0.000000000000000E+000
  0.000000000000000E+000
  0.000000000000000E+000
  0.000000000000000E+000
  0.000000000000000E+000
  0.000000000000000E+000
  0.000000000000000E+000
  0.000000000000000E+000
  0.000000000000000E+000
  0.000000000000000E+000
  0.000000000000000E+000
  0.000000000000000E+000
  0.000000000000000E+000
  0.000000000000000E+000
  0.000000000000000E+000
  0.000000000000000E+000
  0.000000000000000E+000
  0.000000000000000E+000
  0.000000000000000E+000
  0.000000000000000E+000
  0.000000000000000E+000
  0.000000000000000E+000
  0.000000000000000E+000
  0.000000000000000E+000
  0.000000000000000E+000
  0.000000000000000E+000
  0.000000000000000E+000
  0.000000000000000E+000
  0.000000000000000E+000
  0.000000000000000E+000
  0.000000000000000E+000
  0.000000000000000E+000
  0.000000000000000E+000
  0.000000000000000E+000
  0.000000000000000E+000
  0.000000000000000E+000
  0.000000000000000E+000
  0.000000000000000E+000
  0.000000000000000E+000
  0.000000000000000E+000
  0.000000000000000E+000
  0.000000000000000E+000
  0.000000000000000E+000
  0.000000000000000E+000
  0.000000000000000E+000
  0.000000000000000E+000
  0.000000000000000E+000
  0.000000000000000E+000
  0.000000000000000E+000
  0.000000000000000E+000
  0.000000000000000E+000
  0.000000000000000E+000
  0.000000000000000E+000
  0.000000000000000E+000
  0.000000000000000E+000
  0.000000000000000E+000
  0.000000000000000E+000
  0.000000000000000E+000
  0.000000000000000E+000
  0.000000000000000E+000
  0.000000000000000E+000
  0.000000000000000E+000
  0.000000000000000E+000
  0.000000000000000E+000
  0.000000000000000E+000
  0.000000000000000E+000
  0.000000000000000E+000
  0.000000000000000E+000
  0.000000000000000E+000
  0.000000000000000E+000
  0.000000000000000E+000
  0.000000000000000E+000
  0.000000000000000E+000
  0.000000000000000E+000
  0.000000000000000E+000
  0.000000000000000E+000
  0.000000000000000E+000
  0.000000000000000E+000
  0.000000000000000E+000
  0.000000000000000E+000
  0.000000000000000E+000
  0.000000000000000E+000
  0.000000000000000E+000
  0.000000000000000E+000
  0.000000000000000E+000
  0.000000000000000E+000
  0.000000000000000E+000
  0.000000000000000E+000
  0.000000000000000E+000
  0.000000000000000E+000
  0.000000000000000E+000
  0.000000000000000E+000
  0.000000000000000E+000
  0.000000000000000E+000
  0.000000000000000E+000
  0.000000000000000E+000
  0.000000000000000E+000
  0.000000000000000E+000
  0.000000000000000E+000
  0.000000000000000E+000
  0.000000000000000E+000
  0.000000000000000E+000
  0.000000000000000E+000
  0.000000000000000E+000
  0.000000000000000E+000
  0.000000000000000E+000
  0.000000000000000E+000
  0.000000000000000E+000
  0.000000000000000E+000
  0.000000000000000E+000
  0.000000000000000E+000
  0.000000000000000E+000
  0.000000000000000E+000
  0.000000000000000E+000
  0.000000000000000E+000
  0.000000000000000E+000
  0.000000000000000E+000
  0.000000000000000E+000
  0.000000000000000E+000
  0.000000000000000E+000
  0.000000000000000E+000
  0.000000000000000E+000
  0.000000000000000E+000
  0.000000000000000E+000
  0.000000000000000E+000
  0.000000000000000E+000
  0.000000000000000E+000
  0.000000000000000E+000
  0.000000000000000E+000
  0.000000000000000E+000
  0.000000000000000E+000
  0.000000000000000E+000
  0.000000000000000E+000
  0.000000000000000E+000
  0.000000000000000E+000
  0.000000000000000E+000
  0.000000000000000E+000
  0.000000000000000E+000
  0.000000000000000E+000
  0.000000000000000E+000
  0.000000000000000E+000
  0.000000000000000E+000
  0.000000000000000E+000
  0.000000000000000E+000
  0.000000000000000E+000
  0.000000000000000E+000
  0.000000000000000E+000
  0.000000000000000E+000
  0.000000000000000E+000
  0.000000000000000E+000
  0.000000000000000E+000
  0.000000000000000E+000
  0.000000000000000E+000
  0.000000000000000E+000
  0.000000000000000E+000
  0.000000000000000E+000
  0.000000000000000E+000
  0.000000000000000E+000
  0.000000000000000E+000
  0.000000000000000E+000
  0.000000000000000E+000
  0.000000000000000E+000
  0.000000000000000E+000
  0.000000000000000E+000
  0.000000000000000E+000
  0.000000000000000E+000
  0.000000000000000E+000
  0.000000000000000E+000
  0.000000000000000E+000
  0.000000000000000E+000
  0.000000000000000E+000
  0.000000000000000E+000
  0.000000000000000E+000
  0.000000000000000E+000
  0.000000000000000E+000
  0.000000000000000E+000
  0.000000000000000E+000
  0.000000000000000E+000
  0.000000000000000E+000
  0.000000000000000E+000
  0.000000000000000E+000
  0.000000000000000E+000
  0.000000000000000E+000
  0.000000000000000E+000
  0.000000000000000E+000
  0.000000000000000E+000
  0.000000000000000E+000
  0.000000000000000E+000
  0.000000000000000E+000
  0.000000000000000E+000
  0.000000000000000E+000
  0.000000000000000E+000
  0.000000000000000E+000
  0.000000000000000E+000
  0.000000000000000E+000
  0.000000000000000E+000
  0.000000000000000E+000
  0.000000000000000E+000
  0.000000000000000E+000
  0.000000000000000E+000
  0.000000000000000E+000
  0.000000000000000E+000
  0.000000000000000E+000
  0.000000000000000E+000
  0.000000000000000E+000
  0.000000000000000E+000
  0.000000000000000E+000
  0.000000000000000E+000
  0.000000000000000E+000
  0.000000000000000E+000
  0.000000000000000E+000
  0.000000000000000E+000
  0.000000000000000E+000
  0.000000000000000E+000
  0.000000000000000E+000
  0.000000000000000E+000
  0.000000000000000E+000
  0.000000000000000E+000
  0.000000000000000E+000
  0.000000000000000E+000
  0.000000000000000E+000
  0.000000000000000E+000
  0.000000000000000E+000
  0.000000000000000E+000
  0.000000000000000E+000
  0.000000000000000E+000
  0.000000000000000E+000
  0.000000000000000E+000
  0.000000000000000E+000
  0.000000000000000E+000
  0.000000000000000E+000
  0.000000000000000E+000
  0.000000000000000E+000
  0.000000000000000E+000
  0.000000000000000E+000
  0.000000000000000E+000
  0.000000000000000E+000
  0.000000000000000E+000
  0.000000000000000E+000
  0.000000000000000E+000
  0.000000000000000E+000
  0.000000000000000E+000
  0.000000000000000E+000
  0.000000000000000E+000
  0.000000000000000E+000
  0.000000000000000E+000
  0.000000000000000E+000
  0.000000000000000E+000
  0.000000000000000E+000
  0.000000000000000E+000
  0.000000000000000E+000
  0.000000000000000E+000
  0.000000000000000E+000
  0.000000000000000E+000
  0.000000000000000E+000
  0.000000000000000E+000
  0.000000000000000E+000
  0.000000000000000E+000
  0.000000000000000E+000
  0.000000000000000E+000
  0.000000000000000E+000
  0.000000000000000E+000
  0.000000000000000E+000
  0.000000000000000E+000
  0.000000000000000E+000
  0.000000000000000E+000
  0.000000000000000E+000
  0.000000000000000E+000
  0.000000000000000E+000
  0.000000000000000E+000
  0.000000000000000E+000
  0.000000000000000E+000
  0.000000000000000E+000
  0.000000000000000E+000
  0.000000000000000E+000
  0.000000000000000E+000
  0.000000000000000E+000
  0.000000000000000E+000
  0.000000000000000E+000
  0.000000000000000E+000
  0.000000000000000E+000
  0.000000000000000E+000
  0.000000000000000E+000
  0.000000000000000E+000
  0.000000000000000E+000
  0.000000000000000E+000
  0.000000000000000E+000
  0.000000000000000E+000
  0.000000000000000E+000
  0.000000000000000E+000
  0.000000000000000E+000
  0.000000000000000E+000
  0.000000000000000E+000
  0.000000000000000E+000
  0.000000000000000E+000
  0.000000000000000E+000
  0.000000000000000E+000
  0.000000000000000E+000
  0.000000000000000E+000
  0.000000000000000E+000
  0.000000000000000E+000
  0.000000000000000E+000
  0.000000000000000E+000
  0.000000000000000E+000
  0.000000000000000E+000
  0.000000000000000E+000
  0.000000000000000E+000
  0.000000000000000E+000
  0.000000000000000E+000
  0.000000000000000E+000
  0.000000000000000E+000
  0.000000000000000E+000
  0.000000000000000E+000
  0.000000000000000E+000
  0.000000000000000E+000
  0.000000000000000E+000
  0.000000000000000E+000
  0.000000000000000E+000
  0.000000000000000E+000
  0.000000000000000E+000
  0.000000000000000E+000
  0.000000000000000E+000
  0.000000000000000E+000
  0.000000000000000E+000
  0.000000000000000E+000
  0.000000000000000E+000
  0.000000000000000E+000
  0.000000000000000E+000
  0.000000000000000E+000
  0.000000000000000E+000
  0.000000000000000E+000
  0.000000000000000E+000
  0.000000000000000E+000
  0.000000000000000E+000
  0.000000000000000E+000
  0.000000000000000E+000
  0.000000000000000E+000
  0.000000000000000E+000
  0.000000000000000E+000
  0.000000000000000E+000
  0.000000000000000E+000
  0.000000000000000E+000
  0.000000000000000E+000
  0.000000000000000E+000
  0.000000000000000E+000
  0.000000000000000E+000
  0.000000000000000E+000
  0.000000000000000E+000
  0.000000000000000E+000
  0.000000000000000E+000
  0.000000000000000E+000
  0.000000000000000E+000
  0.000000000000000E+000
  0.000000000000000E+000
  0.000000000000000E+000
  0.000000000000000E+000
  0.000000000000000E+000
  0.000000000000000E+000
  0.000000000000000E+000
  0.000000000000000E+000
  0.000000000000000E+000
  0.000000000000000E+000
  0.000000000000000E+000
  0.000000000000000E+000
  0.000000000000000E+000
  0.000000000000000E+000
  0.000000000000000E+000
  0.000000000000000E+000
  0.000000000000000E+000
  0.000000000000000E+000
  0.000000000000000E+000
  0.000000000000000E+000
  0.000000000000000E+000
  0.000000000000000E+000
  0.000000000000000E+000
  0.000000000000000E+000
  0.000000000000000E+000
  0.000000000000000E+000
  0.000000000000000E+000
  0.000000000000000E+000
  0.000000000000000E+000
  0.000000000000000E+000
  0.000000000000000E+000
  0.000000000000000E+000
  0.000000000000000E+000
  0.000000000000000E+000
  0.000000000000000E+000
  0.000000000000000E+000
  0.000000000000000E+000
  0.000000000000000E+000
  0.000000000000000E+000
  0.000000000000000E+000
  0.000000000000000E+000
  0.000000000000000E+000
  0.000000000000000E+000
  0.000000000000000E+000
  0.000000000000000E+000
  0.000000000000000E+000
  0.000000000000000E+000
  0.000000000000000E+000
  0.000000000000000E+000
  0.000000000000000E+000
  0.000000000000000E+000
  0.000000000000000E+000
  0.000000000000000E+000
  0.000000000000000E+000
  0.000000000000000E+000
  0.000000000000000E+000
  0.000000000000000E+000
  0.000000000000000E+000
  0.000000000000000E+000
  0.000000000000000E+000
  0.000000000000000E+000
  0.000000000000000E+000
  0.000000000000000E+000
  0.000000000000000E+000
  0.000000000000000E+000
  0.000000000000000E+000
  0.000000000000000E+000
  0.000000000000000E+000
  0.000000000000000E+000
  0.000000000000000E+000
  0.000000000000000E+000
  0.000000000000000E+000
  0.000000000000000E+000
  0.000000000000000E+000
  0.000000000000000E+000
  0.000000000000000E+000
  0.000000000000000E+000
  0.000000000000000E+000
  0.000000000000000E+000
  0.000000000000000E+000
  0.000000000000000E+000
  0.000000000000000E+000
  0.000000000000000E+000
  0.000000000000000E+000
  0.000000000000000E+000
  0.000000000000000E+000
  0.000000000000000E+000
  0.000000000000000E+000
  0.000000000000000E+000
  0.000000000000000E+000
  0.000000000000000E+000
  0.000000000000000E+000
  0.000000000000000E+000
  0.000000000000000E+000
  0.000000000000000E+000
  0.000000000000000E+000
  0.000000000000000E+000
  0.000000000000000E+000
  0.000000000000000E+000
  0.000000000000000E+000
  0.000000000000000E+000
  0.000000000000000E+000
  0.000000000000000E+000
  0.000000000000000E+000
  0.000000000000000E+000
  0.000000000000000E+000
  0.000000000000000E+000
  0.000000000000000E+000
  0.000000000000000E+000
  0.000000000000000E+000
  0.000000000000000E+000
  0.000000000000000E+000
  0.000000000000000E+000
  0.000000000000000E+000
  0.000000000000000E+000
  0.000000000000000E+000
  0.000000000000000E+000
  0.000000000000000E+000
  0.000000000000000E+000
  0.000000000000000E+000
  0.000000000000000E+000
  0.000000000000000E+000
  0.000000000000000E+000
  0.000000000000000E+000
  0.000000000000000E+000
  0.000000000000000E+000
  0.000000000000000E+000
  0.000000000000000E+000
  0.000000000000000E+000
  0.000000000000000E+000
  0.000000000000000E+000
  0.000000000000000E+000
  0.000000000000000E+000
  0.000000000000000E+000
  0.000000000000000E+000
  0.000000000000000E+000
  0.000000000000000E+000
  0.000000000000000E+000
  0.000000000000000E+000
  0.000000000000000E+000
  0.000000000000000E+000
  0.000000000000000E+000
  0.000000000000000E+000
  0.000000000000000E+000
  0.000000000000000E+000
  0.000000000000000E+000
  0.000000000000000E+000
  0.000000000000000E+000
  0.000000000000000E+000
  0.000000000000000E+000
  0.000000000000000E+000
  0.000000000000000E+000
  0.000000000000000E+000
  0.000000000000000E+000
  0.000000000000000E+000
  0.000000000000000E+000
  0.000000000000000E+000
  0.000000000000000E+000
  0.000000000000000E+000
  0.000000000000000E+000
  0.000000000000000E+000
  0.000000000000000E+000
  0.000000000000000E+000
  0.000000000000000E+000
  0.000000000000000E+000
  0.000000000000000E+000
  0.000000000000000E+000
  0.000000000000000E+000
  0.000000000000000E+000
  0.000000000000000E+000
  0.000000000000000E+000
  0.000000000000000E+000
  0.000000000000000E+000
  0.000000000000000E+000
  0.000000000000000E+000
  0.000000000000000E+000
  0.000000000000000E+000
  0.000000000000000E+000
  0.000000000000000E+000
  0.000000000000000E+000
  0.000000000000000E+000
  0.000000000000000E+000
  0.000000000000000E+000
  0.000000000000000E+000
  0.000000000000000E+000
  0.000000000000000E+000
  0.000000000000000E+000
  0.000000000000000E+000
  0.000000000000000E+000
  0.000000000000000E+000
  0.000000000000000E+000
  0.000000000000000E+000
  0.000000000000000E+000
  0.000000000000000E+000
  0.000000000000000E+000
  0.000000000000000E+000
  0.000000000000000E+000
  0.000000000000000E+000
  0.000000000000000E+000
  0.000000000000000E+000
  0.000000000000000E+000
  0.000000000000000E+000
  0.000000000000000E+000
  0.000000000000000E+000
  0.000000000000000E+000
  0.000000000000000E+000
  0.000000000000000E+000
  0.000000000000000E+000
  0.000000000000000E+000
  0.000000000000000E+000
  0.000000000000000E+000
  0.000000000000000E+000
  0.000000000000000E+000
  0.000000000000000E+000
  0.000000000000000E+000
  0.000000000000000E+000
  0.000000000000000E+000
  0.000000000000000E+000
  0.000000000000000E+000
  0.000000000000000E+000
  0.000000000000000E+000
  0.000000000000000E+000
  0.000000000000000E+000
  0.000000000000000E+000
  0.000000000000000E+000
  0.000000000000000E+000
  0.000000000000000E+000
  0.000000000000000E+000
  0.000000000000000E+000
  0.000000000000000E+000
  0.000000000000000E+000
  0.000000000000000E+000
  0.000000000000000E+000
  0.000000000000000E+000
  0.000000000000000E+000
  0.000000000000000E+000
  0.000000000000000E+000
  0.000000000000000E+000
  0.000000000000000E+000
  0.000000000000000E+000
  0.000000000000000E+000
  0.000000000000000E+000
  0.000000000000000E+000
  0.000000000000000E+000
  0.000000000000000E+000
  0.000000000000000E+000
  0.000000000000000E+000
  0.000000000000000E+000
  0.000000000000000E+000
  0.000000000000000E+000
  0.000000000000000E+000
  0.000000000000000E+000
  0.000000000000000E+000
  0.000000000000000E+000
  0.000000000000000E+000
  0.000000000000000E+000
  0.000000000000000E+000
  0.000000000000000E+000
  0.000000000000000E+000
  0.000000000000000E+000
  0.000000000000000E+000
  0.000000000000000E+000
  0.000000000000000E+000
  0.000000000000000E+000
  0.000000000000000E+000
  0.000000000000000E+000
  0.000000000000000E+000
  0.000000000000000E+000
  0.000000000000000E+000
  0.000000000000000E+000
  0.000000000000000E+000
  0.000000000000000E+000
  0.000000000000000E+000
  0.000000000000000E+000
  0.000000000000000E+000
  0.000000000000000E+000
  0.000000000000000E+000
  0.000000000000000E+000
  0.000000000000000E+000
  0.000000000000000E+000
  0.000000000000000E+000
  0.000000000000000E+000
  0.000000000000000E+000
  0.000000000000000E+000
  0.000000000000000E+000
  0.000000000000000E+000
  0.000000000000000E+000
  0.000000000000000E+000
  0.000000000000000E+000
  0.000000000000000E+000
  0.000000000000000E+000
  0.000000000000000E+000
  0.000000000000000E+000
  0.000000000000000E+000
  0.000000000000000E+000
  0.000000000000000E+000
  0.000000000000000E+000
  0.000000000000000E+000
  0.000000000000000E+000
  0.000000000000000E+000
  0.000000000000000E+000
  0.000000000000000E+000
  0.000000000000000E+000
  0.000000000000000E+000
  0.000000000000000E+000
  0.000000000000000E+000
  0.000000000000000E+000
  0.000000000000000E+000
  0.000000000000000E+000
  0.000000000000000E+000
  0.000000000000000E+000
  0.000000000000000E+000
  0.000000000000000E+000
  0.000000000000000E+000
  0.000000000000000E+000
  0.000000000000000E+000
  0.000000000000000E+000
  0.000000000000000E+000
  0.000000000000000E+000
  0.000000000000000E+000
  0.000000000000000E+000
  0.000000000000000E+000
  0.000000000000000E+000
  0.000000000000000E+000
  0.000000000000000E+000
  0.000000000000000E+000
  0.000000000000000E+000
  0.000000000000000E+000
  0.000000000000000E+000
  0.000000000000000E+000
  0.000000000000000E+000
  0.000000000000000E+000
  0.000000000000000E+000
  0.000000000000000E+000
  0.000000000000000E+000
  0.000000000000000E+000
  0.000000000000000E+000
  0.000000000000000E+000
  0.000000000000000E+000
  0.000000000000000E+000
  0.000000000000000E+000
  0.000000000000000E+000
  0.000000000000000E+000
  0.000000000000000E+000
  0.000000000000000E+000
  0.000000000000000E+000
  0.000000000000000E+000
  0.000000000000000E+000
  0.000000000000000E+000
  0.000000000000000E+000
  0.000000000000000E+000
  0.000000000000000E+000
  0.000000000000000E+000
  0.000000000000000E+000
  0.000000000000000E+000
  0.000000000000000E+000
  0.000000000000000E+000
  0.000000000000000E+000
  0.000000000000000E+000
  0.000000000000000E+000
  0.000000000000000E+000
  0.000000000000000E+000
  0.000000000000000E+000
  0.000000000000000E+000
  0.000000000000000E+000
  0.000000000000000E+000
  0.000000000000000E+000
  0.000000000000000E+000
  0.000000000000000E+000
  0.000000000000000E+000
  0.000000000000000E+000
  0.000000000000000E+000
  0.000000000000000E+000
  0.000000000000000E+000
  0.000000000000000E+000
  0.000000000000000E+000
  0.000000000000000E+000
  0.000000000000000E+000
  0.000000000000000E+000
  0.000000000000000E+000
  0.000000000000000E+000
  0.000000000000000E+000
  0.000000000000000E+000
  0.000000000000000E+000
  0.000000000000000E+000
  0.000000000000000E+000
  0.000000000000000E+000
  0.000000000000000E+000
  0.000000000000000E+000
  0.000000000000000E+000
  0.000000000000000E+000
  0.000000000000000E+000
  0.000000000000000E+000
  0.000000000000000E+000
  0.000000000000000E+000
  0.000000000000000E+000
  0.000000000000000E+000
  0.000000000000000E+000
  0.000000000000000E+000
  0.000000000000000E+000
  0.000000000000000E+000
  0.000000000000000E+000
  0.000000000000000E+000
  0.000000000000000E+000
  0.000000000000000E+000
  0.000000000000000E+000
  0.000000000000000E+000
  0.000000000000000E+000
  0.000000000000000E+000
  0.000000000000000E+000
  0.000000000000000E+000
  0.000000000000000E+000
  0.000000000000000E+000
  0.000000000000000E+000
  0.000000000000000E+000
  0.000000000000000E+000
  0.000000000000000E+000
  0.000000000000000E+000
  0.000000000000000E+000
  0.000000000000000E+000
  0.000000000000000E+000
  0.000000000000000E+000
  0.000000000000000E+000
  0.000000000000000E+000
  0.000000000000000E+000
  0.000000000000000E+000
  0.000000000000000E+000
  0.000000000000000E+000
  0.000000000000000E+000
  0.000000000000000E+000
  0.000000000000000E+000
  0.000000000000000E+000
  0.000000000000000E+000
  0.000000000000000E+000
  0.000000000000000E+000
  0.000000000000000E+000
  0.000000000000000E+000
  0.000000000000000E+000
  0.000000000000000E+000
  0.000000000000000E+000
  0.000000000000000E+000
  0.000000000000000E+000
  0.000000000000000E+000
  0.000000000000000E+000
  0.000000000000000E+000
  0.000000000000000E+000
  0.000000000000000E+000
  0.000000000000000E+000
  0.000000000000000E+000
  0.000000000000000E+000
  0.000000000000000E+000
  0.000000000000000E+000
  0.000000000000000E+000
  0.000000000000000E+000
  0.000000000000000E+000
  0.000000000000000E+000
  0.000000000000000E+000
  0.000000000000000E+000
  0.000000000000000E+000
  0.000000000000000E+000
  0.000000000000000E+000
  0.000000000000000E+000
  0.000000000000000E+000
  0.000000000000000E+000
  0.000000000000000E+000
  0.000000000000000E+000
  0.000000000000000E+000
  0.000000000000000E+000
  0.000000000000000E+000
  0.000000000000000E+000
  0.000000000000000E+000
  0.000000000000000E+000
  0.000000000000000E+000
  0.000000000000000E+000
  0.000000000000000E+000
  0.000000000000000E+000
  0.000000000000000E+000
  0.000000000000000E+000
  0.000000000000000E+000
  0.000000000000000E+000
  0.000000000000000E+000
  0.000000000000000E+000
  0.000000000000000E+000
  0.000000000000000E+000
  0.000000000000000E+000
  0.000000000000000E+000
  0.000000000000000E+000
  0.000000000000000E+000
  0.000000000000000E+000
  0.000000000000000E+000
  0.000000000000000E+000
  0.000000000000000E+000
  0.000000000000000E+000
  0.000000000000000E+000
  0.000000000000000E+000
  0.000000000000000E+000
  0.000000000000000E+000
  0.000000000000000E+000
  0.000000000000000E+000
  0.000000000000000E+000
  0.000000000000000E+000
  0.000000000000000E+000
  0.000000000000000E+000
  0.000000000000000E+000
  0.000000000000000E+000
  0.000000000000000E+000
  0.000000000000000E+000
  0.000000000000000E+000
  0.000000000000000E+000
  0.000000000000000E+000
  0.000000000000000E+000
  0.000000000000000E+000
  0.000000000000000E+000
  0.000000000000000E+000
  0.000000000000000E+000
  0.000000000000000E+000
  0.000000000000000E+000
  0.000000000000000E+000
  0.000000000000000E+000
  0.000000000000000E+000
  0.000000000000000E+000
  0.000000000000000E+000
  0.000000000000000E+000
  0.000000000000000E+000
  0.000000000000000E+000
  0.000000000000000E+000
  0.000000000000000E+000
  0.000000000000000E+000
  0.000000000000000E+000
  0.000000000000000E+000
  0.000000000000000E+000
  0.000000000000000E+000
  0.000000000000000E+000
  0.000000000000000E+000
  0.000000000000000E+000
  0.000000000000000E+000
  0.000000000000000E+000
  0.000000000000000E+000
  0.000000000000000E+000
  0.000000000000000E+000
  0.000000000000000E+000
  0.000000000000000E+000
  0.000000000000000E+000
  0.000000000000000E+000
  0.000000000000000E+000
  0.000000000000000E+000
  0.000000000000000E+000
  0.000000000000000E+000
  0.000000000000000E+000
  0.000000000000000E+000
  0.000000000000000E+000
  0.000000000000000E+000
  0.000000000000000E+000
  0.000000000000000E+000
  0.000000000000000E+000
  0.000000000000000E+000
  0.000000000000000E+000
  0.000000000000000E+000
  0.000000000000000E+000
  0.000000000000000E+000
  0.000000000000000E+000
  0.000000000000000E+000
  0.000000000000000E+000
  0.000000000000000E+000
  0.000000000000000E+000
  0.000000000000000E+000
  0.000000000000000E+000
  0.000000000000000E+000
  0.000000000000000E+000
  0.000000000000000E+000
  0.000000000000000E+000
  0.000000000000000E+000
  0.000000000000000E+000
  0.000000000000000E+000
  0.000000000000000E+000
  0.000000000000000E+000
  0.000000000000000E+000
  0.000000000000000E+000
  0.000000000000000E+000
  0.000000000000000E+000
  0.000000000000000E+000
  0.000000000000000E+000
  0.000000000000000E+000
  0.000000000000000E+000
  0.000000000000000E+000
  0.000000000000000E+000
  0.000000000000000E+000
  0.000000000000000E+000
  0.000000000000000E+000
  0.000000000000000E+000
  0.000000000000000E+000
  0.000000000000000E+000
  0.000000000000000E+000
  0.000000000000000E+000
  0.000000000000000E+000
  0.000000000000000E+000
  0.000000000000000E+000
  0.000000000000000E+000
  0.000000000000000E+000
  0.000000000000000E+000
  0.000000000000000E+000
  0.000000000000000E+000
  0.000000000000000E+000
  0.000000000000000E+000
  0.000000000000000E+000
  0.000000000000000E+000
  0.000000000000000E+000
  0.000000000000000E+000
  0.000000000000000E+000
  0.000000000000000E+000
  0.000000000000000E+000
  0.000000000000000E+000
  0.000000000000000E+000
  0.000000000000000E+000
  0.000000000000000E+000
  0.000000000000000E+000
  0.000000000000000E+000
  0.000000000000000E+000
  0.000000000000000E+000
  0.000000000000000E+000
  0.000000000000000E+000
  0.000000000000000E+000
  0.000000000000000E+000
  0.000000000000000E+000
  0.000000000000000E+000
  0.000000000000000E+000
  0.000000000000000E+000
  0.000000000000000E+000
  0.000000000000000E+000
  0.000000000000000E+000
  0.000000000000000E+000
  0.000000000000000E+000
  0.000000000000000E+000
  0.000000000000000E+000
  0.000000000000000E+000
  0.000000000000000E+000
  0.000000000000000E+000
  0.000000000000000E+000
  0.000000000000000E+000
  0.000000000000000E+000
  0.000000000000000E+000
  0.000000000000000E+000
  0.000000000000000E+000
  0.000000000000000E+000
  0.000000000000000E+000
  0.000000000000000E+000
  0.000000000000000E+000
  0.000000000000000E+000
  0.000000000000000E+000
  0.000000000000000E+000
  0.000000000000000E+000
  0.000000000000000E+000
  0.000000000000000E+000
  0.000000000000000E+000
  0.000000000000000E+000
  0.000000000000000E+000
  0.000000000000000E+000
  0.000000000000000E+000
  0.000000000000000E+000
  0.000000000000000E+000
  0.000000000000000E+000
  0.000000000000000E+000
  0.000000000000000E+000
  0.000000000000000E+000
  0.000000000000000E+000
  0.000000000000000E+000
  0.000000000000000E+000
  0.000000000000000E+000
  0.000000000000000E+000
  0.000000000000000E+000
  0.000000000000000E+000
  0.000000000000000E+000
  0.000000000000000E+000
  0.000000000000000E+000
  0.000000000000000E+000
  0.000000000000000E+000
  0.000000000000000E+000
  0.000000000000000E+000
  0.000000000000000E+000
  0.000000000000000E+000
  0.000000000000000E+000
  0.000000000000000E+000
  0.000000000000000E+000
  0.000000000000000E+000
  0.000000000000000E+000
  0.000000000000000E+000
  0.000000000000000E+000
  0.000000000000000E+000
  0.000000000000000E+000
  0.000000000000000E+000
  0.000000000000000E+000
  0.000000000000000E+000
  0.000000000000000E+000
  0.000000000000000E+000
  0.000000000000000E+000
  0.000000000000000E+000
  0.000000000000000E+000
  0.000000000000000E+000
  0.000000000000000E+000
  0.000000000000000E+000
  0.000000000000000E+000
  0.000000000000000E+000
  0.000000000000000E+000
  0.000000000000000E+000
  0.000000000000000E+000
  0.000000000000000E+000
  0.000000000000000E+000
  0.000000000000000E+000
  0.000000000000000E+000
  0.000000000000000E+000
  0.000000000000000E+000
  0.000000000000000E+000
  0.000000000000000E+000
  0.000000000000000E+000
  0.000000000000000E+000
  0.000000000000000E+000
  0.000000000000000E+000
  0.000000000000000E+000
  0.000000000000000E+000
  0.000000000000000E+000
  0.000000000000000E+000
  0.000000000000000E+000
  0.000000000000000E+000
  0.000000000000000E+000
  0.000000000000000E+000
  0.000000000000000E+000
  0.000000000000000E+000
  0.000000000000000E+000
  0.000000000000000E+000
  0.000000000000000E+000
  0.000000000000000E+000
  0.000000000000000E+000
  0.000000000000000E+000
  0.000000000000000E+000
  0.000000000000000E+000
  0.000000000000000E+000
  0.000000000000000E+000
  0.000000000000000E+000
  0.000000000000000E+000
  0.000000000000000E+000
  0.000000000000000E+000
  0.000000000000000E+000
  0.000000000000000E+000
  0.000000000000000E+000
  0.000000000000000E+000
  0.000000000000000E+000
  0.000000000000000E+000
  0.000000000000000E+000
  0.000000000000000E+000
  0.000000000000000E+000
  0.000000000000000E+000
  0.000000000000000E+000
  0.000000000000000E+000
  0.000000000000000E+000
  0.000000000000000E+000
  0.000000000000000E+000
  0.000000000000000E+000
  0.000000000000000E+000
  0.000000000000000E+000
  0.000000000000000E+000
  0.000000000000000E+000
  0.000000000000000E+000
  0.000000000000000E+000
  0.000000000000000E+000
  0.000000000000000E+000
  0.000000000000000E+000
  0.000000000000000E+000
  0.000000000000000E+000
  0.000000000000000E+000
  0.000000000000000E+000
  0.000000000000000E+000
  0.000000000000000E+000
  0.000000000000000E+000
  0.000000000000000E+000
  0.000000000000000E+000
  0.000000000000000E+000
  0.000000000000000E+000
  0.000000000000000E+000
  0.000000000000000E+000
  0.000000000000000E+000
  0.000000000000000E+000
  0.000000000000000E+000
  0.000000000000000E+000
  0.000000000000000E+000
  0.000000000000000E+000
  0.000000000000000E+000
  0.000000000000000E+000
  0.000000000000000E+000
  0.000000000000000E+000
  0.000000000000000E+000
  0.000000000000000E+000
  0.000000000000000E+000
  0.000000000000000E+000
  0.000000000000000E+000
  0.000000000000000E+000
  0.000000000000000E+000
  0.000000000000000E+000
  0.000000000000000E+000
  0.000000000000000E+000
  0.000000000000000E+000
  0.000000000000000E+000
  0.000000000000000E+000
  0.000000000000000E+000
  0.000000000000000E+000
  0.000000000000000E+000
  0.000000000000000E+000
  0.000000000000000E+000
  0.000000000000000E+000
  0.000000000000000E+000
  0.000000000000000E+000
  0.000000000000000E+000
  0.000000000000000E+000
  0.000000000000000E+000
  0.000000000000000E+000
  0.000000000000000E+000
  0.000000000000000E+000
  0.000000000000000E+000
  0.000000000000000E+000
  0.000000000000000E+000
  0.000000000000000E+000
  0.000000000000000E+000
  0.000000000000000E+000
  0.000000000000000E+000
  0.000000000000000E+000
  0.000000000000000E+000
  0.000000000000000E+000
  0.000000000000000E+000
  0.000000000000000E+000
  0.000000000000000E+000
  0.000000000000000E+000
  0.000000000000000E+000
  0.000000000000000E+000
  0.000000000000000E+000
  0.000000000000000E+000
  0.000000000000000E+000
  0.000000000000000E+000
  0.000000000000000E+000
  0.000000000000000E+000
  0.000000000000000E+000
  0.000000000000000E+000
  0.000000000000000E+000
  0.000000000000000E+000
  0.000000000000000E+000
  0.000000000000000E+000
  0.000000000000000E+000
  0.000000000000000E+000
  0.000000000000000E+000
  0.000000000000000E+000
  0.000000000000000E+000
  0.000000000000000E+000
  0.000000000000000E+000
  0.000000000000000E+000
  0.000000000000000E+000
  0.000000000000000E+000
  0.000000000000000E+000
  0.000000000000000E+000
  0.000000000000000E+000
  0.000000000000000E+000
  0.000000000000000E+000
  0.000000000000000E+000
  0.000000000000000E+000
  0.000000000000000E+000
  0.000000000000000E+000
  0.000000000000000E+000
  0.000000000000000E+000
  0.000000000000000E+000
  0.000000000000000E+000
  0.000000000000000E+000
  0.000000000000000E+000
  0.000000000000000E+000
  0.000000000000000E+000
  0.000000000000000E+000
  0.000000000000000E+000
  0.000000000000000E+000
  0.000000000000000E+000
  0.000000000000000E+000
  0.000000000000000E+000
  0.000000000000000E+000
  0.000000000000000E+000
  0.000000000000000E+000
  0.000000000000000E+000
  0.000000000000000E+000
  0.000000000000000E+000
  0.000000000000000E+000
  0.000000000000000E+000
  0.000000000000000E+000
  0.000000000000000E+000
  0.000000000000000E+000
  0.000000000000000E+000
  0.000000000000000E+000
  0.000000000000000E+000
  0.000000000000000E+000
  0.000000000000000E+000
  0.000000000000000E+000
  0.000000000000000E+000
  0.000000000000000E+000
  0.000000000000000E+000
  0.000000000000000E+000
  0.000000000000000E+000
  0.000000000000000E+000
  0.000000000000000E+000
  0.000000000000000E+000
  0.000000000000000E+000
  0.000000000000000E+000
  0.000000000000000E+000
  0.000000000000000E+000
  0.000000000000000E+000
  0.000000000000000E+000
  0.000000000000000E+000
  0.000000000000000E+000
  0.000000000000000E+000
  0.000000000000000E+000
  0.000000000000000E+000
  0.000000000000000E+000
  0.000000000000000E+000
  0.000000000000000E+000
  0.000000000000000E+000
  0.000000000000000E+000
  0.000000000000000E+000
  0.000000000000000E+000
  0.000000000000000E+000
  0.000000000000000E+000
  0.000000000000000E+000
  0.000000000000000E+000
  0.000000000000000E+000
  0.000000000000000E+000
  0.000000000000000E+000
  0.000000000000000E+000
  0.000000000000000E+000
  0.000000000000000E+000
  0.000000000000000E+000
  0.000000000000000E+000
  0.000000000000000E+000
  0.000000000000000E+000
  0.000000000000000E+000
  0.000000000000000E+000
  0.000000000000000E+000
  0.000000000000000E+000
  0.000000000000000E+000
  0.000000000000000E+000
  0.000000000000000E+000
  0.000000000000000E+000
  0.000000000000000E+000
  0.000000000000000E+000
  0.000000000000000E+000
  0.000000000000000E+000
  0.000000000000000E+000
  0.000000000000000E+000
  0.000000000000000E+000
  0.000000000000000E+000
  0.000000000000000E+000
  0.000000000000000E+000
  0.000000000000000E+000
  0.000000000000000E+000
  0.000000000000000E+000
  0.000000000000000E+000
  0.000000000000000E+000
  0.000000000000000E+000
  0.000000000000000E+000
  0.000000000000000E+000
  0.000000000000000E+000
  0.000000000000000E+000
  0.000000000000000E+000
  0.000000000000000E+000
  0.000000000000000E+000
  0.000000000000000E+000
  0.000000000000000E+000
  0.000000000000000E+000
  0.000000000000000E+000
  0.000000000000000E+000
  0.000000000000000E+000
  0.000000000000000E+000
  0.000000000000000E+000
  0.000000000000000E+000
  0.000000000000000E+000
  0.000000000000000E+000
  0.000000000000000E+000
  0.000000000000000E+000
  0.000000000000000E+000
  0.000000000000000E+000
  0.000000000000000E+000
  0.000000000000000E+000
  0.000000000000000E+000
  0.000000000000000E+000
  0.000000000000000E+000
  0.000000000000000E+000
  0.000000000000000E+000
  0.000000000000000E+000
  0.000000000000000E+000
  0.000000000000000E+000
  0.000000000000000E+000
  0.000000000000000E+000
  0.000000000000000E+000
  0.000000000000000E+000
  0.000000000000000E+000
  0.000000000000000E+000
  0.000000000000000E+000
  0.000000000000000E+000
  0.000000000000000E+000
  0.000000000000000E+000
  0.000000000000000E+000
  0.000000000000000E+000
  0.000000000000000E+000
  0.000000000000000E+000
  0.000000000000000E+000
  0.000000000000000E+000
  0.000000000000000E+000
  0.000000000000000E+000
  0.000000000000000E+000
  0.000000000000000E+000
  0.000000000000000E+000
  0.000000000000000E+000
  0.000000000000000E+000
  0.000000000000000E+000
  0.000000000000000E+000
  0.000000000000000E+000
  0.000000000000000E+000
  0.000000000000000E+000
  0.000000000000000E+000
  0.000000000000000E+000
  0.000000000000000E+000
  0.000000000000000E+000
  0.000000000000000E+000
  0.000000000000000E+000
  0.000000000000000E+000
  0.000000000000000E+000
  0.000000000000000E+000
  0.000000000000000E+000
  0.000000000000000E+000
  0.000000000000000E+000
  0.000000000000000E+000
  0.000000000000000E+000
  0.000000000000000E+000
  0.000000000000000E+000
  0.000000000000000E+000
  0.000000000000000E+000
  0.000000000000000E+000
  0.000000000000000E+000
  0.000000000000000E+000
  0.000000000000000E+000
  0.000000000000000E+000
  0.000000000000000E+000
  0.000000000000000E+000
  0.000000000000000E+000
  0.000000000000000E+000
  0.000000000000000E+000
  0.000000000000000E+000
  0.000000000000000E+000
  0.000000000000000E+000
  0.000000000000000E+000
  0.000000000000000E+000
  0.000000000000000E+000
  0.000000000000000E+000
  0.000000000000000E+000
  0.000000000000000E+000
  0.000000000000000E+000
  0.000000000000000E+000
  0.000000000000000E+000
  0.000000000000000E+000
  0.000000000000000E+000
  0.000000000000000E+000
  0.000000000000000E+000
  0.000000000000000E+000
  0.000000000000000E+000
  0.000000000000000E+000
  0.000000000000000E+000
  0.000000000000000E+000
  0.000000000000000E+000
  0.000000000000000E+000
  0.000000000000000E+000
  0.000000000000000E+000
  0.000000000000000E+000
  0.000000000000000E+000
  0.000000000000000E+000
  0.000000000000000E+000
  0.000000000000000E+000
  0.000000000000000E+000
  0.000000000000000E+000
  0.000000000000000E+000
  0.000000000000000E+000
  0.000000000000000E+000
  0.000000000000000E+000
  0.000000000000000E+000
  0.000000000000000E+000
  0.000000000000000E+000
  0.000000000000000E+000
  0.000000000000000E+000
  0.000000000000000E+000
  0.000000000000000E+000
  0.000000000000000E+000
  0.000000000000000E+000
  0.000000000000000E+000
  0.000000000000000E+000
  0.000000000000000E+000
  0.000000000000000E+000
  0.000000000000000E+000
  0.000000000000000E+000
  0.000000000000000E+000
  0.000000000000000E+000
  0.000000000000000E+000
  0.000000000000000E+000
  0.000000000000000E+000
  0.000000000000000E+000
  0.000000000000000E+000
  0.000000000000000E+000
  0.000000000000000E+000
  0.000000000000000E+000
  0.000000000000000E+000
  0.000000000000000E+000
  0.000000000000000E+000
  0.000000000000000E+000
  0.000000000000000E+000
  0.000000000000000E+000
  0.000000000000000E+000
  0.000000000000000E+000
  0.000000000000000E+000
  0.000000000000000E+000
  0.000000000000000E+000
  0.000000000000000E+000
  0.000000000000000E+000
  0.000000000000000E+000
  0.000000000000000E+000
  0.000000000000000E+000
  0.000000000000000E+000
  0.000000000000000E+000
  0.000000000000000E+000
  0.000000000000000E+000
  0.000000000000000E+000
  0.000000000000000E+000
  0.000000000000000E+000
  0.000000000000000E+000
  0.000000000000000E+000
  0.000000000000000E+000
  0.000000000000000E+000
  0.000000000000000E+000
  0.000000000000000E+000
  0.000000000000000E+000
  0.000000000000000E+000
  0.000000000000000E+000
  0.000000000000000E+000
  0.000000000000000E+000
  0.000000000000000E+000
  0.000000000000000E+000
  0.000000000000000E+000
  0.000000000000000E+000
  0.000000000000000E+000
  0.000000000000000E+000
  0.000000000000000E+000
  0.000000000000000E+000
  0.000000000000000E+000
  0.000000000000000E+000
  0.000000000000000E+000
  0.000000000000000E+000
  0.000000000000000E+000
  0.000000000000000E+000
  0.000000000000000E+000
  0.000000000000000E+000
  0.000000000000000E+000
  0.000000000000000E+000
  0.000000000000000E+000
  0.000000000000000E+000
  0.000000000000000E+000
  0.000000000000000E+000
  0.000000000000000E+000
  0.000000000000000E+000
  0.000000000000000E+000
  0.000000000000000E+000
  0.000000000000000E+000
  0.000000000000000E+000
  0.000000000000000E+000
  0.000000000000000E+000
  0.000000000000000E+000
  0.000000000000000E+000
  0.000000000000000E+000
  0.000000000000000E+000
  0.000000000000000E+000
  0.000000000000000E+000
  0.000000000000000E+000
  0.000000000000000E+000
  0.000000000000000E+000
  0.000000000000000E+000
  0.000000000000000E+000
  0.000000000000000E+000
  0.000000000000000E+000
  0.000000000000000E+000
  0.000000000000000E+000
  0.000000000000000E+000
  0.000000000000000E+000
  0.000000000000000E+000
  0.000000000000000E+000
  0.000000000000000E+000
  0.000000000000000E+000
  0.000000000000000E+000
  0.000000000000000E+000
  0.000000000000000E+000
  0.000000000000000E+000
  0.000000000000000E+000
  0.000000000000000E+000
  0.000000000000000E+000
  0.000000000000000E+000
  0.000000000000000E+000
  0.000000000000000E+000
  0.000000000000000E+000
  0.000000000000000E+000
  0.000000000000000E+000
  0.000000000000000E+000
  0.000000000000000E+000
  0.000000000000000E+000
  0.000000000000000E+000
  0.000000000000000E+000
  0.000000000000000E+000
  0.000000000000000E+000
  0.000000000000000E+000
  0.000000000000000E+000
  0.000000000000000E+000
  0.000000000000000E+000
  0.000000000000000E+000
  0.000000000000000E+000
  0.000000000000000E+000
  0.000000000000000E+000
  0.000000000000000E+000
  0.000000000000000E+000
  0.000000000000000E+000
  0.000000000000000E+000
  0.000000000000000E+000
  0.000000000000000E+000
  0.000000000000000E+000
  0.000000000000000E+000
  0.000000000000000E+000
  0.000000000000000E+000
  0.000000000000000E+000
  0.000000000000000E+000
  0.000000000000000E+000
  0.000000000000000E+000
  0.000000000000000E+000
  0.000000000000000E+000
  0.000000000000000E+000
  0.000000000000000E+000
  0.000000000000000E+000
  0.000000000000000E+000
  0.000000000000000E+000
  0.000000000000000E+000
  0.000000000000000E+000
  0.000000000000000E+000
  0.000000000000000E+000
  0.000000000000000E+000
  0.000000000000000E+000
  0.000000000000000E+000
  0.000000000000000E+000
  0.000000000000000E+000
  0.000000000000000E+000
  0.000000000000000E+000
  0.000000000000000E+000
  0.000000000000000E+000
  0.000000000000000E+000
  0.000000000000000E+000
  0.000000000000000E+000
  0.000000000000000E+000
  0.000000000000000E+000
  0.000000000000000E+000
  0.000000000000000E+000
  0.000000000000000E+000
  0.000000000000000E+000
  0.000000000000000E+000
  0.000000000000000E+000
  0.000000000000000E+000
  0.000000000000000E+000
  0.000000000000000E+000
  0.000000000000000E+000
  0.000000000000000E+000
  0.000000000000000E+000
  0.000000000000000E+000
  0.000000000000000E+000
  0.000000000000000E+000
  0.000000000000000E+000
  0.000000000000000E+000
  0.000000000000000E+000
  0.000000000000000E+000
  0.000000000000000E+000
  0.000000000000000E+000
  0.000000000000000E+000
  0.000000000000000E+000
  0.000000000000000E+000
  0.000000000000000E+000
  0.000000000000000E+000
  0.000000000000000E+000
  0.000000000000000E+000
  0.000000000000000E+000
  0.000000000000000E+000
  0.000000000000000E+000
  0.000000000000000E+000
  0.000000000000000E+000
  0.000000000000000E+000
  0.000000000000000E+000
  0.000000000000000E+000
  0.000000000000000E+000
  0.000000000000000E+000
  0.000000000000000E+000
  0.000000000000000E+000
  0.000000000000000E+000
  0.000000000000000E+000
  0.000000000000000E+000
  0.000000000000000E+000
  0.000000000000000E+000
  0.000000000000000E+000
  0.000000000000000E+000
  0.000000000000000E+000
  0.000000000000000E+000
  0.000000000000000E+000
  0.000000000000000E+000
  0.000000000000000E+000
  0.000000000000000E+000
  0.000000000000000E+000
  0.000000000000000E+000
  0.000000000000000E+000
  0.000000000000000E+000
  0.000000000000000E+000
  0.000000000000000E+000
  0.000000000000000E+000
  0.000000000000000E+000
  0.000000000000000E+000
  0.000000000000000E+000
  0.000000000000000E+000
  0.000000000000000E+000
  0.000000000000000E+000
  0.000000000000000E+000
  0.000000000000000E+000
  0.000000000000000E+000
  0.000000000000000E+000
  0.000000000000000E+000
  0.000000000000000E+000
  0.000000000000000E+000
  0.000000000000000E+000
  0.000000000000000E+000
  0.000000000000000E+000
  0.000000000000000E+000
  0.000000000000000E+000
  0.000000000000000E+000
  0.000000000000000E+000
  0.000000000000000E+000
  0.000000000000000E+000
  0.000000000000000E+000
  0.000000000000000E+000
  0.000000000000000E+000
  0.000000000000000E+000
  0.000000000000000E+000
  0.000000000000000E+000
  0.000000000000000E+000
  0.000000000000000E+000
  0.000000000000000E+000
  0.000000000000000E+000
  0.000000000000000E+000
  0.000000000000000E+000
  0.000000000000000E+000
  0.000000000000000E+000
  0.000000000000000E+000
  0.000000000000000E+000
  0.000000000000000E+000
  0.000000000000000E+000
  0.000000000000000E+000
  0.000000000000000E+000
  0.000000000000000E+000
  0.000000000000000E+000
  0.000000000000000E+000
  0.000000000000000E+000
  0.000000000000000E+000
  0.000000000000000E+000
  0.000000000000000E+000
  0.000000000000000E+000
  0.000000000000000E+000
  0.000000000000000E+000
  0.000000000000000E+000
  0.000000000000000E+000
  0.000000000000000E+000
  0.000000000000000E+000
  0.000000000000000E+000
  0.000000000000000E+000
  0.000000000000000E+000
  0.000000000000000E+000
  0.000000000000000E+000
  0.000000000000000E+000
  0.000000000000000E+000
  0.000000000000000E+000
  0.000000000000000E+000
  0.000000000000000E+000
  0.000000000000000E+000
  0.000000000000000E+000
  0.000000000000000E+000
  0.000000000000000E+000
  0.000000000000000E+000
  0.000000000000000E+000
  0.000000000000000E+000
  0.000000000000000E+000
  0.000000000000000E+000
  0.000000000000000E+000
  0.000000000000000E+000
  0.000000000000000E+000
  0.000000000000000E+000
  0.000000000000000E+000
  0.000000000000000E+000
  0.000000000000000E+000
  0.000000000000000E+000
  0.000000000000000E+000
  0.000000000000000E+000
  0.000000000000000E+000
  0.000000000000000E+000
  0.000000000000000E+000
  0.000000000000000E+000
  0.000000000000000E+000
  0.000000000000000E+000
  0.000000000000000E+000
  0.000000000000000E+000
  0.000000000000000E+000
  0.000000000000000E+000
  0.000000000000000E+000
  0.000000000000000E+000
  0.000000000000000E+000
  0.000000000000000E+000
  0.000000000000000E+000
  0.000000000000000E+000
  0.000000000000000E+000
  0.000000000000000E+000
  0.000000000000000E+000
  0.000000000000000E+000
  0.000000000000000E+000
  0.000000000000000E+000
  0.000000000000000E+000
  0.000000000000000E+000
  0.000000000000000E+000
  0.000000000000000E+000
  0.000000000000000E+000
  0.000000000000000E+000
  0.000000000000000E+000
  0.000000000000000E+000
  0.000000000000000E+000
  0.000000000000000E+000
  0.000000000000000E+000
  0.000000000000000E+000
  0.000000000000000E+000
  0.000000000000000E+000
  0.000000000000000E+000
  0.000000000000000E+000
  0.000000000000000E+000
  0.000000000000000E+000
  0.000000000000000E+000
  0.000000000000000E+000
  0.000000000000000E+000
  0.000000000000000E+000
  0.000000000000000E+000
  0.000000000000000E+000
  0.000000000000000E+000
  0.000000000000000E+000
  0.000000000000000E+000
  0.000000000000000E+000
  0.000000000000000E+000
  0.000000000000000E+000
  0.000000000000000E+000
  0.000000000000000E+000
  0.000000000000000E+000
  0.000000000000000E+000
  0.000000000000000E+000
  0.000000000000000E+000
  0.000000000000000E+000
  0.000000000000000E+000
  0.000000000000000E+000
  0.000000000000000E+000
  0.000000000000000E+000
  0.000000000000000E+000
  0.000000000000000E+000
  0.000000000000000E+000
  0.000000000000000E+000
  0.000000000000000E+000
  0.000000000000000E+000
  0.000000000000000E+000
  0.000000000000000E+000
  0.000000000000000E+000
  0.000000000000000E+000
  0.000000000000000E+000
  0.000000000000000E+000
  0.000000000000000E+000
  0.000000000000000E+000
  0.000000000000000E+000
  0.000000000000000E+000
  0.000000000000000E+000
  0.000000000000000E+000
  0.000000000000000E+000
  0.000000000000000E+000
  0.000000000000000E+000
  0.000000000000000E+000
  0.000000000000000E+000
  0.000000000000000E+000
  0.000000000000000E+000
  0.000000000000000E+000
  0.000000000000000E+000
  0.000000000000000E+000
  0.000000000000000E+000
  0.000000000000000E+000
  0.000000000000000E+000
  0.000000000000000E+000
  0.000000000000000E+000
  0.000000000000000E+000
  0.000000000000000E+000
  0.000000000000000E+000
  0.000000000000000E+000
  0.000000000000000E+000
  0.000000000000000E+000
  0.000000000000000E+000
  0.000000000000000E+000
  0.000000000000000E+000
  0.000000000000000E+000
  0.000000000000000E+000
  0.000000000000000E+000
  0.000000000000000E+000
  0.000000000000000E+000
  0.000000000000000E+000
  0.000000000000000E+000
  0.000000000000000E+000
  0.000000000000000E+000
  0.000000000000000E+000
  0.000000000000000E+000
  0.000000000000000E+000
  0.000000000000000E+000
  0.000000000000000E+000
  0.000000000000000E+000
  0.000000000000000E+000
  0.000000000000000E+000
  0.000000000000000E+000
  0.000000000000000E+000
  0.000000000000000E+000
  0.000000000000000E+000
  0.000000000000000E+000
  0.000000000000000E+000
  0.000000000000000E+000
  0.000000000000000E+000
  0.000000000000000E+000
  0.000000000000000E+000
  0.000000000000000E+000
  0.000000000000000E+000
  0.000000000000000E+000
  0.000000000000000E+000
  0.000000000000000E+000
  0.000000000000000E+000
  0.000000000000000E+000
  0.000000000000000E+000
  0.000000000000000E+000
  0.000000000000000E+000
  0.000000000000000E+000
  0.000000000000000E+000
  0.000000000000000E+000
  0.000000000000000E+000
  0.000000000000000E+000
  0.000000000000000E+000
  0.000000000000000E+000
  0.000000000000000E+000
  0.000000000000000E+000
  0.000000000000000E+000
  0.000000000000000E+000
  0.000000000000000E+000
  0.000000000000000E+000
  0.000000000000000E+000
  0.000000000000000E+000
  0.000000000000000E+000
  0.000000000000000E+000
  0.000000000000000E+000
  0.000000000000000E+000
  0.000000000000000E+000
  0.000000000000000E+000
  0.000000000000000E+000
  0.000000000000000E+000
  0.000000000000000E+000
  0.000000000000000E+000
  0.000000000000000E+000
  0.000000000000000E+000
  0.000000000000000E+000
  0.000000000000000E+000
  0.000000000000000E+000
  0.000000000000000E+000
  0.000000000000000E+000
  0.000000000000000E+000
  0.000000000000000E+000
  0.000000000000000E+000
  0.000000000000000E+000
  0.000000000000000E+000
  0.000000000000000E+000
  0.000000000000000E+000
  0.000000000000000E+000
  0.000000000000000E+000
  0.000000000000000E+000
  0.000000000000000E+000
  0.000000000000000E+000
  0.000000000000000E+000
  0.000000000000000E+000
  0.000000000000000E+000
  0.000000000000000E+000
  0.000000000000000E+000
  0.000000000000000E+000
  0.000000000000000E+000
  0.000000000000000E+000
  0.000000000000000E+000
  0.000000000000000E+000
  0.000000000000000E+000
  0.000000000000000E+000
  0.000000000000000E+000
  0.000000000000000E+000
  0.000000000000000E+000
  0.000000000000000E+000
  0.000000000000000E+000
  0.000000000000000E+000
  0.000000000000000E+000
  0.000000000000000E+000
  0.000000000000000E+000
  0.000000000000000E+000
  0.000000000000000E+000
  0.000000000000000E+000
  0.000000000000000E+000
  0.000000000000000E+000
  0.000000000000000E+000
  0.000000000000000E+000
  0.000000000000000E+000
  0.000000000000000E+000
  0.000000000000000E+000
  0.000000000000000E+000
  0.000000000000000E+000
  0.000000000000000E+000
  0.000000000000000E+000
  0.000000000000000E+000
  0.000000000000000E+000
  0.000000000000000E+000
  0.000000000000000E+000
  0.000000000000000E+000
  0.000000000000000E+000
  0.000000000000000E+000
  0.000000000000000E+000
  0.000000000000000E+000
  0.000000000000000E+000
  0.000000000000000E+000
  0.000000000000000E+000
  0.000000000000000E+000
  0.000000000000000E+000
  0.000000000000000E+000
  0.000000000000000E+000
  0.000000000000000E+000
  0.000000000000000E+000
  0.000000000000000E+000
  0.000000000000000E+000
  0.000000000000000E+000
  0.000000000000000E+000
  0.000000000000000E+000
  0.000000000000000E+000
  0.000000000000000E+000
  0.000000000000000E+000
  0.000000000000000E+000
  0.000000000000000E+000
  0.000000000000000E+000
  0.000000000000000E+000
  0.000000000000000E+000
  0.000000000000000E+000
  0.000000000000000E+000
  0.000000000000000E+000
  0.000000000000000E+000
  0.000000000000000E+000
  0.000000000000000E+000
  0.000000000000000E+000
  0.000000000000000E+000
  0.000000000000000E+000
  0.000000000000000E+000
  0.000000000000000E+000
  0.000000000000000E+000
  0.000000000000000E+000
  0.000000000000000E+000
  0.000000000000000E+000
  0.000000000000000E+000
  0.000000000000000E+000
  0.000000000000000E+000
  0.000000000000000E+000
  0.000000000000000E+000
  0.000000000000000E+000
  0.000000000000000E+000
  0.000000000000000E+000
  0.000000000000000E+000
  0.000000000000000E+000
  0.000000000000000E+000
  0.000000000000000E+000
  0.000000000000000E+000
  0.000000000000000E+000
  0.000000000000000E+000
  0.000000000000000E+000
  0.000000000000000E+000
  0.000000000000000E+000
  0.000000000000000E+000
  0.000000000000000E+000
  0.000000000000000E+000
  0.000000000000000E+000
  0.000000000000000E+000
  0.000000000000000E+000
  0.000000000000000E+000
  0.000000000000000E+000
  0.000000000000000E+000
  0.000000000000000E+000
  0.000000000000000E+000
  0.000000000000000E+000
  0.000000000000000E+000
  0.000000000000000E+000
  0.000000000000000E+000
  0.000000000000000E+000
  0.000000000000000E+000
  0.000000000000000E+000
  0.000000000000000E+000
  0.000000000000000E+000
  0.000000000000000E+000
  0.000000000000000E+000
  0.000000000000000E+000
  0.000000000000000E+000
  0.000000000000000E+000
  0.000000000000000E+000
  0.000000000000000E+000
  0.000000000000000E+000
  0.000000000000000E+000
  0.000000000000000E+000
  0.000000000000000E+000
  0.000000000000000E+000
  0.000000000000000E+000
  0.000000000000000E+000
  0.000000000000000E+000
  0.000000000000000E+000
  0.000000000000000E+000
  0.000000000000000E+000
  0.000000000000000E+000
  0.000000000000000E+000
  0.000000000000000E+000
  0.000000000000000E+000
  0.000000000000000E+000
  0.000000000000000E+000
  0.000000000000000E+000
  0.000000000000000E+000
  0.000000000000000E+000
  0.000000000000000E+000
  0.000000000000000E+000
  0.000000000000000E+000
  0.000000000000000E+000
  0.000000000000000E+000
  0.000000000000000E+000
  0.000000000000000E+000
  0.000000000000000E+000
  0.000000000000000E+000
  0.000000000000000E+000
  0.000000000000000E+000
  0.000000000000000E+000
  0.000000000000000E+000
  0.000000000000000E+000
  0.000000000000000E+000
  0.000000000000000E+000
  0.000000000000000E+000
  0.000000000000000E+000
  0.000000000000000E+000
  0.000000000000000E+000
  0.000000000000000E+000
  0.000000000000000E+000
  0.000000000000000E+000
  0.000000000000000E+000
  0.000000000000000E+000
  0.000000000000000E+000
  0.000000000000000E+000
  0.000000000000000E+000
  0.000000000000000E+000
  0.000000000000000E+000
  0.000000000000000E+000
  0.000000000000000E+000
  0.000000000000000E+000
  0.000000000000000E+000
  0.000000000000000E+000
  0.000000000000000E+000
  0.000000000000000E+000
  0.000000000000000E+000
  0.000000000000000E+000
  0.000000000000000E+000
  0.000000000000000E+000
  0.000000000000000E+000
  0.000000000000000E+000
  0.000000000000000E+000
  0.000000000000000E+000
  0.000000000000000E+000
  0.000000000000000E+000
  0.000000000000000E+000
  0.000000000000000E+000
  0.000000000000000E+000
  0.000000000000000E+000
  0.000000000000000E+000
  0.000000000000000E+000
  0.000000000000000E+000
  0.000000000000000E+000
  0.000000000000000E+000
  0.000000000000000E+000
  0.000000000000000E+000
  0.000000000000000E+000
  0.000000000000000E+000
  0.000000000000000E+000
  0.000000000000000E+000
  0.000000000000000E+000
  0.000000000000000E+000
  0.000000000000000E+000
  0.000000000000000E+000
  0.000000000000000E+000
  0.000000000000000E+000
  0.000000000000000E+000
  0.000000000000000E+000
  0.000000000000000E+000
  0.000000000000000E+000
  0.000000000000000E+000
  0.000000000000000E+000
  0.000000000000000E+000
  0.000000000000000E+000
  0.000000000000000E+000
  0.000000000000000E+000
  0.000000000000000E+000
  0.000000000000000E+000
  0.000000000000000E+000
  0.000000000000000E+000
  0.000000000000000E+000
  0.000000000000000E+000
  0.000000000000000E+000
  0.000000000000000E+000
  0.000000000000000E+000
  0.000000000000000E+000
  0.000000000000000E+000
  0.000000000000000E+000
  0.000000000000000E+000
  0.000000000000000E+000
  0.000000000000000E+000
  0.000000000000000E+000
  0.000000000000000E+000
  0.000000000000000E+000
  0.000000000000000E+000
  0.000000000000000E+000
  0.000000000000000E+000
  0.000000000000000E+000
  0.000000000000000E+000
  0.000000000000000E+000
  0.000000000000000E+000
  0.000000000000000E+000
  0.000000000000000E+000
  0.000000000000000E+000
  0.000000000000000E+000
  0.000000000000000E+000
  0.000000000000000E+000
  0.000000000000000E+000
  0.000000000000000E+000
  0.000000000000000E+000
  0.000000000000000E+000
  0.000000000000000E+000
  0.000000000000000E+000
  0.000000000000000E+000
  0.000000000000000E+000
  0.000000000000000E+000
  0.000000000000000E+000
  0.000000000000000E+000
  0.000000000000000E+000
  0.000000000000000E+000
  0.000000000000000E+000
  0.000000000000000E+000
  0.000000000000000E+000
  0.000000000000000E+000
  0.000000000000000E+000
  0.000000000000000E+000
  0.000000000000000E+000
  0.000000000000000E+000
  0.000000000000000E+000
  0.000000000000000E+000
  0.000000000000000E+000
  0.000000000000000E+000
  0.000000000000000E+000
  0.000000000000000E+000
  0.000000000000000E+000
  0.000000000000000E+000
  0.000000000000000E+000
  0.000000000000000E+000
  0.000000000000000E+000
  0.000000000000000E+000
  0.000000000000000E+000
  0.000000000000000E+000
  0.000000000000000E+000
  0.000000000000000E+000
  0.000000000000000E+000
  0.000000000000000E+000
  0.000000000000000E+000
  0.000000000000000E+000
  0.000000000000000E+000
  0.000000000000000E+000
  0.000000000000000E+000
  0.000000000000000E+000
  0.000000000000000E+000
  0.000000000000000E+000
  0.000000000000000E+000
  0.000000000000000E+000
  0.000000000000000E+000
  0.000000000000000E+000
  0.000000000000000E+000
  0.000000000000000E+000
  0.000000000000000E+000
  0.000000000000000E+000
  0.000000000000000E+000
  0.000000000000000E+000
  0.000000000000000E+000
  0.000000000000000E+000
  0.000000000000000E+000
  0.000000000000000E+000
  0.000000000000000E+000
  0.000000000000000E+000
  0.000000000000000E+000
  0.000000000000000E+000
  0.000000000000000E+000
  0.000000000000000E+000
  0.000000000000000E+000
  0.000000000000000E+000
  0.000000000000000E+000
  0.000000000000000E+000
  0.000000000000000E+000
  0.000000000000000E+000
  0.000000000000000E+000
  0.000000000000000E+000
  0.000000000000000E+000
  0.000000000000000E+000
  0.000000000000000E+000
  0.000000000000000E+000
  0.000000000000000E+000
  0.000000000000000E+000
  0.000000000000000E+000
  0.000000000000000E+000
  0.000000000000000E+000
  0.000000000000000E+000
  0.000000000000000E+000
  0.000000000000000E+000
  0.000000000000000E+000
  0.000000000000000E+000
  0.000000000000000E+000
  0.000000000000000E+000
  0.000000000000000E+000
  0.000000000000000E+000
  0.000000000000000E+000
  0.000000000000000E+000
  0.000000000000000E+000
  0.000000000000000E+000
  0.000000000000000E+000
  0.000000000000000E+000
  0.000000000000000E+000
  0.000000000000000E+000
  0.000000000000000E+000
  0.000000000000000E+000
  0.000000000000000E+000
  0.000000000000000E+000
  0.000000000000000E+000
  0.000000000000000E+000
  0.000000000000000E+000
  0.000000000000000E+000
  0.000000000000000E+000
  0.000000000000000E+000
  0.000000000000000E+000
  0.000000000000000E+000
  0.000000000000000E+000
  0.000000000000000E+000
  0.000000000000000E+000
  0.000000000000000E+000
  0.000000000000000E+000
  0.000000000000000E+000
  0.000000000000000E+000
  0.000000000000000E+000
  0.000000000000000E+000
  0.000000000000000E+000
  0.000000000000000E+000
  0.000000000000000E+000
  0.000000000000000E+000
  0.000000000000000E+000
  0.000000000000000E+000
  0.000000000000000E+000
  0.000000000000000E+000
  0.000000000000000E+000
  0.000000000000000E+000
  0.000000000000000E+000
  0.000000000000000E+000
  0.000000000000000E+000
  0.000000000000000E+000
  0.000000000000000E+000
  0.000000000000000E+000
  0.000000000000000E+000
  0.000000000000000E+000
  0.000000000000000E+000
  0.000000000000000E+000
  0.000000000000000E+000
  0.000000000000000E+000
  0.000000000000000E+000
  0.000000000000000E+000
  0.000000000000000E+000
  0.000000000000000E+000
  0.000000000000000E+000
  0.000000000000000E+000
  0.000000000000000E+000
  0.000000000000000E+000
  0.000000000000000E+000
  0.000000000000000E+000
  0.000000000000000E+000
  0.000000000000000E+000
  0.000000000000000E+000
  0.000000000000000E+000
  0.000000000000000E+000
  0.000000000000000E+000
  0.000000000000000E+000
  0.000000000000000E+000
  0.000000000000000E+000
  0.000000000000000E+000
  0.000000000000000E+000
  0.000000000000000E+000
  0.000000000000000E+000
  0.000000000000000E+000
  0.000000000000000E+000
  0.000000000000000E+000
  0.000000000000000E+000
  0.000000000000000E+000
  0.000000000000000E+000
  0.000000000000000E+000
  0.000000000000000E+000
  0.000000000000000E+000
  0.000000000000000E+000
  0.000000000000000E+000
  0.000000000000000E+000
  0.000000000000000E+000
  0.000000000000000E+000
  0.000000000000000E+000
  0.000000000000000E+000
  0.000000000000000E+000
  0.000000000000000E+000
  0.000000000000000E+000
  0.000000000000000E+000
  0.000000000000000E+000
  0.000000000000000E+000
  0.000000000000000E+000
  0.000000000000000E+000
  0.000000000000000E+000
  0.000000000000000E+000
  0.000000000000000E+000
  0.000000000000000E+000
  0.000000000000000E+000
  0.000000000000000E+000
  0.000000000000000E+000
  0.000000000000000E+000
  0.000000000000000E+000
  0.000000000000000E+000
  0.000000000000000E+000
  0.000000000000000E+000
  0.000000000000000E+000
  0.000000000000000E+000
  0.000000000000000E+000
  0.000000000000000E+000
  0.000000000000000E+000
  0.000000000000000E+000
  0.000000000000000E+000
  0.000000000000000E+000
  0.000000000000000E+000
  0.000000000000000E+000
  0.000000000000000E+000
  0.000000000000000E+000
  0.000000000000000E+000
  0.000000000000000E+000
  0.000000000000000E+000
  0.000000000000000E+000
  0.000000000000000E+000
  0.000000000000000E+000
  0.000000000000000E+000
  0.000000000000000E+000
  0.000000000000000E+000
  0.000000000000000E+000
  0.000000000000000E+000
  0.000000000000000E+000
  0.000000000000000E+000
  0.000000000000000E+000
  0.000000000000000E+000
  0.000000000000000E+000
  0.000000000000000E+000
  0.000000000000000E+000
  0.000000000000000E+000
  0.000000000000000E+000
  0.000000000000000E+000
  0.000000000000000E+000
  0.000000000000000E+000
  0.000000000000000E+000
  0.000000000000000E+000
  0.000000000000000E+000
  0.000000000000000E+000
  0.000000000000000E+000
  0.000000000000000E+000
  0.000000000000000E+000
  0.000000000000000E+000
  0.000000000000000E+000
  0.000000000000000E+000
  0.000000000000000E+000
  0.000000000000000E+000
  0.000000000000000E+000
  0.000000000000000E+000
  0.000000000000000E+000
  0.000000000000000E+000
  0.000000000000000E+000
  0.000000000000000E+000
  0.000000000000000E+000
  0.000000000000000E+000
  0.000000000000000E+000
  0.000000000000000E+000
  0.000000000000000E+000
  0.000000000000000E+000
  0.000000000000000E+000
  0.000000000000000E+000
  0.000000000000000E+000
  0.000000000000000E+000
  0.000000000000000E+000
  0.000000000000000E+000
  0.000000000000000E+000
  0.000000000000000E+000
  0.000000000000000E+000
  0.000000000000000E+000
  0.000000000000000E+000
  0.000000000000000E+000
  0.000000000000000E+000
  0.000000000000000E+000
  0.000000000000000E+000
  0.000000000000000E+000
  0.000000000000000E+000
  0.000000000000000E+000
  0.000000000000000E+000
  0.000000000000000E+000
  0.000000000000000E+000
  0.000000000000000E+000
  0.000000000000000E+000
  0.000000000000000E+000
  0.000000000000000E+000
  0.000000000000000E+000
  0.000000000000000E+000
  0.000000000000000E+000
  0.000000000000000E+000
  0.000000000000000E+000
  0.000000000000000E+000
  0.000000000000000E+000
  0.000000000000000E+000
  0.000000000000000E+000
  0.000000000000000E+000
  0.000000000000000E+000
  0.000000000000000E+000
  0.000000000000000E+000
  0.000000000000000E+000
  0.000000000000000E+000
  0.000000000000000E+000
  0.000000000000000E+000
  0.000000000000000E+000
  0.000000000000000E+000
  0.000000000000000E+000
  0.000000000000000E+000
  0.000000000000000E+000
  0.000000000000000E+000
  0.000000000000000E+000
  0.000000000000000E+000
  0.000000000000000E+000
  0.000000000000000E+000
  0.000000000000000E+000
  0.000000000000000E+000
  0.000000000000000E+000
  0.000000000000000E+000
  0.000000000000000E+000
  0.000000000000000E+000
  0.000000000000000E+000
  0.000000000000000E+000
  0.000000000000000E+000
  0.000000000000000E+000
  0.000000000000000E+000
  0.000000000000000E+000
  0.000000000000000E+000
  0.000000000000000E+000
  0.000000000000000E+000
  0.000000000000000E+000
  0.000000000000000E+000
  0.000000000000000E+000
  0.000000000000000E+000
  0.000000000000000E+000
  0.000000000000000E+000
  0.000000000000000E+000
  0.000000000000000E+000
  0.000000000000000E+000
  0.000000000000000E+000
  0.000000000000000E+000
  0.000000000000000E+000
  0.000000000000000E+000
  0.000000000000000E+000
  0.000000000000000E+000
  0.000000000000000E+000
  0.000000000000000E+000
  0.000000000000000E+000
  0.000000000000000E+000
  0.000000000000000E+000
  0.000000000000000E+000
  0.000000000000000E+000
  0.000000000000000E+000
  0.000000000000000E+000
  0.000000000000000E+000
  0.000000000000000E+000
  0.000000000000000E+000
  0.000000000000000E+000
  0.000000000000000E+000
  0.000000000000000E+000
  0.000000000000000E+000
  0.000000000000000E+000
  0.000000000000000E+000
  0.000000000000000E+000
  0.000000000000000E+000
  0.000000000000000E+000
  0.000000000000000E+000
  0.000000000000000E+000
  0.000000000000000E+000
  0.000000000000000E+000
  0.000000000000000E+000
  0.000000000000000E+000
  0.000000000000000E+000
  0.000000000000000E+000
  0.000000000000000E+000
  0.000000000000000E+000
  0.000000000000000E+000
  0.000000000000000E+000
  0.000000000000000E+000
  0.000000000000000E+000
  0.000000000000000E+000
  0.000000000000000E+000
  0.000000000000000E+000
  0.000000000000000E+000
  0.000000000000000E+000
  0.000000000000000E+000
  0.000000000000000E+000
  0.000000000000000E+000
  0.000000000000000E+000
  0.000000000000000E+000
  0.000000000000000E+000
  0.000000000000000E+000
  0.000000000000000E+000
  0.000000000000000E+000
  0.000000000000000E+000
  0.000000000000000E+000
  0.000000000000000E+000
  0.000000000000000E+000
  0.000000000000000E+000
  0.000000000000000E+000
  0.000000000000000E+000
  0.000000000000000E+000
  0.000000000000000E+000
  0.000000000000000E+000
  0.000000000000000E+000
  0.000000000000000E+000
  0.000000000000000E+000
  0.000000000000000E+000
  0.000000000000000E+000
  0.000000000000000E+000
  0.000000000000000E+000
  0.000000000000000E+000
  0.000000000000000E+000
  0.000000000000000E+000
  0.000000000000000E+000
  0.000000000000000E+000
  0.000000000000000E+000
  0.000000000000000E+000
  0.000000000000000E+000
  0.000000000000000E+000
  0.000000000000000E+000
  0.000000000000000E+000
  0.000000000000000E+000
  0.000000000000000E+000
  0.000000000000000E+000
  0.000000000000000E+000
  0.000000000000000E+000
  0.000000000000000E+000
  0.000000000000000E+000
  0.000000000000000E+000
  0.000000000000000E+000
  0.000000000000000E+000
  0.000000000000000E+000
  0.000000000000000E+000
  0.000000000000000E+000
  0.000000000000000E+000
  0.000000000000000E+000
  0.000000000000000E+000
  0.000000000000000E+000
  0.000000000000000E+000
  0.000000000000000E+000
  0.000000000000000E+000
  0.000000000000000E+000
  0.000000000000000E+000
  0.000000000000000E+000
  0.000000000000000E+000
  0.000000000000000E+000
  0.000000000000000E+000
  0.000000000000000E+000
  0.000000000000000E+000
  0.000000000000000E+000
  0.000000000000000E+000
  0.000000000000000E+000
  0.000000000000000E+000
  0.000000000000000E+000
  0.000000000000000E+000
  0.000000000000000E+000
  0.000000000000000E+000
  0.000000000000000E+000
  0.000000000000000E+000
  0.000000000000000E+000
  0.000000000000000E+000
  0.000000000000000E+000
  0.000000000000000E+000
  0.000000000000000E+000
  0.000000000000000E+000
  0.000000000000000E+000
  0.000000000000000E+000
  0.000000000000000E+000
  0.000000000000000E+000
  0.000000000000000E+000
  0.000000000000000E+000
  0.000000000000000E+000
  0.000000000000000E+000
  0.000000000000000E+000
  0.000000000000000E+000
  0.000000000000000E+000
  0.000000000000000E+000
  0.000000000000000E+000
  0.000000000000000E+000
  0.000000000000000E+000
  0.000000000000000E+000
  0.000000000000000E+000
  0.000000000000000E+000
  0.000000000000000E+000
  0.000000000000000E+000
  0.000000000000000E+000
  0.000000000000000E+000
  0.000000000000000E+000
  0.000000000000000E+000
  0.000000000000000E+000
  0.000000000000000E+000
  0.000000000000000E+000
  0.000000000000000E+000
  0.000000000000000E+000
  0.000000000000000E+000
  0.000000000000000E+000
  0.000000000000000E+000
  0.000000000000000E+000
  0.000000000000000E+000
  0.000000000000000E+000
  0.000000000000000E+000
  0.000000000000000E+000
  0.000000000000000E+000
  0.000000000000000E+000
  0.000000000000000E+000
  0.000000000000000E+000
  0.000000000000000E+000
  0.000000000000000E+000
  0.000000000000000E+000
  0.000000000000000E+000
  0.000000000000000E+000
  0.000000000000000E+000
  0.000000000000000E+000
  0.000000000000000E+000
  0.000000000000000E+000
  0.000000000000000E+000
  0.000000000000000E+000
  0.000000000000000E+000
  0.000000000000000E+000
  0.000000000000000E+000
  0.000000000000000E+000
  0.000000000000000E+000
  0.000000000000000E+000
  0.000000000000000E+000
  0.000000000000000E+000
  0.000000000000000E+000
  0.000000000000000E+000
  0.000000000000000E+000
  0.000000000000000E+000
  0.000000000000000E+000
  0.000000000000000E+000
  0.000000000000000E+000
  0.000000000000000E+000
  0.000000000000000E+000
  0.000000000000000E+000
  0.000000000000000E+000
  0.000000000000000E+000
  0.000000000000000E+000
  0.000000000000000E+000
  0.000000000000000E+000
  0.000000000000000E+000
  0.000000000000000E+000
  0.000000000000000E+000
  0.000000000000000E+000
  0.000000000000000E+000
  0.000000000000000E+000
  0.000000000000000E+000
  0.000000000000000E+000
  0.000000000000000E+000
  0.000000000000000E+000
  0.000000000000000E+000
  0.000000000000000E+000
  0.000000000000000E+000
  0.000000000000000E+000
  0.000000000000000E+000
  0.000000000000000E+000
  0.000000000000000E+000
  0.000000000000000E+000
  0.000000000000000E+000
  0.000000000000000E+000
  0.000000000000000E+000
  0.000000000000000E+000
  0.000000000000000E+000
  0.000000000000000E+000
  0.000000000000000E+000
  0.000000000000000E+000
  0.000000000000000E+000
  0.000000000000000E+000
  0.000000000000000E+000
  0.000000000000000E+000
  0.000000000000000E+000
  0.000000000000000E+000
  0.000000000000000E+000
  0.000000000000000E+000
  0.000000000000000E+000
  0.000000000000000E+000
  0.000000000000000E+000
  0.000000000000000E+000
  0.000000000000000E+000
  0.000000000000000E+000
  0.000000000000000E+000
  0.000000000000000E+000
  0.000000000000000E+000
  0.000000000000000E+000
  0.000000000000000E+000
  0.000000000000000E+000
  0.000000000000000E+000
  0.000000000000000E+000
  0.000000000000000E+000
  0.000000000000000E+000
  0.000000000000000E+000
  0.000000000000000E+000
  0.000000000000000E+000
  0.000000000000000E+000
  0.000000000000000E+000
  0.000000000000000E+000
  0.000000000000000E+000
  0.000000000000000E+000
  0.000000000000000E+000
  0.000000000000000E+000
  0.000000000000000E+000
  0.000000000000000E+000
  0.000000000000000E+000
  0.000000000000000E+000
  0.000000000000000E+000
  0.000000000000000E+000
  0.000000000000000E+000
  0.000000000000000E+000
  0.000000000000000E+000
  0.000000000000000E+000
  0.000000000000000E+000
  0.000000000000000E+000
  0.000000000000000E+000
  0.000000000000000E+000
  0.000000000000000E+000
  0.000000000000000E+000
  0.000000000000000E+000
  0.000000000000000E+000
  0.000000000000000E+000
  0.000000000000000E+000
  0.000000000000000E+000
  0.000000000000000E+000
  0.000000000000000E+000
  0.000000000000000E+000
  0.000000000000000E+000
  0.000000000000000E+000
  0.000000000000000E+000
  0.000000000000000E+000
  0.000000000000000E+000
  0.000000000000000E+000
  0.000000000000000E+000
  0.000000000000000E+000
  0.000000000000000E+000
  0.000000000000000E+000
  0.000000000000000E+000
  0.000000000000000E+000
  0.000000000000000E+000
  0.000000000000000E+000
  0.000000000000000E+000
  0.000000000000000E+000
  0.000000000000000E+000
  0.000000000000000E+000
  0.000000000000000E+000
  0.000000000000000E+000
  0.000000000000000E+000
  0.000000000000000E+000
  0.000000000000000E+000
  0.000000000000000E+000
  0.000000000000000E+000
  0.000000000000000E+000
  0.000000000000000E+000
  0.000000000000000E+000
  0.000000000000000E+000
  0.000000000000000E+000
  0.000000000000000E+000
  0.000000000000000E+000
  0.000000000000000E+000
  0.000000000000000E+000
  0.000000000000000E+000
  0.000000000000000E+000
  0.000000000000000E+000
  0.000000000000000E+000
  0.000000000000000E+000
  0.000000000000000E+000
  0.000000000000000E+000
  0.000000000000000E+000
  0.000000000000000E+000
  0.000000000000000E+000
  0.000000000000000E+000
  0.000000000000000E+000
  0.000000000000000E+000
  0.000000000000000E+000
  0.000000000000000E+000
  0.000000000000000E+000
  0.000000000000000E+000
  0.000000000000000E+000
  0.000000000000000E+000
  0.000000000000000E+000
  0.000000000000000E+000
  0.000000000000000E+000
  0.000000000000000E+000
  0.000000000000000E+000
  0.000000000000000E+000
  0.000000000000000E+000
  0.000000000000000E+000
  0.000000000000000E+000
  0.000000000000000E+000
  0.000000000000000E+000
  0.000000000000000E+000
  0.000000000000000E+000
  0.000000000000000E+000
  0.000000000000000E+000
  0.000000000000000E+000
  0.000000000000000E+000
  0.000000000000000E+000
  0.000000000000000E+000
  0.000000000000000E+000
  0.000000000000000E+000
  0.000000000000000E+000
  0.000000000000000E+000
  0.000000000000000E+000
  0.000000000000000E+000
  0.000000000000000E+000
  0.000000000000000E+000
  0.000000000000000E+000
  0.000000000000000E+000
  0.000000000000000E+000
  0.000000000000000E+000
  0.000000000000000E+000
  0.000000000000000E+000
  0.000000000000000E+000
  0.000000000000000E+000
  0.000000000000000E+000
  0.000000000000000E+000
  0.000000000000000E+000
  0.000000000000000E+000
  0.000000000000000E+000
  0.000000000000000E+000
  0.000000000000000E+000
  0.000000000000000E+000
  0.000000000000000E+000
  0.000000000000000E+000
  0.000000000000000E+000
  0.000000000000000E+000
  0.000000000000000E+000
  0.000000000000000E+000
  0.000000000000000E+000
  0.000000000000000E+000
  0.000000000000000E+000
  0.000000000000000E+000
  0.000000000000000E+000
  0.000000000000000E+000
  0.000000000000000E+000
  0.000000000000000E+000
  0.000000000000000E+000
  0.000000000000000E+000
  0.000000000000000E+000
  0.000000000000000E+000
  0.000000000000000E+000
  0.000000000000000E+000
  0.000000000000000E+000
  0.000000000000000E+000
  0.000000000000000E+000
  0.000000000000000E+000
  0.000000000000000E+000
  0.000000000000000E+000
  0.000000000000000E+000
  0.000000000000000E+000
  0.000000000000000E+000
  0.000000000000000E+000
  0.000000000000000E+000
  0.000000000000000E+000
  0.000000000000000E+000
  0.000000000000000E+000
  0.000000000000000E+000
  0.000000000000000E+000
  0.000000000000000E+000
  0.000000000000000E+000
  0.000000000000000E+000
  0.000000000000000E+000
  0.000000000000000E+000
  0.000000000000000E+000
  0.000000000000000E+000
  0.000000000000000E+000
  0.000000000000000E+000
  0.000000000000000E+000
  0.000000000000000E+000
  0.000000000000000E+000
  0.000000000000000E+000
  0.000000000000000E+000
  0.000000000000000E+000
  0.000000000000000E+000
  0.000000000000000E+000
  0.000000000000000E+000
  0.000000000000000E+000
  0.000000000000000E+000
  0.000000000000000E+000
  0.000000000000000E+000
  0.000000000000000E+000
  0.000000000000000E+000
  0.000000000000000E+000
  0.000000000000000E+000
  0.000000000000000E+000
  0.000000000000000E+000
  0.000000000000000E+000
  0.000000000000000E+000
  0.000000000000000E+000
  0.000000000000000E+000
  0.000000000000000E+000
  0.000000000000000E+000
  0.000000000000000E+000
  0.000000000000000E+000
  0.000000000000000E+000
  0.000000000000000E+000
  0.000000000000000E+000
  0.000000000000000E+000
  0.000000000000000E+000
  0.000000000000000E+000
  0.000000000000000E+000
  0.000000000000000E+000
  0.000000000000000E+000
  0.000000000000000E+000
  0.000000000000000E+000
  0.000000000000000E+000
  0.000000000000000E+000
  0.000000000000000E+000
  0.000000000000000E+000
  0.000000000000000E+000
  0.000000000000000E+000
  0.000000000000000E+000
  0.000000000000000E+000
  0.000000000000000E+000
  0.000000000000000E+000
  0.000000000000000E+000
  0.000000000000000E+000
  0.000000000000000E+000
  0.000000000000000E+000
  0.000000000000000E+000
  0.000000000000000E+000
  0.000000000000000E+000
  0.000000000000000E+000
  0.000000000000000E+000
  0.000000000000000E+000
  0.000000000000000E+000
  0.000000000000000E+000
  0.000000000000000E+000
  0.000000000000000E+000
  0.000000000000000E+000
  0.000000000000000E+000
  0.000000000000000E+000
  0.000000000000000E+000
  0.000000000000000E+000
  0.000000000000000E+000
  0.000000000000000E+000
  0.000000000000000E+000
  0.000000000000000E+000
  0.000000000000000E+000
  0.000000000000000E+000
  0.000000000000000E+000
  0.000000000000000E+000
  0.000000000000000E+000
  0.000000000000000E+000
  0.000000000000000E+000
  0.000000000000000E+000
  0.000000000000000E+000
  0.000000000000000E+000
  0.000000000000000E+000
  0.000000000000000E+000
  0.000000000000000E+000
  0.000000000000000E+000
  0.000000000000000E+000
  0.000000000000000E+000
  0.000000000000000E+000
  0.000000000000000E+000
  0.000000000000000E+000
  0.000000000000000E+000
  0.000000000000000E+000
  0.000000000000000E+000
  0.000000000000000E+000
  0.000000000000000E+000
  0.000000000000000E+000
  0.000000000000000E+000
  0.000000000000000E+000
  0.000000000000000E+000
  0.000000000000000E+000
  0.000000000000000E+000
  0.000000000000000E+000
  0.000000000000000E+000
  0.000000000000000E+000
  0.000000000000000E+000
  0.000000000000000E+000
  0.000000000000000E+000
  0.000000000000000E+000
  0.000000000000000E+000
  0.000000000000000E+000
  0.000000000000000E+000
  0.000000000000000E+000
  0.000000000000000E+000
  0.000000000000000E+000
  0.000000000000000E+000
  0.000000000000000E+000
  0.000000000000000E+000
  0.000000000000000E+000
  0.000000000000000E+000
  0.000000000000000E+000
  0.000000000000000E+000
  0.000000000000000E+000
  0.000000000000000E+000
  0.000000000000000E+000
  0.000000000000000E+000
  0.000000000000000E+000
  0.000000000000000E+000
  0.000000000000000E+000
  0.000000000000000E+000
  0.000000000000000E+000
  0.000000000000000E+000
  0.000000000000000E+000
  0.000000000000000E+000
  0.000000000000000E+000
  0.000000000000000E+000
  0.000000000000000E+000
  0.000000000000000E+000
  0.000000000000000E+000
  0.000000000000000E+000
  0.000000000000000E+000
  0.000000000000000E+000
  0.000000000000000E+000
  0.000000000000000E+000
  0.000000000000000E+000
  0.000000000000000E+000
  0.000000000000000E+000
  0.000000000000000E+000
  0.000000000000000E+000
  0.000000000000000E+000
  0.000000000000000E+000
  0.000000000000000E+000
  0.000000000000000E+000
  0.000000000000000E+000
  0.000000000000000E+000
  0.000000000000000E+000
  0.000000000000000E+000
  0.000000000000000E+000
  0.000000000000000E+000
  0.000000000000000E+000
  0.000000000000000E+000
  0.000000000000000E+000
  0.000000000000000E+000
  0.000000000000000E+000
  0.000000000000000E+000
  0.000000000000000E+000
  0.000000000000000E+000
  0.000000000000000E+000
  0.000000000000000E+000
  0.000000000000000E+000
  0.000000000000000E+000
  0.000000000000000E+000
  0.000000000000000E+000
  0.000000000000000E+000
  0.000000000000000E+000
  0.000000000000000E+000
  0.000000000000000E+000
  0.000000000000000E+000
  0.000000000000000E+000
  0.000000000000000E+000
  0.000000000000000E+000
  0.000000000000000E+000
  0.000000000000000E+000
  0.000000000000000E+000
  0.000000000000000E+000
  0.000000000000000E+000
  0.000000000000000E+000
  0.000000000000000E+000
  0.000000000000000E+000
  0.000000000000000E+000
  0.000000000000000E+000
  0.000000000000000E+000
  0.000000000000000E+000
  0.000000000000000E+000
  0.000000000000000E+000
  0.000000000000000E+000
  0.000000000000000E+000
  0.000000000000000E+000
  0.000000000000000E+000
  0.000000000000000E+000
  0.000000000000000E+000
  0.000000000000000E+000
  0.000000000000000E+000
  0.000000000000000E+000
  0.000000000000000E+000
  0.000000000000000E+000
  0.000000000000000E+000
  0.000000000000000E+000
  0.000000000000000E+000
  0.000000000000000E+000
  0.000000000000000E+000
  0.000000000000000E+000
  0.000000000000000E+000
  0.000000000000000E+000
  0.000000000000000E+000
  0.000000000000000E+000
  0.000000000000000E+000
  0.000000000000000E+000
  0.000000000000000E+000
  0.000000000000000E+000
  0.000000000000000E+000
  0.000000000000000E+000
  0.000000000000000E+000
  0.000000000000000E+000
  0.000000000000000E+000
  0.000000000000000E+000
  0.000000000000000E+000
  0.000000000000000E+000
  0.000000000000000E+000
  0.000000000000000E+000
  0.000000000000000E+000
  0.000000000000000E+000
  0.000000000000000E+000
  0.000000000000000E+000
  0.000000000000000E+000
  0.000000000000000E+000
  0.000000000000000E+000
  0.000000000000000E+000
  0.000000000000000E+000
  0.000000000000000E+000
  0.000000000000000E+000
  0.000000000000000E+000
  0.000000000000000E+000
  0.000000000000000E+000
  0.000000000000000E+000
  0.000000000000000E+000
  0.000000000000000E+000
  0.000000000000000E+000
  0.000000000000000E+000
  0.000000000000000E+000
  0.000000000000000E+000
  0.000000000000000E+000
  0.000000000000000E+000
  0.000000000000000E+000
  0.000000000000000E+000
  0.000000000000000E+000
  0.000000000000000E+000
  0.000000000000000E+000
  0.000000000000000E+000
  0.000000000000000E+000
  0.000000000000000E+000
  0.000000000000000E+000
  0.000000000000000E+000
  0.000000000000000E+000
  0.000000000000000E+000
  0.000000000000000E+000
  0.000000000000000E+000
  0.000000000000000E+000
  0.000000000000000E+000
  0.000000000000000E+000
  0.000000000000000E+000
  0.000000000000000E+000
  0.000000000000000E+000
  0.000000000000000E+000
  0.000000000000000E+000
  0.000000000000000E+000
  0.000000000000000E+000
  0.000000000000000E+000
  0.000000000000000E+000
  0.000000000000000E+000
  0.000000000000000E+000
  0.000000000000000E+000
  0.000000000000000E+000
  0.000000000000000E+000
  0.000000000000000E+000
  0.000000000000000E+000
  0.000000000000000E+000
  0.000000000000000E+000
  0.000000000000000E+000
  0.000000000000000E+000
  0.000000000000000E+000
  0.000000000000000E+000
  0.000000000000000E+000
  0.000000000000000E+000
  0.000000000000000E+000
  0.000000000000000E+000
  0.000000000000000E+000
  0.000000000000000E+000
  0.000000000000000E+000
  0.000000000000000E+000
  0.000000000000000E+000
  0.000000000000000E+000
  0.000000000000000E+000
  0.000000000000000E+000
  0.000000000000000E+000
  0.000000000000000E+000
  0.000000000000000E+000
  0.000000000000000E+000
  0.000000000000000E+000
  0.000000000000000E+000
  0.000000000000000E+000
  0.000000000000000E+000
  0.000000000000000E+000
  0.000000000000000E+000
  0.000000000000000E+000
  0.000000000000000E+000
  0.000000000000000E+000
  0.000000000000000E+000
  0.000000000000000E+000
  0.000000000000000E+000
  0.000000000000000E+000
  0.000000000000000E+000
  0.000000000000000E+000
  0.000000000000000E+000
  0.000000000000000E+000
  0.000000000000000E+000
  0.000000000000000E+000
  0.000000000000000E+000
  0.000000000000000E+000
  0.000000000000000E+000
  0.000000000000000E+000
  0.000000000000000E+000
  0.000000000000000E+000
  0.000000000000000E+000
  0.000000000000000E+000
  0.000000000000000E+000
  0.000000000000000E+000
  0.000000000000000E+000
  0.000000000000000E+000
  0.000000000000000E+000
  0.000000000000000E+000
  0.000000000000000E+000
  0.000000000000000E+000
  0.000000000000000E+000
  0.000000000000000E+000
  0.000000000000000E+000
  0.000000000000000E+000
  0.000000000000000E+000
  0.000000000000000E+000
  0.000000000000000E+000
  0.000000000000000E+000
  0.000000000000000E+000
  0.000000000000000E+000
  0.000000000000000E+000
  0.000000000000000E+000
  0.000000000000000E+000
  0.000000000000000E+000
  0.000000000000000E+000
  0.000000000000000E+000
  0.000000000000000E+000
  0.000000000000000E+000
  0.000000000000000E+000
  0.000000000000000E+000
  0.000000000000000E+000
  0.000000000000000E+000
  0.000000000000000E+000
  0.000000000000000E+000
  0.000000000000000E+000
  0.000000000000000E+000
  0.000000000000000E+000
  0.000000000000000E+000
  0.000000000000000E+000
  0.000000000000000E+000
  0.000000000000000E+000
  0.000000000000000E+000
  0.000000000000000E+000
  0.000000000000000E+000
  0.000000000000000E+000
  0.000000000000000E+000
  0.000000000000000E+000
  0.000000000000000E+000
  0.000000000000000E+000
  0.000000000000000E+000
  0.000000000000000E+000
  0.000000000000000E+000
  0.000000000000000E+000
  0.000000000000000E+000
  0.000000000000000E+000
  0.000000000000000E+000
  0.000000000000000E+000
  0.000000000000000E+000
  0.000000000000000E+000
  0.000000000000000E+000
  0.000000000000000E+000
  0.000000000000000E+000
  0.000000000000000E+000
  0.000000000000000E+000
  0.000000000000000E+000
  0.000000000000000E+000
  0.000000000000000E+000
  0.000000000000000E+000
  0.000000000000000E+000
  0.000000000000000E+000
  0.000000000000000E+000
  0.000000000000000E+000
  0.000000000000000E+000
  0.000000000000000E+000
  0.000000000000000E+000
  0.000000000000000E+000
  0.000000000000000E+000
  0.000000000000000E+000
  0.000000000000000E+000
  0.000000000000000E+000
  0.000000000000000E+000
  0.000000000000000E+000
  0.000000000000000E+000
  0.000000000000000E+000
  0.000000000000000E+000
  0.000000000000000E+000
  0.000000000000000E+000
  0.000000000000000E+000
  0.000000000000000E+000
  0.000000000000000E+000
  0.000000000000000E+000
  0.000000000000000E+000
  0.000000000000000E+000
  0.000000000000000E+000
  0.000000000000000E+000
  0.000000000000000E+000
  0.000000000000000E+000
  0.000000000000000E+000
  0.000000000000000E+000
  0.000000000000000E+000
  0.000000000000000E+000
  0.000000000000000E+000
  0.000000000000000E+000
  0.000000000000000E+000
  0.000000000000000E+000
  0.000000000000000E+000
  0.000000000000000E+000
  0.000000000000000E+000
  0.000000000000000E+000
  0.000000000000000E+000
  0.000000000000000E+000
  0.000000000000000E+000
  0.000000000000000E+000
  0.000000000000000E+000
  0.000000000000000E+000
  0.000000000000000E+000
  0.000000000000000E+000
  0.000000000000000E+000
  0.000000000000000E+000
  0.000000000000000E+000
  0.000000000000000E+000
  0.000000000000000E+000
  0.000000000000000E+000
  0.000000000000000E+000
  0.000000000000000E+000
  0.000000000000000E+000
  0.000000000000000E+000
  0.000000000000000E+000
  0.000000000000000E+000
  0.000000000000000E+000
  0.000000000000000E+000
  0.000000000000000E+000
  0.000000000000000E+000
  0.000000000000000E+000
  0.000000000000000E+000
  0.000000000000000E+000
  0.000000000000000E+000
  0.000000000000000E+000
  0.000000000000000E+000
  0.000000000000000E+000
  0.000000000000000E+000
  0.000000000000000E+000
  0.000000000000000E+000
  0.000000000000000E+000
  0.000000000000000E+000
  0.000000000000000E+000
  0.000000000000000E+000
  0.000000000000000E+000
  0.000000000000000E+000
  0.000000000000000E+000
  0.000000000000000E+000
  0.000000000000000E+000
  0.000000000000000E+000
  0.000000000000000E+000
  0.000000000000000E+000
  0.000000000000000E+000
  0.000000000000000E+000
  0.000000000000000E+000
  0.000000000000000E+000
  0.000000000000000E+000
  0.000000000000000E+000
  0.000000000000000E+000
  0.000000000000000E+000
  0.000000000000000E+000
  0.000000000000000E+000
  0.000000000000000E+000
  0.000000000000000E+000
  0.000000000000000E+000
  0.000000000000000E+000
  0.000000000000000E+000
  0.000000000000000E+000
  0.000000000000000E+000
  0.000000000000000E+000
  0.000000000000000E+000
  0.000000000000000E+000
  0.000000000000000E+000
  0.000000000000000E+000
  0.000000000000000E+000
  0.000000000000000E+000
  0.000000000000000E+000
  0.000000000000000E+000
  0.000000000000000E+000
  0.000000000000000E+000
  0.000000000000000E+000
  0.000000000000000E+000
  0.000000000000000E+000
  0.000000000000000E+000
  0.000000000000000E+000
  0.000000000000000E+000
  0.000000000000000E+000
  0.000000000000000E+000
  0.000000000000000E+000
  0.000000000000000E+000
  0.000000000000000E+000
  0.000000000000000E+000
  0.000000000000000E+000
  0.000000000000000E+000
  0.000000000000000E+000
  0.000000000000000E+000
  0.000000000000000E+000
  0.000000000000000E+000
  0.000000000000000E+000
  0.000000000000000E+000
  0.000000000000000E+000
  0.000000000000000E+000
  0.000000000000000E+000
  0.000000000000000E+000
  0.000000000000000E+000
  0.000000000000000E+000
  0.000000000000000E+000
  0.000000000000000E+000
  0.000000000000000E+000
  0.000000000000000E+000
  0.000000000000000E+000
  0.000000000000000E+000
  0.000000000000000E+000
  0.000000000000000E+000
  0.000000000000000E+000
  0.000000000000000E+000
  0.000000000000000E+000
  0.000000000000000E+000
  0.000000000000000E+000
  0.000000000000000E+000
  0.000000000000000E+000
  0.000000000000000E+000
  0.000000000000000E+000
  0.000000000000000E+000
  0.000000000000000E+000
  0.000000000000000E+000
  0.000000000000000E+000
  0.000000000000000E+000
  0.000000000000000E+000
  0.000000000000000E+000
  0.000000000000000E+000
  0.000000000000000E+000
  0.000000000000000E+000
  0.000000000000000E+000
  0.000000000000000E+000
  0.000000000000000E+000
  0.000000000000000E+000
  0.000000000000000E+000
  0.000000000000000E+000
  0.000000000000000E+000
  0.000000000000000E+000
  0.000000000000000E+000
  0.000000000000000E+000
  0.000000000000000E+000
  0.000000000000000E+000
  0.000000000000000E+000
  0.000000000000000E+000
  0.000000000000000E+000
  0.000000000000000E+000
  0.000000000000000E+000
  0.000000000000000E+000
  0.000000000000000E+000
  0.000000000000000E+000
  0.000000000000000E+000
  0.000000000000000E+000
  0.000000000000000E+000
  0.000000000000000E+000
  0.000000000000000E+000
  0.000000000000000E+000
  0.000000000000000E+000
  0.000000000000000E+000
  0.000000000000000E+000
  0.000000000000000E+000
  0.000000000000000E+000
  0.000000000000000E+000
  0.000000000000000E+000
  0.000000000000000E+000
  0.000000000000000E+000
  0.000000000000000E+000
  0.000000000000000E+000
  0.000000000000000E+000
  0.000000000000000E+000
  0.000000000000000E+000
  0.000000000000000E+000
  0.000000000000000E+000
  0.000000000000000E+000
  0.000000000000000E+000
  0.000000000000000E+000
  0.000000000000000E+000
  0.000000000000000E+000
  0.000000000000000E+000
  0.000000000000000E+000
  0.000000000000000E+000
  0.000000000000000E+000
  0.000000000000000E+000
  0.000000000000000E+000
  0.000000000000000E+000
  0.000000000000000E+000
  0.000000000000000E+000
  0.000000000000000E+000
  0.000000000000000E+000
  0.000000000000000E+000
  0.000000000000000E+000
  0.000000000000000E+000
  0.000000000000000E+000
  0.000000000000000E+000
  0.000000000000000E+000
  0.000000000000000E+000
  0.000000000000000E+000
  0.000000000000000E+000
  0.000000000000000E+000
  0.000000000000000E+000
  0.000000000000000E+000
  0.000000000000000E+000
  0.000000000000000E+000
  0.000000000000000E+000
  0.000000000000000E+000
  0.000000000000000E+000
  0.000000000000000E+000
  0.000000000000000E+000
  0.000000000000000E+000
  0.000000000000000E+000
  0.000000000000000E+000
  0.000000000000000E+000
  0.000000000000000E+000
  0.000000000000000E+000
  0.000000000000000E+000
  0.000000000000000E+000
  0.000000000000000E+000
  0.000000000000000E+000
  0.000000000000000E+000
  0.000000000000000E+000
  0.000000000000000E+000
  0.000000000000000E+000
  0.000000000000000E+000
  0.000000000000000E+000
  0.000000000000000E+000
  0.000000000000000E+000
  0.000000000000000E+000
  0.000000000000000E+000
  0.000000000000000E+000
  0.000000000000000E+000
  0.000000000000000E+000
  0.000000000000000E+000
  0.000000000000000E+000
  0.000000000000000E+000
  0.000000000000000E+000
  0.000000000000000E+000
  0.000000000000000E+000
  0.000000000000000E+000
  0.000000000000000E+000
  0.000000000000000E+000
  0.000000000000000E+000
  0.000000000000000E+000
  0.000000000000000E+000
  0.000000000000000E+000
  0.000000000000000E+000
  0.000000000000000E+000
  0.000000000000000E+000
  0.000000000000000E+000
  0.000000000000000E+000
  0.000000000000000E+000
  0.000000000000000E+000
  0.000000000000000E+000
  0.000000000000000E+000
  0.000000000000000E+000
  0.000000000000000E+000
  0.000000000000000E+000
  0.000000000000000E+000
  0.000000000000000E+000
  0.000000000000000E+000
  0.000000000000000E+000
  0.000000000000000E+000
  0.000000000000000E+000
  0.000000000000000E+000
  0.000000000000000E+000
  0.000000000000000E+000
  0.000000000000000E+000
  0.000000000000000E+000
  0.000000000000000E+000
  0.000000000000000E+000
  0.000000000000000E+000
  0.000000000000000E+000
  0.000000000000000E+000
  0.000000000000000E+000
  0.000000000000000E+000
  0.000000000000000E+000
  0.000000000000000E+000
  0.000000000000000E+000
  0.000000000000000E+000
  0.000000000000000E+000
  0.000000000000000E+000
  0.000000000000000E+000
  0.000000000000000E+000
  0.000000000000000E+000
  0.000000000000000E+000
  0.000000000000000E+000
  0.000000000000000E+000
  0.000000000000000E+000
  0.000000000000000E+000
  0.000000000000000E+000
  0.000000000000000E+000
  0.000000000000000E+000
  0.000000000000000E+000
  0.000000000000000E+000
  0.000000000000000E+000
  0.000000000000000E+000
  0.000000000000000E+000
  0.000000000000000E+000
  0.000000000000000E+000
  0.000000000000000E+000
  0.000000000000000E+000
  0.000000000000000E+000
  0.000000000000000E+000
  0.000000000000000E+000
  0.000000000000000E+000
  0.000000000000000E+000
  0.000000000000000E+000
  0.000000000000000E+000
  0.000000000000000E+000
  0.000000000000000E+000
  0.000000000000000E+000
  0.000000000000000E+000
  0.000000000000000E+000
  0.000000000000000E+000
  0.000000000000000E+000
  0.000000000000000E+000
  0.000000000000000E+000
  0.000000000000000E+000
  0.000000000000000E+000
  0.000000000000000E+000
  0.000000000000000E+000
  0.000000000000000E+000
  0.000000000000000E+000
  0.000000000000000E+000
  0.000000000000000E+000
  0.000000000000000E+000
  0.000000000000000E+000
  0.000000000000000E+000
  0.000000000000000E+000
  0.000000000000000E+000
  0.000000000000000E+000
  0.000000000000000E+000
  0.000000000000000E+000
  0.000000000000000E+000
  0.000000000000000E+000
  0.000000000000000E+000
  0.000000000000000E+000
  0.000000000000000E+000
  0.000000000000000E+000
  0.000000000000000E+000
  0.000000000000000E+000
  0.000000000000000E+000
  0.000000000000000E+000
  0.000000000000000E+000
  0.000000000000000E+000
  0.000000000000000E+000
  0.000000000000000E+000
  0.000000000000000E+000
  0.000000000000000E+000
  0.000000000000000E+000
  0.000000000000000E+000
  0.000000000000000E+000
  0.000000000000000E+000
  0.000000000000000E+000
  0.000000000000000E+000
  0.000000000000000E+000
  0.000000000000000E+000
  0.000000000000000E+000
  0.000000000000000E+000
  0.000000000000000E+000
  0.000000000000000E+000
  0.000000000000000E+000
  0.000000000000000E+000
  0.000000000000000E+000
  0.000000000000000E+000
  0.000000000000000E+000
  0.000000000000000E+000
  0.000000000000000E+000
  0.000000000000000E+000
  0.000000000000000E+000
  0.000000000000000E+000
  0.000000000000000E+000
  0.000000000000000E+000
  0.000000000000000E+000
  0.000000000000000E+000
  0.000000000000000E+000
  0.000000000000000E+000
  0.000000000000000E+000
  0.000000000000000E+000
  0.000000000000000E+000
  0.000000000000000E+000
  0.000000000000000E+000
  0.000000000000000E+000
  0.000000000000000E+000
  0.000000000000000E+000
  0.000000000000000E+000
  0.000000000000000E+000
  0.000000000000000E+000
  0.000000000000000E+000
  0.000000000000000E+000
  0.000000000000000E+000
  0.000000000000000E+000
  0.000000000000000E+000
  0.000000000000000E+000
  0.000000000000000E+000
  0.000000000000000E+000
  0.000000000000000E+000
  0.000000000000000E+000
  0.000000000000000E+000
  0.000000000000000E+000
  0.000000000000000E+000
  0.000000000000000E+000
  0.000000000000000E+000
  0.000000000000000E+000
  0.000000000000000E+000
  0.000000000000000E+000
  0.000000000000000E+000
  0.000000000000000E+000
  0.000000000000000E+000
  0.000000000000000E+000
  0.000000000000000E+000
  0.000000000000000E+000
  0.000000000000000E+000
  0.000000000000000E+000
  0.000000000000000E+000
  0.000000000000000E+000
  0.000000000000000E+000
  0.000000000000000E+000
  0.000000000000000E+000
  0.000000000000000E+000
  0.000000000000000E+000
  0.000000000000000E+000
  0.000000000000000E+000
  0.000000000000000E+000
  0.000000000000000E+000
  0.000000000000000E+000
  0.000000000000000E+000
  0.000000000000000E+000
  0.000000000000000E+000
  0.000000000000000E+000
  0.000000000000000E+000
  0.000000000000000E+000
  0.000000000000000E+000
  0.000000000000000E+000
  0.000000000000000E+000
  0.000000000000000E+000
  0.000000000000000E+000
  0.000000000000000E+000
  0.000000000000000E+000
  0.000000000000000E+000
  0.000000000000000E+000
  0.000000000000000E+000
  0.000000000000000E+000
  0.000000000000000E+000
  0.000000000000000E+000
  0.000000000000000E+000
  0.000000000000000E+000
  0.000000000000000E+000
  0.000000000000000E+000
  0.000000000000000E+000
  0.000000000000000E+000
  0.000000000000000E+000
  0.000000000000000E+000
  0.000000000000000E+000
  0.000000000000000E+000
  0.000000000000000E+000
  0.000000000000000E+000
  0.000000000000000E+000
  0.000000000000000E+000
  0.000000000000000E+000
  0.000000000000000E+000
  0.000000000000000E+000
  0.000000000000000E+000
  0.000000000000000E+000
  0.000000000000000E+000
  0.000000000000000E+000
  0.000000000000000E+000
  0.000000000000000E+000
  0.000000000000000E+000
  0.000000000000000E+000
  0.000000000000000E+000
  0.000000000000000E+000
  0.000000000000000E+000
  0.000000000000000E+000
  0.000000000000000E+000
  0.000000000000000E+000
  0.000000000000000E+000
  0.000000000000000E+000
  0.000000000000000E+000
  0.000000000000000E+000
  0.000000000000000E+000
  0.000000000000000E+000
  0.000000000000000E+000
  0.000000000000000E+000
  0.000000000000000E+000
  0.000000000000000E+000
  0.000000000000000E+000
  0.000000000000000E+000
  0.000000000000000E+000
  0.000000000000000E+000
  0.000000000000000E+000
  0.000000000000000E+000
  0.000000000000000E+000
  0.000000000000000E+000
  0.000000000000000E+000
  0.000000000000000E+000
  0.000000000000000E+000
  0.000000000000000E+000
  0.000000000000000E+000
  0.000000000000000E+000
  0.000000000000000E+000
  0.000000000000000E+000
  0.000000000000000E+000
  0.000000000000000E+000
  0.000000000000000E+000
  0.000000000000000E+000
  0.000000000000000E+000
  0.000000000000000E+000
  0.000000000000000E+000
  0.000000000000000E+000
  0.000000000000000E+000
  0.000000000000000E+000
  0.000000000000000E+000
  0.000000000000000E+000
  0.000000000000000E+000
  0.000000000000000E+000
  0.000000000000000E+000
  0.000000000000000E+000
  0.000000000000000E+000
  0.000000000000000E+000
  0.000000000000000E+000
  0.000000000000000E+000
  0.000000000000000E+000
  0.000000000000000E+000
  0.000000000000000E+000
  0.000000000000000E+000
  0.000000000000000E+000
  0.000000000000000E+000
  0.000000000000000E+000
  0.000000000000000E+000
  0.000000000000000E+000
  0.000000000000000E+000
  0.000000000000000E+000
  0.000000000000000E+000
  0.000000000000000E+000
  0.000000000000000E+000
  0.000000000000000E+000
  0.000000000000000E+000
  0.000000000000000E+000
  0.000000000000000E+000
  0.000000000000000E+000
  0.000000000000000E+000
  0.000000000000000E+000
  0.000000000000000E+000
  0.000000000000000E+000
  0.000000000000000E+000
  0.000000000000000E+000
  0.000000000000000E+000
  0.000000000000000E+000
  0.000000000000000E+000
  0.000000000000000E+000
  0.000000000000000E+000
  0.000000000000000E+000
  0.000000000000000E+000
  0.000000000000000E+000
  0.000000000000000E+000
  0.000000000000000E+000
  0.000000000000000E+000
  0.000000000000000E+000
  0.000000000000000E+000
  0.000000000000000E+000
  0.000000000000000E+000
  0.000000000000000E+000
  0.000000000000000E+000
  0.000000000000000E+000
  0.000000000000000E+000
  0.000000000000000E+000
  0.000000000000000E+000
  0.000000000000000E+000
  0.000000000000000E+000
  0.000000000000000E+000
  0.000000000000000E+000
  0.000000000000000E+000
  0.000000000000000E+000
  0.000000000000000E+000
  0.000000000000000E+000
  0.000000000000000E+000
  0.000000000000000E+000
  0.000000000000000E+000
  0.000000000000000E+000
  0.000000000000000E+000
  0.000000000000000E+000
  0.000000000000000E+000
  0.000000000000000E+000
  0.000000000000000E+000
  0.000000000000000E+000
  0.000000000000000E+000
  0.000000000000000E+000
  0.000000000000000E+000
  0.000000000000000E+000
  0.000000000000000E+000
  0.000000000000000E+000
  0.000000000000000E+000
  0.000000000000000E+000
  0.000000000000000E+000
  0.000000000000000E+000
  0.000000000000000E+000
  0.000000000000000E+000
  0.000000000000000E+000
  0.000000000000000E+000
  0.000000000000000E+000
  0.000000000000000E+000
  0.000000000000000E+000
  0.000000000000000E+000
  0.000000000000000E+000
  0.000000000000000E+000
  0.000000000000000E+000
  0.000000000000000E+000
  0.000000000000000E+000
  0.000000000000000E+000
  0.000000000000000E+000
  0.000000000000000E+000
  0.000000000000000E+000
  0.000000000000000E+000
  0.000000000000000E+000
  0.000000000000000E+000
  0.000000000000000E+000
  0.000000000000000E+000
  0.000000000000000E+000
  0.000000000000000E+000
  0.000000000000000E+000
  0.000000000000000E+000
  0.000000000000000E+000
  0.000000000000000E+000
  0.000000000000000E+000
  0.000000000000000E+000
  0.000000000000000E+000
  0.000000000000000E+000
  0.000000000000000E+000
  0.000000000000000E+000
  0.000000000000000E+000
  0.000000000000000E+000
  0.000000000000000E+000
  0.000000000000000E+000
  0.000000000000000E+000
  0.000000000000000E+000
  0.000000000000000E+000
  0.000000000000000E+000
  0.000000000000000E+000
  0.000000000000000E+000
  0.000000000000000E+000
  0.000000000000000E+000
  0.000000000000000E+000
  0.000000000000000E+000
  0.000000000000000E+000
  0.000000000000000E+000
  0.000000000000000E+000
  0.000000000000000E+000
  0.000000000000000E+000
  0.000000000000000E+000
  0.000000000000000E+000
  0.000000000000000E+000
  0.000000000000000E+000
  0.000000000000000E+000
  0.000000000000000E+000
  0.000000000000000E+000
  0.000000000000000E+000
  0.000000000000000E+000
  0.000000000000000E+000
  0.000000000000000E+000
  0.000000000000000E+000
  0.000000000000000E+000
  0.000000000000000E+000
  0.000000000000000E+000
  0.000000000000000E+000
  0.000000000000000E+000
  0.000000000000000E+000
  0.000000000000000E+000
  0.000000000000000E+000
  0.000000000000000E+000
  0.000000000000000E+000
  0.000000000000000E+000
  0.000000000000000E+000
  0.000000000000000E+000
  0.000000000000000E+000
  0.000000000000000E+000
  0.000000000000000E+000
  0.000000000000000E+000
  0.000000000000000E+000
  0.000000000000000E+000
  0.000000000000000E+000
  0.000000000000000E+000
  0.000000000000000E+000
  0.000000000000000E+000
  0.000000000000000E+000
  0.000000000000000E+000
  0.000000000000000E+000
  0.000000000000000E+000
  0.000000000000000E+000
  0.000000000000000E+000
  0.000000000000000E+000
  0.000000000000000E+000
  0.000000000000000E+000
  0.000000000000000E+000
  0.000000000000000E+000
  0.000000000000000E+000
  0.000000000000000E+000
  0.000000000000000E+000
  0.000000000000000E+000
  0.000000000000000E+000
  0.000000000000000E+000
  0.000000000000000E+000
  0.000000000000000E+000
  0.000000000000000E+000
  0.000000000000000E+000
  0.000000000000000E+000
  0.000000000000000E+000
  0.000000000000000E+000
  0.000000000000000E+000
  0.000000000000000E+000
  0.000000000000000E+000
  0.000000000000000E+000
  0.000000000000000E+000
  0.000000000000000E+000
  0.000000000000000E+000
  0.000000000000000E+000
  0.000000000000000E+000
  0.000000000000000E+000
  0.000000000000000E+000
  0.000000000000000E+000
  0.000000000000000E+000
  0.000000000000000E+000
  0.000000000000000E+000
  0.000000000000000E+000
  0.000000000000000E+000
  0.000000000000000E+000
  0.000000000000000E+000
  0.000000000000000E+000
  0.000000000000000E+000
  0.000000000000000E+000
  0.000000000000000E+000
  0.000000000000000E+000
  0.000000000000000E+000
  0.000000000000000E+000
  0.000000000000000E+000
  0.000000000000000E+000
  0.000000000000000E+000
  0.000000000000000E+000
  0.000000000000000E+000
  0.000000000000000E+000
  0.000000000000000E+000
  0.000000000000000E+000
  0.000000000000000E+000
  0.000000000000000E+000
  0.000000000000000E+000
  0.000000000000000E+000
  0.000000000000000E+000
  0.000000000000000E+000
  0.000000000000000E+000
  0.000000000000000E+000
  0.000000000000000E+000
  0.000000000000000E+000
  0.000000000000000E+000
  0.000000000000000E+000
  0.000000000000000E+000
  0.000000000000000E+000
  0.000000000000000E+000
  0.000000000000000E+000
  0.000000000000000E+000
  0.000000000000000E+000
  0.000000000000000E+000
  0.000000000000000E+000
  0.000000000000000E+000
  0.000000000000000E+000
  0.000000000000000E+000
  0.000000000000000E+000
  0.000000000000000E+000
  0.000000000000000E+000
  0.000000000000000E+000
  0.000000000000000E+000
  0.000000000000000E+000
  0.000000000000000E+000
  0.000000000000000E+000
  0.000000000000000E+000
  0.000000000000000E+000
  0.000000000000000E+000
  0.000000000000000E+000
  0.000000000000000E+000
  0.000000000000000E+000
  0.000000000000000E+000
  0.000000000000000E+000
  0.000000000000000E+000
  0.000000000000000E+000
  0.000000000000000E+000
  0.000000000000000E+000
  0.000000000000000E+000
  0.000000000000000E+000
  0.000000000000000E+000
  0.000000000000000E+000
  0.000000000000000E+000
  0.000000000000000E+000
  0.000000000000000E+000
  0.000000000000000E+000
  0.000000000000000E+000
  0.000000000000000E+000
  0.000000000000000E+000
  0.000000000000000E+000
  0.000000000000000E+000
  0.000000000000000E+000
  0.000000000000000E+000
  0.000000000000000E+000
  0.000000000000000E+000
  0.000000000000000E+000
  0.000000000000000E+000
  0.000000000000000E+000
  0.000000000000000E+000
  0.000000000000000E+000
  0.000000000000000E+000
  0.000000000000000E+000
  0.000000000000000E+000
  0.000000000000000E+000
  0.000000000000000E+000
  0.000000000000000E+000
  0.000000000000000E+000
  0.000000000000000E+000
  0.000000000000000E+000
  0.000000000000000E+000
  0.000000000000000E+000
  0.000000000000000E+000
  0.000000000000000E+000
  0.000000000000000E+000
  0.000000000000000E+000
  0.000000000000000E+000
  0.000000000000000E+000
  0.000000000000000E+000
  0.000000000000000E+000
  0.000000000000000E+000
  0.000000000000000E+000
  0.000000000000000E+000
  0.000000000000000E+000
  0.000000000000000E+000
  0.000000000000000E+000
  0.000000000000000E+000
  0.000000000000000E+000
  0.000000000000000E+000
  0.000000000000000E+000
  0.000000000000000E+000
  0.000000000000000E+000
  0.000000000000000E+000
  0.000000000000000E+000
  0.000000000000000E+000
  0.000000000000000E+000
  0.000000000000000E+000
  0.000000000000000E+000
  0.000000000000000E+000
  0.000000000000000E+000
  0.000000000000000E+000
  0.000000000000000E+000
  0.000000000000000E+000
  0.000000000000000E+000
  0.000000000000000E+000
  0.000000000000000E+000
  0.000000000000000E+000
  0.000000000000000E+000
  0.000000000000000E+000
  0.000000000000000E+000
  0.000000000000000E+000
  0.000000000000000E+000
  0.000000000000000E+000
  0.000000000000000E+000
  0.000000000000000E+000
  0.000000000000000E+000
  0.000000000000000E+000
  0.000000000000000E+000
  0.000000000000000E+000
  0.000000000000000E+000
  0.000000000000000E+000
  0.000000000000000E+000
  0.000000000000000E+000
  0.000000000000000E+000
  0.000000000000000E+000
  0.000000000000000E+000
  0.000000000000000E+000
  0.000000000000000E+000
  0.000000000000000E+000
  0.000000000000000E+000
  0.000000000000000E+000
  0.000000000000000E+000
  0.000000000000000E+000
  0.000000000000000E+000
  0.000000000000000E+000
  0.000000000000000E+000
  0.000000000000000E+000
  0.000000000000000E+000
  0.000000000000000E+000
  0.000000000000000E+000
  0.000000000000000E+000
  0.000000000000000E+000
  0.000000000000000E+000
  0.000000000000000E+000
  0.000000000000000E+000
  0.000000000000000E+000
  0.000000000000000E+000
  0.000000000000000E+000
  0.000000000000000E+000
  0.000000000000000E+000
  0.000000000000000E+000
  0.000000000000000E+000
  0.000000000000000E+000
  0.000000000000000E+000
  0.000000000000000E+000
  0.000000000000000E+000
  0.000000000000000E+000
  0.000000000000000E+000
  0.000000000000000E+000
  0.000000000000000E+000
  0.000000000000000E+000
  0.000000000000000E+000
  0.000000000000000E+000
  0.000000000000000E+000
  0.000000000000000E+000
  0.000000000000000E+000
  0.000000000000000E+000
  0.000000000000000E+000
  0.000000000000000E+000
  0.000000000000000E+000
  0.000000000000000E+000
  0.000000000000000E+000
  0.000000000000000E+000
  0.000000000000000E+000
  0.000000000000000E+000
  0.000000000000000E+000
  0.000000000000000E+000
  0.000000000000000E+000
  0.000000000000000E+000
  0.000000000000000E+000
  0.000000000000000E+000
  0.000000000000000E+000
  0.000000000000000E+000
  0.000000000000000E+000
  0.000000000000000E+000
  0.000000000000000E+000
  0.000000000000000E+000
  0.000000000000000E+000
  0.000000000000000E+000
  0.000000000000000E+000
  0.000000000000000E+000
  0.000000000000000E+000
  0.000000000000000E+000
  0.000000000000000E+000
  0.000000000000000E+000
  0.000000000000000E+000
  0.000000000000000E+000
  0.000000000000000E+000
  0.000000000000000E+000
  0.000000000000000E+000
  0.000000000000000E+000
  0.000000000000000E+000
  0.000000000000000E+000
  0.000000000000000E+000
  0.000000000000000E+000
  0.000000000000000E+000
  0.000000000000000E+000
  0.000000000000000E+000
  0.000000000000000E+000
  0.000000000000000E+000
  0.000000000000000E+000
  0.000000000000000E+000
  0.000000000000000E+000
  0.000000000000000E+000
  0.000000000000000E+000
  0.000000000000000E+000
  0.000000000000000E+000
  0.000000000000000E+000
  0.000000000000000E+000
  0.000000000000000E+000
  0.000000000000000E+000
  0.000000000000000E+000
  0.000000000000000E+000
  0.000000000000000E+000
  0.000000000000000E+000
  0.000000000000000E+000
  0.000000000000000E+000
  0.000000000000000E+000
  0.000000000000000E+000
  0.000000000000000E+000
  0.000000000000000E+000
  0.000000000000000E+000
  0.000000000000000E+000
  0.000000000000000E+000
  0.000000000000000E+000
  0.000000000000000E+000
  0.000000000000000E+000
  0.000000000000000E+000
  0.000000000000000E+000
  0.000000000000000E+000
  0.000000000000000E+000
  0.000000000000000E+000
  0.000000000000000E+000
  0.000000000000000E+000
  0.000000000000000E+000
  0.000000000000000E+000
  0.000000000000000E+000
  0.000000000000000E+000
  0.000000000000000E+000
  0.000000000000000E+000
  0.000000000000000E+000
  0.000000000000000E+000
  0.000000000000000E+000
  0.000000000000000E+000
  0.000000000000000E+000
  0.000000000000000E+000
  0.000000000000000E+000
  0.000000000000000E+000
  0.000000000000000E+000
  0.000000000000000E+000
  0.000000000000000E+000
  0.000000000000000E+000
  0.000000000000000E+000
  0.000000000000000E+000
  0.000000000000000E+000
  0.000000000000000E+000
  0.000000000000000E+000
  0.000000000000000E+000
  0.000000000000000E+000
  0.000000000000000E+000
  0.000000000000000E+000
  0.000000000000000E+000
  0.000000000000000E+000
  0.000000000000000E+000
  0.000000000000000E+000
  0.000000000000000E+000
  0.000000000000000E+000
  0.000000000000000E+000
  0.000000000000000E+000
  0.000000000000000E+000
  0.000000000000000E+000
  0.000000000000000E+000
  0.000000000000000E+000
  0.000000000000000E+000
  0.000000000000000E+000
  0.000000000000000E+000
  0.000000000000000E+000
  0.000000000000000E+000
  0.000000000000000E+000
  0.000000000000000E+000
  0.000000000000000E+000
  0.000000000000000E+000
  0.000000000000000E+000
  0.000000000000000E+000
  0.000000000000000E+000
  0.000000000000000E+000
  0.000000000000000E+000
  0.000000000000000E+000
  0.000000000000000E+000
  0.000000000000000E+000
  0.000000000000000E+000
  0.000000000000000E+000
  0.000000000000000E+000
  0.000000000000000E+000
  0.000000000000000E+000
  0.000000000000000E+000
  0.000000000000000E+000
  0.000000000000000E+000
  0.000000000000000E+000
  0.000000000000000E+000
  0.000000000000000E+000
  0.000000000000000E+000
  0.000000000000000E+000
  0.000000000000000E+000
  0.000000000000000E+000
  0.000000000000000E+000
  0.000000000000000E+000
  0.000000000000000E+000
  0.000000000000000E+000
  0.000000000000000E+000
  0.000000000000000E+000
  0.000000000000000E+000
  0.000000000000000E+000
  0.000000000000000E+000
  0.000000000000000E+000
  0.000000000000000E+000
  0.000000000000000E+000
  0.000000000000000E+000
  0.000000000000000E+000
  0.000000000000000E+000
  0.000000000000000E+000
  0.000000000000000E+000
  0.000000000000000E+000
  0.000000000000000E+000
  0.000000000000000E+000
  0.000000000000000E+000
  0.000000000000000E+000
  0.000000000000000E+000
  0.000000000000000E+000
  0.000000000000000E+000
  0.000000000000000E+000
  0.000000000000000E+000
  0.000000000000000E+000
  0.000000000000000E+000
  0.000000000000000E+000
  0.000000000000000E+000
  0.000000000000000E+000
  0.000000000000000E+000
  0.000000000000000E+000
  0.000000000000000E+000
  0.000000000000000E+000
  0.000000000000000E+000
  0.000000000000000E+000
  0.000000000000000E+000
  0.000000000000000E+000
  0.000000000000000E+000
  0.000000000000000E+000
  0.000000000000000E+000
  0.000000000000000E+000
  0.000000000000000E+000
  0.000000000000000E+000
  0.000000000000000E+000
  0.000000000000000E+000
  0.000000000000000E+000
  0.000000000000000E+000
  0.000000000000000E+000
  0.000000000000000E+000
  0.000000000000000E+000
  0.000000000000000E+000
  0.000000000000000E+000
  0.000000000000000E+000
  0.000000000000000E+000
  0.000000000000000E+000
  0.000000000000000E+000
  0.000000000000000E+000
  0.000000000000000E+000
  0.000000000000000E+000
  0.000000000000000E+000
  0.000000000000000E+000
  0.000000000000000E+000
  0.000000000000000E+000
  0.000000000000000E+000
  0.000000000000000E+000
  0.000000000000000E+000
  0.000000000000000E+000
  0.000000000000000E+000
  0.000000000000000E+000
  0.000000000000000E+000
  0.000000000000000E+000
  0.000000000000000E+000
  0.000000000000000E+000
  0.000000000000000E+000
  0.000000000000000E+000
  0.000000000000000E+000
  0.000000000000000E+000
  0.000000000000000E+000
  0.000000000000000E+000
  0.000000000000000E+000
  0.000000000000000E+000
  0.000000000000000E+000
  0.000000000000000E+000
  0.000000000000000E+000
  0.000000000000000E+000
  0.000000000000000E+000
  0.000000000000000E+000
  0.000000000000000E+000
  0.000000000000000E+000
  0.000000000000000E+000
  0.000000000000000E+000
  0.000000000000000E+000
  0.000000000000000E+000
  0.000000000000000E+000
  0.000000000000000E+000
  0.000000000000000E+000
  0.000000000000000E+000
  0.000000000000000E+000
  0.000000000000000E+000
  0.000000000000000E+000
  0.000000000000000E+000
  0.000000000000000E+000
  0.000000000000000E+000
  0.000000000000000E+000
  0.000000000000000E+000
  0.000000000000000E+000
  0.000000000000000E+000
  0.000000000000000E+000
  0.000000000000000E+000
  0.000000000000000E+000
  0.000000000000000E+000
  0.000000000000000E+000
  0.000000000000000E+000
  0.000000000000000E+000
  0.000000000000000E+000
  0.000000000000000E+000
  0.000000000000000E+000
  0.000000000000000E+000
  0.000000000000000E+000
  0.000000000000000E+000
  0.000000000000000E+000
  0.000000000000000E+000
  0.000000000000000E+000
  0.000000000000000E+000
  0.000000000000000E+000
  0.000000000000000E+000
  0.000000000000000E+000
  0.000000000000000E+000
  0.000000000000000E+000
  0.000000000000000E+000
  0.000000000000000E+000
  0.000000000000000E+000
  0.000000000000000E+000
  0.000000000000000E+000
  0.000000000000000E+000
  0.000000000000000E+000
  0.000000000000000E+000
  0.000000000000000E+000
  0.000000000000000E+000
  0.000000000000000E+000
  0.000000000000000E+000
  0.000000000000000E+000
  0.000000000000000E+000
  0.000000000000000E+000
  0.000000000000000E+000
  0.000000000000000E+000
  0.000000000000000E+000
  0.000000000000000E+000
  0.000000000000000E+000
  0.000000000000000E+000
  0.000000000000000E+000
  0.000000000000000E+000
  0.000000000000000E+000
  0.000000000000000E+000
  0.000000000000000E+000
  0.000000000000000E+000
  0.000000000000000E+000
  0.000000000000000E+000
  0.000000000000000E+000
  0.000000000000000E+000
  0.000000000000000E+000
  0.000000000000000E+000
  0.000000000000000E+000
  0.000000000000000E+000
  0.000000000000000E+000
  0.000000000000000E+000
  0.000000000000000E+000
  0.000000000000000E+000
  0.000000000000000E+000
  0.000000000000000E+000
  0.000000000000000E+000
  0.000000000000000E+000
  0.000000000000000E+000
  0.000000000000000E+000
  0.000000000000000E+000
  0.000000000000000E+000
  0.000000000000000E+000
  0.000000000000000E+000
  0.000000000000000E+000
  0.000000000000000E+000
  0.000000000000000E+000
  0.000000000000000E+000
  0.000000000000000E+000
  0.000000000000000E+000
  0.000000000000000E+000
  0.000000000000000E+000
