# vtk DataFile Version 3.0
vtk output
ASCII
DATASET UNSTRUCTURED_GRID
POINTS      5151 double 
  0.00000000E+00  1.00000000E+02  0.00000000E+00
  0.00000000E+00  9.80000000E+01  0.00000000E+00
  0.00000000E+00  9.60000000E+01  0.00000000E+00
  0.00000000E+00  9.40000000E+01  0.00000000E+00
  0.00000000E+00  9.20000000E+01  0.00000000E+00
  0.00000000E+00  9.00000000E+01  0.00000000E+00
  0.00000000E+00  8.80000000E+01  0.00000000E+00
  0.00000000E+00  8.60000000E+01  0.00000000E+00
  0.00000000E+00  8.40000000E+01  0.00000000E+00
  0.00000000E+00  8.20000000E+01  0.00000000E+00
  0.00000000E+00  8.00000000E+01  0.00000000E+00
  0.00000000E+00  7.80000000E+01  0.00000000E+00
  0.00000000E+00  7.60000000E+01  0.00000000E+00
  0.00000000E+00  7.40000000E+01  0.00000000E+00
  0.00000000E+00  7.20000000E+01  0.00000000E+00
  0.00000000E+00  7.00000000E+01  0.00000000E+00
  0.00000000E+00  6.80000000E+01  0.00000000E+00
  0.00000000E+00  6.60000000E+01  0.00000000E+00
  0.00000000E+00  6.40000000E+01  0.00000000E+00
  0.00000000E+00  6.20000000E+01  0.00000000E+00
  0.00000000E+00  6.00000000E+01  0.00000000E+00
  0.00000000E+00  5.80000000E+01  0.00000000E+00
  0.00000000E+00  5.60000000E+01  0.00000000E+00
  0.00000000E+00  5.40000000E+01  0.00000000E+00
  0.00000000E+00  5.20000000E+01  0.00000000E+00
  0.00000000E+00  5.00000000E+01  0.00000000E+00
  0.00000000E+00  4.80000000E+01  0.00000000E+00
  0.00000000E+00  4.60000000E+01  0.00000000E+00
  0.00000000E+00  4.40000000E+01  0.00000000E+00
  0.00000000E+00  4.20000000E+01  0.00000000E+00
  0.00000000E+00  4.00000000E+01  0.00000000E+00
  0.00000000E+00  3.80000000E+01  0.00000000E+00
  0.00000000E+00  3.60000000E+01  0.00000000E+00
  0.00000000E+00  3.40000000E+01  0.00000000E+00
  0.00000000E+00  3.20000000E+01  0.00000000E+00
  0.00000000E+00  3.00000000E+01  0.00000000E+00
  0.00000000E+00  2.80000000E+01  0.00000000E+00
  0.00000000E+00  2.60000000E+01  0.00000000E+00
  0.00000000E+00  2.40000000E+01  0.00000000E+00
  0.00000000E+00  2.20000000E+01  0.00000000E+00
  0.00000000E+00  2.00000000E+01  0.00000000E+00
  0.00000000E+00  1.80000000E+01  0.00000000E+00
  0.00000000E+00  1.60000000E+01  0.00000000E+00
  0.00000000E+00  1.40000000E+01  0.00000000E+00
  0.00000000E+00  1.20000000E+01  0.00000000E+00
  0.00000000E+00  1.00000000E+01  0.00000000E+00
  0.00000000E+00  8.00000000E+00  0.00000000E+00
  0.00000000E+00  6.00000000E+00  0.00000000E+00
  0.00000000E+00  4.00000000E+00  0.00000000E+00
  0.00000000E+00  2.00000000E+00  0.00000000E+00
  0.00000000E+00 -3.33066907E-14  0.00000000E+00
  1.00000000E+01  1.00000000E+02  0.00000000E+00
  1.00000000E+01  9.80000000E+01  0.00000000E+00
  1.00000000E+01  9.60000000E+01  0.00000000E+00
  1.00000000E+01  9.40000000E+01  0.00000000E+00
  1.00000000E+01  9.20000000E+01  0.00000000E+00
  1.00000000E+01  9.00000000E+01  0.00000000E+00
  1.00000000E+01  8.80000000E+01  0.00000000E+00
  1.00000000E+01  8.60000000E+01  0.00000000E+00
  1.00000000E+01  8.40000000E+01  0.00000000E+00
  1.00000000E+01  8.20000000E+01  0.00000000E+00
  1.00000000E+01  8.00000000E+01  0.00000000E+00
  1.00000000E+01  7.80000000E+01  0.00000000E+00
  1.00000000E+01  7.60000000E+01  0.00000000E+00
  1.00000000E+01  7.40000000E+01  0.00000000E+00
  1.00000000E+01  7.20000000E+01  0.00000000E+00
  1.00000000E+01  7.00000000E+01  0.00000000E+00
  1.00000000E+01  6.80000000E+01  0.00000000E+00
  1.00000000E+01  6.60000000E+01  0.00000000E+00
  1.00000000E+01  6.40000000E+01  0.00000000E+00
  1.00000000E+01  6.20000000E+01  0.00000000E+00
  1.00000000E+01  6.00000000E+01  0.00000000E+00
  1.00000000E+01  5.80000000E+01  0.00000000E+00
  1.00000000E+01  5.60000000E+01  0.00000000E+00
  1.00000000E+01  5.40000000E+01  0.00000000E+00
  1.00000000E+01  5.20000000E+01  0.00000000E+00
  1.00000000E+01  5.00000000E+01  0.00000000E+00
  1.00000000E+01  4.80000000E+01  0.00000000E+00
  1.00000000E+01  4.60000000E+01  0.00000000E+00
  1.00000000E+01  4.40000000E+01  0.00000000E+00
  1.00000000E+01  4.20000000E+01  0.00000000E+00
  1.00000000E+01  4.00000000E+01  0.00000000E+00
  1.00000000E+01  3.80000000E+01  0.00000000E+00
  1.00000000E+01  3.60000000E+01  0.00000000E+00
  1.00000000E+01  3.40000000E+01  0.00000000E+00
  1.00000000E+01  3.20000000E+01  0.00000000E+00
  1.00000000E+01  3.00000000E+01  0.00000000E+00
  1.00000000E+01  2.80000000E+01  0.00000000E+00
  1.00000000E+01  2.60000000E+01  0.00000000E+00
  1.00000000E+01  2.40000000E+01  0.00000000E+00
  1.00000000E+01  2.20000000E+01  0.00000000E+00
  1.00000000E+01  2.00000000E+01  0.00000000E+00
  1.00000000E+01  1.80000000E+01  0.00000000E+00
  1.00000000E+01  1.60000000E+01  0.00000000E+00
  1.00000000E+01  1.40000000E+01  0.00000000E+00
  1.00000000E+01  1.20000000E+01  0.00000000E+00
  1.00000000E+01  1.00000000E+01  0.00000000E+00
  1.00000000E+01  8.00000000E+00  0.00000000E+00
  1.00000000E+01  6.00000000E+00  0.00000000E+00
  1.00000000E+01  4.00000000E+00  0.00000000E+00
  1.00000000E+01  2.00000000E+00  0.00000000E+00
  1.00000000E+01 -3.33066907E-14  0.00000000E+00
  2.00000000E+01  1.00000000E+02  0.00000000E+00
  2.00000000E+01  9.80000000E+01  0.00000000E+00
  2.00000000E+01  9.60000000E+01  0.00000000E+00
  2.00000000E+01  9.40000000E+01  0.00000000E+00
  2.00000000E+01  9.20000000E+01  0.00000000E+00
  2.00000000E+01  9.00000000E+01  0.00000000E+00
  2.00000000E+01  8.80000000E+01  0.00000000E+00
  2.00000000E+01  8.60000000E+01  0.00000000E+00
  2.00000000E+01  8.40000000E+01  0.00000000E+00
  2.00000000E+01  8.20000000E+01  0.00000000E+00
  2.00000000E+01  8.00000000E+01  0.00000000E+00
  2.00000000E+01  7.80000000E+01  0.00000000E+00
  2.00000000E+01  7.60000000E+01  0.00000000E+00
  2.00000000E+01  7.40000000E+01  0.00000000E+00
  2.00000000E+01  7.20000000E+01  0.00000000E+00
  2.00000000E+01  7.00000000E+01  0.00000000E+00
  2.00000000E+01  6.80000000E+01  0.00000000E+00
  2.00000000E+01  6.60000000E+01  0.00000000E+00
  2.00000000E+01  6.40000000E+01  0.00000000E+00
  2.00000000E+01  6.20000000E+01  0.00000000E+00
  2.00000000E+01  6.00000000E+01  0.00000000E+00
  2.00000000E+01  5.80000000E+01  0.00000000E+00
  2.00000000E+01  5.60000000E+01  0.00000000E+00
  2.00000000E+01  5.40000000E+01  0.00000000E+00
  2.00000000E+01  5.20000000E+01  0.00000000E+00
  2.00000000E+01  5.00000000E+01  0.00000000E+00
  2.00000000E+01  4.80000000E+01  0.00000000E+00
  2.00000000E+01  4.60000000E+01  0.00000000E+00
  2.00000000E+01  4.40000000E+01  0.00000000E+00
  2.00000000E+01  4.20000000E+01  0.00000000E+00
  2.00000000E+01  4.00000000E+01  0.00000000E+00
  2.00000000E+01  3.80000000E+01  0.00000000E+00
  2.00000000E+01  3.60000000E+01  0.00000000E+00
  2.00000000E+01  3.40000000E+01  0.00000000E+00
  2.00000000E+01  3.20000000E+01  0.00000000E+00
  2.00000000E+01  3.00000000E+01  0.00000000E+00
  2.00000000E+01  2.80000000E+01  0.00000000E+00
  2.00000000E+01  2.60000000E+01  0.00000000E+00
  2.00000000E+01  2.40000000E+01  0.00000000E+00
  2.00000000E+01  2.20000000E+01  0.00000000E+00
  2.00000000E+01  2.00000000E+01  0.00000000E+00
  2.00000000E+01  1.80000000E+01  0.00000000E+00
  2.00000000E+01  1.60000000E+01  0.00000000E+00
  2.00000000E+01  1.40000000E+01  0.00000000E+00
  2.00000000E+01  1.20000000E+01  0.00000000E+00
  2.00000000E+01  1.00000000E+01  0.00000000E+00
  2.00000000E+01  8.00000000E+00  0.00000000E+00
  2.00000000E+01  6.00000000E+00  0.00000000E+00
  2.00000000E+01  4.00000000E+00  0.00000000E+00
  2.00000000E+01  2.00000000E+00  0.00000000E+00
  2.00000000E+01 -3.33066907E-14  0.00000000E+00
  3.00000000E+01  1.00000000E+02  0.00000000E+00
  3.00000000E+01  9.80000000E+01  0.00000000E+00
  3.00000000E+01  9.60000000E+01  0.00000000E+00
  3.00000000E+01  9.40000000E+01  0.00000000E+00
  3.00000000E+01  9.20000000E+01  0.00000000E+00
  3.00000000E+01  9.00000000E+01  0.00000000E+00
  3.00000000E+01  8.80000000E+01  0.00000000E+00
  3.00000000E+01  8.60000000E+01  0.00000000E+00
  3.00000000E+01  8.40000000E+01  0.00000000E+00
  3.00000000E+01  8.20000000E+01  0.00000000E+00
  3.00000000E+01  8.00000000E+01  0.00000000E+00
  3.00000000E+01  7.80000000E+01  0.00000000E+00
  3.00000000E+01  7.60000000E+01  0.00000000E+00
  3.00000000E+01  7.40000000E+01  0.00000000E+00
  3.00000000E+01  7.20000000E+01  0.00000000E+00
  3.00000000E+01  7.00000000E+01  0.00000000E+00
  3.00000000E+01  6.80000000E+01  0.00000000E+00
  3.00000000E+01  6.60000000E+01  0.00000000E+00
  3.00000000E+01  6.40000000E+01  0.00000000E+00
  3.00000000E+01  6.20000000E+01  0.00000000E+00
  3.00000000E+01  6.00000000E+01  0.00000000E+00
  3.00000000E+01  5.80000000E+01  0.00000000E+00
  3.00000000E+01  5.60000000E+01  0.00000000E+00
  3.00000000E+01  5.40000000E+01  0.00000000E+00
  3.00000000E+01  5.20000000E+01  0.00000000E+00
  3.00000000E+01  5.00000000E+01  0.00000000E+00
  3.00000000E+01  4.80000000E+01  0.00000000E+00
  3.00000000E+01  4.60000000E+01  0.00000000E+00
  3.00000000E+01  4.40000000E+01  0.00000000E+00
  3.00000000E+01  4.20000000E+01  0.00000000E+00
  3.00000000E+01  4.00000000E+01  0.00000000E+00
  3.00000000E+01  3.80000000E+01  0.00000000E+00
  3.00000000E+01  3.60000000E+01  0.00000000E+00
  3.00000000E+01  3.40000000E+01  0.00000000E+00
  3.00000000E+01  3.20000000E+01  0.00000000E+00
  3.00000000E+01  3.00000000E+01  0.00000000E+00
  3.00000000E+01  2.80000000E+01  0.00000000E+00
  3.00000000E+01  2.60000000E+01  0.00000000E+00
  3.00000000E+01  2.40000000E+01  0.00000000E+00
  3.00000000E+01  2.20000000E+01  0.00000000E+00
  3.00000000E+01  2.00000000E+01  0.00000000E+00
  3.00000000E+01  1.80000000E+01  0.00000000E+00
  3.00000000E+01  1.60000000E+01  0.00000000E+00
  3.00000000E+01  1.40000000E+01  0.00000000E+00
  3.00000000E+01  1.20000000E+01  0.00000000E+00
  3.00000000E+01  1.00000000E+01  0.00000000E+00
  3.00000000E+01  8.00000000E+00  0.00000000E+00
  3.00000000E+01  6.00000000E+00  0.00000000E+00
  3.00000000E+01  4.00000000E+00  0.00000000E+00
  3.00000000E+01  2.00000000E+00  0.00000000E+00
  3.00000000E+01 -3.33066907E-14  0.00000000E+00
  4.00000000E+01  1.00000000E+02  0.00000000E+00
  4.00000000E+01  9.80000000E+01  0.00000000E+00
  4.00000000E+01  9.60000000E+01  0.00000000E+00
  4.00000000E+01  9.40000000E+01  0.00000000E+00
  4.00000000E+01  9.20000000E+01  0.00000000E+00
  4.00000000E+01  9.00000000E+01  0.00000000E+00
  4.00000000E+01  8.80000000E+01  0.00000000E+00
  4.00000000E+01  8.60000000E+01  0.00000000E+00
  4.00000000E+01  8.40000000E+01  0.00000000E+00
  4.00000000E+01  8.20000000E+01  0.00000000E+00
  4.00000000E+01  8.00000000E+01  0.00000000E+00
  4.00000000E+01  7.80000000E+01  0.00000000E+00
  4.00000000E+01  7.60000000E+01  0.00000000E+00
  4.00000000E+01  7.40000000E+01  0.00000000E+00
  4.00000000E+01  7.20000000E+01  0.00000000E+00
  4.00000000E+01  7.00000000E+01  0.00000000E+00
  4.00000000E+01  6.80000000E+01  0.00000000E+00
  4.00000000E+01  6.60000000E+01  0.00000000E+00
  4.00000000E+01  6.40000000E+01  0.00000000E+00
  4.00000000E+01  6.20000000E+01  0.00000000E+00
  4.00000000E+01  6.00000000E+01  0.00000000E+00
  4.00000000E+01  5.80000000E+01  0.00000000E+00
  4.00000000E+01  5.60000000E+01  0.00000000E+00
  4.00000000E+01  5.40000000E+01  0.00000000E+00
  4.00000000E+01  5.20000000E+01  0.00000000E+00
  4.00000000E+01  5.00000000E+01  0.00000000E+00
  4.00000000E+01  4.80000000E+01  0.00000000E+00
  4.00000000E+01  4.60000000E+01  0.00000000E+00
  4.00000000E+01  4.40000000E+01  0.00000000E+00
  4.00000000E+01  4.20000000E+01  0.00000000E+00
  4.00000000E+01  4.00000000E+01  0.00000000E+00
  4.00000000E+01  3.80000000E+01  0.00000000E+00
  4.00000000E+01  3.60000000E+01  0.00000000E+00
  4.00000000E+01  3.40000000E+01  0.00000000E+00
  4.00000000E+01  3.20000000E+01  0.00000000E+00
  4.00000000E+01  3.00000000E+01  0.00000000E+00
  4.00000000E+01  2.80000000E+01  0.00000000E+00
  4.00000000E+01  2.60000000E+01  0.00000000E+00
  4.00000000E+01  2.40000000E+01  0.00000000E+00
  4.00000000E+01  2.20000000E+01  0.00000000E+00
  4.00000000E+01  2.00000000E+01  0.00000000E+00
  4.00000000E+01  1.80000000E+01  0.00000000E+00
  4.00000000E+01  1.60000000E+01  0.00000000E+00
  4.00000000E+01  1.40000000E+01  0.00000000E+00
  4.00000000E+01  1.20000000E+01  0.00000000E+00
  4.00000000E+01  1.00000000E+01  0.00000000E+00
  4.00000000E+01  8.00000000E+00  0.00000000E+00
  4.00000000E+01  6.00000000E+00  0.00000000E+00
  4.00000000E+01  4.00000000E+00  0.00000000E+00
  4.00000000E+01  2.00000000E+00  0.00000000E+00
  4.00000000E+01 -3.33066907E-14  0.00000000E+00
  5.00000000E+01  1.00000000E+02  0.00000000E+00
  5.00000000E+01  9.80000000E+01  0.00000000E+00
  5.00000000E+01  9.60000000E+01  0.00000000E+00
  5.00000000E+01  9.40000000E+01  0.00000000E+00
  5.00000000E+01  9.20000000E+01  0.00000000E+00
  5.00000000E+01  9.00000000E+01  0.00000000E+00
  5.00000000E+01  8.80000000E+01  0.00000000E+00
  5.00000000E+01  8.60000000E+01  0.00000000E+00
  5.00000000E+01  8.40000000E+01  0.00000000E+00
  5.00000000E+01  8.20000000E+01  0.00000000E+00
  5.00000000E+01  8.00000000E+01  0.00000000E+00
  5.00000000E+01  7.80000000E+01  0.00000000E+00
  5.00000000E+01  7.60000000E+01  0.00000000E+00
  5.00000000E+01  7.40000000E+01  0.00000000E+00
  5.00000000E+01  7.20000000E+01  0.00000000E+00
  5.00000000E+01  7.00000000E+01  0.00000000E+00
  5.00000000E+01  6.80000000E+01  0.00000000E+00
  5.00000000E+01  6.60000000E+01  0.00000000E+00
  5.00000000E+01  6.40000000E+01  0.00000000E+00
  5.00000000E+01  6.20000000E+01  0.00000000E+00
  5.00000000E+01  6.00000000E+01  0.00000000E+00
  5.00000000E+01  5.80000000E+01  0.00000000E+00
  5.00000000E+01  5.60000000E+01  0.00000000E+00
  5.00000000E+01  5.40000000E+01  0.00000000E+00
  5.00000000E+01  5.20000000E+01  0.00000000E+00
  5.00000000E+01  5.00000000E+01  0.00000000E+00
  5.00000000E+01  4.80000000E+01  0.00000000E+00
  5.00000000E+01  4.60000000E+01  0.00000000E+00
  5.00000000E+01  4.40000000E+01  0.00000000E+00
  5.00000000E+01  4.20000000E+01  0.00000000E+00
  5.00000000E+01  4.00000000E+01  0.00000000E+00
  5.00000000E+01  3.80000000E+01  0.00000000E+00
  5.00000000E+01  3.60000000E+01  0.00000000E+00
  5.00000000E+01  3.40000000E+01  0.00000000E+00
  5.00000000E+01  3.20000000E+01  0.00000000E+00
  5.00000000E+01  3.00000000E+01  0.00000000E+00
  5.00000000E+01  2.80000000E+01  0.00000000E+00
  5.00000000E+01  2.60000000E+01  0.00000000E+00
  5.00000000E+01  2.40000000E+01  0.00000000E+00
  5.00000000E+01  2.20000000E+01  0.00000000E+00
  5.00000000E+01  2.00000000E+01  0.00000000E+00
  5.00000000E+01  1.80000000E+01  0.00000000E+00
  5.00000000E+01  1.60000000E+01  0.00000000E+00
  5.00000000E+01  1.40000000E+01  0.00000000E+00
  5.00000000E+01  1.20000000E+01  0.00000000E+00
  5.00000000E+01  1.00000000E+01  0.00000000E+00
  5.00000000E+01  8.00000000E+00  0.00000000E+00
  5.00000000E+01  6.00000000E+00  0.00000000E+00
  5.00000000E+01  4.00000000E+00  0.00000000E+00
  5.00000000E+01  2.00000000E+00  0.00000000E+00
  5.00000000E+01 -3.33066907E-14  0.00000000E+00
  6.00000000E+01  1.00000000E+02  0.00000000E+00
  6.00000000E+01  9.80000000E+01  0.00000000E+00
  6.00000000E+01  9.60000000E+01  0.00000000E+00
  6.00000000E+01  9.40000000E+01  0.00000000E+00
  6.00000000E+01  9.20000000E+01  0.00000000E+00
  6.00000000E+01  9.00000000E+01  0.00000000E+00
  6.00000000E+01  8.80000000E+01  0.00000000E+00
  6.00000000E+01  8.60000000E+01  0.00000000E+00
  6.00000000E+01  8.40000000E+01  0.00000000E+00
  6.00000000E+01  8.20000000E+01  0.00000000E+00
  6.00000000E+01  8.00000000E+01  0.00000000E+00
  6.00000000E+01  7.80000000E+01  0.00000000E+00
  6.00000000E+01  7.60000000E+01  0.00000000E+00
  6.00000000E+01  7.40000000E+01  0.00000000E+00
  6.00000000E+01  7.20000000E+01  0.00000000E+00
  6.00000000E+01  7.00000000E+01  0.00000000E+00
  6.00000000E+01  6.80000000E+01  0.00000000E+00
  6.00000000E+01  6.60000000E+01  0.00000000E+00
  6.00000000E+01  6.40000000E+01  0.00000000E+00
  6.00000000E+01  6.20000000E+01  0.00000000E+00
  6.00000000E+01  6.00000000E+01  0.00000000E+00
  6.00000000E+01  5.80000000E+01  0.00000000E+00
  6.00000000E+01  5.60000000E+01  0.00000000E+00
  6.00000000E+01  5.40000000E+01  0.00000000E+00
  6.00000000E+01  5.20000000E+01  0.00000000E+00
  6.00000000E+01  5.00000000E+01  0.00000000E+00
  6.00000000E+01  4.80000000E+01  0.00000000E+00
  6.00000000E+01  4.60000000E+01  0.00000000E+00
  6.00000000E+01  4.40000000E+01  0.00000000E+00
  6.00000000E+01  4.20000000E+01  0.00000000E+00
  6.00000000E+01  4.00000000E+01  0.00000000E+00
  6.00000000E+01  3.80000000E+01  0.00000000E+00
  6.00000000E+01  3.60000000E+01  0.00000000E+00
  6.00000000E+01  3.40000000E+01  0.00000000E+00
  6.00000000E+01  3.20000000E+01  0.00000000E+00
  6.00000000E+01  3.00000000E+01  0.00000000E+00
  6.00000000E+01  2.80000000E+01  0.00000000E+00
  6.00000000E+01  2.60000000E+01  0.00000000E+00
  6.00000000E+01  2.40000000E+01  0.00000000E+00
  6.00000000E+01  2.20000000E+01  0.00000000E+00
  6.00000000E+01  2.00000000E+01  0.00000000E+00
  6.00000000E+01  1.80000000E+01  0.00000000E+00
  6.00000000E+01  1.60000000E+01  0.00000000E+00
  6.00000000E+01  1.40000000E+01  0.00000000E+00
  6.00000000E+01  1.20000000E+01  0.00000000E+00
  6.00000000E+01  1.00000000E+01  0.00000000E+00
  6.00000000E+01  8.00000000E+00  0.00000000E+00
  6.00000000E+01  6.00000000E+00  0.00000000E+00
  6.00000000E+01  4.00000000E+00  0.00000000E+00
  6.00000000E+01  2.00000000E+00  0.00000000E+00
  6.00000000E+01 -3.33066907E-14  0.00000000E+00
  7.00000000E+01  1.00000000E+02  0.00000000E+00
  7.00000000E+01  9.80000000E+01  0.00000000E+00
  7.00000000E+01  9.60000000E+01  0.00000000E+00
  7.00000000E+01  9.40000000E+01  0.00000000E+00
  7.00000000E+01  9.20000000E+01  0.00000000E+00
  7.00000000E+01  9.00000000E+01  0.00000000E+00
  7.00000000E+01  8.80000000E+01  0.00000000E+00
  7.00000000E+01  8.60000000E+01  0.00000000E+00
  7.00000000E+01  8.40000000E+01  0.00000000E+00
  7.00000000E+01  8.20000000E+01  0.00000000E+00
  7.00000000E+01  8.00000000E+01  0.00000000E+00
  7.00000000E+01  7.80000000E+01  0.00000000E+00
  7.00000000E+01  7.60000000E+01  0.00000000E+00
  7.00000000E+01  7.40000000E+01  0.00000000E+00
  7.00000000E+01  7.20000000E+01  0.00000000E+00
  7.00000000E+01  7.00000000E+01  0.00000000E+00
  7.00000000E+01  6.80000000E+01  0.00000000E+00
  7.00000000E+01  6.60000000E+01  0.00000000E+00
  7.00000000E+01  6.40000000E+01  0.00000000E+00
  7.00000000E+01  6.20000000E+01  0.00000000E+00
  7.00000000E+01  6.00000000E+01  0.00000000E+00
  7.00000000E+01  5.80000000E+01  0.00000000E+00
  7.00000000E+01  5.60000000E+01  0.00000000E+00
  7.00000000E+01  5.40000000E+01  0.00000000E+00
  7.00000000E+01  5.20000000E+01  0.00000000E+00
  7.00000000E+01  5.00000000E+01  0.00000000E+00
  7.00000000E+01  4.80000000E+01  0.00000000E+00
  7.00000000E+01  4.60000000E+01  0.00000000E+00
  7.00000000E+01  4.40000000E+01  0.00000000E+00
  7.00000000E+01  4.20000000E+01  0.00000000E+00
  7.00000000E+01  4.00000000E+01  0.00000000E+00
  7.00000000E+01  3.80000000E+01  0.00000000E+00
  7.00000000E+01  3.60000000E+01  0.00000000E+00
  7.00000000E+01  3.40000000E+01  0.00000000E+00
  7.00000000E+01  3.20000000E+01  0.00000000E+00
  7.00000000E+01  3.00000000E+01  0.00000000E+00
  7.00000000E+01  2.80000000E+01  0.00000000E+00
  7.00000000E+01  2.60000000E+01  0.00000000E+00
  7.00000000E+01  2.40000000E+01  0.00000000E+00
  7.00000000E+01  2.20000000E+01  0.00000000E+00
  7.00000000E+01  2.00000000E+01  0.00000000E+00
  7.00000000E+01  1.80000000E+01  0.00000000E+00
  7.00000000E+01  1.60000000E+01  0.00000000E+00
  7.00000000E+01  1.40000000E+01  0.00000000E+00
  7.00000000E+01  1.20000000E+01  0.00000000E+00
  7.00000000E+01  1.00000000E+01  0.00000000E+00
  7.00000000E+01  8.00000000E+00  0.00000000E+00
  7.00000000E+01  6.00000000E+00  0.00000000E+00
  7.00000000E+01  4.00000000E+00  0.00000000E+00
  7.00000000E+01  2.00000000E+00  0.00000000E+00
  7.00000000E+01 -3.33066907E-14  0.00000000E+00
  8.00000000E+01  1.00000000E+02  0.00000000E+00
  8.00000000E+01  9.80000000E+01  0.00000000E+00
  8.00000000E+01  9.60000000E+01  0.00000000E+00
  8.00000000E+01  9.40000000E+01  0.00000000E+00
  8.00000000E+01  9.20000000E+01  0.00000000E+00
  8.00000000E+01  9.00000000E+01  0.00000000E+00
  8.00000000E+01  8.80000000E+01  0.00000000E+00
  8.00000000E+01  8.60000000E+01  0.00000000E+00
  8.00000000E+01  8.40000000E+01  0.00000000E+00
  8.00000000E+01  8.20000000E+01  0.00000000E+00
  8.00000000E+01  8.00000000E+01  0.00000000E+00
  8.00000000E+01  7.80000000E+01  0.00000000E+00
  8.00000000E+01  7.60000000E+01  0.00000000E+00
  8.00000000E+01  7.40000000E+01  0.00000000E+00
  8.00000000E+01  7.20000000E+01  0.00000000E+00
  8.00000000E+01  7.00000000E+01  0.00000000E+00
  8.00000000E+01  6.80000000E+01  0.00000000E+00
  8.00000000E+01  6.60000000E+01  0.00000000E+00
  8.00000000E+01  6.40000000E+01  0.00000000E+00
  8.00000000E+01  6.20000000E+01  0.00000000E+00
  8.00000000E+01  6.00000000E+01  0.00000000E+00
  8.00000000E+01  5.80000000E+01  0.00000000E+00
  8.00000000E+01  5.60000000E+01  0.00000000E+00
  8.00000000E+01  5.40000000E+01  0.00000000E+00
  8.00000000E+01  5.20000000E+01  0.00000000E+00
  8.00000000E+01  5.00000000E+01  0.00000000E+00
  8.00000000E+01  4.80000000E+01  0.00000000E+00
  8.00000000E+01  4.60000000E+01  0.00000000E+00
  8.00000000E+01  4.40000000E+01  0.00000000E+00
  8.00000000E+01  4.20000000E+01  0.00000000E+00
  8.00000000E+01  4.00000000E+01  0.00000000E+00
  8.00000000E+01  3.80000000E+01  0.00000000E+00
  8.00000000E+01  3.60000000E+01  0.00000000E+00
  8.00000000E+01  3.40000000E+01  0.00000000E+00
  8.00000000E+01  3.20000000E+01  0.00000000E+00
  8.00000000E+01  3.00000000E+01  0.00000000E+00
  8.00000000E+01  2.80000000E+01  0.00000000E+00
  8.00000000E+01  2.60000000E+01  0.00000000E+00
  8.00000000E+01  2.40000000E+01  0.00000000E+00
  8.00000000E+01  2.20000000E+01  0.00000000E+00
  8.00000000E+01  2.00000000E+01  0.00000000E+00
  8.00000000E+01  1.80000000E+01  0.00000000E+00
  8.00000000E+01  1.60000000E+01  0.00000000E+00
  8.00000000E+01  1.40000000E+01  0.00000000E+00
  8.00000000E+01  1.20000000E+01  0.00000000E+00
  8.00000000E+01  1.00000000E+01  0.00000000E+00
  8.00000000E+01  8.00000000E+00  0.00000000E+00
  8.00000000E+01  6.00000000E+00  0.00000000E+00
  8.00000000E+01  4.00000000E+00  0.00000000E+00
  8.00000000E+01  2.00000000E+00  0.00000000E+00
  8.00000000E+01 -3.33066907E-14  0.00000000E+00
  9.00000000E+01  1.00000000E+02  0.00000000E+00
  9.00000000E+01  9.80000000E+01  0.00000000E+00
  9.00000000E+01  9.60000000E+01  0.00000000E+00
  9.00000000E+01  9.40000000E+01  0.00000000E+00
  9.00000000E+01  9.20000000E+01  0.00000000E+00
  9.00000000E+01  9.00000000E+01  0.00000000E+00
  9.00000000E+01  8.80000000E+01  0.00000000E+00
  9.00000000E+01  8.60000000E+01  0.00000000E+00
  9.00000000E+01  8.40000000E+01  0.00000000E+00
  9.00000000E+01  8.20000000E+01  0.00000000E+00
  9.00000000E+01  8.00000000E+01  0.00000000E+00
  9.00000000E+01  7.80000000E+01  0.00000000E+00
  9.00000000E+01  7.60000000E+01  0.00000000E+00
  9.00000000E+01  7.40000000E+01  0.00000000E+00
  9.00000000E+01  7.20000000E+01  0.00000000E+00
  9.00000000E+01  7.00000000E+01  0.00000000E+00
  9.00000000E+01  6.80000000E+01  0.00000000E+00
  9.00000000E+01  6.60000000E+01  0.00000000E+00
  9.00000000E+01  6.40000000E+01  0.00000000E+00
  9.00000000E+01  6.20000000E+01  0.00000000E+00
  9.00000000E+01  6.00000000E+01  0.00000000E+00
  9.00000000E+01  5.80000000E+01  0.00000000E+00
  9.00000000E+01  5.60000000E+01  0.00000000E+00
  9.00000000E+01  5.40000000E+01  0.00000000E+00
  9.00000000E+01  5.20000000E+01  0.00000000E+00
  9.00000000E+01  5.00000000E+01  0.00000000E+00
  9.00000000E+01  4.80000000E+01  0.00000000E+00
  9.00000000E+01  4.60000000E+01  0.00000000E+00
  9.00000000E+01  4.40000000E+01  0.00000000E+00
  9.00000000E+01  4.20000000E+01  0.00000000E+00
  9.00000000E+01  4.00000000E+01  0.00000000E+00
  9.00000000E+01  3.80000000E+01  0.00000000E+00
  9.00000000E+01  3.60000000E+01  0.00000000E+00
  9.00000000E+01  3.40000000E+01  0.00000000E+00
  9.00000000E+01  3.20000000E+01  0.00000000E+00
  9.00000000E+01  3.00000000E+01  0.00000000E+00
  9.00000000E+01  2.80000000E+01  0.00000000E+00
  9.00000000E+01  2.60000000E+01  0.00000000E+00
  9.00000000E+01  2.40000000E+01  0.00000000E+00
  9.00000000E+01  2.20000000E+01  0.00000000E+00
  9.00000000E+01  2.00000000E+01  0.00000000E+00
  9.00000000E+01  1.80000000E+01  0.00000000E+00
  9.00000000E+01  1.60000000E+01  0.00000000E+00
  9.00000000E+01  1.40000000E+01  0.00000000E+00
  9.00000000E+01  1.20000000E+01  0.00000000E+00
  9.00000000E+01  1.00000000E+01  0.00000000E+00
  9.00000000E+01  8.00000000E+00  0.00000000E+00
  9.00000000E+01  6.00000000E+00  0.00000000E+00
  9.00000000E+01  4.00000000E+00  0.00000000E+00
  9.00000000E+01  2.00000000E+00  0.00000000E+00
  9.00000000E+01 -3.33066907E-14  0.00000000E+00
  1.00000000E+02  1.00000000E+02  0.00000000E+00
  1.00000000E+02  9.80000000E+01  0.00000000E+00
  1.00000000E+02  9.60000000E+01  0.00000000E+00
  1.00000000E+02  9.40000000E+01  0.00000000E+00
  1.00000000E+02  9.20000000E+01  0.00000000E+00
  1.00000000E+02  9.00000000E+01  0.00000000E+00
  1.00000000E+02  8.80000000E+01  0.00000000E+00
  1.00000000E+02  8.60000000E+01  0.00000000E+00
  1.00000000E+02  8.40000000E+01  0.00000000E+00
  1.00000000E+02  8.20000000E+01  0.00000000E+00
  1.00000000E+02  8.00000000E+01  0.00000000E+00
  1.00000000E+02  7.80000000E+01  0.00000000E+00
  1.00000000E+02  7.60000000E+01  0.00000000E+00
  1.00000000E+02  7.40000000E+01  0.00000000E+00
  1.00000000E+02  7.20000000E+01  0.00000000E+00
  1.00000000E+02  7.00000000E+01  0.00000000E+00
  1.00000000E+02  6.80000000E+01  0.00000000E+00
  1.00000000E+02  6.60000000E+01  0.00000000E+00
  1.00000000E+02  6.40000000E+01  0.00000000E+00
  1.00000000E+02  6.20000000E+01  0.00000000E+00
  1.00000000E+02  6.00000000E+01  0.00000000E+00
  1.00000000E+02  5.80000000E+01  0.00000000E+00
  1.00000000E+02  5.60000000E+01  0.00000000E+00
  1.00000000E+02  5.40000000E+01  0.00000000E+00
  1.00000000E+02  5.20000000E+01  0.00000000E+00
  1.00000000E+02  5.00000000E+01  0.00000000E+00
  1.00000000E+02  4.80000000E+01  0.00000000E+00
  1.00000000E+02  4.60000000E+01  0.00000000E+00
  1.00000000E+02  4.40000000E+01  0.00000000E+00
  1.00000000E+02  4.20000000E+01  0.00000000E+00
  1.00000000E+02  4.00000000E+01  0.00000000E+00
  1.00000000E+02  3.80000000E+01  0.00000000E+00
  1.00000000E+02  3.60000000E+01  0.00000000E+00
  1.00000000E+02  3.40000000E+01  0.00000000E+00
  1.00000000E+02  3.20000000E+01  0.00000000E+00
  1.00000000E+02  3.00000000E+01  0.00000000E+00
  1.00000000E+02  2.80000000E+01  0.00000000E+00
  1.00000000E+02  2.60000000E+01  0.00000000E+00
  1.00000000E+02  2.40000000E+01  0.00000000E+00
  1.00000000E+02  2.20000000E+01  0.00000000E+00
  1.00000000E+02  2.00000000E+01  0.00000000E+00
  1.00000000E+02  1.80000000E+01  0.00000000E+00
  1.00000000E+02  1.60000000E+01  0.00000000E+00
  1.00000000E+02  1.40000000E+01  0.00000000E+00
  1.00000000E+02  1.20000000E+01  0.00000000E+00
  1.00000000E+02  1.00000000E+01  0.00000000E+00
  1.00000000E+02  8.00000000E+00  0.00000000E+00
  1.00000000E+02  6.00000000E+00  0.00000000E+00
  1.00000000E+02  4.00000000E+00  0.00000000E+00
  1.00000000E+02  2.00000000E+00  0.00000000E+00
  1.00000000E+02 -3.33066907E-14  0.00000000E+00
  1.10000000E+02  1.00000000E+02  0.00000000E+00
  1.10000000E+02  9.80000000E+01  0.00000000E+00
  1.10000000E+02  9.60000000E+01  0.00000000E+00
  1.10000000E+02  9.40000000E+01  0.00000000E+00
  1.10000000E+02  9.20000000E+01  0.00000000E+00
  1.10000000E+02  9.00000000E+01  0.00000000E+00
  1.10000000E+02  8.80000000E+01  0.00000000E+00
  1.10000000E+02  8.60000000E+01  0.00000000E+00
  1.10000000E+02  8.40000000E+01  0.00000000E+00
  1.10000000E+02  8.20000000E+01  0.00000000E+00
  1.10000000E+02  8.00000000E+01  0.00000000E+00
  1.10000000E+02  7.80000000E+01  0.00000000E+00
  1.10000000E+02  7.60000000E+01  0.00000000E+00
  1.10000000E+02  7.40000000E+01  0.00000000E+00
  1.10000000E+02  7.20000000E+01  0.00000000E+00
  1.10000000E+02  7.00000000E+01  0.00000000E+00
  1.10000000E+02  6.80000000E+01  0.00000000E+00
  1.10000000E+02  6.60000000E+01  0.00000000E+00
  1.10000000E+02  6.40000000E+01  0.00000000E+00
  1.10000000E+02  6.20000000E+01  0.00000000E+00
  1.10000000E+02  6.00000000E+01  0.00000000E+00
  1.10000000E+02  5.80000000E+01  0.00000000E+00
  1.10000000E+02  5.60000000E+01  0.00000000E+00
  1.10000000E+02  5.40000000E+01  0.00000000E+00
  1.10000000E+02  5.20000000E+01  0.00000000E+00
  1.10000000E+02  5.00000000E+01  0.00000000E+00
  1.10000000E+02  4.80000000E+01  0.00000000E+00
  1.10000000E+02  4.60000000E+01  0.00000000E+00
  1.10000000E+02  4.40000000E+01  0.00000000E+00
  1.10000000E+02  4.20000000E+01  0.00000000E+00
  1.10000000E+02  4.00000000E+01  0.00000000E+00
  1.10000000E+02  3.80000000E+01  0.00000000E+00
  1.10000000E+02  3.60000000E+01  0.00000000E+00
  1.10000000E+02  3.40000000E+01  0.00000000E+00
  1.10000000E+02  3.20000000E+01  0.00000000E+00
  1.10000000E+02  3.00000000E+01  0.00000000E+00
  1.10000000E+02  2.80000000E+01  0.00000000E+00
  1.10000000E+02  2.60000000E+01  0.00000000E+00
  1.10000000E+02  2.40000000E+01  0.00000000E+00
  1.10000000E+02  2.20000000E+01  0.00000000E+00
  1.10000000E+02  2.00000000E+01  0.00000000E+00
  1.10000000E+02  1.80000000E+01  0.00000000E+00
  1.10000000E+02  1.60000000E+01  0.00000000E+00
  1.10000000E+02  1.40000000E+01  0.00000000E+00
  1.10000000E+02  1.20000000E+01  0.00000000E+00
  1.10000000E+02  1.00000000E+01  0.00000000E+00
  1.10000000E+02  8.00000000E+00  0.00000000E+00
  1.10000000E+02  6.00000000E+00  0.00000000E+00
  1.10000000E+02  4.00000000E+00  0.00000000E+00
  1.10000000E+02  2.00000000E+00  0.00000000E+00
  1.10000000E+02 -3.33066907E-14  0.00000000E+00
  1.20000000E+02  1.00000000E+02  0.00000000E+00
  1.20000000E+02  9.80000000E+01  0.00000000E+00
  1.20000000E+02  9.60000000E+01  0.00000000E+00
  1.20000000E+02  9.40000000E+01  0.00000000E+00
  1.20000000E+02  9.20000000E+01  0.00000000E+00
  1.20000000E+02  9.00000000E+01  0.00000000E+00
  1.20000000E+02  8.80000000E+01  0.00000000E+00
  1.20000000E+02  8.60000000E+01  0.00000000E+00
  1.20000000E+02  8.40000000E+01  0.00000000E+00
  1.20000000E+02  8.20000000E+01  0.00000000E+00
  1.20000000E+02  8.00000000E+01  0.00000000E+00
  1.20000000E+02  7.80000000E+01  0.00000000E+00
  1.20000000E+02  7.60000000E+01  0.00000000E+00
  1.20000000E+02  7.40000000E+01  0.00000000E+00
  1.20000000E+02  7.20000000E+01  0.00000000E+00
  1.20000000E+02  7.00000000E+01  0.00000000E+00
  1.20000000E+02  6.80000000E+01  0.00000000E+00
  1.20000000E+02  6.60000000E+01  0.00000000E+00
  1.20000000E+02  6.40000000E+01  0.00000000E+00
  1.20000000E+02  6.20000000E+01  0.00000000E+00
  1.20000000E+02  6.00000000E+01  0.00000000E+00
  1.20000000E+02  5.80000000E+01  0.00000000E+00
  1.20000000E+02  5.60000000E+01  0.00000000E+00
  1.20000000E+02  5.40000000E+01  0.00000000E+00
  1.20000000E+02  5.20000000E+01  0.00000000E+00
  1.20000000E+02  5.00000000E+01  0.00000000E+00
  1.20000000E+02  4.80000000E+01  0.00000000E+00
  1.20000000E+02  4.60000000E+01  0.00000000E+00
  1.20000000E+02  4.40000000E+01  0.00000000E+00
  1.20000000E+02  4.20000000E+01  0.00000000E+00
  1.20000000E+02  4.00000000E+01  0.00000000E+00
  1.20000000E+02  3.80000000E+01  0.00000000E+00
  1.20000000E+02  3.60000000E+01  0.00000000E+00
  1.20000000E+02  3.40000000E+01  0.00000000E+00
  1.20000000E+02  3.20000000E+01  0.00000000E+00
  1.20000000E+02  3.00000000E+01  0.00000000E+00
  1.20000000E+02  2.80000000E+01  0.00000000E+00
  1.20000000E+02  2.60000000E+01  0.00000000E+00
  1.20000000E+02  2.40000000E+01  0.00000000E+00
  1.20000000E+02  2.20000000E+01  0.00000000E+00
  1.20000000E+02  2.00000000E+01  0.00000000E+00
  1.20000000E+02  1.80000000E+01  0.00000000E+00
  1.20000000E+02  1.60000000E+01  0.00000000E+00
  1.20000000E+02  1.40000000E+01  0.00000000E+00
  1.20000000E+02  1.20000000E+01  0.00000000E+00
  1.20000000E+02  1.00000000E+01  0.00000000E+00
  1.20000000E+02  8.00000000E+00  0.00000000E+00
  1.20000000E+02  6.00000000E+00  0.00000000E+00
  1.20000000E+02  4.00000000E+00  0.00000000E+00
  1.20000000E+02  2.00000000E+00  0.00000000E+00
  1.20000000E+02 -3.33066907E-14  0.00000000E+00
  1.30000000E+02  1.00000000E+02  0.00000000E+00
  1.30000000E+02  9.80000000E+01  0.00000000E+00
  1.30000000E+02  9.60000000E+01  0.00000000E+00
  1.30000000E+02  9.40000000E+01  0.00000000E+00
  1.30000000E+02  9.20000000E+01  0.00000000E+00
  1.30000000E+02  9.00000000E+01  0.00000000E+00
  1.30000000E+02  8.80000000E+01  0.00000000E+00
  1.30000000E+02  8.60000000E+01  0.00000000E+00
  1.30000000E+02  8.40000000E+01  0.00000000E+00
  1.30000000E+02  8.20000000E+01  0.00000000E+00
  1.30000000E+02  8.00000000E+01  0.00000000E+00
  1.30000000E+02  7.80000000E+01  0.00000000E+00
  1.30000000E+02  7.60000000E+01  0.00000000E+00
  1.30000000E+02  7.40000000E+01  0.00000000E+00
  1.30000000E+02  7.20000000E+01  0.00000000E+00
  1.30000000E+02  7.00000000E+01  0.00000000E+00
  1.30000000E+02  6.80000000E+01  0.00000000E+00
  1.30000000E+02  6.60000000E+01  0.00000000E+00
  1.30000000E+02  6.40000000E+01  0.00000000E+00
  1.30000000E+02  6.20000000E+01  0.00000000E+00
  1.30000000E+02  6.00000000E+01  0.00000000E+00
  1.30000000E+02  5.80000000E+01  0.00000000E+00
  1.30000000E+02  5.60000000E+01  0.00000000E+00
  1.30000000E+02  5.40000000E+01  0.00000000E+00
  1.30000000E+02  5.20000000E+01  0.00000000E+00
  1.30000000E+02  5.00000000E+01  0.00000000E+00
  1.30000000E+02  4.80000000E+01  0.00000000E+00
  1.30000000E+02  4.60000000E+01  0.00000000E+00
  1.30000000E+02  4.40000000E+01  0.00000000E+00
  1.30000000E+02  4.20000000E+01  0.00000000E+00
  1.30000000E+02  4.00000000E+01  0.00000000E+00
  1.30000000E+02  3.80000000E+01  0.00000000E+00
  1.30000000E+02  3.60000000E+01  0.00000000E+00
  1.30000000E+02  3.40000000E+01  0.00000000E+00
  1.30000000E+02  3.20000000E+01  0.00000000E+00
  1.30000000E+02  3.00000000E+01  0.00000000E+00
  1.30000000E+02  2.80000000E+01  0.00000000E+00
  1.30000000E+02  2.60000000E+01  0.00000000E+00
  1.30000000E+02  2.40000000E+01  0.00000000E+00
  1.30000000E+02  2.20000000E+01  0.00000000E+00
  1.30000000E+02  2.00000000E+01  0.00000000E+00
  1.30000000E+02  1.80000000E+01  0.00000000E+00
  1.30000000E+02  1.60000000E+01  0.00000000E+00
  1.30000000E+02  1.40000000E+01  0.00000000E+00
  1.30000000E+02  1.20000000E+01  0.00000000E+00
  1.30000000E+02  1.00000000E+01  0.00000000E+00
  1.30000000E+02  8.00000000E+00  0.00000000E+00
  1.30000000E+02  6.00000000E+00  0.00000000E+00
  1.30000000E+02  4.00000000E+00  0.00000000E+00
  1.30000000E+02  2.00000000E+00  0.00000000E+00
  1.30000000E+02 -3.33066907E-14  0.00000000E+00
  1.40000000E+02  1.00000000E+02  0.00000000E+00
  1.40000000E+02  9.80000000E+01  0.00000000E+00
  1.40000000E+02  9.60000000E+01  0.00000000E+00
  1.40000000E+02  9.40000000E+01  0.00000000E+00
  1.40000000E+02  9.20000000E+01  0.00000000E+00
  1.40000000E+02  9.00000000E+01  0.00000000E+00
  1.40000000E+02  8.80000000E+01  0.00000000E+00
  1.40000000E+02  8.60000000E+01  0.00000000E+00
  1.40000000E+02  8.40000000E+01  0.00000000E+00
  1.40000000E+02  8.20000000E+01  0.00000000E+00
  1.40000000E+02  8.00000000E+01  0.00000000E+00
  1.40000000E+02  7.80000000E+01  0.00000000E+00
  1.40000000E+02  7.60000000E+01  0.00000000E+00
  1.40000000E+02  7.40000000E+01  0.00000000E+00
  1.40000000E+02  7.20000000E+01  0.00000000E+00
  1.40000000E+02  7.00000000E+01  0.00000000E+00
  1.40000000E+02  6.80000000E+01  0.00000000E+00
  1.40000000E+02  6.60000000E+01  0.00000000E+00
  1.40000000E+02  6.40000000E+01  0.00000000E+00
  1.40000000E+02  6.20000000E+01  0.00000000E+00
  1.40000000E+02  6.00000000E+01  0.00000000E+00
  1.40000000E+02  5.80000000E+01  0.00000000E+00
  1.40000000E+02  5.60000000E+01  0.00000000E+00
  1.40000000E+02  5.40000000E+01  0.00000000E+00
  1.40000000E+02  5.20000000E+01  0.00000000E+00
  1.40000000E+02  5.00000000E+01  0.00000000E+00
  1.40000000E+02  4.80000000E+01  0.00000000E+00
  1.40000000E+02  4.60000000E+01  0.00000000E+00
  1.40000000E+02  4.40000000E+01  0.00000000E+00
  1.40000000E+02  4.20000000E+01  0.00000000E+00
  1.40000000E+02  4.00000000E+01  0.00000000E+00
  1.40000000E+02  3.80000000E+01  0.00000000E+00
  1.40000000E+02  3.60000000E+01  0.00000000E+00
  1.40000000E+02  3.40000000E+01  0.00000000E+00
  1.40000000E+02  3.20000000E+01  0.00000000E+00
  1.40000000E+02  3.00000000E+01  0.00000000E+00
  1.40000000E+02  2.80000000E+01  0.00000000E+00
  1.40000000E+02  2.60000000E+01  0.00000000E+00
  1.40000000E+02  2.40000000E+01  0.00000000E+00
  1.40000000E+02  2.20000000E+01  0.00000000E+00
  1.40000000E+02  2.00000000E+01  0.00000000E+00
  1.40000000E+02  1.80000000E+01  0.00000000E+00
  1.40000000E+02  1.60000000E+01  0.00000000E+00
  1.40000000E+02  1.40000000E+01  0.00000000E+00
  1.40000000E+02  1.20000000E+01  0.00000000E+00
  1.40000000E+02  1.00000000E+01  0.00000000E+00
  1.40000000E+02  8.00000000E+00  0.00000000E+00
  1.40000000E+02  6.00000000E+00  0.00000000E+00
  1.40000000E+02  4.00000000E+00  0.00000000E+00
  1.40000000E+02  2.00000000E+00  0.00000000E+00
  1.40000000E+02 -3.33066907E-14  0.00000000E+00
  1.50000000E+02  1.00000000E+02  0.00000000E+00
  1.50000000E+02  9.80000000E+01  0.00000000E+00
  1.50000000E+02  9.60000000E+01  0.00000000E+00
  1.50000000E+02  9.40000000E+01  0.00000000E+00
  1.50000000E+02  9.20000000E+01  0.00000000E+00
  1.50000000E+02  9.00000000E+01  0.00000000E+00
  1.50000000E+02  8.80000000E+01  0.00000000E+00
  1.50000000E+02  8.60000000E+01  0.00000000E+00
  1.50000000E+02  8.40000000E+01  0.00000000E+00
  1.50000000E+02  8.20000000E+01  0.00000000E+00
  1.50000000E+02  8.00000000E+01  0.00000000E+00
  1.50000000E+02  7.80000000E+01  0.00000000E+00
  1.50000000E+02  7.60000000E+01  0.00000000E+00
  1.50000000E+02  7.40000000E+01  0.00000000E+00
  1.50000000E+02  7.20000000E+01  0.00000000E+00
  1.50000000E+02  7.00000000E+01  0.00000000E+00
  1.50000000E+02  6.80000000E+01  0.00000000E+00
  1.50000000E+02  6.60000000E+01  0.00000000E+00
  1.50000000E+02  6.40000000E+01  0.00000000E+00
  1.50000000E+02  6.20000000E+01  0.00000000E+00
  1.50000000E+02  6.00000000E+01  0.00000000E+00
  1.50000000E+02  5.80000000E+01  0.00000000E+00
  1.50000000E+02  5.60000000E+01  0.00000000E+00
  1.50000000E+02  5.40000000E+01  0.00000000E+00
  1.50000000E+02  5.20000000E+01  0.00000000E+00
  1.50000000E+02  5.00000000E+01  0.00000000E+00
  1.50000000E+02  4.80000000E+01  0.00000000E+00
  1.50000000E+02  4.60000000E+01  0.00000000E+00
  1.50000000E+02  4.40000000E+01  0.00000000E+00
  1.50000000E+02  4.20000000E+01  0.00000000E+00
  1.50000000E+02  4.00000000E+01  0.00000000E+00
  1.50000000E+02  3.80000000E+01  0.00000000E+00
  1.50000000E+02  3.60000000E+01  0.00000000E+00
  1.50000000E+02  3.40000000E+01  0.00000000E+00
  1.50000000E+02  3.20000000E+01  0.00000000E+00
  1.50000000E+02  3.00000000E+01  0.00000000E+00
  1.50000000E+02  2.80000000E+01  0.00000000E+00
  1.50000000E+02  2.60000000E+01  0.00000000E+00
  1.50000000E+02  2.40000000E+01  0.00000000E+00
  1.50000000E+02  2.20000000E+01  0.00000000E+00
  1.50000000E+02  2.00000000E+01  0.00000000E+00
  1.50000000E+02  1.80000000E+01  0.00000000E+00
  1.50000000E+02  1.60000000E+01  0.00000000E+00
  1.50000000E+02  1.40000000E+01  0.00000000E+00
  1.50000000E+02  1.20000000E+01  0.00000000E+00
  1.50000000E+02  1.00000000E+01  0.00000000E+00
  1.50000000E+02  8.00000000E+00  0.00000000E+00
  1.50000000E+02  6.00000000E+00  0.00000000E+00
  1.50000000E+02  4.00000000E+00  0.00000000E+00
  1.50000000E+02  2.00000000E+00  0.00000000E+00
  1.50000000E+02 -3.33066907E-14  0.00000000E+00
  1.60000000E+02  1.00000000E+02  0.00000000E+00
  1.60000000E+02  9.80000000E+01  0.00000000E+00
  1.60000000E+02  9.60000000E+01  0.00000000E+00
  1.60000000E+02  9.40000000E+01  0.00000000E+00
  1.60000000E+02  9.20000000E+01  0.00000000E+00
  1.60000000E+02  9.00000000E+01  0.00000000E+00
  1.60000000E+02  8.80000000E+01  0.00000000E+00
  1.60000000E+02  8.60000000E+01  0.00000000E+00
  1.60000000E+02  8.40000000E+01  0.00000000E+00
  1.60000000E+02  8.20000000E+01  0.00000000E+00
  1.60000000E+02  8.00000000E+01  0.00000000E+00
  1.60000000E+02  7.80000000E+01  0.00000000E+00
  1.60000000E+02  7.60000000E+01  0.00000000E+00
  1.60000000E+02  7.40000000E+01  0.00000000E+00
  1.60000000E+02  7.20000000E+01  0.00000000E+00
  1.60000000E+02  7.00000000E+01  0.00000000E+00
  1.60000000E+02  6.80000000E+01  0.00000000E+00
  1.60000000E+02  6.60000000E+01  0.00000000E+00
  1.60000000E+02  6.40000000E+01  0.00000000E+00
  1.60000000E+02  6.20000000E+01  0.00000000E+00
  1.60000000E+02  6.00000000E+01  0.00000000E+00
  1.60000000E+02  5.80000000E+01  0.00000000E+00
  1.60000000E+02  5.60000000E+01  0.00000000E+00
  1.60000000E+02  5.40000000E+01  0.00000000E+00
  1.60000000E+02  5.20000000E+01  0.00000000E+00
  1.60000000E+02  5.00000000E+01  0.00000000E+00
  1.60000000E+02  4.80000000E+01  0.00000000E+00
  1.60000000E+02  4.60000000E+01  0.00000000E+00
  1.60000000E+02  4.40000000E+01  0.00000000E+00
  1.60000000E+02  4.20000000E+01  0.00000000E+00
  1.60000000E+02  4.00000000E+01  0.00000000E+00
  1.60000000E+02  3.80000000E+01  0.00000000E+00
  1.60000000E+02  3.60000000E+01  0.00000000E+00
  1.60000000E+02  3.40000000E+01  0.00000000E+00
  1.60000000E+02  3.20000000E+01  0.00000000E+00
  1.60000000E+02  3.00000000E+01  0.00000000E+00
  1.60000000E+02  2.80000000E+01  0.00000000E+00
  1.60000000E+02  2.60000000E+01  0.00000000E+00
  1.60000000E+02  2.40000000E+01  0.00000000E+00
  1.60000000E+02  2.20000000E+01  0.00000000E+00
  1.60000000E+02  2.00000000E+01  0.00000000E+00
  1.60000000E+02  1.80000000E+01  0.00000000E+00
  1.60000000E+02  1.60000000E+01  0.00000000E+00
  1.60000000E+02  1.40000000E+01  0.00000000E+00
  1.60000000E+02  1.20000000E+01  0.00000000E+00
  1.60000000E+02  1.00000000E+01  0.00000000E+00
  1.60000000E+02  8.00000000E+00  0.00000000E+00
  1.60000000E+02  6.00000000E+00  0.00000000E+00
  1.60000000E+02  4.00000000E+00  0.00000000E+00
  1.60000000E+02  2.00000000E+00  0.00000000E+00
  1.60000000E+02 -3.33066907E-14  0.00000000E+00
  1.70000000E+02  1.00000000E+02  0.00000000E+00
  1.70000000E+02  9.80000000E+01  0.00000000E+00
  1.70000000E+02  9.60000000E+01  0.00000000E+00
  1.70000000E+02  9.40000000E+01  0.00000000E+00
  1.70000000E+02  9.20000000E+01  0.00000000E+00
  1.70000000E+02  9.00000000E+01  0.00000000E+00
  1.70000000E+02  8.80000000E+01  0.00000000E+00
  1.70000000E+02  8.60000000E+01  0.00000000E+00
  1.70000000E+02  8.40000000E+01  0.00000000E+00
  1.70000000E+02  8.20000000E+01  0.00000000E+00
  1.70000000E+02  8.00000000E+01  0.00000000E+00
  1.70000000E+02  7.80000000E+01  0.00000000E+00
  1.70000000E+02  7.60000000E+01  0.00000000E+00
  1.70000000E+02  7.40000000E+01  0.00000000E+00
  1.70000000E+02  7.20000000E+01  0.00000000E+00
  1.70000000E+02  7.00000000E+01  0.00000000E+00
  1.70000000E+02  6.80000000E+01  0.00000000E+00
  1.70000000E+02  6.60000000E+01  0.00000000E+00
  1.70000000E+02  6.40000000E+01  0.00000000E+00
  1.70000000E+02  6.20000000E+01  0.00000000E+00
  1.70000000E+02  6.00000000E+01  0.00000000E+00
  1.70000000E+02  5.80000000E+01  0.00000000E+00
  1.70000000E+02  5.60000000E+01  0.00000000E+00
  1.70000000E+02  5.40000000E+01  0.00000000E+00
  1.70000000E+02  5.20000000E+01  0.00000000E+00
  1.70000000E+02  5.00000000E+01  0.00000000E+00
  1.70000000E+02  4.80000000E+01  0.00000000E+00
  1.70000000E+02  4.60000000E+01  0.00000000E+00
  1.70000000E+02  4.40000000E+01  0.00000000E+00
  1.70000000E+02  4.20000000E+01  0.00000000E+00
  1.70000000E+02  4.00000000E+01  0.00000000E+00
  1.70000000E+02  3.80000000E+01  0.00000000E+00
  1.70000000E+02  3.60000000E+01  0.00000000E+00
  1.70000000E+02  3.40000000E+01  0.00000000E+00
  1.70000000E+02  3.20000000E+01  0.00000000E+00
  1.70000000E+02  3.00000000E+01  0.00000000E+00
  1.70000000E+02  2.80000000E+01  0.00000000E+00
  1.70000000E+02  2.60000000E+01  0.00000000E+00
  1.70000000E+02  2.40000000E+01  0.00000000E+00
  1.70000000E+02  2.20000000E+01  0.00000000E+00
  1.70000000E+02  2.00000000E+01  0.00000000E+00
  1.70000000E+02  1.80000000E+01  0.00000000E+00
  1.70000000E+02  1.60000000E+01  0.00000000E+00
  1.70000000E+02  1.40000000E+01  0.00000000E+00
  1.70000000E+02  1.20000000E+01  0.00000000E+00
  1.70000000E+02  1.00000000E+01  0.00000000E+00
  1.70000000E+02  8.00000000E+00  0.00000000E+00
  1.70000000E+02  6.00000000E+00  0.00000000E+00
  1.70000000E+02  4.00000000E+00  0.00000000E+00
  1.70000000E+02  2.00000000E+00  0.00000000E+00
  1.70000000E+02 -3.33066907E-14  0.00000000E+00
  1.80000000E+02  1.00000000E+02  0.00000000E+00
  1.80000000E+02  9.80000000E+01  0.00000000E+00
  1.80000000E+02  9.60000000E+01  0.00000000E+00
  1.80000000E+02  9.40000000E+01  0.00000000E+00
  1.80000000E+02  9.20000000E+01  0.00000000E+00
  1.80000000E+02  9.00000000E+01  0.00000000E+00
  1.80000000E+02  8.80000000E+01  0.00000000E+00
  1.80000000E+02  8.60000000E+01  0.00000000E+00
  1.80000000E+02  8.40000000E+01  0.00000000E+00
  1.80000000E+02  8.20000000E+01  0.00000000E+00
  1.80000000E+02  8.00000000E+01  0.00000000E+00
  1.80000000E+02  7.80000000E+01  0.00000000E+00
  1.80000000E+02  7.60000000E+01  0.00000000E+00
  1.80000000E+02  7.40000000E+01  0.00000000E+00
  1.80000000E+02  7.20000000E+01  0.00000000E+00
  1.80000000E+02  7.00000000E+01  0.00000000E+00
  1.80000000E+02  6.80000000E+01  0.00000000E+00
  1.80000000E+02  6.60000000E+01  0.00000000E+00
  1.80000000E+02  6.40000000E+01  0.00000000E+00
  1.80000000E+02  6.20000000E+01  0.00000000E+00
  1.80000000E+02  6.00000000E+01  0.00000000E+00
  1.80000000E+02  5.80000000E+01  0.00000000E+00
  1.80000000E+02  5.60000000E+01  0.00000000E+00
  1.80000000E+02  5.40000000E+01  0.00000000E+00
  1.80000000E+02  5.20000000E+01  0.00000000E+00
  1.80000000E+02  5.00000000E+01  0.00000000E+00
  1.80000000E+02  4.80000000E+01  0.00000000E+00
  1.80000000E+02  4.60000000E+01  0.00000000E+00
  1.80000000E+02  4.40000000E+01  0.00000000E+00
  1.80000000E+02  4.20000000E+01  0.00000000E+00
  1.80000000E+02  4.00000000E+01  0.00000000E+00
  1.80000000E+02  3.80000000E+01  0.00000000E+00
  1.80000000E+02  3.60000000E+01  0.00000000E+00
  1.80000000E+02  3.40000000E+01  0.00000000E+00
  1.80000000E+02  3.20000000E+01  0.00000000E+00
  1.80000000E+02  3.00000000E+01  0.00000000E+00
  1.80000000E+02  2.80000000E+01  0.00000000E+00
  1.80000000E+02  2.60000000E+01  0.00000000E+00
  1.80000000E+02  2.40000000E+01  0.00000000E+00
  1.80000000E+02  2.20000000E+01  0.00000000E+00
  1.80000000E+02  2.00000000E+01  0.00000000E+00
  1.80000000E+02  1.80000000E+01  0.00000000E+00
  1.80000000E+02  1.60000000E+01  0.00000000E+00
  1.80000000E+02  1.40000000E+01  0.00000000E+00
  1.80000000E+02  1.20000000E+01  0.00000000E+00
  1.80000000E+02  1.00000000E+01  0.00000000E+00
  1.80000000E+02  8.00000000E+00  0.00000000E+00
  1.80000000E+02  6.00000000E+00  0.00000000E+00
  1.80000000E+02  4.00000000E+00  0.00000000E+00
  1.80000000E+02  2.00000000E+00  0.00000000E+00
  1.80000000E+02 -3.33066907E-14  0.00000000E+00
  1.90000000E+02  1.00000000E+02  0.00000000E+00
  1.90000000E+02  9.80000000E+01  0.00000000E+00
  1.90000000E+02  9.60000000E+01  0.00000000E+00
  1.90000000E+02  9.40000000E+01  0.00000000E+00
  1.90000000E+02  9.20000000E+01  0.00000000E+00
  1.90000000E+02  9.00000000E+01  0.00000000E+00
  1.90000000E+02  8.80000000E+01  0.00000000E+00
  1.90000000E+02  8.60000000E+01  0.00000000E+00
  1.90000000E+02  8.40000000E+01  0.00000000E+00
  1.90000000E+02  8.20000000E+01  0.00000000E+00
  1.90000000E+02  8.00000000E+01  0.00000000E+00
  1.90000000E+02  7.80000000E+01  0.00000000E+00
  1.90000000E+02  7.60000000E+01  0.00000000E+00
  1.90000000E+02  7.40000000E+01  0.00000000E+00
  1.90000000E+02  7.20000000E+01  0.00000000E+00
  1.90000000E+02  7.00000000E+01  0.00000000E+00
  1.90000000E+02  6.80000000E+01  0.00000000E+00
  1.90000000E+02  6.60000000E+01  0.00000000E+00
  1.90000000E+02  6.40000000E+01  0.00000000E+00
  1.90000000E+02  6.20000000E+01  0.00000000E+00
  1.90000000E+02  6.00000000E+01  0.00000000E+00
  1.90000000E+02  5.80000000E+01  0.00000000E+00
  1.90000000E+02  5.60000000E+01  0.00000000E+00
  1.90000000E+02  5.40000000E+01  0.00000000E+00
  1.90000000E+02  5.20000000E+01  0.00000000E+00
  1.90000000E+02  5.00000000E+01  0.00000000E+00
  1.90000000E+02  4.80000000E+01  0.00000000E+00
  1.90000000E+02  4.60000000E+01  0.00000000E+00
  1.90000000E+02  4.40000000E+01  0.00000000E+00
  1.90000000E+02  4.20000000E+01  0.00000000E+00
  1.90000000E+02  4.00000000E+01  0.00000000E+00
  1.90000000E+02  3.80000000E+01  0.00000000E+00
  1.90000000E+02  3.60000000E+01  0.00000000E+00
  1.90000000E+02  3.40000000E+01  0.00000000E+00
  1.90000000E+02  3.20000000E+01  0.00000000E+00
  1.90000000E+02  3.00000000E+01  0.00000000E+00
  1.90000000E+02  2.80000000E+01  0.00000000E+00
  1.90000000E+02  2.60000000E+01  0.00000000E+00
  1.90000000E+02  2.40000000E+01  0.00000000E+00
  1.90000000E+02  2.20000000E+01  0.00000000E+00
  1.90000000E+02  2.00000000E+01  0.00000000E+00
  1.90000000E+02  1.80000000E+01  0.00000000E+00
  1.90000000E+02  1.60000000E+01  0.00000000E+00
  1.90000000E+02  1.40000000E+01  0.00000000E+00
  1.90000000E+02  1.20000000E+01  0.00000000E+00
  1.90000000E+02  1.00000000E+01  0.00000000E+00
  1.90000000E+02  8.00000000E+00  0.00000000E+00
  1.90000000E+02  6.00000000E+00  0.00000000E+00
  1.90000000E+02  4.00000000E+00  0.00000000E+00
  1.90000000E+02  2.00000000E+00  0.00000000E+00
  1.90000000E+02 -3.33066907E-14  0.00000000E+00
  2.00000000E+02  1.00000000E+02  0.00000000E+00
  2.00000000E+02  9.80000000E+01  0.00000000E+00
  2.00000000E+02  9.60000000E+01  0.00000000E+00
  2.00000000E+02  9.40000000E+01  0.00000000E+00
  2.00000000E+02  9.20000000E+01  0.00000000E+00
  2.00000000E+02  9.00000000E+01  0.00000000E+00
  2.00000000E+02  8.80000000E+01  0.00000000E+00
  2.00000000E+02  8.60000000E+01  0.00000000E+00
  2.00000000E+02  8.40000000E+01  0.00000000E+00
  2.00000000E+02  8.20000000E+01  0.00000000E+00
  2.00000000E+02  8.00000000E+01  0.00000000E+00
  2.00000000E+02  7.80000000E+01  0.00000000E+00
  2.00000000E+02  7.60000000E+01  0.00000000E+00
  2.00000000E+02  7.40000000E+01  0.00000000E+00
  2.00000000E+02  7.20000000E+01  0.00000000E+00
  2.00000000E+02  7.00000000E+01  0.00000000E+00
  2.00000000E+02  6.80000000E+01  0.00000000E+00
  2.00000000E+02  6.60000000E+01  0.00000000E+00
  2.00000000E+02  6.40000000E+01  0.00000000E+00
  2.00000000E+02  6.20000000E+01  0.00000000E+00
  2.00000000E+02  6.00000000E+01  0.00000000E+00
  2.00000000E+02  5.80000000E+01  0.00000000E+00
  2.00000000E+02  5.60000000E+01  0.00000000E+00
  2.00000000E+02  5.40000000E+01  0.00000000E+00
  2.00000000E+02  5.20000000E+01  0.00000000E+00
  2.00000000E+02  5.00000000E+01  0.00000000E+00
  2.00000000E+02  4.80000000E+01  0.00000000E+00
  2.00000000E+02  4.60000000E+01  0.00000000E+00
  2.00000000E+02  4.40000000E+01  0.00000000E+00
  2.00000000E+02  4.20000000E+01  0.00000000E+00
  2.00000000E+02  4.00000000E+01  0.00000000E+00
  2.00000000E+02  3.80000000E+01  0.00000000E+00
  2.00000000E+02  3.60000000E+01  0.00000000E+00
  2.00000000E+02  3.40000000E+01  0.00000000E+00
  2.00000000E+02  3.20000000E+01  0.00000000E+00
  2.00000000E+02  3.00000000E+01  0.00000000E+00
  2.00000000E+02  2.80000000E+01  0.00000000E+00
  2.00000000E+02  2.60000000E+01  0.00000000E+00
  2.00000000E+02  2.40000000E+01  0.00000000E+00
  2.00000000E+02  2.20000000E+01  0.00000000E+00
  2.00000000E+02  2.00000000E+01  0.00000000E+00
  2.00000000E+02  1.80000000E+01  0.00000000E+00
  2.00000000E+02  1.60000000E+01  0.00000000E+00
  2.00000000E+02  1.40000000E+01  0.00000000E+00
  2.00000000E+02  1.20000000E+01  0.00000000E+00
  2.00000000E+02  1.00000000E+01  0.00000000E+00
  2.00000000E+02  8.00000000E+00  0.00000000E+00
  2.00000000E+02  6.00000000E+00  0.00000000E+00
  2.00000000E+02  4.00000000E+00  0.00000000E+00
  2.00000000E+02  2.00000000E+00  0.00000000E+00
  2.00000000E+02 -3.33066907E-14  0.00000000E+00
  2.10000000E+02  1.00000000E+02  0.00000000E+00
  2.10000000E+02  9.80000000E+01  0.00000000E+00
  2.10000000E+02  9.60000000E+01  0.00000000E+00
  2.10000000E+02  9.40000000E+01  0.00000000E+00
  2.10000000E+02  9.20000000E+01  0.00000000E+00
  2.10000000E+02  9.00000000E+01  0.00000000E+00
  2.10000000E+02  8.80000000E+01  0.00000000E+00
  2.10000000E+02  8.60000000E+01  0.00000000E+00
  2.10000000E+02  8.40000000E+01  0.00000000E+00
  2.10000000E+02  8.20000000E+01  0.00000000E+00
  2.10000000E+02  8.00000000E+01  0.00000000E+00
  2.10000000E+02  7.80000000E+01  0.00000000E+00
  2.10000000E+02  7.60000000E+01  0.00000000E+00
  2.10000000E+02  7.40000000E+01  0.00000000E+00
  2.10000000E+02  7.20000000E+01  0.00000000E+00
  2.10000000E+02  7.00000000E+01  0.00000000E+00
  2.10000000E+02  6.80000000E+01  0.00000000E+00
  2.10000000E+02  6.60000000E+01  0.00000000E+00
  2.10000000E+02  6.40000000E+01  0.00000000E+00
  2.10000000E+02  6.20000000E+01  0.00000000E+00
  2.10000000E+02  6.00000000E+01  0.00000000E+00
  2.10000000E+02  5.80000000E+01  0.00000000E+00
  2.10000000E+02  5.60000000E+01  0.00000000E+00
  2.10000000E+02  5.40000000E+01  0.00000000E+00
  2.10000000E+02  5.20000000E+01  0.00000000E+00
  2.10000000E+02  5.00000000E+01  0.00000000E+00
  2.10000000E+02  4.80000000E+01  0.00000000E+00
  2.10000000E+02  4.60000000E+01  0.00000000E+00
  2.10000000E+02  4.40000000E+01  0.00000000E+00
  2.10000000E+02  4.20000000E+01  0.00000000E+00
  2.10000000E+02  4.00000000E+01  0.00000000E+00
  2.10000000E+02  3.80000000E+01  0.00000000E+00
  2.10000000E+02  3.60000000E+01  0.00000000E+00
  2.10000000E+02  3.40000000E+01  0.00000000E+00
  2.10000000E+02  3.20000000E+01  0.00000000E+00
  2.10000000E+02  3.00000000E+01  0.00000000E+00
  2.10000000E+02  2.80000000E+01  0.00000000E+00
  2.10000000E+02  2.60000000E+01  0.00000000E+00
  2.10000000E+02  2.40000000E+01  0.00000000E+00
  2.10000000E+02  2.20000000E+01  0.00000000E+00
  2.10000000E+02  2.00000000E+01  0.00000000E+00
  2.10000000E+02  1.80000000E+01  0.00000000E+00
  2.10000000E+02  1.60000000E+01  0.00000000E+00
  2.10000000E+02  1.40000000E+01  0.00000000E+00
  2.10000000E+02  1.20000000E+01  0.00000000E+00
  2.10000000E+02  1.00000000E+01  0.00000000E+00
  2.10000000E+02  8.00000000E+00  0.00000000E+00
  2.10000000E+02  6.00000000E+00  0.00000000E+00
  2.10000000E+02  4.00000000E+00  0.00000000E+00
  2.10000000E+02  2.00000000E+00  0.00000000E+00
  2.10000000E+02 -3.33066907E-14  0.00000000E+00
  2.20000000E+02  1.00000000E+02  0.00000000E+00
  2.20000000E+02  9.80000000E+01  0.00000000E+00
  2.20000000E+02  9.60000000E+01  0.00000000E+00
  2.20000000E+02  9.40000000E+01  0.00000000E+00
  2.20000000E+02  9.20000000E+01  0.00000000E+00
  2.20000000E+02  9.00000000E+01  0.00000000E+00
  2.20000000E+02  8.80000000E+01  0.00000000E+00
  2.20000000E+02  8.60000000E+01  0.00000000E+00
  2.20000000E+02  8.40000000E+01  0.00000000E+00
  2.20000000E+02  8.20000000E+01  0.00000000E+00
  2.20000000E+02  8.00000000E+01  0.00000000E+00
  2.20000000E+02  7.80000000E+01  0.00000000E+00
  2.20000000E+02  7.60000000E+01  0.00000000E+00
  2.20000000E+02  7.40000000E+01  0.00000000E+00
  2.20000000E+02  7.20000000E+01  0.00000000E+00
  2.20000000E+02  7.00000000E+01  0.00000000E+00
  2.20000000E+02  6.80000000E+01  0.00000000E+00
  2.20000000E+02  6.60000000E+01  0.00000000E+00
  2.20000000E+02  6.40000000E+01  0.00000000E+00
  2.20000000E+02  6.20000000E+01  0.00000000E+00
  2.20000000E+02  6.00000000E+01  0.00000000E+00
  2.20000000E+02  5.80000000E+01  0.00000000E+00
  2.20000000E+02  5.60000000E+01  0.00000000E+00
  2.20000000E+02  5.40000000E+01  0.00000000E+00
  2.20000000E+02  5.20000000E+01  0.00000000E+00
  2.20000000E+02  5.00000000E+01  0.00000000E+00
  2.20000000E+02  4.80000000E+01  0.00000000E+00
  2.20000000E+02  4.60000000E+01  0.00000000E+00
  2.20000000E+02  4.40000000E+01  0.00000000E+00
  2.20000000E+02  4.20000000E+01  0.00000000E+00
  2.20000000E+02  4.00000000E+01  0.00000000E+00
  2.20000000E+02  3.80000000E+01  0.00000000E+00
  2.20000000E+02  3.60000000E+01  0.00000000E+00
  2.20000000E+02  3.40000000E+01  0.00000000E+00
  2.20000000E+02  3.20000000E+01  0.00000000E+00
  2.20000000E+02  3.00000000E+01  0.00000000E+00
  2.20000000E+02  2.80000000E+01  0.00000000E+00
  2.20000000E+02  2.60000000E+01  0.00000000E+00
  2.20000000E+02  2.40000000E+01  0.00000000E+00
  2.20000000E+02  2.20000000E+01  0.00000000E+00
  2.20000000E+02  2.00000000E+01  0.00000000E+00
  2.20000000E+02  1.80000000E+01  0.00000000E+00
  2.20000000E+02  1.60000000E+01  0.00000000E+00
  2.20000000E+02  1.40000000E+01  0.00000000E+00
  2.20000000E+02  1.20000000E+01  0.00000000E+00
  2.20000000E+02  1.00000000E+01  0.00000000E+00
  2.20000000E+02  8.00000000E+00  0.00000000E+00
  2.20000000E+02  6.00000000E+00  0.00000000E+00
  2.20000000E+02  4.00000000E+00  0.00000000E+00
  2.20000000E+02  2.00000000E+00  0.00000000E+00
  2.20000000E+02 -3.33066907E-14  0.00000000E+00
  2.30000000E+02  1.00000000E+02  0.00000000E+00
  2.30000000E+02  9.80000000E+01  0.00000000E+00
  2.30000000E+02  9.60000000E+01  0.00000000E+00
  2.30000000E+02  9.40000000E+01  0.00000000E+00
  2.30000000E+02  9.20000000E+01  0.00000000E+00
  2.30000000E+02  9.00000000E+01  0.00000000E+00
  2.30000000E+02  8.80000000E+01  0.00000000E+00
  2.30000000E+02  8.60000000E+01  0.00000000E+00
  2.30000000E+02  8.40000000E+01  0.00000000E+00
  2.30000000E+02  8.20000000E+01  0.00000000E+00
  2.30000000E+02  8.00000000E+01  0.00000000E+00
  2.30000000E+02  7.80000000E+01  0.00000000E+00
  2.30000000E+02  7.60000000E+01  0.00000000E+00
  2.30000000E+02  7.40000000E+01  0.00000000E+00
  2.30000000E+02  7.20000000E+01  0.00000000E+00
  2.30000000E+02  7.00000000E+01  0.00000000E+00
  2.30000000E+02  6.80000000E+01  0.00000000E+00
  2.30000000E+02  6.60000000E+01  0.00000000E+00
  2.30000000E+02  6.40000000E+01  0.00000000E+00
  2.30000000E+02  6.20000000E+01  0.00000000E+00
  2.30000000E+02  6.00000000E+01  0.00000000E+00
  2.30000000E+02  5.80000000E+01  0.00000000E+00
  2.30000000E+02  5.60000000E+01  0.00000000E+00
  2.30000000E+02  5.40000000E+01  0.00000000E+00
  2.30000000E+02  5.20000000E+01  0.00000000E+00
  2.30000000E+02  5.00000000E+01  0.00000000E+00
  2.30000000E+02  4.80000000E+01  0.00000000E+00
  2.30000000E+02  4.60000000E+01  0.00000000E+00
  2.30000000E+02  4.40000000E+01  0.00000000E+00
  2.30000000E+02  4.20000000E+01  0.00000000E+00
  2.30000000E+02  4.00000000E+01  0.00000000E+00
  2.30000000E+02  3.80000000E+01  0.00000000E+00
  2.30000000E+02  3.60000000E+01  0.00000000E+00
  2.30000000E+02  3.40000000E+01  0.00000000E+00
  2.30000000E+02  3.20000000E+01  0.00000000E+00
  2.30000000E+02  3.00000000E+01  0.00000000E+00
  2.30000000E+02  2.80000000E+01  0.00000000E+00
  2.30000000E+02  2.60000000E+01  0.00000000E+00
  2.30000000E+02  2.40000000E+01  0.00000000E+00
  2.30000000E+02  2.20000000E+01  0.00000000E+00
  2.30000000E+02  2.00000000E+01  0.00000000E+00
  2.30000000E+02  1.80000000E+01  0.00000000E+00
  2.30000000E+02  1.60000000E+01  0.00000000E+00
  2.30000000E+02  1.40000000E+01  0.00000000E+00
  2.30000000E+02  1.20000000E+01  0.00000000E+00
  2.30000000E+02  1.00000000E+01  0.00000000E+00
  2.30000000E+02  8.00000000E+00  0.00000000E+00
  2.30000000E+02  6.00000000E+00  0.00000000E+00
  2.30000000E+02  4.00000000E+00  0.00000000E+00
  2.30000000E+02  2.00000000E+00  0.00000000E+00
  2.30000000E+02 -3.33066907E-14  0.00000000E+00
  2.40000000E+02  1.00000000E+02  0.00000000E+00
  2.40000000E+02  9.80000000E+01  0.00000000E+00
  2.40000000E+02  9.60000000E+01  0.00000000E+00
  2.40000000E+02  9.40000000E+01  0.00000000E+00
  2.40000000E+02  9.20000000E+01  0.00000000E+00
  2.40000000E+02  9.00000000E+01  0.00000000E+00
  2.40000000E+02  8.80000000E+01  0.00000000E+00
  2.40000000E+02  8.60000000E+01  0.00000000E+00
  2.40000000E+02  8.40000000E+01  0.00000000E+00
  2.40000000E+02  8.20000000E+01  0.00000000E+00
  2.40000000E+02  8.00000000E+01  0.00000000E+00
  2.40000000E+02  7.80000000E+01  0.00000000E+00
  2.40000000E+02  7.60000000E+01  0.00000000E+00
  2.40000000E+02  7.40000000E+01  0.00000000E+00
  2.40000000E+02  7.20000000E+01  0.00000000E+00
  2.40000000E+02  7.00000000E+01  0.00000000E+00
  2.40000000E+02  6.80000000E+01  0.00000000E+00
  2.40000000E+02  6.60000000E+01  0.00000000E+00
  2.40000000E+02  6.40000000E+01  0.00000000E+00
  2.40000000E+02  6.20000000E+01  0.00000000E+00
  2.40000000E+02  6.00000000E+01  0.00000000E+00
  2.40000000E+02  5.80000000E+01  0.00000000E+00
  2.40000000E+02  5.60000000E+01  0.00000000E+00
  2.40000000E+02  5.40000000E+01  0.00000000E+00
  2.40000000E+02  5.20000000E+01  0.00000000E+00
  2.40000000E+02  5.00000000E+01  0.00000000E+00
  2.40000000E+02  4.80000000E+01  0.00000000E+00
  2.40000000E+02  4.60000000E+01  0.00000000E+00
  2.40000000E+02  4.40000000E+01  0.00000000E+00
  2.40000000E+02  4.20000000E+01  0.00000000E+00
  2.40000000E+02  4.00000000E+01  0.00000000E+00
  2.40000000E+02  3.80000000E+01  0.00000000E+00
  2.40000000E+02  3.60000000E+01  0.00000000E+00
  2.40000000E+02  3.40000000E+01  0.00000000E+00
  2.40000000E+02  3.20000000E+01  0.00000000E+00
  2.40000000E+02  3.00000000E+01  0.00000000E+00
  2.40000000E+02  2.80000000E+01  0.00000000E+00
  2.40000000E+02  2.60000000E+01  0.00000000E+00
  2.40000000E+02  2.40000000E+01  0.00000000E+00
  2.40000000E+02  2.20000000E+01  0.00000000E+00
  2.40000000E+02  2.00000000E+01  0.00000000E+00
  2.40000000E+02  1.80000000E+01  0.00000000E+00
  2.40000000E+02  1.60000000E+01  0.00000000E+00
  2.40000000E+02  1.40000000E+01  0.00000000E+00
  2.40000000E+02  1.20000000E+01  0.00000000E+00
  2.40000000E+02  1.00000000E+01  0.00000000E+00
  2.40000000E+02  8.00000000E+00  0.00000000E+00
  2.40000000E+02  6.00000000E+00  0.00000000E+00
  2.40000000E+02  4.00000000E+00  0.00000000E+00
  2.40000000E+02  2.00000000E+00  0.00000000E+00
  2.40000000E+02 -3.33066907E-14  0.00000000E+00
  2.50000000E+02  1.00000000E+02  0.00000000E+00
  2.50000000E+02  9.80000000E+01  0.00000000E+00
  2.50000000E+02  9.60000000E+01  0.00000000E+00
  2.50000000E+02  9.40000000E+01  0.00000000E+00
  2.50000000E+02  9.20000000E+01  0.00000000E+00
  2.50000000E+02  9.00000000E+01  0.00000000E+00
  2.50000000E+02  8.80000000E+01  0.00000000E+00
  2.50000000E+02  8.60000000E+01  0.00000000E+00
  2.50000000E+02  8.40000000E+01  0.00000000E+00
  2.50000000E+02  8.20000000E+01  0.00000000E+00
  2.50000000E+02  8.00000000E+01  0.00000000E+00
  2.50000000E+02  7.80000000E+01  0.00000000E+00
  2.50000000E+02  7.60000000E+01  0.00000000E+00
  2.50000000E+02  7.40000000E+01  0.00000000E+00
  2.50000000E+02  7.20000000E+01  0.00000000E+00
  2.50000000E+02  7.00000000E+01  0.00000000E+00
  2.50000000E+02  6.80000000E+01  0.00000000E+00
  2.50000000E+02  6.60000000E+01  0.00000000E+00
  2.50000000E+02  6.40000000E+01  0.00000000E+00
  2.50000000E+02  6.20000000E+01  0.00000000E+00
  2.50000000E+02  6.00000000E+01  0.00000000E+00
  2.50000000E+02  5.80000000E+01  0.00000000E+00
  2.50000000E+02  5.60000000E+01  0.00000000E+00
  2.50000000E+02  5.40000000E+01  0.00000000E+00
  2.50000000E+02  5.20000000E+01  0.00000000E+00
  2.50000000E+02  5.00000000E+01  0.00000000E+00
  2.50000000E+02  4.80000000E+01  0.00000000E+00
  2.50000000E+02  4.60000000E+01  0.00000000E+00
  2.50000000E+02  4.40000000E+01  0.00000000E+00
  2.50000000E+02  4.20000000E+01  0.00000000E+00
  2.50000000E+02  4.00000000E+01  0.00000000E+00
  2.50000000E+02  3.80000000E+01  0.00000000E+00
  2.50000000E+02  3.60000000E+01  0.00000000E+00
  2.50000000E+02  3.40000000E+01  0.00000000E+00
  2.50000000E+02  3.20000000E+01  0.00000000E+00
  2.50000000E+02  3.00000000E+01  0.00000000E+00
  2.50000000E+02  2.80000000E+01  0.00000000E+00
  2.50000000E+02  2.60000000E+01  0.00000000E+00
  2.50000000E+02  2.40000000E+01  0.00000000E+00
  2.50000000E+02  2.20000000E+01  0.00000000E+00
  2.50000000E+02  2.00000000E+01  0.00000000E+00
  2.50000000E+02  1.80000000E+01  0.00000000E+00
  2.50000000E+02  1.60000000E+01  0.00000000E+00
  2.50000000E+02  1.40000000E+01  0.00000000E+00
  2.50000000E+02  1.20000000E+01  0.00000000E+00
  2.50000000E+02  1.00000000E+01  0.00000000E+00
  2.50000000E+02  8.00000000E+00  0.00000000E+00
  2.50000000E+02  6.00000000E+00  0.00000000E+00
  2.50000000E+02  4.00000000E+00  0.00000000E+00
  2.50000000E+02  2.00000000E+00  0.00000000E+00
  2.50000000E+02 -3.33066907E-14  0.00000000E+00
  2.60000000E+02  1.00000000E+02  0.00000000E+00
  2.60000000E+02  9.80000000E+01  0.00000000E+00
  2.60000000E+02  9.60000000E+01  0.00000000E+00
  2.60000000E+02  9.40000000E+01  0.00000000E+00
  2.60000000E+02  9.20000000E+01  0.00000000E+00
  2.60000000E+02  9.00000000E+01  0.00000000E+00
  2.60000000E+02  8.80000000E+01  0.00000000E+00
  2.60000000E+02  8.60000000E+01  0.00000000E+00
  2.60000000E+02  8.40000000E+01  0.00000000E+00
  2.60000000E+02  8.20000000E+01  0.00000000E+00
  2.60000000E+02  8.00000000E+01  0.00000000E+00
  2.60000000E+02  7.80000000E+01  0.00000000E+00
  2.60000000E+02  7.60000000E+01  0.00000000E+00
  2.60000000E+02  7.40000000E+01  0.00000000E+00
  2.60000000E+02  7.20000000E+01  0.00000000E+00
  2.60000000E+02  7.00000000E+01  0.00000000E+00
  2.60000000E+02  6.80000000E+01  0.00000000E+00
  2.60000000E+02  6.60000000E+01  0.00000000E+00
  2.60000000E+02  6.40000000E+01  0.00000000E+00
  2.60000000E+02  6.20000000E+01  0.00000000E+00
  2.60000000E+02  6.00000000E+01  0.00000000E+00
  2.60000000E+02  5.80000000E+01  0.00000000E+00
  2.60000000E+02  5.60000000E+01  0.00000000E+00
  2.60000000E+02  5.40000000E+01  0.00000000E+00
  2.60000000E+02  5.20000000E+01  0.00000000E+00
  2.60000000E+02  5.00000000E+01  0.00000000E+00
  2.60000000E+02  4.80000000E+01  0.00000000E+00
  2.60000000E+02  4.60000000E+01  0.00000000E+00
  2.60000000E+02  4.40000000E+01  0.00000000E+00
  2.60000000E+02  4.20000000E+01  0.00000000E+00
  2.60000000E+02  4.00000000E+01  0.00000000E+00
  2.60000000E+02  3.80000000E+01  0.00000000E+00
  2.60000000E+02  3.60000000E+01  0.00000000E+00
  2.60000000E+02  3.40000000E+01  0.00000000E+00
  2.60000000E+02  3.20000000E+01  0.00000000E+00
  2.60000000E+02  3.00000000E+01  0.00000000E+00
  2.60000000E+02  2.80000000E+01  0.00000000E+00
  2.60000000E+02  2.60000000E+01  0.00000000E+00
  2.60000000E+02  2.40000000E+01  0.00000000E+00
  2.60000000E+02  2.20000000E+01  0.00000000E+00
  2.60000000E+02  2.00000000E+01  0.00000000E+00
  2.60000000E+02  1.80000000E+01  0.00000000E+00
  2.60000000E+02  1.60000000E+01  0.00000000E+00
  2.60000000E+02  1.40000000E+01  0.00000000E+00
  2.60000000E+02  1.20000000E+01  0.00000000E+00
  2.60000000E+02  1.00000000E+01  0.00000000E+00
  2.60000000E+02  8.00000000E+00  0.00000000E+00
  2.60000000E+02  6.00000000E+00  0.00000000E+00
  2.60000000E+02  4.00000000E+00  0.00000000E+00
  2.60000000E+02  2.00000000E+00  0.00000000E+00
  2.60000000E+02 -3.33066907E-14  0.00000000E+00
  2.70000000E+02  1.00000000E+02  0.00000000E+00
  2.70000000E+02  9.80000000E+01  0.00000000E+00
  2.70000000E+02  9.60000000E+01  0.00000000E+00
  2.70000000E+02  9.40000000E+01  0.00000000E+00
  2.70000000E+02  9.20000000E+01  0.00000000E+00
  2.70000000E+02  9.00000000E+01  0.00000000E+00
  2.70000000E+02  8.80000000E+01  0.00000000E+00
  2.70000000E+02  8.60000000E+01  0.00000000E+00
  2.70000000E+02  8.40000000E+01  0.00000000E+00
  2.70000000E+02  8.20000000E+01  0.00000000E+00
  2.70000000E+02  8.00000000E+01  0.00000000E+00
  2.70000000E+02  7.80000000E+01  0.00000000E+00
  2.70000000E+02  7.60000000E+01  0.00000000E+00
  2.70000000E+02  7.40000000E+01  0.00000000E+00
  2.70000000E+02  7.20000000E+01  0.00000000E+00
  2.70000000E+02  7.00000000E+01  0.00000000E+00
  2.70000000E+02  6.80000000E+01  0.00000000E+00
  2.70000000E+02  6.60000000E+01  0.00000000E+00
  2.70000000E+02  6.40000000E+01  0.00000000E+00
  2.70000000E+02  6.20000000E+01  0.00000000E+00
  2.70000000E+02  6.00000000E+01  0.00000000E+00
  2.70000000E+02  5.80000000E+01  0.00000000E+00
  2.70000000E+02  5.60000000E+01  0.00000000E+00
  2.70000000E+02  5.40000000E+01  0.00000000E+00
  2.70000000E+02  5.20000000E+01  0.00000000E+00
  2.70000000E+02  5.00000000E+01  0.00000000E+00
  2.70000000E+02  4.80000000E+01  0.00000000E+00
  2.70000000E+02  4.60000000E+01  0.00000000E+00
  2.70000000E+02  4.40000000E+01  0.00000000E+00
  2.70000000E+02  4.20000000E+01  0.00000000E+00
  2.70000000E+02  4.00000000E+01  0.00000000E+00
  2.70000000E+02  3.80000000E+01  0.00000000E+00
  2.70000000E+02  3.60000000E+01  0.00000000E+00
  2.70000000E+02  3.40000000E+01  0.00000000E+00
  2.70000000E+02  3.20000000E+01  0.00000000E+00
  2.70000000E+02  3.00000000E+01  0.00000000E+00
  2.70000000E+02  2.80000000E+01  0.00000000E+00
  2.70000000E+02  2.60000000E+01  0.00000000E+00
  2.70000000E+02  2.40000000E+01  0.00000000E+00
  2.70000000E+02  2.20000000E+01  0.00000000E+00
  2.70000000E+02  2.00000000E+01  0.00000000E+00
  2.70000000E+02  1.80000000E+01  0.00000000E+00
  2.70000000E+02  1.60000000E+01  0.00000000E+00
  2.70000000E+02  1.40000000E+01  0.00000000E+00
  2.70000000E+02  1.20000000E+01  0.00000000E+00
  2.70000000E+02  1.00000000E+01  0.00000000E+00
  2.70000000E+02  8.00000000E+00  0.00000000E+00
  2.70000000E+02  6.00000000E+00  0.00000000E+00
  2.70000000E+02  4.00000000E+00  0.00000000E+00
  2.70000000E+02  2.00000000E+00  0.00000000E+00
  2.70000000E+02 -3.33066907E-14  0.00000000E+00
  2.80000000E+02  1.00000000E+02  0.00000000E+00
  2.80000000E+02  9.80000000E+01  0.00000000E+00
  2.80000000E+02  9.60000000E+01  0.00000000E+00
  2.80000000E+02  9.40000000E+01  0.00000000E+00
  2.80000000E+02  9.20000000E+01  0.00000000E+00
  2.80000000E+02  9.00000000E+01  0.00000000E+00
  2.80000000E+02  8.80000000E+01  0.00000000E+00
  2.80000000E+02  8.60000000E+01  0.00000000E+00
  2.80000000E+02  8.40000000E+01  0.00000000E+00
  2.80000000E+02  8.20000000E+01  0.00000000E+00
  2.80000000E+02  8.00000000E+01  0.00000000E+00
  2.80000000E+02  7.80000000E+01  0.00000000E+00
  2.80000000E+02  7.60000000E+01  0.00000000E+00
  2.80000000E+02  7.40000000E+01  0.00000000E+00
  2.80000000E+02  7.20000000E+01  0.00000000E+00
  2.80000000E+02  7.00000000E+01  0.00000000E+00
  2.80000000E+02  6.80000000E+01  0.00000000E+00
  2.80000000E+02  6.60000000E+01  0.00000000E+00
  2.80000000E+02  6.40000000E+01  0.00000000E+00
  2.80000000E+02  6.20000000E+01  0.00000000E+00
  2.80000000E+02  6.00000000E+01  0.00000000E+00
  2.80000000E+02  5.80000000E+01  0.00000000E+00
  2.80000000E+02  5.60000000E+01  0.00000000E+00
  2.80000000E+02  5.40000000E+01  0.00000000E+00
  2.80000000E+02  5.20000000E+01  0.00000000E+00
  2.80000000E+02  5.00000000E+01  0.00000000E+00
  2.80000000E+02  4.80000000E+01  0.00000000E+00
  2.80000000E+02  4.60000000E+01  0.00000000E+00
  2.80000000E+02  4.40000000E+01  0.00000000E+00
  2.80000000E+02  4.20000000E+01  0.00000000E+00
  2.80000000E+02  4.00000000E+01  0.00000000E+00
  2.80000000E+02  3.80000000E+01  0.00000000E+00
  2.80000000E+02  3.60000000E+01  0.00000000E+00
  2.80000000E+02  3.40000000E+01  0.00000000E+00
  2.80000000E+02  3.20000000E+01  0.00000000E+00
  2.80000000E+02  3.00000000E+01  0.00000000E+00
  2.80000000E+02  2.80000000E+01  0.00000000E+00
  2.80000000E+02  2.60000000E+01  0.00000000E+00
  2.80000000E+02  2.40000000E+01  0.00000000E+00
  2.80000000E+02  2.20000000E+01  0.00000000E+00
  2.80000000E+02  2.00000000E+01  0.00000000E+00
  2.80000000E+02  1.80000000E+01  0.00000000E+00
  2.80000000E+02  1.60000000E+01  0.00000000E+00
  2.80000000E+02  1.40000000E+01  0.00000000E+00
  2.80000000E+02  1.20000000E+01  0.00000000E+00
  2.80000000E+02  1.00000000E+01  0.00000000E+00
  2.80000000E+02  8.00000000E+00  0.00000000E+00
  2.80000000E+02  6.00000000E+00  0.00000000E+00
  2.80000000E+02  4.00000000E+00  0.00000000E+00
  2.80000000E+02  2.00000000E+00  0.00000000E+00
  2.80000000E+02 -3.33066907E-14  0.00000000E+00
  2.90000000E+02  1.00000000E+02  0.00000000E+00
  2.90000000E+02  9.80000000E+01  0.00000000E+00
  2.90000000E+02  9.60000000E+01  0.00000000E+00
  2.90000000E+02  9.40000000E+01  0.00000000E+00
  2.90000000E+02  9.20000000E+01  0.00000000E+00
  2.90000000E+02  9.00000000E+01  0.00000000E+00
  2.90000000E+02  8.80000000E+01  0.00000000E+00
  2.90000000E+02  8.60000000E+01  0.00000000E+00
  2.90000000E+02  8.40000000E+01  0.00000000E+00
  2.90000000E+02  8.20000000E+01  0.00000000E+00
  2.90000000E+02  8.00000000E+01  0.00000000E+00
  2.90000000E+02  7.80000000E+01  0.00000000E+00
  2.90000000E+02  7.60000000E+01  0.00000000E+00
  2.90000000E+02  7.40000000E+01  0.00000000E+00
  2.90000000E+02  7.20000000E+01  0.00000000E+00
  2.90000000E+02  7.00000000E+01  0.00000000E+00
  2.90000000E+02  6.80000000E+01  0.00000000E+00
  2.90000000E+02  6.60000000E+01  0.00000000E+00
  2.90000000E+02  6.40000000E+01  0.00000000E+00
  2.90000000E+02  6.20000000E+01  0.00000000E+00
  2.90000000E+02  6.00000000E+01  0.00000000E+00
  2.90000000E+02  5.80000000E+01  0.00000000E+00
  2.90000000E+02  5.60000000E+01  0.00000000E+00
  2.90000000E+02  5.40000000E+01  0.00000000E+00
  2.90000000E+02  5.20000000E+01  0.00000000E+00
  2.90000000E+02  5.00000000E+01  0.00000000E+00
  2.90000000E+02  4.80000000E+01  0.00000000E+00
  2.90000000E+02  4.60000000E+01  0.00000000E+00
  2.90000000E+02  4.40000000E+01  0.00000000E+00
  2.90000000E+02  4.20000000E+01  0.00000000E+00
  2.90000000E+02  4.00000000E+01  0.00000000E+00
  2.90000000E+02  3.80000000E+01  0.00000000E+00
  2.90000000E+02  3.60000000E+01  0.00000000E+00
  2.90000000E+02  3.40000000E+01  0.00000000E+00
  2.90000000E+02  3.20000000E+01  0.00000000E+00
  2.90000000E+02  3.00000000E+01  0.00000000E+00
  2.90000000E+02  2.80000000E+01  0.00000000E+00
  2.90000000E+02  2.60000000E+01  0.00000000E+00
  2.90000000E+02  2.40000000E+01  0.00000000E+00
  2.90000000E+02  2.20000000E+01  0.00000000E+00
  2.90000000E+02  2.00000000E+01  0.00000000E+00
  2.90000000E+02  1.80000000E+01  0.00000000E+00
  2.90000000E+02  1.60000000E+01  0.00000000E+00
  2.90000000E+02  1.40000000E+01  0.00000000E+00
  2.90000000E+02  1.20000000E+01  0.00000000E+00
  2.90000000E+02  1.00000000E+01  0.00000000E+00
  2.90000000E+02  8.00000000E+00  0.00000000E+00
  2.90000000E+02  6.00000000E+00  0.00000000E+00
  2.90000000E+02  4.00000000E+00  0.00000000E+00
  2.90000000E+02  2.00000000E+00  0.00000000E+00
  2.90000000E+02 -3.33066907E-14  0.00000000E+00
  3.00000000E+02  1.00000000E+02  0.00000000E+00
  3.00000000E+02  9.80000000E+01  0.00000000E+00
  3.00000000E+02  9.60000000E+01  0.00000000E+00
  3.00000000E+02  9.40000000E+01  0.00000000E+00
  3.00000000E+02  9.20000000E+01  0.00000000E+00
  3.00000000E+02  9.00000000E+01  0.00000000E+00
  3.00000000E+02  8.80000000E+01  0.00000000E+00
  3.00000000E+02  8.60000000E+01  0.00000000E+00
  3.00000000E+02  8.40000000E+01  0.00000000E+00
  3.00000000E+02  8.20000000E+01  0.00000000E+00
  3.00000000E+02  8.00000000E+01  0.00000000E+00
  3.00000000E+02  7.80000000E+01  0.00000000E+00
  3.00000000E+02  7.60000000E+01  0.00000000E+00
  3.00000000E+02  7.40000000E+01  0.00000000E+00
  3.00000000E+02  7.20000000E+01  0.00000000E+00
  3.00000000E+02  7.00000000E+01  0.00000000E+00
  3.00000000E+02  6.80000000E+01  0.00000000E+00
  3.00000000E+02  6.60000000E+01  0.00000000E+00
  3.00000000E+02  6.40000000E+01  0.00000000E+00
  3.00000000E+02  6.20000000E+01  0.00000000E+00
  3.00000000E+02  6.00000000E+01  0.00000000E+00
  3.00000000E+02  5.80000000E+01  0.00000000E+00
  3.00000000E+02  5.60000000E+01  0.00000000E+00
  3.00000000E+02  5.40000000E+01  0.00000000E+00
  3.00000000E+02  5.20000000E+01  0.00000000E+00
  3.00000000E+02  5.00000000E+01  0.00000000E+00
  3.00000000E+02  4.80000000E+01  0.00000000E+00
  3.00000000E+02  4.60000000E+01  0.00000000E+00
  3.00000000E+02  4.40000000E+01  0.00000000E+00
  3.00000000E+02  4.20000000E+01  0.00000000E+00
  3.00000000E+02  4.00000000E+01  0.00000000E+00
  3.00000000E+02  3.80000000E+01  0.00000000E+00
  3.00000000E+02  3.60000000E+01  0.00000000E+00
  3.00000000E+02  3.40000000E+01  0.00000000E+00
  3.00000000E+02  3.20000000E+01  0.00000000E+00
  3.00000000E+02  3.00000000E+01  0.00000000E+00
  3.00000000E+02  2.80000000E+01  0.00000000E+00
  3.00000000E+02  2.60000000E+01  0.00000000E+00
  3.00000000E+02  2.40000000E+01  0.00000000E+00
  3.00000000E+02  2.20000000E+01  0.00000000E+00
  3.00000000E+02  2.00000000E+01  0.00000000E+00
  3.00000000E+02  1.80000000E+01  0.00000000E+00
  3.00000000E+02  1.60000000E+01  0.00000000E+00
  3.00000000E+02  1.40000000E+01  0.00000000E+00
  3.00000000E+02  1.20000000E+01  0.00000000E+00
  3.00000000E+02  1.00000000E+01  0.00000000E+00
  3.00000000E+02  8.00000000E+00  0.00000000E+00
  3.00000000E+02  6.00000000E+00  0.00000000E+00
  3.00000000E+02  4.00000000E+00  0.00000000E+00
  3.00000000E+02  2.00000000E+00  0.00000000E+00
  3.00000000E+02 -3.33066907E-14  0.00000000E+00
  3.10000000E+02  1.00000000E+02  0.00000000E+00
  3.10000000E+02  9.80000000E+01  0.00000000E+00
  3.10000000E+02  9.60000000E+01  0.00000000E+00
  3.10000000E+02  9.40000000E+01  0.00000000E+00
  3.10000000E+02  9.20000000E+01  0.00000000E+00
  3.10000000E+02  9.00000000E+01  0.00000000E+00
  3.10000000E+02  8.80000000E+01  0.00000000E+00
  3.10000000E+02  8.60000000E+01  0.00000000E+00
  3.10000000E+02  8.40000000E+01  0.00000000E+00
  3.10000000E+02  8.20000000E+01  0.00000000E+00
  3.10000000E+02  8.00000000E+01  0.00000000E+00
  3.10000000E+02  7.80000000E+01  0.00000000E+00
  3.10000000E+02  7.60000000E+01  0.00000000E+00
  3.10000000E+02  7.40000000E+01  0.00000000E+00
  3.10000000E+02  7.20000000E+01  0.00000000E+00
  3.10000000E+02  7.00000000E+01  0.00000000E+00
  3.10000000E+02  6.80000000E+01  0.00000000E+00
  3.10000000E+02  6.60000000E+01  0.00000000E+00
  3.10000000E+02  6.40000000E+01  0.00000000E+00
  3.10000000E+02  6.20000000E+01  0.00000000E+00
  3.10000000E+02  6.00000000E+01  0.00000000E+00
  3.10000000E+02  5.80000000E+01  0.00000000E+00
  3.10000000E+02  5.60000000E+01  0.00000000E+00
  3.10000000E+02  5.40000000E+01  0.00000000E+00
  3.10000000E+02  5.20000000E+01  0.00000000E+00
  3.10000000E+02  5.00000000E+01  0.00000000E+00
  3.10000000E+02  4.80000000E+01  0.00000000E+00
  3.10000000E+02  4.60000000E+01  0.00000000E+00
  3.10000000E+02  4.40000000E+01  0.00000000E+00
  3.10000000E+02  4.20000000E+01  0.00000000E+00
  3.10000000E+02  4.00000000E+01  0.00000000E+00
  3.10000000E+02  3.80000000E+01  0.00000000E+00
  3.10000000E+02  3.60000000E+01  0.00000000E+00
  3.10000000E+02  3.40000000E+01  0.00000000E+00
  3.10000000E+02  3.20000000E+01  0.00000000E+00
  3.10000000E+02  3.00000000E+01  0.00000000E+00
  3.10000000E+02  2.80000000E+01  0.00000000E+00
  3.10000000E+02  2.60000000E+01  0.00000000E+00
  3.10000000E+02  2.40000000E+01  0.00000000E+00
  3.10000000E+02  2.20000000E+01  0.00000000E+00
  3.10000000E+02  2.00000000E+01  0.00000000E+00
  3.10000000E+02  1.80000000E+01  0.00000000E+00
  3.10000000E+02  1.60000000E+01  0.00000000E+00
  3.10000000E+02  1.40000000E+01  0.00000000E+00
  3.10000000E+02  1.20000000E+01  0.00000000E+00
  3.10000000E+02  1.00000000E+01  0.00000000E+00
  3.10000000E+02  8.00000000E+00  0.00000000E+00
  3.10000000E+02  6.00000000E+00  0.00000000E+00
  3.10000000E+02  4.00000000E+00  0.00000000E+00
  3.10000000E+02  2.00000000E+00  0.00000000E+00
  3.10000000E+02 -3.33066907E-14  0.00000000E+00
  3.20000000E+02  1.00000000E+02  0.00000000E+00
  3.20000000E+02  9.80000000E+01  0.00000000E+00
  3.20000000E+02  9.60000000E+01  0.00000000E+00
  3.20000000E+02  9.40000000E+01  0.00000000E+00
  3.20000000E+02  9.20000000E+01  0.00000000E+00
  3.20000000E+02  9.00000000E+01  0.00000000E+00
  3.20000000E+02  8.80000000E+01  0.00000000E+00
  3.20000000E+02  8.60000000E+01  0.00000000E+00
  3.20000000E+02  8.40000000E+01  0.00000000E+00
  3.20000000E+02  8.20000000E+01  0.00000000E+00
  3.20000000E+02  8.00000000E+01  0.00000000E+00
  3.20000000E+02  7.80000000E+01  0.00000000E+00
  3.20000000E+02  7.60000000E+01  0.00000000E+00
  3.20000000E+02  7.40000000E+01  0.00000000E+00
  3.20000000E+02  7.20000000E+01  0.00000000E+00
  3.20000000E+02  7.00000000E+01  0.00000000E+00
  3.20000000E+02  6.80000000E+01  0.00000000E+00
  3.20000000E+02  6.60000000E+01  0.00000000E+00
  3.20000000E+02  6.40000000E+01  0.00000000E+00
  3.20000000E+02  6.20000000E+01  0.00000000E+00
  3.20000000E+02  6.00000000E+01  0.00000000E+00
  3.20000000E+02  5.80000000E+01  0.00000000E+00
  3.20000000E+02  5.60000000E+01  0.00000000E+00
  3.20000000E+02  5.40000000E+01  0.00000000E+00
  3.20000000E+02  5.20000000E+01  0.00000000E+00
  3.20000000E+02  5.00000000E+01  0.00000000E+00
  3.20000000E+02  4.80000000E+01  0.00000000E+00
  3.20000000E+02  4.60000000E+01  0.00000000E+00
  3.20000000E+02  4.40000000E+01  0.00000000E+00
  3.20000000E+02  4.20000000E+01  0.00000000E+00
  3.20000000E+02  4.00000000E+01  0.00000000E+00
  3.20000000E+02  3.80000000E+01  0.00000000E+00
  3.20000000E+02  3.60000000E+01  0.00000000E+00
  3.20000000E+02  3.40000000E+01  0.00000000E+00
  3.20000000E+02  3.20000000E+01  0.00000000E+00
  3.20000000E+02  3.00000000E+01  0.00000000E+00
  3.20000000E+02  2.80000000E+01  0.00000000E+00
  3.20000000E+02  2.60000000E+01  0.00000000E+00
  3.20000000E+02  2.40000000E+01  0.00000000E+00
  3.20000000E+02  2.20000000E+01  0.00000000E+00
  3.20000000E+02  2.00000000E+01  0.00000000E+00
  3.20000000E+02  1.80000000E+01  0.00000000E+00
  3.20000000E+02  1.60000000E+01  0.00000000E+00
  3.20000000E+02  1.40000000E+01  0.00000000E+00
  3.20000000E+02  1.20000000E+01  0.00000000E+00
  3.20000000E+02  1.00000000E+01  0.00000000E+00
  3.20000000E+02  8.00000000E+00  0.00000000E+00
  3.20000000E+02  6.00000000E+00  0.00000000E+00
  3.20000000E+02  4.00000000E+00  0.00000000E+00
  3.20000000E+02  2.00000000E+00  0.00000000E+00
  3.20000000E+02 -3.33066907E-14  0.00000000E+00
  3.30000000E+02  1.00000000E+02  0.00000000E+00
  3.30000000E+02  9.80000000E+01  0.00000000E+00
  3.30000000E+02  9.60000000E+01  0.00000000E+00
  3.30000000E+02  9.40000000E+01  0.00000000E+00
  3.30000000E+02  9.20000000E+01  0.00000000E+00
  3.30000000E+02  9.00000000E+01  0.00000000E+00
  3.30000000E+02  8.80000000E+01  0.00000000E+00
  3.30000000E+02  8.60000000E+01  0.00000000E+00
  3.30000000E+02  8.40000000E+01  0.00000000E+00
  3.30000000E+02  8.20000000E+01  0.00000000E+00
  3.30000000E+02  8.00000000E+01  0.00000000E+00
  3.30000000E+02  7.80000000E+01  0.00000000E+00
  3.30000000E+02  7.60000000E+01  0.00000000E+00
  3.30000000E+02  7.40000000E+01  0.00000000E+00
  3.30000000E+02  7.20000000E+01  0.00000000E+00
  3.30000000E+02  7.00000000E+01  0.00000000E+00
  3.30000000E+02  6.80000000E+01  0.00000000E+00
  3.30000000E+02  6.60000000E+01  0.00000000E+00
  3.30000000E+02  6.40000000E+01  0.00000000E+00
  3.30000000E+02  6.20000000E+01  0.00000000E+00
  3.30000000E+02  6.00000000E+01  0.00000000E+00
  3.30000000E+02  5.80000000E+01  0.00000000E+00
  3.30000000E+02  5.60000000E+01  0.00000000E+00
  3.30000000E+02  5.40000000E+01  0.00000000E+00
  3.30000000E+02  5.20000000E+01  0.00000000E+00
  3.30000000E+02  5.00000000E+01  0.00000000E+00
  3.30000000E+02  4.80000000E+01  0.00000000E+00
  3.30000000E+02  4.60000000E+01  0.00000000E+00
  3.30000000E+02  4.40000000E+01  0.00000000E+00
  3.30000000E+02  4.20000000E+01  0.00000000E+00
  3.30000000E+02  4.00000000E+01  0.00000000E+00
  3.30000000E+02  3.80000000E+01  0.00000000E+00
  3.30000000E+02  3.60000000E+01  0.00000000E+00
  3.30000000E+02  3.40000000E+01  0.00000000E+00
  3.30000000E+02  3.20000000E+01  0.00000000E+00
  3.30000000E+02  3.00000000E+01  0.00000000E+00
  3.30000000E+02  2.80000000E+01  0.00000000E+00
  3.30000000E+02  2.60000000E+01  0.00000000E+00
  3.30000000E+02  2.40000000E+01  0.00000000E+00
  3.30000000E+02  2.20000000E+01  0.00000000E+00
  3.30000000E+02  2.00000000E+01  0.00000000E+00
  3.30000000E+02  1.80000000E+01  0.00000000E+00
  3.30000000E+02  1.60000000E+01  0.00000000E+00
  3.30000000E+02  1.40000000E+01  0.00000000E+00
  3.30000000E+02  1.20000000E+01  0.00000000E+00
  3.30000000E+02  1.00000000E+01  0.00000000E+00
  3.30000000E+02  8.00000000E+00  0.00000000E+00
  3.30000000E+02  6.00000000E+00  0.00000000E+00
  3.30000000E+02  4.00000000E+00  0.00000000E+00
  3.30000000E+02  2.00000000E+00  0.00000000E+00
  3.30000000E+02 -3.33066907E-14  0.00000000E+00
  3.40000000E+02  1.00000000E+02  0.00000000E+00
  3.40000000E+02  9.80000000E+01  0.00000000E+00
  3.40000000E+02  9.60000000E+01  0.00000000E+00
  3.40000000E+02  9.40000000E+01  0.00000000E+00
  3.40000000E+02  9.20000000E+01  0.00000000E+00
  3.40000000E+02  9.00000000E+01  0.00000000E+00
  3.40000000E+02  8.80000000E+01  0.00000000E+00
  3.40000000E+02  8.60000000E+01  0.00000000E+00
  3.40000000E+02  8.40000000E+01  0.00000000E+00
  3.40000000E+02  8.20000000E+01  0.00000000E+00
  3.40000000E+02  8.00000000E+01  0.00000000E+00
  3.40000000E+02  7.80000000E+01  0.00000000E+00
  3.40000000E+02  7.60000000E+01  0.00000000E+00
  3.40000000E+02  7.40000000E+01  0.00000000E+00
  3.40000000E+02  7.20000000E+01  0.00000000E+00
  3.40000000E+02  7.00000000E+01  0.00000000E+00
  3.40000000E+02  6.80000000E+01  0.00000000E+00
  3.40000000E+02  6.60000000E+01  0.00000000E+00
  3.40000000E+02  6.40000000E+01  0.00000000E+00
  3.40000000E+02  6.20000000E+01  0.00000000E+00
  3.40000000E+02  6.00000000E+01  0.00000000E+00
  3.40000000E+02  5.80000000E+01  0.00000000E+00
  3.40000000E+02  5.60000000E+01  0.00000000E+00
  3.40000000E+02  5.40000000E+01  0.00000000E+00
  3.40000000E+02  5.20000000E+01  0.00000000E+00
  3.40000000E+02  5.00000000E+01  0.00000000E+00
  3.40000000E+02  4.80000000E+01  0.00000000E+00
  3.40000000E+02  4.60000000E+01  0.00000000E+00
  3.40000000E+02  4.40000000E+01  0.00000000E+00
  3.40000000E+02  4.20000000E+01  0.00000000E+00
  3.40000000E+02  4.00000000E+01  0.00000000E+00
  3.40000000E+02  3.80000000E+01  0.00000000E+00
  3.40000000E+02  3.60000000E+01  0.00000000E+00
  3.40000000E+02  3.40000000E+01  0.00000000E+00
  3.40000000E+02  3.20000000E+01  0.00000000E+00
  3.40000000E+02  3.00000000E+01  0.00000000E+00
  3.40000000E+02  2.80000000E+01  0.00000000E+00
  3.40000000E+02  2.60000000E+01  0.00000000E+00
  3.40000000E+02  2.40000000E+01  0.00000000E+00
  3.40000000E+02  2.20000000E+01  0.00000000E+00
  3.40000000E+02  2.00000000E+01  0.00000000E+00
  3.40000000E+02  1.80000000E+01  0.00000000E+00
  3.40000000E+02  1.60000000E+01  0.00000000E+00
  3.40000000E+02  1.40000000E+01  0.00000000E+00
  3.40000000E+02  1.20000000E+01  0.00000000E+00
  3.40000000E+02  1.00000000E+01  0.00000000E+00
  3.40000000E+02  8.00000000E+00  0.00000000E+00
  3.40000000E+02  6.00000000E+00  0.00000000E+00
  3.40000000E+02  4.00000000E+00  0.00000000E+00
  3.40000000E+02  2.00000000E+00  0.00000000E+00
  3.40000000E+02 -3.33066907E-14  0.00000000E+00
  3.50000000E+02  1.00000000E+02  0.00000000E+00
  3.50000000E+02  9.80000000E+01  0.00000000E+00
  3.50000000E+02  9.60000000E+01  0.00000000E+00
  3.50000000E+02  9.40000000E+01  0.00000000E+00
  3.50000000E+02  9.20000000E+01  0.00000000E+00
  3.50000000E+02  9.00000000E+01  0.00000000E+00
  3.50000000E+02  8.80000000E+01  0.00000000E+00
  3.50000000E+02  8.60000000E+01  0.00000000E+00
  3.50000000E+02  8.40000000E+01  0.00000000E+00
  3.50000000E+02  8.20000000E+01  0.00000000E+00
  3.50000000E+02  8.00000000E+01  0.00000000E+00
  3.50000000E+02  7.80000000E+01  0.00000000E+00
  3.50000000E+02  7.60000000E+01  0.00000000E+00
  3.50000000E+02  7.40000000E+01  0.00000000E+00
  3.50000000E+02  7.20000000E+01  0.00000000E+00
  3.50000000E+02  7.00000000E+01  0.00000000E+00
  3.50000000E+02  6.80000000E+01  0.00000000E+00
  3.50000000E+02  6.60000000E+01  0.00000000E+00
  3.50000000E+02  6.40000000E+01  0.00000000E+00
  3.50000000E+02  6.20000000E+01  0.00000000E+00
  3.50000000E+02  6.00000000E+01  0.00000000E+00
  3.50000000E+02  5.80000000E+01  0.00000000E+00
  3.50000000E+02  5.60000000E+01  0.00000000E+00
  3.50000000E+02  5.40000000E+01  0.00000000E+00
  3.50000000E+02  5.20000000E+01  0.00000000E+00
  3.50000000E+02  5.00000000E+01  0.00000000E+00
  3.50000000E+02  4.80000000E+01  0.00000000E+00
  3.50000000E+02  4.60000000E+01  0.00000000E+00
  3.50000000E+02  4.40000000E+01  0.00000000E+00
  3.50000000E+02  4.20000000E+01  0.00000000E+00
  3.50000000E+02  4.00000000E+01  0.00000000E+00
  3.50000000E+02  3.80000000E+01  0.00000000E+00
  3.50000000E+02  3.60000000E+01  0.00000000E+00
  3.50000000E+02  3.40000000E+01  0.00000000E+00
  3.50000000E+02  3.20000000E+01  0.00000000E+00
  3.50000000E+02  3.00000000E+01  0.00000000E+00
  3.50000000E+02  2.80000000E+01  0.00000000E+00
  3.50000000E+02  2.60000000E+01  0.00000000E+00
  3.50000000E+02  2.40000000E+01  0.00000000E+00
  3.50000000E+02  2.20000000E+01  0.00000000E+00
  3.50000000E+02  2.00000000E+01  0.00000000E+00
  3.50000000E+02  1.80000000E+01  0.00000000E+00
  3.50000000E+02  1.60000000E+01  0.00000000E+00
  3.50000000E+02  1.40000000E+01  0.00000000E+00
  3.50000000E+02  1.20000000E+01  0.00000000E+00
  3.50000000E+02  1.00000000E+01  0.00000000E+00
  3.50000000E+02  8.00000000E+00  0.00000000E+00
  3.50000000E+02  6.00000000E+00  0.00000000E+00
  3.50000000E+02  4.00000000E+00  0.00000000E+00
  3.50000000E+02  2.00000000E+00  0.00000000E+00
  3.50000000E+02 -3.33066907E-14  0.00000000E+00
  3.60000000E+02  1.00000000E+02  0.00000000E+00
  3.60000000E+02  9.80000000E+01  0.00000000E+00
  3.60000000E+02  9.60000000E+01  0.00000000E+00
  3.60000000E+02  9.40000000E+01  0.00000000E+00
  3.60000000E+02  9.20000000E+01  0.00000000E+00
  3.60000000E+02  9.00000000E+01  0.00000000E+00
  3.60000000E+02  8.80000000E+01  0.00000000E+00
  3.60000000E+02  8.60000000E+01  0.00000000E+00
  3.60000000E+02  8.40000000E+01  0.00000000E+00
  3.60000000E+02  8.20000000E+01  0.00000000E+00
  3.60000000E+02  8.00000000E+01  0.00000000E+00
  3.60000000E+02  7.80000000E+01  0.00000000E+00
  3.60000000E+02  7.60000000E+01  0.00000000E+00
  3.60000000E+02  7.40000000E+01  0.00000000E+00
  3.60000000E+02  7.20000000E+01  0.00000000E+00
  3.60000000E+02  7.00000000E+01  0.00000000E+00
  3.60000000E+02  6.80000000E+01  0.00000000E+00
  3.60000000E+02  6.60000000E+01  0.00000000E+00
  3.60000000E+02  6.40000000E+01  0.00000000E+00
  3.60000000E+02  6.20000000E+01  0.00000000E+00
  3.60000000E+02  6.00000000E+01  0.00000000E+00
  3.60000000E+02  5.80000000E+01  0.00000000E+00
  3.60000000E+02  5.60000000E+01  0.00000000E+00
  3.60000000E+02  5.40000000E+01  0.00000000E+00
  3.60000000E+02  5.20000000E+01  0.00000000E+00
  3.60000000E+02  5.00000000E+01  0.00000000E+00
  3.60000000E+02  4.80000000E+01  0.00000000E+00
  3.60000000E+02  4.60000000E+01  0.00000000E+00
  3.60000000E+02  4.40000000E+01  0.00000000E+00
  3.60000000E+02  4.20000000E+01  0.00000000E+00
  3.60000000E+02  4.00000000E+01  0.00000000E+00
  3.60000000E+02  3.80000000E+01  0.00000000E+00
  3.60000000E+02  3.60000000E+01  0.00000000E+00
  3.60000000E+02  3.40000000E+01  0.00000000E+00
  3.60000000E+02  3.20000000E+01  0.00000000E+00
  3.60000000E+02  3.00000000E+01  0.00000000E+00
  3.60000000E+02  2.80000000E+01  0.00000000E+00
  3.60000000E+02  2.60000000E+01  0.00000000E+00
  3.60000000E+02  2.40000000E+01  0.00000000E+00
  3.60000000E+02  2.20000000E+01  0.00000000E+00
  3.60000000E+02  2.00000000E+01  0.00000000E+00
  3.60000000E+02  1.80000000E+01  0.00000000E+00
  3.60000000E+02  1.60000000E+01  0.00000000E+00
  3.60000000E+02  1.40000000E+01  0.00000000E+00
  3.60000000E+02  1.20000000E+01  0.00000000E+00
  3.60000000E+02  1.00000000E+01  0.00000000E+00
  3.60000000E+02  8.00000000E+00  0.00000000E+00
  3.60000000E+02  6.00000000E+00  0.00000000E+00
  3.60000000E+02  4.00000000E+00  0.00000000E+00
  3.60000000E+02  2.00000000E+00  0.00000000E+00
  3.60000000E+02 -3.33066907E-14  0.00000000E+00
  3.70000000E+02  1.00000000E+02  0.00000000E+00
  3.70000000E+02  9.80000000E+01  0.00000000E+00
  3.70000000E+02  9.60000000E+01  0.00000000E+00
  3.70000000E+02  9.40000000E+01  0.00000000E+00
  3.70000000E+02  9.20000000E+01  0.00000000E+00
  3.70000000E+02  9.00000000E+01  0.00000000E+00
  3.70000000E+02  8.80000000E+01  0.00000000E+00
  3.70000000E+02  8.60000000E+01  0.00000000E+00
  3.70000000E+02  8.40000000E+01  0.00000000E+00
  3.70000000E+02  8.20000000E+01  0.00000000E+00
  3.70000000E+02  8.00000000E+01  0.00000000E+00
  3.70000000E+02  7.80000000E+01  0.00000000E+00
  3.70000000E+02  7.60000000E+01  0.00000000E+00
  3.70000000E+02  7.40000000E+01  0.00000000E+00
  3.70000000E+02  7.20000000E+01  0.00000000E+00
  3.70000000E+02  7.00000000E+01  0.00000000E+00
  3.70000000E+02  6.80000000E+01  0.00000000E+00
  3.70000000E+02  6.60000000E+01  0.00000000E+00
  3.70000000E+02  6.40000000E+01  0.00000000E+00
  3.70000000E+02  6.20000000E+01  0.00000000E+00
  3.70000000E+02  6.00000000E+01  0.00000000E+00
  3.70000000E+02  5.80000000E+01  0.00000000E+00
  3.70000000E+02  5.60000000E+01  0.00000000E+00
  3.70000000E+02  5.40000000E+01  0.00000000E+00
  3.70000000E+02  5.20000000E+01  0.00000000E+00
  3.70000000E+02  5.00000000E+01  0.00000000E+00
  3.70000000E+02  4.80000000E+01  0.00000000E+00
  3.70000000E+02  4.60000000E+01  0.00000000E+00
  3.70000000E+02  4.40000000E+01  0.00000000E+00
  3.70000000E+02  4.20000000E+01  0.00000000E+00
  3.70000000E+02  4.00000000E+01  0.00000000E+00
  3.70000000E+02  3.80000000E+01  0.00000000E+00
  3.70000000E+02  3.60000000E+01  0.00000000E+00
  3.70000000E+02  3.40000000E+01  0.00000000E+00
  3.70000000E+02  3.20000000E+01  0.00000000E+00
  3.70000000E+02  3.00000000E+01  0.00000000E+00
  3.70000000E+02  2.80000000E+01  0.00000000E+00
  3.70000000E+02  2.60000000E+01  0.00000000E+00
  3.70000000E+02  2.40000000E+01  0.00000000E+00
  3.70000000E+02  2.20000000E+01  0.00000000E+00
  3.70000000E+02  2.00000000E+01  0.00000000E+00
  3.70000000E+02  1.80000000E+01  0.00000000E+00
  3.70000000E+02  1.60000000E+01  0.00000000E+00
  3.70000000E+02  1.40000000E+01  0.00000000E+00
  3.70000000E+02  1.20000000E+01  0.00000000E+00
  3.70000000E+02  1.00000000E+01  0.00000000E+00
  3.70000000E+02  8.00000000E+00  0.00000000E+00
  3.70000000E+02  6.00000000E+00  0.00000000E+00
  3.70000000E+02  4.00000000E+00  0.00000000E+00
  3.70000000E+02  2.00000000E+00  0.00000000E+00
  3.70000000E+02 -3.33066907E-14  0.00000000E+00
  3.80000000E+02  1.00000000E+02  0.00000000E+00
  3.80000000E+02  9.80000000E+01  0.00000000E+00
  3.80000000E+02  9.60000000E+01  0.00000000E+00
  3.80000000E+02  9.40000000E+01  0.00000000E+00
  3.80000000E+02  9.20000000E+01  0.00000000E+00
  3.80000000E+02  9.00000000E+01  0.00000000E+00
  3.80000000E+02  8.80000000E+01  0.00000000E+00
  3.80000000E+02  8.60000000E+01  0.00000000E+00
  3.80000000E+02  8.40000000E+01  0.00000000E+00
  3.80000000E+02  8.20000000E+01  0.00000000E+00
  3.80000000E+02  8.00000000E+01  0.00000000E+00
  3.80000000E+02  7.80000000E+01  0.00000000E+00
  3.80000000E+02  7.60000000E+01  0.00000000E+00
  3.80000000E+02  7.40000000E+01  0.00000000E+00
  3.80000000E+02  7.20000000E+01  0.00000000E+00
  3.80000000E+02  7.00000000E+01  0.00000000E+00
  3.80000000E+02  6.80000000E+01  0.00000000E+00
  3.80000000E+02  6.60000000E+01  0.00000000E+00
  3.80000000E+02  6.40000000E+01  0.00000000E+00
  3.80000000E+02  6.20000000E+01  0.00000000E+00
  3.80000000E+02  6.00000000E+01  0.00000000E+00
  3.80000000E+02  5.80000000E+01  0.00000000E+00
  3.80000000E+02  5.60000000E+01  0.00000000E+00
  3.80000000E+02  5.40000000E+01  0.00000000E+00
  3.80000000E+02  5.20000000E+01  0.00000000E+00
  3.80000000E+02  5.00000000E+01  0.00000000E+00
  3.80000000E+02  4.80000000E+01  0.00000000E+00
  3.80000000E+02  4.60000000E+01  0.00000000E+00
  3.80000000E+02  4.40000000E+01  0.00000000E+00
  3.80000000E+02  4.20000000E+01  0.00000000E+00
  3.80000000E+02  4.00000000E+01  0.00000000E+00
  3.80000000E+02  3.80000000E+01  0.00000000E+00
  3.80000000E+02  3.60000000E+01  0.00000000E+00
  3.80000000E+02  3.40000000E+01  0.00000000E+00
  3.80000000E+02  3.20000000E+01  0.00000000E+00
  3.80000000E+02  3.00000000E+01  0.00000000E+00
  3.80000000E+02  2.80000000E+01  0.00000000E+00
  3.80000000E+02  2.60000000E+01  0.00000000E+00
  3.80000000E+02  2.40000000E+01  0.00000000E+00
  3.80000000E+02  2.20000000E+01  0.00000000E+00
  3.80000000E+02  2.00000000E+01  0.00000000E+00
  3.80000000E+02  1.80000000E+01  0.00000000E+00
  3.80000000E+02  1.60000000E+01  0.00000000E+00
  3.80000000E+02  1.40000000E+01  0.00000000E+00
  3.80000000E+02  1.20000000E+01  0.00000000E+00
  3.80000000E+02  1.00000000E+01  0.00000000E+00
  3.80000000E+02  8.00000000E+00  0.00000000E+00
  3.80000000E+02  6.00000000E+00  0.00000000E+00
  3.80000000E+02  4.00000000E+00  0.00000000E+00
  3.80000000E+02  2.00000000E+00  0.00000000E+00
  3.80000000E+02 -3.33066907E-14  0.00000000E+00
  3.90000000E+02  1.00000000E+02  0.00000000E+00
  3.90000000E+02  9.80000000E+01  0.00000000E+00
  3.90000000E+02  9.60000000E+01  0.00000000E+00
  3.90000000E+02  9.40000000E+01  0.00000000E+00
  3.90000000E+02  9.20000000E+01  0.00000000E+00
  3.90000000E+02  9.00000000E+01  0.00000000E+00
  3.90000000E+02  8.80000000E+01  0.00000000E+00
  3.90000000E+02  8.60000000E+01  0.00000000E+00
  3.90000000E+02  8.40000000E+01  0.00000000E+00
  3.90000000E+02  8.20000000E+01  0.00000000E+00
  3.90000000E+02  8.00000000E+01  0.00000000E+00
  3.90000000E+02  7.80000000E+01  0.00000000E+00
  3.90000000E+02  7.60000000E+01  0.00000000E+00
  3.90000000E+02  7.40000000E+01  0.00000000E+00
  3.90000000E+02  7.20000000E+01  0.00000000E+00
  3.90000000E+02  7.00000000E+01  0.00000000E+00
  3.90000000E+02  6.80000000E+01  0.00000000E+00
  3.90000000E+02  6.60000000E+01  0.00000000E+00
  3.90000000E+02  6.40000000E+01  0.00000000E+00
  3.90000000E+02  6.20000000E+01  0.00000000E+00
  3.90000000E+02  6.00000000E+01  0.00000000E+00
  3.90000000E+02  5.80000000E+01  0.00000000E+00
  3.90000000E+02  5.60000000E+01  0.00000000E+00
  3.90000000E+02  5.40000000E+01  0.00000000E+00
  3.90000000E+02  5.20000000E+01  0.00000000E+00
  3.90000000E+02  5.00000000E+01  0.00000000E+00
  3.90000000E+02  4.80000000E+01  0.00000000E+00
  3.90000000E+02  4.60000000E+01  0.00000000E+00
  3.90000000E+02  4.40000000E+01  0.00000000E+00
  3.90000000E+02  4.20000000E+01  0.00000000E+00
  3.90000000E+02  4.00000000E+01  0.00000000E+00
  3.90000000E+02  3.80000000E+01  0.00000000E+00
  3.90000000E+02  3.60000000E+01  0.00000000E+00
  3.90000000E+02  3.40000000E+01  0.00000000E+00
  3.90000000E+02  3.20000000E+01  0.00000000E+00
  3.90000000E+02  3.00000000E+01  0.00000000E+00
  3.90000000E+02  2.80000000E+01  0.00000000E+00
  3.90000000E+02  2.60000000E+01  0.00000000E+00
  3.90000000E+02  2.40000000E+01  0.00000000E+00
  3.90000000E+02  2.20000000E+01  0.00000000E+00
  3.90000000E+02  2.00000000E+01  0.00000000E+00
  3.90000000E+02  1.80000000E+01  0.00000000E+00
  3.90000000E+02  1.60000000E+01  0.00000000E+00
  3.90000000E+02  1.40000000E+01  0.00000000E+00
  3.90000000E+02  1.20000000E+01  0.00000000E+00
  3.90000000E+02  1.00000000E+01  0.00000000E+00
  3.90000000E+02  8.00000000E+00  0.00000000E+00
  3.90000000E+02  6.00000000E+00  0.00000000E+00
  3.90000000E+02  4.00000000E+00  0.00000000E+00
  3.90000000E+02  2.00000000E+00  0.00000000E+00
  3.90000000E+02 -3.33066907E-14  0.00000000E+00
  4.00000000E+02  1.00000000E+02  0.00000000E+00
  4.00000000E+02  9.80000000E+01  0.00000000E+00
  4.00000000E+02  9.60000000E+01  0.00000000E+00
  4.00000000E+02  9.40000000E+01  0.00000000E+00
  4.00000000E+02  9.20000000E+01  0.00000000E+00
  4.00000000E+02  9.00000000E+01  0.00000000E+00
  4.00000000E+02  8.80000000E+01  0.00000000E+00
  4.00000000E+02  8.60000000E+01  0.00000000E+00
  4.00000000E+02  8.40000000E+01  0.00000000E+00
  4.00000000E+02  8.20000000E+01  0.00000000E+00
  4.00000000E+02  8.00000000E+01  0.00000000E+00
  4.00000000E+02  7.80000000E+01  0.00000000E+00
  4.00000000E+02  7.60000000E+01  0.00000000E+00
  4.00000000E+02  7.40000000E+01  0.00000000E+00
  4.00000000E+02  7.20000000E+01  0.00000000E+00
  4.00000000E+02  7.00000000E+01  0.00000000E+00
  4.00000000E+02  6.80000000E+01  0.00000000E+00
  4.00000000E+02  6.60000000E+01  0.00000000E+00
  4.00000000E+02  6.40000000E+01  0.00000000E+00
  4.00000000E+02  6.20000000E+01  0.00000000E+00
  4.00000000E+02  6.00000000E+01  0.00000000E+00
  4.00000000E+02  5.80000000E+01  0.00000000E+00
  4.00000000E+02  5.60000000E+01  0.00000000E+00
  4.00000000E+02  5.40000000E+01  0.00000000E+00
  4.00000000E+02  5.20000000E+01  0.00000000E+00
  4.00000000E+02  5.00000000E+01  0.00000000E+00
  4.00000000E+02  4.80000000E+01  0.00000000E+00
  4.00000000E+02  4.60000000E+01  0.00000000E+00
  4.00000000E+02  4.40000000E+01  0.00000000E+00
  4.00000000E+02  4.20000000E+01  0.00000000E+00
  4.00000000E+02  4.00000000E+01  0.00000000E+00
  4.00000000E+02  3.80000000E+01  0.00000000E+00
  4.00000000E+02  3.60000000E+01  0.00000000E+00
  4.00000000E+02  3.40000000E+01  0.00000000E+00
  4.00000000E+02  3.20000000E+01  0.00000000E+00
  4.00000000E+02  3.00000000E+01  0.00000000E+00
  4.00000000E+02  2.80000000E+01  0.00000000E+00
  4.00000000E+02  2.60000000E+01  0.00000000E+00
  4.00000000E+02  2.40000000E+01  0.00000000E+00
  4.00000000E+02  2.20000000E+01  0.00000000E+00
  4.00000000E+02  2.00000000E+01  0.00000000E+00
  4.00000000E+02  1.80000000E+01  0.00000000E+00
  4.00000000E+02  1.60000000E+01  0.00000000E+00
  4.00000000E+02  1.40000000E+01  0.00000000E+00
  4.00000000E+02  1.20000000E+01  0.00000000E+00
  4.00000000E+02  1.00000000E+01  0.00000000E+00
  4.00000000E+02  8.00000000E+00  0.00000000E+00
  4.00000000E+02  6.00000000E+00  0.00000000E+00
  4.00000000E+02  4.00000000E+00  0.00000000E+00
  4.00000000E+02  2.00000000E+00  0.00000000E+00
  4.00000000E+02 -3.33066907E-14  0.00000000E+00
  4.10000000E+02  1.00000000E+02  0.00000000E+00
  4.10000000E+02  9.80000000E+01  0.00000000E+00
  4.10000000E+02  9.60000000E+01  0.00000000E+00
  4.10000000E+02  9.40000000E+01  0.00000000E+00
  4.10000000E+02  9.20000000E+01  0.00000000E+00
  4.10000000E+02  9.00000000E+01  0.00000000E+00
  4.10000000E+02  8.80000000E+01  0.00000000E+00
  4.10000000E+02  8.60000000E+01  0.00000000E+00
  4.10000000E+02  8.40000000E+01  0.00000000E+00
  4.10000000E+02  8.20000000E+01  0.00000000E+00
  4.10000000E+02  8.00000000E+01  0.00000000E+00
  4.10000000E+02  7.80000000E+01  0.00000000E+00
  4.10000000E+02  7.60000000E+01  0.00000000E+00
  4.10000000E+02  7.40000000E+01  0.00000000E+00
  4.10000000E+02  7.20000000E+01  0.00000000E+00
  4.10000000E+02  7.00000000E+01  0.00000000E+00
  4.10000000E+02  6.80000000E+01  0.00000000E+00
  4.10000000E+02  6.60000000E+01  0.00000000E+00
  4.10000000E+02  6.40000000E+01  0.00000000E+00
  4.10000000E+02  6.20000000E+01  0.00000000E+00
  4.10000000E+02  6.00000000E+01  0.00000000E+00
  4.10000000E+02  5.80000000E+01  0.00000000E+00
  4.10000000E+02  5.60000000E+01  0.00000000E+00
  4.10000000E+02  5.40000000E+01  0.00000000E+00
  4.10000000E+02  5.20000000E+01  0.00000000E+00
  4.10000000E+02  5.00000000E+01  0.00000000E+00
  4.10000000E+02  4.80000000E+01  0.00000000E+00
  4.10000000E+02  4.60000000E+01  0.00000000E+00
  4.10000000E+02  4.40000000E+01  0.00000000E+00
  4.10000000E+02  4.20000000E+01  0.00000000E+00
  4.10000000E+02  4.00000000E+01  0.00000000E+00
  4.10000000E+02  3.80000000E+01  0.00000000E+00
  4.10000000E+02  3.60000000E+01  0.00000000E+00
  4.10000000E+02  3.40000000E+01  0.00000000E+00
  4.10000000E+02  3.20000000E+01  0.00000000E+00
  4.10000000E+02  3.00000000E+01  0.00000000E+00
  4.10000000E+02  2.80000000E+01  0.00000000E+00
  4.10000000E+02  2.60000000E+01  0.00000000E+00
  4.10000000E+02  2.40000000E+01  0.00000000E+00
  4.10000000E+02  2.20000000E+01  0.00000000E+00
  4.10000000E+02  2.00000000E+01  0.00000000E+00
  4.10000000E+02  1.80000000E+01  0.00000000E+00
  4.10000000E+02  1.60000000E+01  0.00000000E+00
  4.10000000E+02  1.40000000E+01  0.00000000E+00
  4.10000000E+02  1.20000000E+01  0.00000000E+00
  4.10000000E+02  1.00000000E+01  0.00000000E+00
  4.10000000E+02  8.00000000E+00  0.00000000E+00
  4.10000000E+02  6.00000000E+00  0.00000000E+00
  4.10000000E+02  4.00000000E+00  0.00000000E+00
  4.10000000E+02  2.00000000E+00  0.00000000E+00
  4.10000000E+02 -3.33066907E-14  0.00000000E+00
  4.20000000E+02  1.00000000E+02  0.00000000E+00
  4.20000000E+02  9.80000000E+01  0.00000000E+00
  4.20000000E+02  9.60000000E+01  0.00000000E+00
  4.20000000E+02  9.40000000E+01  0.00000000E+00
  4.20000000E+02  9.20000000E+01  0.00000000E+00
  4.20000000E+02  9.00000000E+01  0.00000000E+00
  4.20000000E+02  8.80000000E+01  0.00000000E+00
  4.20000000E+02  8.60000000E+01  0.00000000E+00
  4.20000000E+02  8.40000000E+01  0.00000000E+00
  4.20000000E+02  8.20000000E+01  0.00000000E+00
  4.20000000E+02  8.00000000E+01  0.00000000E+00
  4.20000000E+02  7.80000000E+01  0.00000000E+00
  4.20000000E+02  7.60000000E+01  0.00000000E+00
  4.20000000E+02  7.40000000E+01  0.00000000E+00
  4.20000000E+02  7.20000000E+01  0.00000000E+00
  4.20000000E+02  7.00000000E+01  0.00000000E+00
  4.20000000E+02  6.80000000E+01  0.00000000E+00
  4.20000000E+02  6.60000000E+01  0.00000000E+00
  4.20000000E+02  6.40000000E+01  0.00000000E+00
  4.20000000E+02  6.20000000E+01  0.00000000E+00
  4.20000000E+02  6.00000000E+01  0.00000000E+00
  4.20000000E+02  5.80000000E+01  0.00000000E+00
  4.20000000E+02  5.60000000E+01  0.00000000E+00
  4.20000000E+02  5.40000000E+01  0.00000000E+00
  4.20000000E+02  5.20000000E+01  0.00000000E+00
  4.20000000E+02  5.00000000E+01  0.00000000E+00
  4.20000000E+02  4.80000000E+01  0.00000000E+00
  4.20000000E+02  4.60000000E+01  0.00000000E+00
  4.20000000E+02  4.40000000E+01  0.00000000E+00
  4.20000000E+02  4.20000000E+01  0.00000000E+00
  4.20000000E+02  4.00000000E+01  0.00000000E+00
  4.20000000E+02  3.80000000E+01  0.00000000E+00
  4.20000000E+02  3.60000000E+01  0.00000000E+00
  4.20000000E+02  3.40000000E+01  0.00000000E+00
  4.20000000E+02  3.20000000E+01  0.00000000E+00
  4.20000000E+02  3.00000000E+01  0.00000000E+00
  4.20000000E+02  2.80000000E+01  0.00000000E+00
  4.20000000E+02  2.60000000E+01  0.00000000E+00
  4.20000000E+02  2.40000000E+01  0.00000000E+00
  4.20000000E+02  2.20000000E+01  0.00000000E+00
  4.20000000E+02  2.00000000E+01  0.00000000E+00
  4.20000000E+02  1.80000000E+01  0.00000000E+00
  4.20000000E+02  1.60000000E+01  0.00000000E+00
  4.20000000E+02  1.40000000E+01  0.00000000E+00
  4.20000000E+02  1.20000000E+01  0.00000000E+00
  4.20000000E+02  1.00000000E+01  0.00000000E+00
  4.20000000E+02  8.00000000E+00  0.00000000E+00
  4.20000000E+02  6.00000000E+00  0.00000000E+00
  4.20000000E+02  4.00000000E+00  0.00000000E+00
  4.20000000E+02  2.00000000E+00  0.00000000E+00
  4.20000000E+02 -3.33066907E-14  0.00000000E+00
  4.30000000E+02  1.00000000E+02  0.00000000E+00
  4.30000000E+02  9.80000000E+01  0.00000000E+00
  4.30000000E+02  9.60000000E+01  0.00000000E+00
  4.30000000E+02  9.40000000E+01  0.00000000E+00
  4.30000000E+02  9.20000000E+01  0.00000000E+00
  4.30000000E+02  9.00000000E+01  0.00000000E+00
  4.30000000E+02  8.80000000E+01  0.00000000E+00
  4.30000000E+02  8.60000000E+01  0.00000000E+00
  4.30000000E+02  8.40000000E+01  0.00000000E+00
  4.30000000E+02  8.20000000E+01  0.00000000E+00
  4.30000000E+02  8.00000000E+01  0.00000000E+00
  4.30000000E+02  7.80000000E+01  0.00000000E+00
  4.30000000E+02  7.60000000E+01  0.00000000E+00
  4.30000000E+02  7.40000000E+01  0.00000000E+00
  4.30000000E+02  7.20000000E+01  0.00000000E+00
  4.30000000E+02  7.00000000E+01  0.00000000E+00
  4.30000000E+02  6.80000000E+01  0.00000000E+00
  4.30000000E+02  6.60000000E+01  0.00000000E+00
  4.30000000E+02  6.40000000E+01  0.00000000E+00
  4.30000000E+02  6.20000000E+01  0.00000000E+00
  4.30000000E+02  6.00000000E+01  0.00000000E+00
  4.30000000E+02  5.80000000E+01  0.00000000E+00
  4.30000000E+02  5.60000000E+01  0.00000000E+00
  4.30000000E+02  5.40000000E+01  0.00000000E+00
  4.30000000E+02  5.20000000E+01  0.00000000E+00
  4.30000000E+02  5.00000000E+01  0.00000000E+00
  4.30000000E+02  4.80000000E+01  0.00000000E+00
  4.30000000E+02  4.60000000E+01  0.00000000E+00
  4.30000000E+02  4.40000000E+01  0.00000000E+00
  4.30000000E+02  4.20000000E+01  0.00000000E+00
  4.30000000E+02  4.00000000E+01  0.00000000E+00
  4.30000000E+02  3.80000000E+01  0.00000000E+00
  4.30000000E+02  3.60000000E+01  0.00000000E+00
  4.30000000E+02  3.40000000E+01  0.00000000E+00
  4.30000000E+02  3.20000000E+01  0.00000000E+00
  4.30000000E+02  3.00000000E+01  0.00000000E+00
  4.30000000E+02  2.80000000E+01  0.00000000E+00
  4.30000000E+02  2.60000000E+01  0.00000000E+00
  4.30000000E+02  2.40000000E+01  0.00000000E+00
  4.30000000E+02  2.20000000E+01  0.00000000E+00
  4.30000000E+02  2.00000000E+01  0.00000000E+00
  4.30000000E+02  1.80000000E+01  0.00000000E+00
  4.30000000E+02  1.60000000E+01  0.00000000E+00
  4.30000000E+02  1.40000000E+01  0.00000000E+00
  4.30000000E+02  1.20000000E+01  0.00000000E+00
  4.30000000E+02  1.00000000E+01  0.00000000E+00
  4.30000000E+02  8.00000000E+00  0.00000000E+00
  4.30000000E+02  6.00000000E+00  0.00000000E+00
  4.30000000E+02  4.00000000E+00  0.00000000E+00
  4.30000000E+02  2.00000000E+00  0.00000000E+00
  4.30000000E+02 -3.33066907E-14  0.00000000E+00
  4.40000000E+02  1.00000000E+02  0.00000000E+00
  4.40000000E+02  9.80000000E+01  0.00000000E+00
  4.40000000E+02  9.60000000E+01  0.00000000E+00
  4.40000000E+02  9.40000000E+01  0.00000000E+00
  4.40000000E+02  9.20000000E+01  0.00000000E+00
  4.40000000E+02  9.00000000E+01  0.00000000E+00
  4.40000000E+02  8.80000000E+01  0.00000000E+00
  4.40000000E+02  8.60000000E+01  0.00000000E+00
  4.40000000E+02  8.40000000E+01  0.00000000E+00
  4.40000000E+02  8.20000000E+01  0.00000000E+00
  4.40000000E+02  8.00000000E+01  0.00000000E+00
  4.40000000E+02  7.80000000E+01  0.00000000E+00
  4.40000000E+02  7.60000000E+01  0.00000000E+00
  4.40000000E+02  7.40000000E+01  0.00000000E+00
  4.40000000E+02  7.20000000E+01  0.00000000E+00
  4.40000000E+02  7.00000000E+01  0.00000000E+00
  4.40000000E+02  6.80000000E+01  0.00000000E+00
  4.40000000E+02  6.60000000E+01  0.00000000E+00
  4.40000000E+02  6.40000000E+01  0.00000000E+00
  4.40000000E+02  6.20000000E+01  0.00000000E+00
  4.40000000E+02  6.00000000E+01  0.00000000E+00
  4.40000000E+02  5.80000000E+01  0.00000000E+00
  4.40000000E+02  5.60000000E+01  0.00000000E+00
  4.40000000E+02  5.40000000E+01  0.00000000E+00
  4.40000000E+02  5.20000000E+01  0.00000000E+00
  4.40000000E+02  5.00000000E+01  0.00000000E+00
  4.40000000E+02  4.80000000E+01  0.00000000E+00
  4.40000000E+02  4.60000000E+01  0.00000000E+00
  4.40000000E+02  4.40000000E+01  0.00000000E+00
  4.40000000E+02  4.20000000E+01  0.00000000E+00
  4.40000000E+02  4.00000000E+01  0.00000000E+00
  4.40000000E+02  3.80000000E+01  0.00000000E+00
  4.40000000E+02  3.60000000E+01  0.00000000E+00
  4.40000000E+02  3.40000000E+01  0.00000000E+00
  4.40000000E+02  3.20000000E+01  0.00000000E+00
  4.40000000E+02  3.00000000E+01  0.00000000E+00
  4.40000000E+02  2.80000000E+01  0.00000000E+00
  4.40000000E+02  2.60000000E+01  0.00000000E+00
  4.40000000E+02  2.40000000E+01  0.00000000E+00
  4.40000000E+02  2.20000000E+01  0.00000000E+00
  4.40000000E+02  2.00000000E+01  0.00000000E+00
  4.40000000E+02  1.80000000E+01  0.00000000E+00
  4.40000000E+02  1.60000000E+01  0.00000000E+00
  4.40000000E+02  1.40000000E+01  0.00000000E+00
  4.40000000E+02  1.20000000E+01  0.00000000E+00
  4.40000000E+02  1.00000000E+01  0.00000000E+00
  4.40000000E+02  8.00000000E+00  0.00000000E+00
  4.40000000E+02  6.00000000E+00  0.00000000E+00
  4.40000000E+02  4.00000000E+00  0.00000000E+00
  4.40000000E+02  2.00000000E+00  0.00000000E+00
  4.40000000E+02 -3.33066907E-14  0.00000000E+00
  4.50000000E+02  1.00000000E+02  0.00000000E+00
  4.50000000E+02  9.80000000E+01  0.00000000E+00
  4.50000000E+02  9.60000000E+01  0.00000000E+00
  4.50000000E+02  9.40000000E+01  0.00000000E+00
  4.50000000E+02  9.20000000E+01  0.00000000E+00
  4.50000000E+02  9.00000000E+01  0.00000000E+00
  4.50000000E+02  8.80000000E+01  0.00000000E+00
  4.50000000E+02  8.60000000E+01  0.00000000E+00
  4.50000000E+02  8.40000000E+01  0.00000000E+00
  4.50000000E+02  8.20000000E+01  0.00000000E+00
  4.50000000E+02  8.00000000E+01  0.00000000E+00
  4.50000000E+02  7.80000000E+01  0.00000000E+00
  4.50000000E+02  7.60000000E+01  0.00000000E+00
  4.50000000E+02  7.40000000E+01  0.00000000E+00
  4.50000000E+02  7.20000000E+01  0.00000000E+00
  4.50000000E+02  7.00000000E+01  0.00000000E+00
  4.50000000E+02  6.80000000E+01  0.00000000E+00
  4.50000000E+02  6.60000000E+01  0.00000000E+00
  4.50000000E+02  6.40000000E+01  0.00000000E+00
  4.50000000E+02  6.20000000E+01  0.00000000E+00
  4.50000000E+02  6.00000000E+01  0.00000000E+00
  4.50000000E+02  5.80000000E+01  0.00000000E+00
  4.50000000E+02  5.60000000E+01  0.00000000E+00
  4.50000000E+02  5.40000000E+01  0.00000000E+00
  4.50000000E+02  5.20000000E+01  0.00000000E+00
  4.50000000E+02  5.00000000E+01  0.00000000E+00
  4.50000000E+02  4.80000000E+01  0.00000000E+00
  4.50000000E+02  4.60000000E+01  0.00000000E+00
  4.50000000E+02  4.40000000E+01  0.00000000E+00
  4.50000000E+02  4.20000000E+01  0.00000000E+00
  4.50000000E+02  4.00000000E+01  0.00000000E+00
  4.50000000E+02  3.80000000E+01  0.00000000E+00
  4.50000000E+02  3.60000000E+01  0.00000000E+00
  4.50000000E+02  3.40000000E+01  0.00000000E+00
  4.50000000E+02  3.20000000E+01  0.00000000E+00
  4.50000000E+02  3.00000000E+01  0.00000000E+00
  4.50000000E+02  2.80000000E+01  0.00000000E+00
  4.50000000E+02  2.60000000E+01  0.00000000E+00
  4.50000000E+02  2.40000000E+01  0.00000000E+00
  4.50000000E+02  2.20000000E+01  0.00000000E+00
  4.50000000E+02  2.00000000E+01  0.00000000E+00
  4.50000000E+02  1.80000000E+01  0.00000000E+00
  4.50000000E+02  1.60000000E+01  0.00000000E+00
  4.50000000E+02  1.40000000E+01  0.00000000E+00
  4.50000000E+02  1.20000000E+01  0.00000000E+00
  4.50000000E+02  1.00000000E+01  0.00000000E+00
  4.50000000E+02  8.00000000E+00  0.00000000E+00
  4.50000000E+02  6.00000000E+00  0.00000000E+00
  4.50000000E+02  4.00000000E+00  0.00000000E+00
  4.50000000E+02  2.00000000E+00  0.00000000E+00
  4.50000000E+02 -3.33066907E-14  0.00000000E+00
  4.60000000E+02  1.00000000E+02  0.00000000E+00
  4.60000000E+02  9.80000000E+01  0.00000000E+00
  4.60000000E+02  9.60000000E+01  0.00000000E+00
  4.60000000E+02  9.40000000E+01  0.00000000E+00
  4.60000000E+02  9.20000000E+01  0.00000000E+00
  4.60000000E+02  9.00000000E+01  0.00000000E+00
  4.60000000E+02  8.80000000E+01  0.00000000E+00
  4.60000000E+02  8.60000000E+01  0.00000000E+00
  4.60000000E+02  8.40000000E+01  0.00000000E+00
  4.60000000E+02  8.20000000E+01  0.00000000E+00
  4.60000000E+02  8.00000000E+01  0.00000000E+00
  4.60000000E+02  7.80000000E+01  0.00000000E+00
  4.60000000E+02  7.60000000E+01  0.00000000E+00
  4.60000000E+02  7.40000000E+01  0.00000000E+00
  4.60000000E+02  7.20000000E+01  0.00000000E+00
  4.60000000E+02  7.00000000E+01  0.00000000E+00
  4.60000000E+02  6.80000000E+01  0.00000000E+00
  4.60000000E+02  6.60000000E+01  0.00000000E+00
  4.60000000E+02  6.40000000E+01  0.00000000E+00
  4.60000000E+02  6.20000000E+01  0.00000000E+00
  4.60000000E+02  6.00000000E+01  0.00000000E+00
  4.60000000E+02  5.80000000E+01  0.00000000E+00
  4.60000000E+02  5.60000000E+01  0.00000000E+00
  4.60000000E+02  5.40000000E+01  0.00000000E+00
  4.60000000E+02  5.20000000E+01  0.00000000E+00
  4.60000000E+02  5.00000000E+01  0.00000000E+00
  4.60000000E+02  4.80000000E+01  0.00000000E+00
  4.60000000E+02  4.60000000E+01  0.00000000E+00
  4.60000000E+02  4.40000000E+01  0.00000000E+00
  4.60000000E+02  4.20000000E+01  0.00000000E+00
  4.60000000E+02  4.00000000E+01  0.00000000E+00
  4.60000000E+02  3.80000000E+01  0.00000000E+00
  4.60000000E+02  3.60000000E+01  0.00000000E+00
  4.60000000E+02  3.40000000E+01  0.00000000E+00
  4.60000000E+02  3.20000000E+01  0.00000000E+00
  4.60000000E+02  3.00000000E+01  0.00000000E+00
  4.60000000E+02  2.80000000E+01  0.00000000E+00
  4.60000000E+02  2.60000000E+01  0.00000000E+00
  4.60000000E+02  2.40000000E+01  0.00000000E+00
  4.60000000E+02  2.20000000E+01  0.00000000E+00
  4.60000000E+02  2.00000000E+01  0.00000000E+00
  4.60000000E+02  1.80000000E+01  0.00000000E+00
  4.60000000E+02  1.60000000E+01  0.00000000E+00
  4.60000000E+02  1.40000000E+01  0.00000000E+00
  4.60000000E+02  1.20000000E+01  0.00000000E+00
  4.60000000E+02  1.00000000E+01  0.00000000E+00
  4.60000000E+02  8.00000000E+00  0.00000000E+00
  4.60000000E+02  6.00000000E+00  0.00000000E+00
  4.60000000E+02  4.00000000E+00  0.00000000E+00
  4.60000000E+02  2.00000000E+00  0.00000000E+00
  4.60000000E+02 -3.33066907E-14  0.00000000E+00
  4.70000000E+02  1.00000000E+02  0.00000000E+00
  4.70000000E+02  9.80000000E+01  0.00000000E+00
  4.70000000E+02  9.60000000E+01  0.00000000E+00
  4.70000000E+02  9.40000000E+01  0.00000000E+00
  4.70000000E+02  9.20000000E+01  0.00000000E+00
  4.70000000E+02  9.00000000E+01  0.00000000E+00
  4.70000000E+02  8.80000000E+01  0.00000000E+00
  4.70000000E+02  8.60000000E+01  0.00000000E+00
  4.70000000E+02  8.40000000E+01  0.00000000E+00
  4.70000000E+02  8.20000000E+01  0.00000000E+00
  4.70000000E+02  8.00000000E+01  0.00000000E+00
  4.70000000E+02  7.80000000E+01  0.00000000E+00
  4.70000000E+02  7.60000000E+01  0.00000000E+00
  4.70000000E+02  7.40000000E+01  0.00000000E+00
  4.70000000E+02  7.20000000E+01  0.00000000E+00
  4.70000000E+02  7.00000000E+01  0.00000000E+00
  4.70000000E+02  6.80000000E+01  0.00000000E+00
  4.70000000E+02  6.60000000E+01  0.00000000E+00
  4.70000000E+02  6.40000000E+01  0.00000000E+00
  4.70000000E+02  6.20000000E+01  0.00000000E+00
  4.70000000E+02  6.00000000E+01  0.00000000E+00
  4.70000000E+02  5.80000000E+01  0.00000000E+00
  4.70000000E+02  5.60000000E+01  0.00000000E+00
  4.70000000E+02  5.40000000E+01  0.00000000E+00
  4.70000000E+02  5.20000000E+01  0.00000000E+00
  4.70000000E+02  5.00000000E+01  0.00000000E+00
  4.70000000E+02  4.80000000E+01  0.00000000E+00
  4.70000000E+02  4.60000000E+01  0.00000000E+00
  4.70000000E+02  4.40000000E+01  0.00000000E+00
  4.70000000E+02  4.20000000E+01  0.00000000E+00
  4.70000000E+02  4.00000000E+01  0.00000000E+00
  4.70000000E+02  3.80000000E+01  0.00000000E+00
  4.70000000E+02  3.60000000E+01  0.00000000E+00
  4.70000000E+02  3.40000000E+01  0.00000000E+00
  4.70000000E+02  3.20000000E+01  0.00000000E+00
  4.70000000E+02  3.00000000E+01  0.00000000E+00
  4.70000000E+02  2.80000000E+01  0.00000000E+00
  4.70000000E+02  2.60000000E+01  0.00000000E+00
  4.70000000E+02  2.40000000E+01  0.00000000E+00
  4.70000000E+02  2.20000000E+01  0.00000000E+00
  4.70000000E+02  2.00000000E+01  0.00000000E+00
  4.70000000E+02  1.80000000E+01  0.00000000E+00
  4.70000000E+02  1.60000000E+01  0.00000000E+00
  4.70000000E+02  1.40000000E+01  0.00000000E+00
  4.70000000E+02  1.20000000E+01  0.00000000E+00
  4.70000000E+02  1.00000000E+01  0.00000000E+00
  4.70000000E+02  8.00000000E+00  0.00000000E+00
  4.70000000E+02  6.00000000E+00  0.00000000E+00
  4.70000000E+02  4.00000000E+00  0.00000000E+00
  4.70000000E+02  2.00000000E+00  0.00000000E+00
  4.70000000E+02 -3.33066907E-14  0.00000000E+00
  4.80000000E+02  1.00000000E+02  0.00000000E+00
  4.80000000E+02  9.80000000E+01  0.00000000E+00
  4.80000000E+02  9.60000000E+01  0.00000000E+00
  4.80000000E+02  9.40000000E+01  0.00000000E+00
  4.80000000E+02  9.20000000E+01  0.00000000E+00
  4.80000000E+02  9.00000000E+01  0.00000000E+00
  4.80000000E+02  8.80000000E+01  0.00000000E+00
  4.80000000E+02  8.60000000E+01  0.00000000E+00
  4.80000000E+02  8.40000000E+01  0.00000000E+00
  4.80000000E+02  8.20000000E+01  0.00000000E+00
  4.80000000E+02  8.00000000E+01  0.00000000E+00
  4.80000000E+02  7.80000000E+01  0.00000000E+00
  4.80000000E+02  7.60000000E+01  0.00000000E+00
  4.80000000E+02  7.40000000E+01  0.00000000E+00
  4.80000000E+02  7.20000000E+01  0.00000000E+00
  4.80000000E+02  7.00000000E+01  0.00000000E+00
  4.80000000E+02  6.80000000E+01  0.00000000E+00
  4.80000000E+02  6.60000000E+01  0.00000000E+00
  4.80000000E+02  6.40000000E+01  0.00000000E+00
  4.80000000E+02  6.20000000E+01  0.00000000E+00
  4.80000000E+02  6.00000000E+01  0.00000000E+00
  4.80000000E+02  5.80000000E+01  0.00000000E+00
  4.80000000E+02  5.60000000E+01  0.00000000E+00
  4.80000000E+02  5.40000000E+01  0.00000000E+00
  4.80000000E+02  5.20000000E+01  0.00000000E+00
  4.80000000E+02  5.00000000E+01  0.00000000E+00
  4.80000000E+02  4.80000000E+01  0.00000000E+00
  4.80000000E+02  4.60000000E+01  0.00000000E+00
  4.80000000E+02  4.40000000E+01  0.00000000E+00
  4.80000000E+02  4.20000000E+01  0.00000000E+00
  4.80000000E+02  4.00000000E+01  0.00000000E+00
  4.80000000E+02  3.80000000E+01  0.00000000E+00
  4.80000000E+02  3.60000000E+01  0.00000000E+00
  4.80000000E+02  3.40000000E+01  0.00000000E+00
  4.80000000E+02  3.20000000E+01  0.00000000E+00
  4.80000000E+02  3.00000000E+01  0.00000000E+00
  4.80000000E+02  2.80000000E+01  0.00000000E+00
  4.80000000E+02  2.60000000E+01  0.00000000E+00
  4.80000000E+02  2.40000000E+01  0.00000000E+00
  4.80000000E+02  2.20000000E+01  0.00000000E+00
  4.80000000E+02  2.00000000E+01  0.00000000E+00
  4.80000000E+02  1.80000000E+01  0.00000000E+00
  4.80000000E+02  1.60000000E+01  0.00000000E+00
  4.80000000E+02  1.40000000E+01  0.00000000E+00
  4.80000000E+02  1.20000000E+01  0.00000000E+00
  4.80000000E+02  1.00000000E+01  0.00000000E+00
  4.80000000E+02  8.00000000E+00  0.00000000E+00
  4.80000000E+02  6.00000000E+00  0.00000000E+00
  4.80000000E+02  4.00000000E+00  0.00000000E+00
  4.80000000E+02  2.00000000E+00  0.00000000E+00
  4.80000000E+02 -3.33066907E-14  0.00000000E+00
  4.90000000E+02  1.00000000E+02  0.00000000E+00
  4.90000000E+02  9.80000000E+01  0.00000000E+00
  4.90000000E+02  9.60000000E+01  0.00000000E+00
  4.90000000E+02  9.40000000E+01  0.00000000E+00
  4.90000000E+02  9.20000000E+01  0.00000000E+00
  4.90000000E+02  9.00000000E+01  0.00000000E+00
  4.90000000E+02  8.80000000E+01  0.00000000E+00
  4.90000000E+02  8.60000000E+01  0.00000000E+00
  4.90000000E+02  8.40000000E+01  0.00000000E+00
  4.90000000E+02  8.20000000E+01  0.00000000E+00
  4.90000000E+02  8.00000000E+01  0.00000000E+00
  4.90000000E+02  7.80000000E+01  0.00000000E+00
  4.90000000E+02  7.60000000E+01  0.00000000E+00
  4.90000000E+02  7.40000000E+01  0.00000000E+00
  4.90000000E+02  7.20000000E+01  0.00000000E+00
  4.90000000E+02  7.00000000E+01  0.00000000E+00
  4.90000000E+02  6.80000000E+01  0.00000000E+00
  4.90000000E+02  6.60000000E+01  0.00000000E+00
  4.90000000E+02  6.40000000E+01  0.00000000E+00
  4.90000000E+02  6.20000000E+01  0.00000000E+00
  4.90000000E+02  6.00000000E+01  0.00000000E+00
  4.90000000E+02  5.80000000E+01  0.00000000E+00
  4.90000000E+02  5.60000000E+01  0.00000000E+00
  4.90000000E+02  5.40000000E+01  0.00000000E+00
  4.90000000E+02  5.20000000E+01  0.00000000E+00
  4.90000000E+02  5.00000000E+01  0.00000000E+00
  4.90000000E+02  4.80000000E+01  0.00000000E+00
  4.90000000E+02  4.60000000E+01  0.00000000E+00
  4.90000000E+02  4.40000000E+01  0.00000000E+00
  4.90000000E+02  4.20000000E+01  0.00000000E+00
  4.90000000E+02  4.00000000E+01  0.00000000E+00
  4.90000000E+02  3.80000000E+01  0.00000000E+00
  4.90000000E+02  3.60000000E+01  0.00000000E+00
  4.90000000E+02  3.40000000E+01  0.00000000E+00
  4.90000000E+02  3.20000000E+01  0.00000000E+00
  4.90000000E+02  3.00000000E+01  0.00000000E+00
  4.90000000E+02  2.80000000E+01  0.00000000E+00
  4.90000000E+02  2.60000000E+01  0.00000000E+00
  4.90000000E+02  2.40000000E+01  0.00000000E+00
  4.90000000E+02  2.20000000E+01  0.00000000E+00
  4.90000000E+02  2.00000000E+01  0.00000000E+00
  4.90000000E+02  1.80000000E+01  0.00000000E+00
  4.90000000E+02  1.60000000E+01  0.00000000E+00
  4.90000000E+02  1.40000000E+01  0.00000000E+00
  4.90000000E+02  1.20000000E+01  0.00000000E+00
  4.90000000E+02  1.00000000E+01  0.00000000E+00
  4.90000000E+02  8.00000000E+00  0.00000000E+00
  4.90000000E+02  6.00000000E+00  0.00000000E+00
  4.90000000E+02  4.00000000E+00  0.00000000E+00
  4.90000000E+02  2.00000000E+00  0.00000000E+00
  4.90000000E+02 -3.33066907E-14  0.00000000E+00
  5.00000000E+02  1.00000000E+02  0.00000000E+00
  5.00000000E+02  9.80000000E+01  0.00000000E+00
  5.00000000E+02  9.60000000E+01  0.00000000E+00
  5.00000000E+02  9.40000000E+01  0.00000000E+00
  5.00000000E+02  9.20000000E+01  0.00000000E+00
  5.00000000E+02  9.00000000E+01  0.00000000E+00
  5.00000000E+02  8.80000000E+01  0.00000000E+00
  5.00000000E+02  8.60000000E+01  0.00000000E+00
  5.00000000E+02  8.40000000E+01  0.00000000E+00
  5.00000000E+02  8.20000000E+01  0.00000000E+00
  5.00000000E+02  8.00000000E+01  0.00000000E+00
  5.00000000E+02  7.80000000E+01  0.00000000E+00
  5.00000000E+02  7.60000000E+01  0.00000000E+00
  5.00000000E+02  7.40000000E+01  0.00000000E+00
  5.00000000E+02  7.20000000E+01  0.00000000E+00
  5.00000000E+02  7.00000000E+01  0.00000000E+00
  5.00000000E+02  6.80000000E+01  0.00000000E+00
  5.00000000E+02  6.60000000E+01  0.00000000E+00
  5.00000000E+02  6.40000000E+01  0.00000000E+00
  5.00000000E+02  6.20000000E+01  0.00000000E+00
  5.00000000E+02  6.00000000E+01  0.00000000E+00
  5.00000000E+02  5.80000000E+01  0.00000000E+00
  5.00000000E+02  5.60000000E+01  0.00000000E+00
  5.00000000E+02  5.40000000E+01  0.00000000E+00
  5.00000000E+02  5.20000000E+01  0.00000000E+00
  5.00000000E+02  5.00000000E+01  0.00000000E+00
  5.00000000E+02  4.80000000E+01  0.00000000E+00
  5.00000000E+02  4.60000000E+01  0.00000000E+00
  5.00000000E+02  4.40000000E+01  0.00000000E+00
  5.00000000E+02  4.20000000E+01  0.00000000E+00
  5.00000000E+02  4.00000000E+01  0.00000000E+00
  5.00000000E+02  3.80000000E+01  0.00000000E+00
  5.00000000E+02  3.60000000E+01  0.00000000E+00
  5.00000000E+02  3.40000000E+01  0.00000000E+00
  5.00000000E+02  3.20000000E+01  0.00000000E+00
  5.00000000E+02  3.00000000E+01  0.00000000E+00
  5.00000000E+02  2.80000000E+01  0.00000000E+00
  5.00000000E+02  2.60000000E+01  0.00000000E+00
  5.00000000E+02  2.40000000E+01  0.00000000E+00
  5.00000000E+02  2.20000000E+01  0.00000000E+00
  5.00000000E+02  2.00000000E+01  0.00000000E+00
  5.00000000E+02  1.80000000E+01  0.00000000E+00
  5.00000000E+02  1.60000000E+01  0.00000000E+00
  5.00000000E+02  1.40000000E+01  0.00000000E+00
  5.00000000E+02  1.20000000E+01  0.00000000E+00
  5.00000000E+02  1.00000000E+01  0.00000000E+00
  5.00000000E+02  8.00000000E+00  0.00000000E+00
  5.00000000E+02  6.00000000E+00  0.00000000E+00
  5.00000000E+02  4.00000000E+00  0.00000000E+00
  5.00000000E+02  2.00000000E+00  0.00000000E+00
  5.00000000E+02 -3.33066907E-14  0.00000000E+00
  5.10000000E+02  1.00000000E+02  0.00000000E+00
  5.10000000E+02  9.80000000E+01  0.00000000E+00
  5.10000000E+02  9.60000000E+01  0.00000000E+00
  5.10000000E+02  9.40000000E+01  0.00000000E+00
  5.10000000E+02  9.20000000E+01  0.00000000E+00
  5.10000000E+02  9.00000000E+01  0.00000000E+00
  5.10000000E+02  8.80000000E+01  0.00000000E+00
  5.10000000E+02  8.60000000E+01  0.00000000E+00
  5.10000000E+02  8.40000000E+01  0.00000000E+00
  5.10000000E+02  8.20000000E+01  0.00000000E+00
  5.10000000E+02  8.00000000E+01  0.00000000E+00
  5.10000000E+02  7.80000000E+01  0.00000000E+00
  5.10000000E+02  7.60000000E+01  0.00000000E+00
  5.10000000E+02  7.40000000E+01  0.00000000E+00
  5.10000000E+02  7.20000000E+01  0.00000000E+00
  5.10000000E+02  7.00000000E+01  0.00000000E+00
  5.10000000E+02  6.80000000E+01  0.00000000E+00
  5.10000000E+02  6.60000000E+01  0.00000000E+00
  5.10000000E+02  6.40000000E+01  0.00000000E+00
  5.10000000E+02  6.20000000E+01  0.00000000E+00
  5.10000000E+02  6.00000000E+01  0.00000000E+00
  5.10000000E+02  5.80000000E+01  0.00000000E+00
  5.10000000E+02  5.60000000E+01  0.00000000E+00
  5.10000000E+02  5.40000000E+01  0.00000000E+00
  5.10000000E+02  5.20000000E+01  0.00000000E+00
  5.10000000E+02  5.00000000E+01  0.00000000E+00
  5.10000000E+02  4.80000000E+01  0.00000000E+00
  5.10000000E+02  4.60000000E+01  0.00000000E+00
  5.10000000E+02  4.40000000E+01  0.00000000E+00
  5.10000000E+02  4.20000000E+01  0.00000000E+00
  5.10000000E+02  4.00000000E+01  0.00000000E+00
  5.10000000E+02  3.80000000E+01  0.00000000E+00
  5.10000000E+02  3.60000000E+01  0.00000000E+00
  5.10000000E+02  3.40000000E+01  0.00000000E+00
  5.10000000E+02  3.20000000E+01  0.00000000E+00
  5.10000000E+02  3.00000000E+01  0.00000000E+00
  5.10000000E+02  2.80000000E+01  0.00000000E+00
  5.10000000E+02  2.60000000E+01  0.00000000E+00
  5.10000000E+02  2.40000000E+01  0.00000000E+00
  5.10000000E+02  2.20000000E+01  0.00000000E+00
  5.10000000E+02  2.00000000E+01  0.00000000E+00
  5.10000000E+02  1.80000000E+01  0.00000000E+00
  5.10000000E+02  1.60000000E+01  0.00000000E+00
  5.10000000E+02  1.40000000E+01  0.00000000E+00
  5.10000000E+02  1.20000000E+01  0.00000000E+00
  5.10000000E+02  1.00000000E+01  0.00000000E+00
  5.10000000E+02  8.00000000E+00  0.00000000E+00
  5.10000000E+02  6.00000000E+00  0.00000000E+00
  5.10000000E+02  4.00000000E+00  0.00000000E+00
  5.10000000E+02  2.00000000E+00  0.00000000E+00
  5.10000000E+02 -3.33066907E-14  0.00000000E+00
  5.20000000E+02  1.00000000E+02  0.00000000E+00
  5.20000000E+02  9.80000000E+01  0.00000000E+00
  5.20000000E+02  9.60000000E+01  0.00000000E+00
  5.20000000E+02  9.40000000E+01  0.00000000E+00
  5.20000000E+02  9.20000000E+01  0.00000000E+00
  5.20000000E+02  9.00000000E+01  0.00000000E+00
  5.20000000E+02  8.80000000E+01  0.00000000E+00
  5.20000000E+02  8.60000000E+01  0.00000000E+00
  5.20000000E+02  8.40000000E+01  0.00000000E+00
  5.20000000E+02  8.20000000E+01  0.00000000E+00
  5.20000000E+02  8.00000000E+01  0.00000000E+00
  5.20000000E+02  7.80000000E+01  0.00000000E+00
  5.20000000E+02  7.60000000E+01  0.00000000E+00
  5.20000000E+02  7.40000000E+01  0.00000000E+00
  5.20000000E+02  7.20000000E+01  0.00000000E+00
  5.20000000E+02  7.00000000E+01  0.00000000E+00
  5.20000000E+02  6.80000000E+01  0.00000000E+00
  5.20000000E+02  6.60000000E+01  0.00000000E+00
  5.20000000E+02  6.40000000E+01  0.00000000E+00
  5.20000000E+02  6.20000000E+01  0.00000000E+00
  5.20000000E+02  6.00000000E+01  0.00000000E+00
  5.20000000E+02  5.80000000E+01  0.00000000E+00
  5.20000000E+02  5.60000000E+01  0.00000000E+00
  5.20000000E+02  5.40000000E+01  0.00000000E+00
  5.20000000E+02  5.20000000E+01  0.00000000E+00
  5.20000000E+02  5.00000000E+01  0.00000000E+00
  5.20000000E+02  4.80000000E+01  0.00000000E+00
  5.20000000E+02  4.60000000E+01  0.00000000E+00
  5.20000000E+02  4.40000000E+01  0.00000000E+00
  5.20000000E+02  4.20000000E+01  0.00000000E+00
  5.20000000E+02  4.00000000E+01  0.00000000E+00
  5.20000000E+02  3.80000000E+01  0.00000000E+00
  5.20000000E+02  3.60000000E+01  0.00000000E+00
  5.20000000E+02  3.40000000E+01  0.00000000E+00
  5.20000000E+02  3.20000000E+01  0.00000000E+00
  5.20000000E+02  3.00000000E+01  0.00000000E+00
  5.20000000E+02  2.80000000E+01  0.00000000E+00
  5.20000000E+02  2.60000000E+01  0.00000000E+00
  5.20000000E+02  2.40000000E+01  0.00000000E+00
  5.20000000E+02  2.20000000E+01  0.00000000E+00
  5.20000000E+02  2.00000000E+01  0.00000000E+00
  5.20000000E+02  1.80000000E+01  0.00000000E+00
  5.20000000E+02  1.60000000E+01  0.00000000E+00
  5.20000000E+02  1.40000000E+01  0.00000000E+00
  5.20000000E+02  1.20000000E+01  0.00000000E+00
  5.20000000E+02  1.00000000E+01  0.00000000E+00
  5.20000000E+02  8.00000000E+00  0.00000000E+00
  5.20000000E+02  6.00000000E+00  0.00000000E+00
  5.20000000E+02  4.00000000E+00  0.00000000E+00
  5.20000000E+02  2.00000000E+00  0.00000000E+00
  5.20000000E+02 -3.33066907E-14  0.00000000E+00
  5.30000000E+02  1.00000000E+02  0.00000000E+00
  5.30000000E+02  9.80000000E+01  0.00000000E+00
  5.30000000E+02  9.60000000E+01  0.00000000E+00
  5.30000000E+02  9.40000000E+01  0.00000000E+00
  5.30000000E+02  9.20000000E+01  0.00000000E+00
  5.30000000E+02  9.00000000E+01  0.00000000E+00
  5.30000000E+02  8.80000000E+01  0.00000000E+00
  5.30000000E+02  8.60000000E+01  0.00000000E+00
  5.30000000E+02  8.40000000E+01  0.00000000E+00
  5.30000000E+02  8.20000000E+01  0.00000000E+00
  5.30000000E+02  8.00000000E+01  0.00000000E+00
  5.30000000E+02  7.80000000E+01  0.00000000E+00
  5.30000000E+02  7.60000000E+01  0.00000000E+00
  5.30000000E+02  7.40000000E+01  0.00000000E+00
  5.30000000E+02  7.20000000E+01  0.00000000E+00
  5.30000000E+02  7.00000000E+01  0.00000000E+00
  5.30000000E+02  6.80000000E+01  0.00000000E+00
  5.30000000E+02  6.60000000E+01  0.00000000E+00
  5.30000000E+02  6.40000000E+01  0.00000000E+00
  5.30000000E+02  6.20000000E+01  0.00000000E+00
  5.30000000E+02  6.00000000E+01  0.00000000E+00
  5.30000000E+02  5.80000000E+01  0.00000000E+00
  5.30000000E+02  5.60000000E+01  0.00000000E+00
  5.30000000E+02  5.40000000E+01  0.00000000E+00
  5.30000000E+02  5.20000000E+01  0.00000000E+00
  5.30000000E+02  5.00000000E+01  0.00000000E+00
  5.30000000E+02  4.80000000E+01  0.00000000E+00
  5.30000000E+02  4.60000000E+01  0.00000000E+00
  5.30000000E+02  4.40000000E+01  0.00000000E+00
  5.30000000E+02  4.20000000E+01  0.00000000E+00
  5.30000000E+02  4.00000000E+01  0.00000000E+00
  5.30000000E+02  3.80000000E+01  0.00000000E+00
  5.30000000E+02  3.60000000E+01  0.00000000E+00
  5.30000000E+02  3.40000000E+01  0.00000000E+00
  5.30000000E+02  3.20000000E+01  0.00000000E+00
  5.30000000E+02  3.00000000E+01  0.00000000E+00
  5.30000000E+02  2.80000000E+01  0.00000000E+00
  5.30000000E+02  2.60000000E+01  0.00000000E+00
  5.30000000E+02  2.40000000E+01  0.00000000E+00
  5.30000000E+02  2.20000000E+01  0.00000000E+00
  5.30000000E+02  2.00000000E+01  0.00000000E+00
  5.30000000E+02  1.80000000E+01  0.00000000E+00
  5.30000000E+02  1.60000000E+01  0.00000000E+00
  5.30000000E+02  1.40000000E+01  0.00000000E+00
  5.30000000E+02  1.20000000E+01  0.00000000E+00
  5.30000000E+02  1.00000000E+01  0.00000000E+00
  5.30000000E+02  8.00000000E+00  0.00000000E+00
  5.30000000E+02  6.00000000E+00  0.00000000E+00
  5.30000000E+02  4.00000000E+00  0.00000000E+00
  5.30000000E+02  2.00000000E+00  0.00000000E+00
  5.30000000E+02 -3.33066907E-14  0.00000000E+00
  5.40000000E+02  1.00000000E+02  0.00000000E+00
  5.40000000E+02  9.80000000E+01  0.00000000E+00
  5.40000000E+02  9.60000000E+01  0.00000000E+00
  5.40000000E+02  9.40000000E+01  0.00000000E+00
  5.40000000E+02  9.20000000E+01  0.00000000E+00
  5.40000000E+02  9.00000000E+01  0.00000000E+00
  5.40000000E+02  8.80000000E+01  0.00000000E+00
  5.40000000E+02  8.60000000E+01  0.00000000E+00
  5.40000000E+02  8.40000000E+01  0.00000000E+00
  5.40000000E+02  8.20000000E+01  0.00000000E+00
  5.40000000E+02  8.00000000E+01  0.00000000E+00
  5.40000000E+02  7.80000000E+01  0.00000000E+00
  5.40000000E+02  7.60000000E+01  0.00000000E+00
  5.40000000E+02  7.40000000E+01  0.00000000E+00
  5.40000000E+02  7.20000000E+01  0.00000000E+00
  5.40000000E+02  7.00000000E+01  0.00000000E+00
  5.40000000E+02  6.80000000E+01  0.00000000E+00
  5.40000000E+02  6.60000000E+01  0.00000000E+00
  5.40000000E+02  6.40000000E+01  0.00000000E+00
  5.40000000E+02  6.20000000E+01  0.00000000E+00
  5.40000000E+02  6.00000000E+01  0.00000000E+00
  5.40000000E+02  5.80000000E+01  0.00000000E+00
  5.40000000E+02  5.60000000E+01  0.00000000E+00
  5.40000000E+02  5.40000000E+01  0.00000000E+00
  5.40000000E+02  5.20000000E+01  0.00000000E+00
  5.40000000E+02  5.00000000E+01  0.00000000E+00
  5.40000000E+02  4.80000000E+01  0.00000000E+00
  5.40000000E+02  4.60000000E+01  0.00000000E+00
  5.40000000E+02  4.40000000E+01  0.00000000E+00
  5.40000000E+02  4.20000000E+01  0.00000000E+00
  5.40000000E+02  4.00000000E+01  0.00000000E+00
  5.40000000E+02  3.80000000E+01  0.00000000E+00
  5.40000000E+02  3.60000000E+01  0.00000000E+00
  5.40000000E+02  3.40000000E+01  0.00000000E+00
  5.40000000E+02  3.20000000E+01  0.00000000E+00
  5.40000000E+02  3.00000000E+01  0.00000000E+00
  5.40000000E+02  2.80000000E+01  0.00000000E+00
  5.40000000E+02  2.60000000E+01  0.00000000E+00
  5.40000000E+02  2.40000000E+01  0.00000000E+00
  5.40000000E+02  2.20000000E+01  0.00000000E+00
  5.40000000E+02  2.00000000E+01  0.00000000E+00
  5.40000000E+02  1.80000000E+01  0.00000000E+00
  5.40000000E+02  1.60000000E+01  0.00000000E+00
  5.40000000E+02  1.40000000E+01  0.00000000E+00
  5.40000000E+02  1.20000000E+01  0.00000000E+00
  5.40000000E+02  1.00000000E+01  0.00000000E+00
  5.40000000E+02  8.00000000E+00  0.00000000E+00
  5.40000000E+02  6.00000000E+00  0.00000000E+00
  5.40000000E+02  4.00000000E+00  0.00000000E+00
  5.40000000E+02  2.00000000E+00  0.00000000E+00
  5.40000000E+02 -3.33066907E-14  0.00000000E+00
  5.50000000E+02  1.00000000E+02  0.00000000E+00
  5.50000000E+02  9.80000000E+01  0.00000000E+00
  5.50000000E+02  9.60000000E+01  0.00000000E+00
  5.50000000E+02  9.40000000E+01  0.00000000E+00
  5.50000000E+02  9.20000000E+01  0.00000000E+00
  5.50000000E+02  9.00000000E+01  0.00000000E+00
  5.50000000E+02  8.80000000E+01  0.00000000E+00
  5.50000000E+02  8.60000000E+01  0.00000000E+00
  5.50000000E+02  8.40000000E+01  0.00000000E+00
  5.50000000E+02  8.20000000E+01  0.00000000E+00
  5.50000000E+02  8.00000000E+01  0.00000000E+00
  5.50000000E+02  7.80000000E+01  0.00000000E+00
  5.50000000E+02  7.60000000E+01  0.00000000E+00
  5.50000000E+02  7.40000000E+01  0.00000000E+00
  5.50000000E+02  7.20000000E+01  0.00000000E+00
  5.50000000E+02  7.00000000E+01  0.00000000E+00
  5.50000000E+02  6.80000000E+01  0.00000000E+00
  5.50000000E+02  6.60000000E+01  0.00000000E+00
  5.50000000E+02  6.40000000E+01  0.00000000E+00
  5.50000000E+02  6.20000000E+01  0.00000000E+00
  5.50000000E+02  6.00000000E+01  0.00000000E+00
  5.50000000E+02  5.80000000E+01  0.00000000E+00
  5.50000000E+02  5.60000000E+01  0.00000000E+00
  5.50000000E+02  5.40000000E+01  0.00000000E+00
  5.50000000E+02  5.20000000E+01  0.00000000E+00
  5.50000000E+02  5.00000000E+01  0.00000000E+00
  5.50000000E+02  4.80000000E+01  0.00000000E+00
  5.50000000E+02  4.60000000E+01  0.00000000E+00
  5.50000000E+02  4.40000000E+01  0.00000000E+00
  5.50000000E+02  4.20000000E+01  0.00000000E+00
  5.50000000E+02  4.00000000E+01  0.00000000E+00
  5.50000000E+02  3.80000000E+01  0.00000000E+00
  5.50000000E+02  3.60000000E+01  0.00000000E+00
  5.50000000E+02  3.40000000E+01  0.00000000E+00
  5.50000000E+02  3.20000000E+01  0.00000000E+00
  5.50000000E+02  3.00000000E+01  0.00000000E+00
  5.50000000E+02  2.80000000E+01  0.00000000E+00
  5.50000000E+02  2.60000000E+01  0.00000000E+00
  5.50000000E+02  2.40000000E+01  0.00000000E+00
  5.50000000E+02  2.20000000E+01  0.00000000E+00
  5.50000000E+02  2.00000000E+01  0.00000000E+00
  5.50000000E+02  1.80000000E+01  0.00000000E+00
  5.50000000E+02  1.60000000E+01  0.00000000E+00
  5.50000000E+02  1.40000000E+01  0.00000000E+00
  5.50000000E+02  1.20000000E+01  0.00000000E+00
  5.50000000E+02  1.00000000E+01  0.00000000E+00
  5.50000000E+02  8.00000000E+00  0.00000000E+00
  5.50000000E+02  6.00000000E+00  0.00000000E+00
  5.50000000E+02  4.00000000E+00  0.00000000E+00
  5.50000000E+02  2.00000000E+00  0.00000000E+00
  5.50000000E+02 -3.33066907E-14  0.00000000E+00
  5.60000000E+02  1.00000000E+02  0.00000000E+00
  5.60000000E+02  9.80000000E+01  0.00000000E+00
  5.60000000E+02  9.60000000E+01  0.00000000E+00
  5.60000000E+02  9.40000000E+01  0.00000000E+00
  5.60000000E+02  9.20000000E+01  0.00000000E+00
  5.60000000E+02  9.00000000E+01  0.00000000E+00
  5.60000000E+02  8.80000000E+01  0.00000000E+00
  5.60000000E+02  8.60000000E+01  0.00000000E+00
  5.60000000E+02  8.40000000E+01  0.00000000E+00
  5.60000000E+02  8.20000000E+01  0.00000000E+00
  5.60000000E+02  8.00000000E+01  0.00000000E+00
  5.60000000E+02  7.80000000E+01  0.00000000E+00
  5.60000000E+02  7.60000000E+01  0.00000000E+00
  5.60000000E+02  7.40000000E+01  0.00000000E+00
  5.60000000E+02  7.20000000E+01  0.00000000E+00
  5.60000000E+02  7.00000000E+01  0.00000000E+00
  5.60000000E+02  6.80000000E+01  0.00000000E+00
  5.60000000E+02  6.60000000E+01  0.00000000E+00
  5.60000000E+02  6.40000000E+01  0.00000000E+00
  5.60000000E+02  6.20000000E+01  0.00000000E+00
  5.60000000E+02  6.00000000E+01  0.00000000E+00
  5.60000000E+02  5.80000000E+01  0.00000000E+00
  5.60000000E+02  5.60000000E+01  0.00000000E+00
  5.60000000E+02  5.40000000E+01  0.00000000E+00
  5.60000000E+02  5.20000000E+01  0.00000000E+00
  5.60000000E+02  5.00000000E+01  0.00000000E+00
  5.60000000E+02  4.80000000E+01  0.00000000E+00
  5.60000000E+02  4.60000000E+01  0.00000000E+00
  5.60000000E+02  4.40000000E+01  0.00000000E+00
  5.60000000E+02  4.20000000E+01  0.00000000E+00
  5.60000000E+02  4.00000000E+01  0.00000000E+00
  5.60000000E+02  3.80000000E+01  0.00000000E+00
  5.60000000E+02  3.60000000E+01  0.00000000E+00
  5.60000000E+02  3.40000000E+01  0.00000000E+00
  5.60000000E+02  3.20000000E+01  0.00000000E+00
  5.60000000E+02  3.00000000E+01  0.00000000E+00
  5.60000000E+02  2.80000000E+01  0.00000000E+00
  5.60000000E+02  2.60000000E+01  0.00000000E+00
  5.60000000E+02  2.40000000E+01  0.00000000E+00
  5.60000000E+02  2.20000000E+01  0.00000000E+00
  5.60000000E+02  2.00000000E+01  0.00000000E+00
  5.60000000E+02  1.80000000E+01  0.00000000E+00
  5.60000000E+02  1.60000000E+01  0.00000000E+00
  5.60000000E+02  1.40000000E+01  0.00000000E+00
  5.60000000E+02  1.20000000E+01  0.00000000E+00
  5.60000000E+02  1.00000000E+01  0.00000000E+00
  5.60000000E+02  8.00000000E+00  0.00000000E+00
  5.60000000E+02  6.00000000E+00  0.00000000E+00
  5.60000000E+02  4.00000000E+00  0.00000000E+00
  5.60000000E+02  2.00000000E+00  0.00000000E+00
  5.60000000E+02 -3.33066907E-14  0.00000000E+00
  5.70000000E+02  1.00000000E+02  0.00000000E+00
  5.70000000E+02  9.80000000E+01  0.00000000E+00
  5.70000000E+02  9.60000000E+01  0.00000000E+00
  5.70000000E+02  9.40000000E+01  0.00000000E+00
  5.70000000E+02  9.20000000E+01  0.00000000E+00
  5.70000000E+02  9.00000000E+01  0.00000000E+00
  5.70000000E+02  8.80000000E+01  0.00000000E+00
  5.70000000E+02  8.60000000E+01  0.00000000E+00
  5.70000000E+02  8.40000000E+01  0.00000000E+00
  5.70000000E+02  8.20000000E+01  0.00000000E+00
  5.70000000E+02  8.00000000E+01  0.00000000E+00
  5.70000000E+02  7.80000000E+01  0.00000000E+00
  5.70000000E+02  7.60000000E+01  0.00000000E+00
  5.70000000E+02  7.40000000E+01  0.00000000E+00
  5.70000000E+02  7.20000000E+01  0.00000000E+00
  5.70000000E+02  7.00000000E+01  0.00000000E+00
  5.70000000E+02  6.80000000E+01  0.00000000E+00
  5.70000000E+02  6.60000000E+01  0.00000000E+00
  5.70000000E+02  6.40000000E+01  0.00000000E+00
  5.70000000E+02  6.20000000E+01  0.00000000E+00
  5.70000000E+02  6.00000000E+01  0.00000000E+00
  5.70000000E+02  5.80000000E+01  0.00000000E+00
  5.70000000E+02  5.60000000E+01  0.00000000E+00
  5.70000000E+02  5.40000000E+01  0.00000000E+00
  5.70000000E+02  5.20000000E+01  0.00000000E+00
  5.70000000E+02  5.00000000E+01  0.00000000E+00
  5.70000000E+02  4.80000000E+01  0.00000000E+00
  5.70000000E+02  4.60000000E+01  0.00000000E+00
  5.70000000E+02  4.40000000E+01  0.00000000E+00
  5.70000000E+02  4.20000000E+01  0.00000000E+00
  5.70000000E+02  4.00000000E+01  0.00000000E+00
  5.70000000E+02  3.80000000E+01  0.00000000E+00
  5.70000000E+02  3.60000000E+01  0.00000000E+00
  5.70000000E+02  3.40000000E+01  0.00000000E+00
  5.70000000E+02  3.20000000E+01  0.00000000E+00
  5.70000000E+02  3.00000000E+01  0.00000000E+00
  5.70000000E+02  2.80000000E+01  0.00000000E+00
  5.70000000E+02  2.60000000E+01  0.00000000E+00
  5.70000000E+02  2.40000000E+01  0.00000000E+00
  5.70000000E+02  2.20000000E+01  0.00000000E+00
  5.70000000E+02  2.00000000E+01  0.00000000E+00
  5.70000000E+02  1.80000000E+01  0.00000000E+00
  5.70000000E+02  1.60000000E+01  0.00000000E+00
  5.70000000E+02  1.40000000E+01  0.00000000E+00
  5.70000000E+02  1.20000000E+01  0.00000000E+00
  5.70000000E+02  1.00000000E+01  0.00000000E+00
  5.70000000E+02  8.00000000E+00  0.00000000E+00
  5.70000000E+02  6.00000000E+00  0.00000000E+00
  5.70000000E+02  4.00000000E+00  0.00000000E+00
  5.70000000E+02  2.00000000E+00  0.00000000E+00
  5.70000000E+02 -3.33066907E-14  0.00000000E+00
  5.80000000E+02  1.00000000E+02  0.00000000E+00
  5.80000000E+02  9.80000000E+01  0.00000000E+00
  5.80000000E+02  9.60000000E+01  0.00000000E+00
  5.80000000E+02  9.40000000E+01  0.00000000E+00
  5.80000000E+02  9.20000000E+01  0.00000000E+00
  5.80000000E+02  9.00000000E+01  0.00000000E+00
  5.80000000E+02  8.80000000E+01  0.00000000E+00
  5.80000000E+02  8.60000000E+01  0.00000000E+00
  5.80000000E+02  8.40000000E+01  0.00000000E+00
  5.80000000E+02  8.20000000E+01  0.00000000E+00
  5.80000000E+02  8.00000000E+01  0.00000000E+00
  5.80000000E+02  7.80000000E+01  0.00000000E+00
  5.80000000E+02  7.60000000E+01  0.00000000E+00
  5.80000000E+02  7.40000000E+01  0.00000000E+00
  5.80000000E+02  7.20000000E+01  0.00000000E+00
  5.80000000E+02  7.00000000E+01  0.00000000E+00
  5.80000000E+02  6.80000000E+01  0.00000000E+00
  5.80000000E+02  6.60000000E+01  0.00000000E+00
  5.80000000E+02  6.40000000E+01  0.00000000E+00
  5.80000000E+02  6.20000000E+01  0.00000000E+00
  5.80000000E+02  6.00000000E+01  0.00000000E+00
  5.80000000E+02  5.80000000E+01  0.00000000E+00
  5.80000000E+02  5.60000000E+01  0.00000000E+00
  5.80000000E+02  5.40000000E+01  0.00000000E+00
  5.80000000E+02  5.20000000E+01  0.00000000E+00
  5.80000000E+02  5.00000000E+01  0.00000000E+00
  5.80000000E+02  4.80000000E+01  0.00000000E+00
  5.80000000E+02  4.60000000E+01  0.00000000E+00
  5.80000000E+02  4.40000000E+01  0.00000000E+00
  5.80000000E+02  4.20000000E+01  0.00000000E+00
  5.80000000E+02  4.00000000E+01  0.00000000E+00
  5.80000000E+02  3.80000000E+01  0.00000000E+00
  5.80000000E+02  3.60000000E+01  0.00000000E+00
  5.80000000E+02  3.40000000E+01  0.00000000E+00
  5.80000000E+02  3.20000000E+01  0.00000000E+00
  5.80000000E+02  3.00000000E+01  0.00000000E+00
  5.80000000E+02  2.80000000E+01  0.00000000E+00
  5.80000000E+02  2.60000000E+01  0.00000000E+00
  5.80000000E+02  2.40000000E+01  0.00000000E+00
  5.80000000E+02  2.20000000E+01  0.00000000E+00
  5.80000000E+02  2.00000000E+01  0.00000000E+00
  5.80000000E+02  1.80000000E+01  0.00000000E+00
  5.80000000E+02  1.60000000E+01  0.00000000E+00
  5.80000000E+02  1.40000000E+01  0.00000000E+00
  5.80000000E+02  1.20000000E+01  0.00000000E+00
  5.80000000E+02  1.00000000E+01  0.00000000E+00
  5.80000000E+02  8.00000000E+00  0.00000000E+00
  5.80000000E+02  6.00000000E+00  0.00000000E+00
  5.80000000E+02  4.00000000E+00  0.00000000E+00
  5.80000000E+02  2.00000000E+00  0.00000000E+00
  5.80000000E+02 -3.33066907E-14  0.00000000E+00
  5.90000000E+02  1.00000000E+02  0.00000000E+00
  5.90000000E+02  9.80000000E+01  0.00000000E+00
  5.90000000E+02  9.60000000E+01  0.00000000E+00
  5.90000000E+02  9.40000000E+01  0.00000000E+00
  5.90000000E+02  9.20000000E+01  0.00000000E+00
  5.90000000E+02  9.00000000E+01  0.00000000E+00
  5.90000000E+02  8.80000000E+01  0.00000000E+00
  5.90000000E+02  8.60000000E+01  0.00000000E+00
  5.90000000E+02  8.40000000E+01  0.00000000E+00
  5.90000000E+02  8.20000000E+01  0.00000000E+00
  5.90000000E+02  8.00000000E+01  0.00000000E+00
  5.90000000E+02  7.80000000E+01  0.00000000E+00
  5.90000000E+02  7.60000000E+01  0.00000000E+00
  5.90000000E+02  7.40000000E+01  0.00000000E+00
  5.90000000E+02  7.20000000E+01  0.00000000E+00
  5.90000000E+02  7.00000000E+01  0.00000000E+00
  5.90000000E+02  6.80000000E+01  0.00000000E+00
  5.90000000E+02  6.60000000E+01  0.00000000E+00
  5.90000000E+02  6.40000000E+01  0.00000000E+00
  5.90000000E+02  6.20000000E+01  0.00000000E+00
  5.90000000E+02  6.00000000E+01  0.00000000E+00
  5.90000000E+02  5.80000000E+01  0.00000000E+00
  5.90000000E+02  5.60000000E+01  0.00000000E+00
  5.90000000E+02  5.40000000E+01  0.00000000E+00
  5.90000000E+02  5.20000000E+01  0.00000000E+00
  5.90000000E+02  5.00000000E+01  0.00000000E+00
  5.90000000E+02  4.80000000E+01  0.00000000E+00
  5.90000000E+02  4.60000000E+01  0.00000000E+00
  5.90000000E+02  4.40000000E+01  0.00000000E+00
  5.90000000E+02  4.20000000E+01  0.00000000E+00
  5.90000000E+02  4.00000000E+01  0.00000000E+00
  5.90000000E+02  3.80000000E+01  0.00000000E+00
  5.90000000E+02  3.60000000E+01  0.00000000E+00
  5.90000000E+02  3.40000000E+01  0.00000000E+00
  5.90000000E+02  3.20000000E+01  0.00000000E+00
  5.90000000E+02  3.00000000E+01  0.00000000E+00
  5.90000000E+02  2.80000000E+01  0.00000000E+00
  5.90000000E+02  2.60000000E+01  0.00000000E+00
  5.90000000E+02  2.40000000E+01  0.00000000E+00
  5.90000000E+02  2.20000000E+01  0.00000000E+00
  5.90000000E+02  2.00000000E+01  0.00000000E+00
  5.90000000E+02  1.80000000E+01  0.00000000E+00
  5.90000000E+02  1.60000000E+01  0.00000000E+00
  5.90000000E+02  1.40000000E+01  0.00000000E+00
  5.90000000E+02  1.20000000E+01  0.00000000E+00
  5.90000000E+02  1.00000000E+01  0.00000000E+00
  5.90000000E+02  8.00000000E+00  0.00000000E+00
  5.90000000E+02  6.00000000E+00  0.00000000E+00
  5.90000000E+02  4.00000000E+00  0.00000000E+00
  5.90000000E+02  2.00000000E+00  0.00000000E+00
  5.90000000E+02 -3.33066907E-14  0.00000000E+00
  6.00000000E+02  1.00000000E+02  0.00000000E+00
  6.00000000E+02  9.80000000E+01  0.00000000E+00
  6.00000000E+02  9.60000000E+01  0.00000000E+00
  6.00000000E+02  9.40000000E+01  0.00000000E+00
  6.00000000E+02  9.20000000E+01  0.00000000E+00
  6.00000000E+02  9.00000000E+01  0.00000000E+00
  6.00000000E+02  8.80000000E+01  0.00000000E+00
  6.00000000E+02  8.60000000E+01  0.00000000E+00
  6.00000000E+02  8.40000000E+01  0.00000000E+00
  6.00000000E+02  8.20000000E+01  0.00000000E+00
  6.00000000E+02  8.00000000E+01  0.00000000E+00
  6.00000000E+02  7.80000000E+01  0.00000000E+00
  6.00000000E+02  7.60000000E+01  0.00000000E+00
  6.00000000E+02  7.40000000E+01  0.00000000E+00
  6.00000000E+02  7.20000000E+01  0.00000000E+00
  6.00000000E+02  7.00000000E+01  0.00000000E+00
  6.00000000E+02  6.80000000E+01  0.00000000E+00
  6.00000000E+02  6.60000000E+01  0.00000000E+00
  6.00000000E+02  6.40000000E+01  0.00000000E+00
  6.00000000E+02  6.20000000E+01  0.00000000E+00
  6.00000000E+02  6.00000000E+01  0.00000000E+00
  6.00000000E+02  5.80000000E+01  0.00000000E+00
  6.00000000E+02  5.60000000E+01  0.00000000E+00
  6.00000000E+02  5.40000000E+01  0.00000000E+00
  6.00000000E+02  5.20000000E+01  0.00000000E+00
  6.00000000E+02  5.00000000E+01  0.00000000E+00
  6.00000000E+02  4.80000000E+01  0.00000000E+00
  6.00000000E+02  4.60000000E+01  0.00000000E+00
  6.00000000E+02  4.40000000E+01  0.00000000E+00
  6.00000000E+02  4.20000000E+01  0.00000000E+00
  6.00000000E+02  4.00000000E+01  0.00000000E+00
  6.00000000E+02  3.80000000E+01  0.00000000E+00
  6.00000000E+02  3.60000000E+01  0.00000000E+00
  6.00000000E+02  3.40000000E+01  0.00000000E+00
  6.00000000E+02  3.20000000E+01  0.00000000E+00
  6.00000000E+02  3.00000000E+01  0.00000000E+00
  6.00000000E+02  2.80000000E+01  0.00000000E+00
  6.00000000E+02  2.60000000E+01  0.00000000E+00
  6.00000000E+02  2.40000000E+01  0.00000000E+00
  6.00000000E+02  2.20000000E+01  0.00000000E+00
  6.00000000E+02  2.00000000E+01  0.00000000E+00
  6.00000000E+02  1.80000000E+01  0.00000000E+00
  6.00000000E+02  1.60000000E+01  0.00000000E+00
  6.00000000E+02  1.40000000E+01  0.00000000E+00
  6.00000000E+02  1.20000000E+01  0.00000000E+00
  6.00000000E+02  1.00000000E+01  0.00000000E+00
  6.00000000E+02  8.00000000E+00  0.00000000E+00
  6.00000000E+02  6.00000000E+00  0.00000000E+00
  6.00000000E+02  4.00000000E+00  0.00000000E+00
  6.00000000E+02  2.00000000E+00  0.00000000E+00
  6.00000000E+02 -3.33066907E-14  0.00000000E+00
  6.10000000E+02  1.00000000E+02  0.00000000E+00
  6.10000000E+02  9.80000000E+01  0.00000000E+00
  6.10000000E+02  9.60000000E+01  0.00000000E+00
  6.10000000E+02  9.40000000E+01  0.00000000E+00
  6.10000000E+02  9.20000000E+01  0.00000000E+00
  6.10000000E+02  9.00000000E+01  0.00000000E+00
  6.10000000E+02  8.80000000E+01  0.00000000E+00
  6.10000000E+02  8.60000000E+01  0.00000000E+00
  6.10000000E+02  8.40000000E+01  0.00000000E+00
  6.10000000E+02  8.20000000E+01  0.00000000E+00
  6.10000000E+02  8.00000000E+01  0.00000000E+00
  6.10000000E+02  7.80000000E+01  0.00000000E+00
  6.10000000E+02  7.60000000E+01  0.00000000E+00
  6.10000000E+02  7.40000000E+01  0.00000000E+00
  6.10000000E+02  7.20000000E+01  0.00000000E+00
  6.10000000E+02  7.00000000E+01  0.00000000E+00
  6.10000000E+02  6.80000000E+01  0.00000000E+00
  6.10000000E+02  6.60000000E+01  0.00000000E+00
  6.10000000E+02  6.40000000E+01  0.00000000E+00
  6.10000000E+02  6.20000000E+01  0.00000000E+00
  6.10000000E+02  6.00000000E+01  0.00000000E+00
  6.10000000E+02  5.80000000E+01  0.00000000E+00
  6.10000000E+02  5.60000000E+01  0.00000000E+00
  6.10000000E+02  5.40000000E+01  0.00000000E+00
  6.10000000E+02  5.20000000E+01  0.00000000E+00
  6.10000000E+02  5.00000000E+01  0.00000000E+00
  6.10000000E+02  4.80000000E+01  0.00000000E+00
  6.10000000E+02  4.60000000E+01  0.00000000E+00
  6.10000000E+02  4.40000000E+01  0.00000000E+00
  6.10000000E+02  4.20000000E+01  0.00000000E+00
  6.10000000E+02  4.00000000E+01  0.00000000E+00
  6.10000000E+02  3.80000000E+01  0.00000000E+00
  6.10000000E+02  3.60000000E+01  0.00000000E+00
  6.10000000E+02  3.40000000E+01  0.00000000E+00
  6.10000000E+02  3.20000000E+01  0.00000000E+00
  6.10000000E+02  3.00000000E+01  0.00000000E+00
  6.10000000E+02  2.80000000E+01  0.00000000E+00
  6.10000000E+02  2.60000000E+01  0.00000000E+00
  6.10000000E+02  2.40000000E+01  0.00000000E+00
  6.10000000E+02  2.20000000E+01  0.00000000E+00
  6.10000000E+02  2.00000000E+01  0.00000000E+00
  6.10000000E+02  1.80000000E+01  0.00000000E+00
  6.10000000E+02  1.60000000E+01  0.00000000E+00
  6.10000000E+02  1.40000000E+01  0.00000000E+00
  6.10000000E+02  1.20000000E+01  0.00000000E+00
  6.10000000E+02  1.00000000E+01  0.00000000E+00
  6.10000000E+02  8.00000000E+00  0.00000000E+00
  6.10000000E+02  6.00000000E+00  0.00000000E+00
  6.10000000E+02  4.00000000E+00  0.00000000E+00
  6.10000000E+02  2.00000000E+00  0.00000000E+00
  6.10000000E+02 -3.33066907E-14  0.00000000E+00
  6.20000000E+02  1.00000000E+02  0.00000000E+00
  6.20000000E+02  9.80000000E+01  0.00000000E+00
  6.20000000E+02  9.60000000E+01  0.00000000E+00
  6.20000000E+02  9.40000000E+01  0.00000000E+00
  6.20000000E+02  9.20000000E+01  0.00000000E+00
  6.20000000E+02  9.00000000E+01  0.00000000E+00
  6.20000000E+02  8.80000000E+01  0.00000000E+00
  6.20000000E+02  8.60000000E+01  0.00000000E+00
  6.20000000E+02  8.40000000E+01  0.00000000E+00
  6.20000000E+02  8.20000000E+01  0.00000000E+00
  6.20000000E+02  8.00000000E+01  0.00000000E+00
  6.20000000E+02  7.80000000E+01  0.00000000E+00
  6.20000000E+02  7.60000000E+01  0.00000000E+00
  6.20000000E+02  7.40000000E+01  0.00000000E+00
  6.20000000E+02  7.20000000E+01  0.00000000E+00
  6.20000000E+02  7.00000000E+01  0.00000000E+00
  6.20000000E+02  6.80000000E+01  0.00000000E+00
  6.20000000E+02  6.60000000E+01  0.00000000E+00
  6.20000000E+02  6.40000000E+01  0.00000000E+00
  6.20000000E+02  6.20000000E+01  0.00000000E+00
  6.20000000E+02  6.00000000E+01  0.00000000E+00
  6.20000000E+02  5.80000000E+01  0.00000000E+00
  6.20000000E+02  5.60000000E+01  0.00000000E+00
  6.20000000E+02  5.40000000E+01  0.00000000E+00
  6.20000000E+02  5.20000000E+01  0.00000000E+00
  6.20000000E+02  5.00000000E+01  0.00000000E+00
  6.20000000E+02  4.80000000E+01  0.00000000E+00
  6.20000000E+02  4.60000000E+01  0.00000000E+00
  6.20000000E+02  4.40000000E+01  0.00000000E+00
  6.20000000E+02  4.20000000E+01  0.00000000E+00
  6.20000000E+02  4.00000000E+01  0.00000000E+00
  6.20000000E+02  3.80000000E+01  0.00000000E+00
  6.20000000E+02  3.60000000E+01  0.00000000E+00
  6.20000000E+02  3.40000000E+01  0.00000000E+00
  6.20000000E+02  3.20000000E+01  0.00000000E+00
  6.20000000E+02  3.00000000E+01  0.00000000E+00
  6.20000000E+02  2.80000000E+01  0.00000000E+00
  6.20000000E+02  2.60000000E+01  0.00000000E+00
  6.20000000E+02  2.40000000E+01  0.00000000E+00
  6.20000000E+02  2.20000000E+01  0.00000000E+00
  6.20000000E+02  2.00000000E+01  0.00000000E+00
  6.20000000E+02  1.80000000E+01  0.00000000E+00
  6.20000000E+02  1.60000000E+01  0.00000000E+00
  6.20000000E+02  1.40000000E+01  0.00000000E+00
  6.20000000E+02  1.20000000E+01  0.00000000E+00
  6.20000000E+02  1.00000000E+01  0.00000000E+00
  6.20000000E+02  8.00000000E+00  0.00000000E+00
  6.20000000E+02  6.00000000E+00  0.00000000E+00
  6.20000000E+02  4.00000000E+00  0.00000000E+00
  6.20000000E+02  2.00000000E+00  0.00000000E+00
  6.20000000E+02 -3.33066907E-14  0.00000000E+00
  6.30000000E+02  1.00000000E+02  0.00000000E+00
  6.30000000E+02  9.80000000E+01  0.00000000E+00
  6.30000000E+02  9.60000000E+01  0.00000000E+00
  6.30000000E+02  9.40000000E+01  0.00000000E+00
  6.30000000E+02  9.20000000E+01  0.00000000E+00
  6.30000000E+02  9.00000000E+01  0.00000000E+00
  6.30000000E+02  8.80000000E+01  0.00000000E+00
  6.30000000E+02  8.60000000E+01  0.00000000E+00
  6.30000000E+02  8.40000000E+01  0.00000000E+00
  6.30000000E+02  8.20000000E+01  0.00000000E+00
  6.30000000E+02  8.00000000E+01  0.00000000E+00
  6.30000000E+02  7.80000000E+01  0.00000000E+00
  6.30000000E+02  7.60000000E+01  0.00000000E+00
  6.30000000E+02  7.40000000E+01  0.00000000E+00
  6.30000000E+02  7.20000000E+01  0.00000000E+00
  6.30000000E+02  7.00000000E+01  0.00000000E+00
  6.30000000E+02  6.80000000E+01  0.00000000E+00
  6.30000000E+02  6.60000000E+01  0.00000000E+00
  6.30000000E+02  6.40000000E+01  0.00000000E+00
  6.30000000E+02  6.20000000E+01  0.00000000E+00
  6.30000000E+02  6.00000000E+01  0.00000000E+00
  6.30000000E+02  5.80000000E+01  0.00000000E+00
  6.30000000E+02  5.60000000E+01  0.00000000E+00
  6.30000000E+02  5.40000000E+01  0.00000000E+00
  6.30000000E+02  5.20000000E+01  0.00000000E+00
  6.30000000E+02  5.00000000E+01  0.00000000E+00
  6.30000000E+02  4.80000000E+01  0.00000000E+00
  6.30000000E+02  4.60000000E+01  0.00000000E+00
  6.30000000E+02  4.40000000E+01  0.00000000E+00
  6.30000000E+02  4.20000000E+01  0.00000000E+00
  6.30000000E+02  4.00000000E+01  0.00000000E+00
  6.30000000E+02  3.80000000E+01  0.00000000E+00
  6.30000000E+02  3.60000000E+01  0.00000000E+00
  6.30000000E+02  3.40000000E+01  0.00000000E+00
  6.30000000E+02  3.20000000E+01  0.00000000E+00
  6.30000000E+02  3.00000000E+01  0.00000000E+00
  6.30000000E+02  2.80000000E+01  0.00000000E+00
  6.30000000E+02  2.60000000E+01  0.00000000E+00
  6.30000000E+02  2.40000000E+01  0.00000000E+00
  6.30000000E+02  2.20000000E+01  0.00000000E+00
  6.30000000E+02  2.00000000E+01  0.00000000E+00
  6.30000000E+02  1.80000000E+01  0.00000000E+00
  6.30000000E+02  1.60000000E+01  0.00000000E+00
  6.30000000E+02  1.40000000E+01  0.00000000E+00
  6.30000000E+02  1.20000000E+01  0.00000000E+00
  6.30000000E+02  1.00000000E+01  0.00000000E+00
  6.30000000E+02  8.00000000E+00  0.00000000E+00
  6.30000000E+02  6.00000000E+00  0.00000000E+00
  6.30000000E+02  4.00000000E+00  0.00000000E+00
  6.30000000E+02  2.00000000E+00  0.00000000E+00
  6.30000000E+02 -3.33066907E-14  0.00000000E+00
  6.40000000E+02  1.00000000E+02  0.00000000E+00
  6.40000000E+02  9.80000000E+01  0.00000000E+00
  6.40000000E+02  9.60000000E+01  0.00000000E+00
  6.40000000E+02  9.40000000E+01  0.00000000E+00
  6.40000000E+02  9.20000000E+01  0.00000000E+00
  6.40000000E+02  9.00000000E+01  0.00000000E+00
  6.40000000E+02  8.80000000E+01  0.00000000E+00
  6.40000000E+02  8.60000000E+01  0.00000000E+00
  6.40000000E+02  8.40000000E+01  0.00000000E+00
  6.40000000E+02  8.20000000E+01  0.00000000E+00
  6.40000000E+02  8.00000000E+01  0.00000000E+00
  6.40000000E+02  7.80000000E+01  0.00000000E+00
  6.40000000E+02  7.60000000E+01  0.00000000E+00
  6.40000000E+02  7.40000000E+01  0.00000000E+00
  6.40000000E+02  7.20000000E+01  0.00000000E+00
  6.40000000E+02  7.00000000E+01  0.00000000E+00
  6.40000000E+02  6.80000000E+01  0.00000000E+00
  6.40000000E+02  6.60000000E+01  0.00000000E+00
  6.40000000E+02  6.40000000E+01  0.00000000E+00
  6.40000000E+02  6.20000000E+01  0.00000000E+00
  6.40000000E+02  6.00000000E+01  0.00000000E+00
  6.40000000E+02  5.80000000E+01  0.00000000E+00
  6.40000000E+02  5.60000000E+01  0.00000000E+00
  6.40000000E+02  5.40000000E+01  0.00000000E+00
  6.40000000E+02  5.20000000E+01  0.00000000E+00
  6.40000000E+02  5.00000000E+01  0.00000000E+00
  6.40000000E+02  4.80000000E+01  0.00000000E+00
  6.40000000E+02  4.60000000E+01  0.00000000E+00
  6.40000000E+02  4.40000000E+01  0.00000000E+00
  6.40000000E+02  4.20000000E+01  0.00000000E+00
  6.40000000E+02  4.00000000E+01  0.00000000E+00
  6.40000000E+02  3.80000000E+01  0.00000000E+00
  6.40000000E+02  3.60000000E+01  0.00000000E+00
  6.40000000E+02  3.40000000E+01  0.00000000E+00
  6.40000000E+02  3.20000000E+01  0.00000000E+00
  6.40000000E+02  3.00000000E+01  0.00000000E+00
  6.40000000E+02  2.80000000E+01  0.00000000E+00
  6.40000000E+02  2.60000000E+01  0.00000000E+00
  6.40000000E+02  2.40000000E+01  0.00000000E+00
  6.40000000E+02  2.20000000E+01  0.00000000E+00
  6.40000000E+02  2.00000000E+01  0.00000000E+00
  6.40000000E+02  1.80000000E+01  0.00000000E+00
  6.40000000E+02  1.60000000E+01  0.00000000E+00
  6.40000000E+02  1.40000000E+01  0.00000000E+00
  6.40000000E+02  1.20000000E+01  0.00000000E+00
  6.40000000E+02  1.00000000E+01  0.00000000E+00
  6.40000000E+02  8.00000000E+00  0.00000000E+00
  6.40000000E+02  6.00000000E+00  0.00000000E+00
  6.40000000E+02  4.00000000E+00  0.00000000E+00
  6.40000000E+02  2.00000000E+00  0.00000000E+00
  6.40000000E+02 -3.33066907E-14  0.00000000E+00
  6.50000000E+02  1.00000000E+02  0.00000000E+00
  6.50000000E+02  9.80000000E+01  0.00000000E+00
  6.50000000E+02  9.60000000E+01  0.00000000E+00
  6.50000000E+02  9.40000000E+01  0.00000000E+00
  6.50000000E+02  9.20000000E+01  0.00000000E+00
  6.50000000E+02  9.00000000E+01  0.00000000E+00
  6.50000000E+02  8.80000000E+01  0.00000000E+00
  6.50000000E+02  8.60000000E+01  0.00000000E+00
  6.50000000E+02  8.40000000E+01  0.00000000E+00
  6.50000000E+02  8.20000000E+01  0.00000000E+00
  6.50000000E+02  8.00000000E+01  0.00000000E+00
  6.50000000E+02  7.80000000E+01  0.00000000E+00
  6.50000000E+02  7.60000000E+01  0.00000000E+00
  6.50000000E+02  7.40000000E+01  0.00000000E+00
  6.50000000E+02  7.20000000E+01  0.00000000E+00
  6.50000000E+02  7.00000000E+01  0.00000000E+00
  6.50000000E+02  6.80000000E+01  0.00000000E+00
  6.50000000E+02  6.60000000E+01  0.00000000E+00
  6.50000000E+02  6.40000000E+01  0.00000000E+00
  6.50000000E+02  6.20000000E+01  0.00000000E+00
  6.50000000E+02  6.00000000E+01  0.00000000E+00
  6.50000000E+02  5.80000000E+01  0.00000000E+00
  6.50000000E+02  5.60000000E+01  0.00000000E+00
  6.50000000E+02  5.40000000E+01  0.00000000E+00
  6.50000000E+02  5.20000000E+01  0.00000000E+00
  6.50000000E+02  5.00000000E+01  0.00000000E+00
  6.50000000E+02  4.80000000E+01  0.00000000E+00
  6.50000000E+02  4.60000000E+01  0.00000000E+00
  6.50000000E+02  4.40000000E+01  0.00000000E+00
  6.50000000E+02  4.20000000E+01  0.00000000E+00
  6.50000000E+02  4.00000000E+01  0.00000000E+00
  6.50000000E+02  3.80000000E+01  0.00000000E+00
  6.50000000E+02  3.60000000E+01  0.00000000E+00
  6.50000000E+02  3.40000000E+01  0.00000000E+00
  6.50000000E+02  3.20000000E+01  0.00000000E+00
  6.50000000E+02  3.00000000E+01  0.00000000E+00
  6.50000000E+02  2.80000000E+01  0.00000000E+00
  6.50000000E+02  2.60000000E+01  0.00000000E+00
  6.50000000E+02  2.40000000E+01  0.00000000E+00
  6.50000000E+02  2.20000000E+01  0.00000000E+00
  6.50000000E+02  2.00000000E+01  0.00000000E+00
  6.50000000E+02  1.80000000E+01  0.00000000E+00
  6.50000000E+02  1.60000000E+01  0.00000000E+00
  6.50000000E+02  1.40000000E+01  0.00000000E+00
  6.50000000E+02  1.20000000E+01  0.00000000E+00
  6.50000000E+02  1.00000000E+01  0.00000000E+00
  6.50000000E+02  8.00000000E+00  0.00000000E+00
  6.50000000E+02  6.00000000E+00  0.00000000E+00
  6.50000000E+02  4.00000000E+00  0.00000000E+00
  6.50000000E+02  2.00000000E+00  0.00000000E+00
  6.50000000E+02 -3.33066907E-14  0.00000000E+00
  6.60000000E+02  1.00000000E+02  0.00000000E+00
  6.60000000E+02  9.80000000E+01  0.00000000E+00
  6.60000000E+02  9.60000000E+01  0.00000000E+00
  6.60000000E+02  9.40000000E+01  0.00000000E+00
  6.60000000E+02  9.20000000E+01  0.00000000E+00
  6.60000000E+02  9.00000000E+01  0.00000000E+00
  6.60000000E+02  8.80000000E+01  0.00000000E+00
  6.60000000E+02  8.60000000E+01  0.00000000E+00
  6.60000000E+02  8.40000000E+01  0.00000000E+00
  6.60000000E+02  8.20000000E+01  0.00000000E+00
  6.60000000E+02  8.00000000E+01  0.00000000E+00
  6.60000000E+02  7.80000000E+01  0.00000000E+00
  6.60000000E+02  7.60000000E+01  0.00000000E+00
  6.60000000E+02  7.40000000E+01  0.00000000E+00
  6.60000000E+02  7.20000000E+01  0.00000000E+00
  6.60000000E+02  7.00000000E+01  0.00000000E+00
  6.60000000E+02  6.80000000E+01  0.00000000E+00
  6.60000000E+02  6.60000000E+01  0.00000000E+00
  6.60000000E+02  6.40000000E+01  0.00000000E+00
  6.60000000E+02  6.20000000E+01  0.00000000E+00
  6.60000000E+02  6.00000000E+01  0.00000000E+00
  6.60000000E+02  5.80000000E+01  0.00000000E+00
  6.60000000E+02  5.60000000E+01  0.00000000E+00
  6.60000000E+02  5.40000000E+01  0.00000000E+00
  6.60000000E+02  5.20000000E+01  0.00000000E+00
  6.60000000E+02  5.00000000E+01  0.00000000E+00
  6.60000000E+02  4.80000000E+01  0.00000000E+00
  6.60000000E+02  4.60000000E+01  0.00000000E+00
  6.60000000E+02  4.40000000E+01  0.00000000E+00
  6.60000000E+02  4.20000000E+01  0.00000000E+00
  6.60000000E+02  4.00000000E+01  0.00000000E+00
  6.60000000E+02  3.80000000E+01  0.00000000E+00
  6.60000000E+02  3.60000000E+01  0.00000000E+00
  6.60000000E+02  3.40000000E+01  0.00000000E+00
  6.60000000E+02  3.20000000E+01  0.00000000E+00
  6.60000000E+02  3.00000000E+01  0.00000000E+00
  6.60000000E+02  2.80000000E+01  0.00000000E+00
  6.60000000E+02  2.60000000E+01  0.00000000E+00
  6.60000000E+02  2.40000000E+01  0.00000000E+00
  6.60000000E+02  2.20000000E+01  0.00000000E+00
  6.60000000E+02  2.00000000E+01  0.00000000E+00
  6.60000000E+02  1.80000000E+01  0.00000000E+00
  6.60000000E+02  1.60000000E+01  0.00000000E+00
  6.60000000E+02  1.40000000E+01  0.00000000E+00
  6.60000000E+02  1.20000000E+01  0.00000000E+00
  6.60000000E+02  1.00000000E+01  0.00000000E+00
  6.60000000E+02  8.00000000E+00  0.00000000E+00
  6.60000000E+02  6.00000000E+00  0.00000000E+00
  6.60000000E+02  4.00000000E+00  0.00000000E+00
  6.60000000E+02  2.00000000E+00  0.00000000E+00
  6.60000000E+02 -3.33066907E-14  0.00000000E+00
  6.70000000E+02  1.00000000E+02  0.00000000E+00
  6.70000000E+02  9.80000000E+01  0.00000000E+00
  6.70000000E+02  9.60000000E+01  0.00000000E+00
  6.70000000E+02  9.40000000E+01  0.00000000E+00
  6.70000000E+02  9.20000000E+01  0.00000000E+00
  6.70000000E+02  9.00000000E+01  0.00000000E+00
  6.70000000E+02  8.80000000E+01  0.00000000E+00
  6.70000000E+02  8.60000000E+01  0.00000000E+00
  6.70000000E+02  8.40000000E+01  0.00000000E+00
  6.70000000E+02  8.20000000E+01  0.00000000E+00
  6.70000000E+02  8.00000000E+01  0.00000000E+00
  6.70000000E+02  7.80000000E+01  0.00000000E+00
  6.70000000E+02  7.60000000E+01  0.00000000E+00
  6.70000000E+02  7.40000000E+01  0.00000000E+00
  6.70000000E+02  7.20000000E+01  0.00000000E+00
  6.70000000E+02  7.00000000E+01  0.00000000E+00
  6.70000000E+02  6.80000000E+01  0.00000000E+00
  6.70000000E+02  6.60000000E+01  0.00000000E+00
  6.70000000E+02  6.40000000E+01  0.00000000E+00
  6.70000000E+02  6.20000000E+01  0.00000000E+00
  6.70000000E+02  6.00000000E+01  0.00000000E+00
  6.70000000E+02  5.80000000E+01  0.00000000E+00
  6.70000000E+02  5.60000000E+01  0.00000000E+00
  6.70000000E+02  5.40000000E+01  0.00000000E+00
  6.70000000E+02  5.20000000E+01  0.00000000E+00
  6.70000000E+02  5.00000000E+01  0.00000000E+00
  6.70000000E+02  4.80000000E+01  0.00000000E+00
  6.70000000E+02  4.60000000E+01  0.00000000E+00
  6.70000000E+02  4.40000000E+01  0.00000000E+00
  6.70000000E+02  4.20000000E+01  0.00000000E+00
  6.70000000E+02  4.00000000E+01  0.00000000E+00
  6.70000000E+02  3.80000000E+01  0.00000000E+00
  6.70000000E+02  3.60000000E+01  0.00000000E+00
  6.70000000E+02  3.40000000E+01  0.00000000E+00
  6.70000000E+02  3.20000000E+01  0.00000000E+00
  6.70000000E+02  3.00000000E+01  0.00000000E+00
  6.70000000E+02  2.80000000E+01  0.00000000E+00
  6.70000000E+02  2.60000000E+01  0.00000000E+00
  6.70000000E+02  2.40000000E+01  0.00000000E+00
  6.70000000E+02  2.20000000E+01  0.00000000E+00
  6.70000000E+02  2.00000000E+01  0.00000000E+00
  6.70000000E+02  1.80000000E+01  0.00000000E+00
  6.70000000E+02  1.60000000E+01  0.00000000E+00
  6.70000000E+02  1.40000000E+01  0.00000000E+00
  6.70000000E+02  1.20000000E+01  0.00000000E+00
  6.70000000E+02  1.00000000E+01  0.00000000E+00
  6.70000000E+02  8.00000000E+00  0.00000000E+00
  6.70000000E+02  6.00000000E+00  0.00000000E+00
  6.70000000E+02  4.00000000E+00  0.00000000E+00
  6.70000000E+02  2.00000000E+00  0.00000000E+00
  6.70000000E+02 -3.33066907E-14  0.00000000E+00
  6.80000000E+02  1.00000000E+02  0.00000000E+00
  6.80000000E+02  9.80000000E+01  0.00000000E+00
  6.80000000E+02  9.60000000E+01  0.00000000E+00
  6.80000000E+02  9.40000000E+01  0.00000000E+00
  6.80000000E+02  9.20000000E+01  0.00000000E+00
  6.80000000E+02  9.00000000E+01  0.00000000E+00
  6.80000000E+02  8.80000000E+01  0.00000000E+00
  6.80000000E+02  8.60000000E+01  0.00000000E+00
  6.80000000E+02  8.40000000E+01  0.00000000E+00
  6.80000000E+02  8.20000000E+01  0.00000000E+00
  6.80000000E+02  8.00000000E+01  0.00000000E+00
  6.80000000E+02  7.80000000E+01  0.00000000E+00
  6.80000000E+02  7.60000000E+01  0.00000000E+00
  6.80000000E+02  7.40000000E+01  0.00000000E+00
  6.80000000E+02  7.20000000E+01  0.00000000E+00
  6.80000000E+02  7.00000000E+01  0.00000000E+00
  6.80000000E+02  6.80000000E+01  0.00000000E+00
  6.80000000E+02  6.60000000E+01  0.00000000E+00
  6.80000000E+02  6.40000000E+01  0.00000000E+00
  6.80000000E+02  6.20000000E+01  0.00000000E+00
  6.80000000E+02  6.00000000E+01  0.00000000E+00
  6.80000000E+02  5.80000000E+01  0.00000000E+00
  6.80000000E+02  5.60000000E+01  0.00000000E+00
  6.80000000E+02  5.40000000E+01  0.00000000E+00
  6.80000000E+02  5.20000000E+01  0.00000000E+00
  6.80000000E+02  5.00000000E+01  0.00000000E+00
  6.80000000E+02  4.80000000E+01  0.00000000E+00
  6.80000000E+02  4.60000000E+01  0.00000000E+00
  6.80000000E+02  4.40000000E+01  0.00000000E+00
  6.80000000E+02  4.20000000E+01  0.00000000E+00
  6.80000000E+02  4.00000000E+01  0.00000000E+00
  6.80000000E+02  3.80000000E+01  0.00000000E+00
  6.80000000E+02  3.60000000E+01  0.00000000E+00
  6.80000000E+02  3.40000000E+01  0.00000000E+00
  6.80000000E+02  3.20000000E+01  0.00000000E+00
  6.80000000E+02  3.00000000E+01  0.00000000E+00
  6.80000000E+02  2.80000000E+01  0.00000000E+00
  6.80000000E+02  2.60000000E+01  0.00000000E+00
  6.80000000E+02  2.40000000E+01  0.00000000E+00
  6.80000000E+02  2.20000000E+01  0.00000000E+00
  6.80000000E+02  2.00000000E+01  0.00000000E+00
  6.80000000E+02  1.80000000E+01  0.00000000E+00
  6.80000000E+02  1.60000000E+01  0.00000000E+00
  6.80000000E+02  1.40000000E+01  0.00000000E+00
  6.80000000E+02  1.20000000E+01  0.00000000E+00
  6.80000000E+02  1.00000000E+01  0.00000000E+00
  6.80000000E+02  8.00000000E+00  0.00000000E+00
  6.80000000E+02  6.00000000E+00  0.00000000E+00
  6.80000000E+02  4.00000000E+00  0.00000000E+00
  6.80000000E+02  2.00000000E+00  0.00000000E+00
  6.80000000E+02 -3.33066907E-14  0.00000000E+00
  6.90000000E+02  1.00000000E+02  0.00000000E+00
  6.90000000E+02  9.80000000E+01  0.00000000E+00
  6.90000000E+02  9.60000000E+01  0.00000000E+00
  6.90000000E+02  9.40000000E+01  0.00000000E+00
  6.90000000E+02  9.20000000E+01  0.00000000E+00
  6.90000000E+02  9.00000000E+01  0.00000000E+00
  6.90000000E+02  8.80000000E+01  0.00000000E+00
  6.90000000E+02  8.60000000E+01  0.00000000E+00
  6.90000000E+02  8.40000000E+01  0.00000000E+00
  6.90000000E+02  8.20000000E+01  0.00000000E+00
  6.90000000E+02  8.00000000E+01  0.00000000E+00
  6.90000000E+02  7.80000000E+01  0.00000000E+00
  6.90000000E+02  7.60000000E+01  0.00000000E+00
  6.90000000E+02  7.40000000E+01  0.00000000E+00
  6.90000000E+02  7.20000000E+01  0.00000000E+00
  6.90000000E+02  7.00000000E+01  0.00000000E+00
  6.90000000E+02  6.80000000E+01  0.00000000E+00
  6.90000000E+02  6.60000000E+01  0.00000000E+00
  6.90000000E+02  6.40000000E+01  0.00000000E+00
  6.90000000E+02  6.20000000E+01  0.00000000E+00
  6.90000000E+02  6.00000000E+01  0.00000000E+00
  6.90000000E+02  5.80000000E+01  0.00000000E+00
  6.90000000E+02  5.60000000E+01  0.00000000E+00
  6.90000000E+02  5.40000000E+01  0.00000000E+00
  6.90000000E+02  5.20000000E+01  0.00000000E+00
  6.90000000E+02  5.00000000E+01  0.00000000E+00
  6.90000000E+02  4.80000000E+01  0.00000000E+00
  6.90000000E+02  4.60000000E+01  0.00000000E+00
  6.90000000E+02  4.40000000E+01  0.00000000E+00
  6.90000000E+02  4.20000000E+01  0.00000000E+00
  6.90000000E+02  4.00000000E+01  0.00000000E+00
  6.90000000E+02  3.80000000E+01  0.00000000E+00
  6.90000000E+02  3.60000000E+01  0.00000000E+00
  6.90000000E+02  3.40000000E+01  0.00000000E+00
  6.90000000E+02  3.20000000E+01  0.00000000E+00
  6.90000000E+02  3.00000000E+01  0.00000000E+00
  6.90000000E+02  2.80000000E+01  0.00000000E+00
  6.90000000E+02  2.60000000E+01  0.00000000E+00
  6.90000000E+02  2.40000000E+01  0.00000000E+00
  6.90000000E+02  2.20000000E+01  0.00000000E+00
  6.90000000E+02  2.00000000E+01  0.00000000E+00
  6.90000000E+02  1.80000000E+01  0.00000000E+00
  6.90000000E+02  1.60000000E+01  0.00000000E+00
  6.90000000E+02  1.40000000E+01  0.00000000E+00
  6.90000000E+02  1.20000000E+01  0.00000000E+00
  6.90000000E+02  1.00000000E+01  0.00000000E+00
  6.90000000E+02  8.00000000E+00  0.00000000E+00
  6.90000000E+02  6.00000000E+00  0.00000000E+00
  6.90000000E+02  4.00000000E+00  0.00000000E+00
  6.90000000E+02  2.00000000E+00  0.00000000E+00
  6.90000000E+02 -3.33066907E-14  0.00000000E+00
  7.00000000E+02  1.00000000E+02  0.00000000E+00
  7.00000000E+02  9.80000000E+01  0.00000000E+00
  7.00000000E+02  9.60000000E+01  0.00000000E+00
  7.00000000E+02  9.40000000E+01  0.00000000E+00
  7.00000000E+02  9.20000000E+01  0.00000000E+00
  7.00000000E+02  9.00000000E+01  0.00000000E+00
  7.00000000E+02  8.80000000E+01  0.00000000E+00
  7.00000000E+02  8.60000000E+01  0.00000000E+00
  7.00000000E+02  8.40000000E+01  0.00000000E+00
  7.00000000E+02  8.20000000E+01  0.00000000E+00
  7.00000000E+02  8.00000000E+01  0.00000000E+00
  7.00000000E+02  7.80000000E+01  0.00000000E+00
  7.00000000E+02  7.60000000E+01  0.00000000E+00
  7.00000000E+02  7.40000000E+01  0.00000000E+00
  7.00000000E+02  7.20000000E+01  0.00000000E+00
  7.00000000E+02  7.00000000E+01  0.00000000E+00
  7.00000000E+02  6.80000000E+01  0.00000000E+00
  7.00000000E+02  6.60000000E+01  0.00000000E+00
  7.00000000E+02  6.40000000E+01  0.00000000E+00
  7.00000000E+02  6.20000000E+01  0.00000000E+00
  7.00000000E+02  6.00000000E+01  0.00000000E+00
  7.00000000E+02  5.80000000E+01  0.00000000E+00
  7.00000000E+02  5.60000000E+01  0.00000000E+00
  7.00000000E+02  5.40000000E+01  0.00000000E+00
  7.00000000E+02  5.20000000E+01  0.00000000E+00
  7.00000000E+02  5.00000000E+01  0.00000000E+00
  7.00000000E+02  4.80000000E+01  0.00000000E+00
  7.00000000E+02  4.60000000E+01  0.00000000E+00
  7.00000000E+02  4.40000000E+01  0.00000000E+00
  7.00000000E+02  4.20000000E+01  0.00000000E+00
  7.00000000E+02  4.00000000E+01  0.00000000E+00
  7.00000000E+02  3.80000000E+01  0.00000000E+00
  7.00000000E+02  3.60000000E+01  0.00000000E+00
  7.00000000E+02  3.40000000E+01  0.00000000E+00
  7.00000000E+02  3.20000000E+01  0.00000000E+00
  7.00000000E+02  3.00000000E+01  0.00000000E+00
  7.00000000E+02  2.80000000E+01  0.00000000E+00
  7.00000000E+02  2.60000000E+01  0.00000000E+00
  7.00000000E+02  2.40000000E+01  0.00000000E+00
  7.00000000E+02  2.20000000E+01  0.00000000E+00
  7.00000000E+02  2.00000000E+01  0.00000000E+00
  7.00000000E+02  1.80000000E+01  0.00000000E+00
  7.00000000E+02  1.60000000E+01  0.00000000E+00
  7.00000000E+02  1.40000000E+01  0.00000000E+00
  7.00000000E+02  1.20000000E+01  0.00000000E+00
  7.00000000E+02  1.00000000E+01  0.00000000E+00
  7.00000000E+02  8.00000000E+00  0.00000000E+00
  7.00000000E+02  6.00000000E+00  0.00000000E+00
  7.00000000E+02  4.00000000E+00  0.00000000E+00
  7.00000000E+02  2.00000000E+00  0.00000000E+00
  7.00000000E+02 -3.33066907E-14  0.00000000E+00
  7.10000000E+02  1.00000000E+02  0.00000000E+00
  7.10000000E+02  9.80000000E+01  0.00000000E+00
  7.10000000E+02  9.60000000E+01  0.00000000E+00
  7.10000000E+02  9.40000000E+01  0.00000000E+00
  7.10000000E+02  9.20000000E+01  0.00000000E+00
  7.10000000E+02  9.00000000E+01  0.00000000E+00
  7.10000000E+02  8.80000000E+01  0.00000000E+00
  7.10000000E+02  8.60000000E+01  0.00000000E+00
  7.10000000E+02  8.40000000E+01  0.00000000E+00
  7.10000000E+02  8.20000000E+01  0.00000000E+00
  7.10000000E+02  8.00000000E+01  0.00000000E+00
  7.10000000E+02  7.80000000E+01  0.00000000E+00
  7.10000000E+02  7.60000000E+01  0.00000000E+00
  7.10000000E+02  7.40000000E+01  0.00000000E+00
  7.10000000E+02  7.20000000E+01  0.00000000E+00
  7.10000000E+02  7.00000000E+01  0.00000000E+00
  7.10000000E+02  6.80000000E+01  0.00000000E+00
  7.10000000E+02  6.60000000E+01  0.00000000E+00
  7.10000000E+02  6.40000000E+01  0.00000000E+00
  7.10000000E+02  6.20000000E+01  0.00000000E+00
  7.10000000E+02  6.00000000E+01  0.00000000E+00
  7.10000000E+02  5.80000000E+01  0.00000000E+00
  7.10000000E+02  5.60000000E+01  0.00000000E+00
  7.10000000E+02  5.40000000E+01  0.00000000E+00
  7.10000000E+02  5.20000000E+01  0.00000000E+00
  7.10000000E+02  5.00000000E+01  0.00000000E+00
  7.10000000E+02  4.80000000E+01  0.00000000E+00
  7.10000000E+02  4.60000000E+01  0.00000000E+00
  7.10000000E+02  4.40000000E+01  0.00000000E+00
  7.10000000E+02  4.20000000E+01  0.00000000E+00
  7.10000000E+02  4.00000000E+01  0.00000000E+00
  7.10000000E+02  3.80000000E+01  0.00000000E+00
  7.10000000E+02  3.60000000E+01  0.00000000E+00
  7.10000000E+02  3.40000000E+01  0.00000000E+00
  7.10000000E+02  3.20000000E+01  0.00000000E+00
  7.10000000E+02  3.00000000E+01  0.00000000E+00
  7.10000000E+02  2.80000000E+01  0.00000000E+00
  7.10000000E+02  2.60000000E+01  0.00000000E+00
  7.10000000E+02  2.40000000E+01  0.00000000E+00
  7.10000000E+02  2.20000000E+01  0.00000000E+00
  7.10000000E+02  2.00000000E+01  0.00000000E+00
  7.10000000E+02  1.80000000E+01  0.00000000E+00
  7.10000000E+02  1.60000000E+01  0.00000000E+00
  7.10000000E+02  1.40000000E+01  0.00000000E+00
  7.10000000E+02  1.20000000E+01  0.00000000E+00
  7.10000000E+02  1.00000000E+01  0.00000000E+00
  7.10000000E+02  8.00000000E+00  0.00000000E+00
  7.10000000E+02  6.00000000E+00  0.00000000E+00
  7.10000000E+02  4.00000000E+00  0.00000000E+00
  7.10000000E+02  2.00000000E+00  0.00000000E+00
  7.10000000E+02 -3.33066907E-14  0.00000000E+00
  7.20000000E+02  1.00000000E+02  0.00000000E+00
  7.20000000E+02  9.80000000E+01  0.00000000E+00
  7.20000000E+02  9.60000000E+01  0.00000000E+00
  7.20000000E+02  9.40000000E+01  0.00000000E+00
  7.20000000E+02  9.20000000E+01  0.00000000E+00
  7.20000000E+02  9.00000000E+01  0.00000000E+00
  7.20000000E+02  8.80000000E+01  0.00000000E+00
  7.20000000E+02  8.60000000E+01  0.00000000E+00
  7.20000000E+02  8.40000000E+01  0.00000000E+00
  7.20000000E+02  8.20000000E+01  0.00000000E+00
  7.20000000E+02  8.00000000E+01  0.00000000E+00
  7.20000000E+02  7.80000000E+01  0.00000000E+00
  7.20000000E+02  7.60000000E+01  0.00000000E+00
  7.20000000E+02  7.40000000E+01  0.00000000E+00
  7.20000000E+02  7.20000000E+01  0.00000000E+00
  7.20000000E+02  7.00000000E+01  0.00000000E+00
  7.20000000E+02  6.80000000E+01  0.00000000E+00
  7.20000000E+02  6.60000000E+01  0.00000000E+00
  7.20000000E+02  6.40000000E+01  0.00000000E+00
  7.20000000E+02  6.20000000E+01  0.00000000E+00
  7.20000000E+02  6.00000000E+01  0.00000000E+00
  7.20000000E+02  5.80000000E+01  0.00000000E+00
  7.20000000E+02  5.60000000E+01  0.00000000E+00
  7.20000000E+02  5.40000000E+01  0.00000000E+00
  7.20000000E+02  5.20000000E+01  0.00000000E+00
  7.20000000E+02  5.00000000E+01  0.00000000E+00
  7.20000000E+02  4.80000000E+01  0.00000000E+00
  7.20000000E+02  4.60000000E+01  0.00000000E+00
  7.20000000E+02  4.40000000E+01  0.00000000E+00
  7.20000000E+02  4.20000000E+01  0.00000000E+00
  7.20000000E+02  4.00000000E+01  0.00000000E+00
  7.20000000E+02  3.80000000E+01  0.00000000E+00
  7.20000000E+02  3.60000000E+01  0.00000000E+00
  7.20000000E+02  3.40000000E+01  0.00000000E+00
  7.20000000E+02  3.20000000E+01  0.00000000E+00
  7.20000000E+02  3.00000000E+01  0.00000000E+00
  7.20000000E+02  2.80000000E+01  0.00000000E+00
  7.20000000E+02  2.60000000E+01  0.00000000E+00
  7.20000000E+02  2.40000000E+01  0.00000000E+00
  7.20000000E+02  2.20000000E+01  0.00000000E+00
  7.20000000E+02  2.00000000E+01  0.00000000E+00
  7.20000000E+02  1.80000000E+01  0.00000000E+00
  7.20000000E+02  1.60000000E+01  0.00000000E+00
  7.20000000E+02  1.40000000E+01  0.00000000E+00
  7.20000000E+02  1.20000000E+01  0.00000000E+00
  7.20000000E+02  1.00000000E+01  0.00000000E+00
  7.20000000E+02  8.00000000E+00  0.00000000E+00
  7.20000000E+02  6.00000000E+00  0.00000000E+00
  7.20000000E+02  4.00000000E+00  0.00000000E+00
  7.20000000E+02  2.00000000E+00  0.00000000E+00
  7.20000000E+02 -3.33066907E-14  0.00000000E+00
  7.30000000E+02  1.00000000E+02  0.00000000E+00
  7.30000000E+02  9.80000000E+01  0.00000000E+00
  7.30000000E+02  9.60000000E+01  0.00000000E+00
  7.30000000E+02  9.40000000E+01  0.00000000E+00
  7.30000000E+02  9.20000000E+01  0.00000000E+00
  7.30000000E+02  9.00000000E+01  0.00000000E+00
  7.30000000E+02  8.80000000E+01  0.00000000E+00
  7.30000000E+02  8.60000000E+01  0.00000000E+00
  7.30000000E+02  8.40000000E+01  0.00000000E+00
  7.30000000E+02  8.20000000E+01  0.00000000E+00
  7.30000000E+02  8.00000000E+01  0.00000000E+00
  7.30000000E+02  7.80000000E+01  0.00000000E+00
  7.30000000E+02  7.60000000E+01  0.00000000E+00
  7.30000000E+02  7.40000000E+01  0.00000000E+00
  7.30000000E+02  7.20000000E+01  0.00000000E+00
  7.30000000E+02  7.00000000E+01  0.00000000E+00
  7.30000000E+02  6.80000000E+01  0.00000000E+00
  7.30000000E+02  6.60000000E+01  0.00000000E+00
  7.30000000E+02  6.40000000E+01  0.00000000E+00
  7.30000000E+02  6.20000000E+01  0.00000000E+00
  7.30000000E+02  6.00000000E+01  0.00000000E+00
  7.30000000E+02  5.80000000E+01  0.00000000E+00
  7.30000000E+02  5.60000000E+01  0.00000000E+00
  7.30000000E+02  5.40000000E+01  0.00000000E+00
  7.30000000E+02  5.20000000E+01  0.00000000E+00
  7.30000000E+02  5.00000000E+01  0.00000000E+00
  7.30000000E+02  4.80000000E+01  0.00000000E+00
  7.30000000E+02  4.60000000E+01  0.00000000E+00
  7.30000000E+02  4.40000000E+01  0.00000000E+00
  7.30000000E+02  4.20000000E+01  0.00000000E+00
  7.30000000E+02  4.00000000E+01  0.00000000E+00
  7.30000000E+02  3.80000000E+01  0.00000000E+00
  7.30000000E+02  3.60000000E+01  0.00000000E+00
  7.30000000E+02  3.40000000E+01  0.00000000E+00
  7.30000000E+02  3.20000000E+01  0.00000000E+00
  7.30000000E+02  3.00000000E+01  0.00000000E+00
  7.30000000E+02  2.80000000E+01  0.00000000E+00
  7.30000000E+02  2.60000000E+01  0.00000000E+00
  7.30000000E+02  2.40000000E+01  0.00000000E+00
  7.30000000E+02  2.20000000E+01  0.00000000E+00
  7.30000000E+02  2.00000000E+01  0.00000000E+00
  7.30000000E+02  1.80000000E+01  0.00000000E+00
  7.30000000E+02  1.60000000E+01  0.00000000E+00
  7.30000000E+02  1.40000000E+01  0.00000000E+00
  7.30000000E+02  1.20000000E+01  0.00000000E+00
  7.30000000E+02  1.00000000E+01  0.00000000E+00
  7.30000000E+02  8.00000000E+00  0.00000000E+00
  7.30000000E+02  6.00000000E+00  0.00000000E+00
  7.30000000E+02  4.00000000E+00  0.00000000E+00
  7.30000000E+02  2.00000000E+00  0.00000000E+00
  7.30000000E+02 -3.33066907E-14  0.00000000E+00
  7.40000000E+02  1.00000000E+02  0.00000000E+00
  7.40000000E+02  9.80000000E+01  0.00000000E+00
  7.40000000E+02  9.60000000E+01  0.00000000E+00
  7.40000000E+02  9.40000000E+01  0.00000000E+00
  7.40000000E+02  9.20000000E+01  0.00000000E+00
  7.40000000E+02  9.00000000E+01  0.00000000E+00
  7.40000000E+02  8.80000000E+01  0.00000000E+00
  7.40000000E+02  8.60000000E+01  0.00000000E+00
  7.40000000E+02  8.40000000E+01  0.00000000E+00
  7.40000000E+02  8.20000000E+01  0.00000000E+00
  7.40000000E+02  8.00000000E+01  0.00000000E+00
  7.40000000E+02  7.80000000E+01  0.00000000E+00
  7.40000000E+02  7.60000000E+01  0.00000000E+00
  7.40000000E+02  7.40000000E+01  0.00000000E+00
  7.40000000E+02  7.20000000E+01  0.00000000E+00
  7.40000000E+02  7.00000000E+01  0.00000000E+00
  7.40000000E+02  6.80000000E+01  0.00000000E+00
  7.40000000E+02  6.60000000E+01  0.00000000E+00
  7.40000000E+02  6.40000000E+01  0.00000000E+00
  7.40000000E+02  6.20000000E+01  0.00000000E+00
  7.40000000E+02  6.00000000E+01  0.00000000E+00
  7.40000000E+02  5.80000000E+01  0.00000000E+00
  7.40000000E+02  5.60000000E+01  0.00000000E+00
  7.40000000E+02  5.40000000E+01  0.00000000E+00
  7.40000000E+02  5.20000000E+01  0.00000000E+00
  7.40000000E+02  5.00000000E+01  0.00000000E+00
  7.40000000E+02  4.80000000E+01  0.00000000E+00
  7.40000000E+02  4.60000000E+01  0.00000000E+00
  7.40000000E+02  4.40000000E+01  0.00000000E+00
  7.40000000E+02  4.20000000E+01  0.00000000E+00
  7.40000000E+02  4.00000000E+01  0.00000000E+00
  7.40000000E+02  3.80000000E+01  0.00000000E+00
  7.40000000E+02  3.60000000E+01  0.00000000E+00
  7.40000000E+02  3.40000000E+01  0.00000000E+00
  7.40000000E+02  3.20000000E+01  0.00000000E+00
  7.40000000E+02  3.00000000E+01  0.00000000E+00
  7.40000000E+02  2.80000000E+01  0.00000000E+00
  7.40000000E+02  2.60000000E+01  0.00000000E+00
  7.40000000E+02  2.40000000E+01  0.00000000E+00
  7.40000000E+02  2.20000000E+01  0.00000000E+00
  7.40000000E+02  2.00000000E+01  0.00000000E+00
  7.40000000E+02  1.80000000E+01  0.00000000E+00
  7.40000000E+02  1.60000000E+01  0.00000000E+00
  7.40000000E+02  1.40000000E+01  0.00000000E+00
  7.40000000E+02  1.20000000E+01  0.00000000E+00
  7.40000000E+02  1.00000000E+01  0.00000000E+00
  7.40000000E+02  8.00000000E+00  0.00000000E+00
  7.40000000E+02  6.00000000E+00  0.00000000E+00
  7.40000000E+02  4.00000000E+00  0.00000000E+00
  7.40000000E+02  2.00000000E+00  0.00000000E+00
  7.40000000E+02 -3.33066907E-14  0.00000000E+00
  7.50000000E+02  1.00000000E+02  0.00000000E+00
  7.50000000E+02  9.80000000E+01  0.00000000E+00
  7.50000000E+02  9.60000000E+01  0.00000000E+00
  7.50000000E+02  9.40000000E+01  0.00000000E+00
  7.50000000E+02  9.20000000E+01  0.00000000E+00
  7.50000000E+02  9.00000000E+01  0.00000000E+00
  7.50000000E+02  8.80000000E+01  0.00000000E+00
  7.50000000E+02  8.60000000E+01  0.00000000E+00
  7.50000000E+02  8.40000000E+01  0.00000000E+00
  7.50000000E+02  8.20000000E+01  0.00000000E+00
  7.50000000E+02  8.00000000E+01  0.00000000E+00
  7.50000000E+02  7.80000000E+01  0.00000000E+00
  7.50000000E+02  7.60000000E+01  0.00000000E+00
  7.50000000E+02  7.40000000E+01  0.00000000E+00
  7.50000000E+02  7.20000000E+01  0.00000000E+00
  7.50000000E+02  7.00000000E+01  0.00000000E+00
  7.50000000E+02  6.80000000E+01  0.00000000E+00
  7.50000000E+02  6.60000000E+01  0.00000000E+00
  7.50000000E+02  6.40000000E+01  0.00000000E+00
  7.50000000E+02  6.20000000E+01  0.00000000E+00
  7.50000000E+02  6.00000000E+01  0.00000000E+00
  7.50000000E+02  5.80000000E+01  0.00000000E+00
  7.50000000E+02  5.60000000E+01  0.00000000E+00
  7.50000000E+02  5.40000000E+01  0.00000000E+00
  7.50000000E+02  5.20000000E+01  0.00000000E+00
  7.50000000E+02  5.00000000E+01  0.00000000E+00
  7.50000000E+02  4.80000000E+01  0.00000000E+00
  7.50000000E+02  4.60000000E+01  0.00000000E+00
  7.50000000E+02  4.40000000E+01  0.00000000E+00
  7.50000000E+02  4.20000000E+01  0.00000000E+00
  7.50000000E+02  4.00000000E+01  0.00000000E+00
  7.50000000E+02  3.80000000E+01  0.00000000E+00
  7.50000000E+02  3.60000000E+01  0.00000000E+00
  7.50000000E+02  3.40000000E+01  0.00000000E+00
  7.50000000E+02  3.20000000E+01  0.00000000E+00
  7.50000000E+02  3.00000000E+01  0.00000000E+00
  7.50000000E+02  2.80000000E+01  0.00000000E+00
  7.50000000E+02  2.60000000E+01  0.00000000E+00
  7.50000000E+02  2.40000000E+01  0.00000000E+00
  7.50000000E+02  2.20000000E+01  0.00000000E+00
  7.50000000E+02  2.00000000E+01  0.00000000E+00
  7.50000000E+02  1.80000000E+01  0.00000000E+00
  7.50000000E+02  1.60000000E+01  0.00000000E+00
  7.50000000E+02  1.40000000E+01  0.00000000E+00
  7.50000000E+02  1.20000000E+01  0.00000000E+00
  7.50000000E+02  1.00000000E+01  0.00000000E+00
  7.50000000E+02  8.00000000E+00  0.00000000E+00
  7.50000000E+02  6.00000000E+00  0.00000000E+00
  7.50000000E+02  4.00000000E+00  0.00000000E+00
  7.50000000E+02  2.00000000E+00  0.00000000E+00
  7.50000000E+02 -3.33066907E-14  0.00000000E+00
  7.60000000E+02  1.00000000E+02  0.00000000E+00
  7.60000000E+02  9.80000000E+01  0.00000000E+00
  7.60000000E+02  9.60000000E+01  0.00000000E+00
  7.60000000E+02  9.40000000E+01  0.00000000E+00
  7.60000000E+02  9.20000000E+01  0.00000000E+00
  7.60000000E+02  9.00000000E+01  0.00000000E+00
  7.60000000E+02  8.80000000E+01  0.00000000E+00
  7.60000000E+02  8.60000000E+01  0.00000000E+00
  7.60000000E+02  8.40000000E+01  0.00000000E+00
  7.60000000E+02  8.20000000E+01  0.00000000E+00
  7.60000000E+02  8.00000000E+01  0.00000000E+00
  7.60000000E+02  7.80000000E+01  0.00000000E+00
  7.60000000E+02  7.60000000E+01  0.00000000E+00
  7.60000000E+02  7.40000000E+01  0.00000000E+00
  7.60000000E+02  7.20000000E+01  0.00000000E+00
  7.60000000E+02  7.00000000E+01  0.00000000E+00
  7.60000000E+02  6.80000000E+01  0.00000000E+00
  7.60000000E+02  6.60000000E+01  0.00000000E+00
  7.60000000E+02  6.40000000E+01  0.00000000E+00
  7.60000000E+02  6.20000000E+01  0.00000000E+00
  7.60000000E+02  6.00000000E+01  0.00000000E+00
  7.60000000E+02  5.80000000E+01  0.00000000E+00
  7.60000000E+02  5.60000000E+01  0.00000000E+00
  7.60000000E+02  5.40000000E+01  0.00000000E+00
  7.60000000E+02  5.20000000E+01  0.00000000E+00
  7.60000000E+02  5.00000000E+01  0.00000000E+00
  7.60000000E+02  4.80000000E+01  0.00000000E+00
  7.60000000E+02  4.60000000E+01  0.00000000E+00
  7.60000000E+02  4.40000000E+01  0.00000000E+00
  7.60000000E+02  4.20000000E+01  0.00000000E+00
  7.60000000E+02  4.00000000E+01  0.00000000E+00
  7.60000000E+02  3.80000000E+01  0.00000000E+00
  7.60000000E+02  3.60000000E+01  0.00000000E+00
  7.60000000E+02  3.40000000E+01  0.00000000E+00
  7.60000000E+02  3.20000000E+01  0.00000000E+00
  7.60000000E+02  3.00000000E+01  0.00000000E+00
  7.60000000E+02  2.80000000E+01  0.00000000E+00
  7.60000000E+02  2.60000000E+01  0.00000000E+00
  7.60000000E+02  2.40000000E+01  0.00000000E+00
  7.60000000E+02  2.20000000E+01  0.00000000E+00
  7.60000000E+02  2.00000000E+01  0.00000000E+00
  7.60000000E+02  1.80000000E+01  0.00000000E+00
  7.60000000E+02  1.60000000E+01  0.00000000E+00
  7.60000000E+02  1.40000000E+01  0.00000000E+00
  7.60000000E+02  1.20000000E+01  0.00000000E+00
  7.60000000E+02  1.00000000E+01  0.00000000E+00
  7.60000000E+02  8.00000000E+00  0.00000000E+00
  7.60000000E+02  6.00000000E+00  0.00000000E+00
  7.60000000E+02  4.00000000E+00  0.00000000E+00
  7.60000000E+02  2.00000000E+00  0.00000000E+00
  7.60000000E+02 -3.33066907E-14  0.00000000E+00
  7.70000000E+02  1.00000000E+02  0.00000000E+00
  7.70000000E+02  9.80000000E+01  0.00000000E+00
  7.70000000E+02  9.60000000E+01  0.00000000E+00
  7.70000000E+02  9.40000000E+01  0.00000000E+00
  7.70000000E+02  9.20000000E+01  0.00000000E+00
  7.70000000E+02  9.00000000E+01  0.00000000E+00
  7.70000000E+02  8.80000000E+01  0.00000000E+00
  7.70000000E+02  8.60000000E+01  0.00000000E+00
  7.70000000E+02  8.40000000E+01  0.00000000E+00
  7.70000000E+02  8.20000000E+01  0.00000000E+00
  7.70000000E+02  8.00000000E+01  0.00000000E+00
  7.70000000E+02  7.80000000E+01  0.00000000E+00
  7.70000000E+02  7.60000000E+01  0.00000000E+00
  7.70000000E+02  7.40000000E+01  0.00000000E+00
  7.70000000E+02  7.20000000E+01  0.00000000E+00
  7.70000000E+02  7.00000000E+01  0.00000000E+00
  7.70000000E+02  6.80000000E+01  0.00000000E+00
  7.70000000E+02  6.60000000E+01  0.00000000E+00
  7.70000000E+02  6.40000000E+01  0.00000000E+00
  7.70000000E+02  6.20000000E+01  0.00000000E+00
  7.70000000E+02  6.00000000E+01  0.00000000E+00
  7.70000000E+02  5.80000000E+01  0.00000000E+00
  7.70000000E+02  5.60000000E+01  0.00000000E+00
  7.70000000E+02  5.40000000E+01  0.00000000E+00
  7.70000000E+02  5.20000000E+01  0.00000000E+00
  7.70000000E+02  5.00000000E+01  0.00000000E+00
  7.70000000E+02  4.80000000E+01  0.00000000E+00
  7.70000000E+02  4.60000000E+01  0.00000000E+00
  7.70000000E+02  4.40000000E+01  0.00000000E+00
  7.70000000E+02  4.20000000E+01  0.00000000E+00
  7.70000000E+02  4.00000000E+01  0.00000000E+00
  7.70000000E+02  3.80000000E+01  0.00000000E+00
  7.70000000E+02  3.60000000E+01  0.00000000E+00
  7.70000000E+02  3.40000000E+01  0.00000000E+00
  7.70000000E+02  3.20000000E+01  0.00000000E+00
  7.70000000E+02  3.00000000E+01  0.00000000E+00
  7.70000000E+02  2.80000000E+01  0.00000000E+00
  7.70000000E+02  2.60000000E+01  0.00000000E+00
  7.70000000E+02  2.40000000E+01  0.00000000E+00
  7.70000000E+02  2.20000000E+01  0.00000000E+00
  7.70000000E+02  2.00000000E+01  0.00000000E+00
  7.70000000E+02  1.80000000E+01  0.00000000E+00
  7.70000000E+02  1.60000000E+01  0.00000000E+00
  7.70000000E+02  1.40000000E+01  0.00000000E+00
  7.70000000E+02  1.20000000E+01  0.00000000E+00
  7.70000000E+02  1.00000000E+01  0.00000000E+00
  7.70000000E+02  8.00000000E+00  0.00000000E+00
  7.70000000E+02  6.00000000E+00  0.00000000E+00
  7.70000000E+02  4.00000000E+00  0.00000000E+00
  7.70000000E+02  2.00000000E+00  0.00000000E+00
  7.70000000E+02 -3.33066907E-14  0.00000000E+00
  7.80000000E+02  1.00000000E+02  0.00000000E+00
  7.80000000E+02  9.80000000E+01  0.00000000E+00
  7.80000000E+02  9.60000000E+01  0.00000000E+00
  7.80000000E+02  9.40000000E+01  0.00000000E+00
  7.80000000E+02  9.20000000E+01  0.00000000E+00
  7.80000000E+02  9.00000000E+01  0.00000000E+00
  7.80000000E+02  8.80000000E+01  0.00000000E+00
  7.80000000E+02  8.60000000E+01  0.00000000E+00
  7.80000000E+02  8.40000000E+01  0.00000000E+00
  7.80000000E+02  8.20000000E+01  0.00000000E+00
  7.80000000E+02  8.00000000E+01  0.00000000E+00
  7.80000000E+02  7.80000000E+01  0.00000000E+00
  7.80000000E+02  7.60000000E+01  0.00000000E+00
  7.80000000E+02  7.40000000E+01  0.00000000E+00
  7.80000000E+02  7.20000000E+01  0.00000000E+00
  7.80000000E+02  7.00000000E+01  0.00000000E+00
  7.80000000E+02  6.80000000E+01  0.00000000E+00
  7.80000000E+02  6.60000000E+01  0.00000000E+00
  7.80000000E+02  6.40000000E+01  0.00000000E+00
  7.80000000E+02  6.20000000E+01  0.00000000E+00
  7.80000000E+02  6.00000000E+01  0.00000000E+00
  7.80000000E+02  5.80000000E+01  0.00000000E+00
  7.80000000E+02  5.60000000E+01  0.00000000E+00
  7.80000000E+02  5.40000000E+01  0.00000000E+00
  7.80000000E+02  5.20000000E+01  0.00000000E+00
  7.80000000E+02  5.00000000E+01  0.00000000E+00
  7.80000000E+02  4.80000000E+01  0.00000000E+00
  7.80000000E+02  4.60000000E+01  0.00000000E+00
  7.80000000E+02  4.40000000E+01  0.00000000E+00
  7.80000000E+02  4.20000000E+01  0.00000000E+00
  7.80000000E+02  4.00000000E+01  0.00000000E+00
  7.80000000E+02  3.80000000E+01  0.00000000E+00
  7.80000000E+02  3.60000000E+01  0.00000000E+00
  7.80000000E+02  3.40000000E+01  0.00000000E+00
  7.80000000E+02  3.20000000E+01  0.00000000E+00
  7.80000000E+02  3.00000000E+01  0.00000000E+00
  7.80000000E+02  2.80000000E+01  0.00000000E+00
  7.80000000E+02  2.60000000E+01  0.00000000E+00
  7.80000000E+02  2.40000000E+01  0.00000000E+00
  7.80000000E+02  2.20000000E+01  0.00000000E+00
  7.80000000E+02  2.00000000E+01  0.00000000E+00
  7.80000000E+02  1.80000000E+01  0.00000000E+00
  7.80000000E+02  1.60000000E+01  0.00000000E+00
  7.80000000E+02  1.40000000E+01  0.00000000E+00
  7.80000000E+02  1.20000000E+01  0.00000000E+00
  7.80000000E+02  1.00000000E+01  0.00000000E+00
  7.80000000E+02  8.00000000E+00  0.00000000E+00
  7.80000000E+02  6.00000000E+00  0.00000000E+00
  7.80000000E+02  4.00000000E+00  0.00000000E+00
  7.80000000E+02  2.00000000E+00  0.00000000E+00
  7.80000000E+02 -3.33066907E-14  0.00000000E+00
  7.90000000E+02  1.00000000E+02  0.00000000E+00
  7.90000000E+02  9.80000000E+01  0.00000000E+00
  7.90000000E+02  9.60000000E+01  0.00000000E+00
  7.90000000E+02  9.40000000E+01  0.00000000E+00
  7.90000000E+02  9.20000000E+01  0.00000000E+00
  7.90000000E+02  9.00000000E+01  0.00000000E+00
  7.90000000E+02  8.80000000E+01  0.00000000E+00
  7.90000000E+02  8.60000000E+01  0.00000000E+00
  7.90000000E+02  8.40000000E+01  0.00000000E+00
  7.90000000E+02  8.20000000E+01  0.00000000E+00
  7.90000000E+02  8.00000000E+01  0.00000000E+00
  7.90000000E+02  7.80000000E+01  0.00000000E+00
  7.90000000E+02  7.60000000E+01  0.00000000E+00
  7.90000000E+02  7.40000000E+01  0.00000000E+00
  7.90000000E+02  7.20000000E+01  0.00000000E+00
  7.90000000E+02  7.00000000E+01  0.00000000E+00
  7.90000000E+02  6.80000000E+01  0.00000000E+00
  7.90000000E+02  6.60000000E+01  0.00000000E+00
  7.90000000E+02  6.40000000E+01  0.00000000E+00
  7.90000000E+02  6.20000000E+01  0.00000000E+00
  7.90000000E+02  6.00000000E+01  0.00000000E+00
  7.90000000E+02  5.80000000E+01  0.00000000E+00
  7.90000000E+02  5.60000000E+01  0.00000000E+00
  7.90000000E+02  5.40000000E+01  0.00000000E+00
  7.90000000E+02  5.20000000E+01  0.00000000E+00
  7.90000000E+02  5.00000000E+01  0.00000000E+00
  7.90000000E+02  4.80000000E+01  0.00000000E+00
  7.90000000E+02  4.60000000E+01  0.00000000E+00
  7.90000000E+02  4.40000000E+01  0.00000000E+00
  7.90000000E+02  4.20000000E+01  0.00000000E+00
  7.90000000E+02  4.00000000E+01  0.00000000E+00
  7.90000000E+02  3.80000000E+01  0.00000000E+00
  7.90000000E+02  3.60000000E+01  0.00000000E+00
  7.90000000E+02  3.40000000E+01  0.00000000E+00
  7.90000000E+02  3.20000000E+01  0.00000000E+00
  7.90000000E+02  3.00000000E+01  0.00000000E+00
  7.90000000E+02  2.80000000E+01  0.00000000E+00
  7.90000000E+02  2.60000000E+01  0.00000000E+00
  7.90000000E+02  2.40000000E+01  0.00000000E+00
  7.90000000E+02  2.20000000E+01  0.00000000E+00
  7.90000000E+02  2.00000000E+01  0.00000000E+00
  7.90000000E+02  1.80000000E+01  0.00000000E+00
  7.90000000E+02  1.60000000E+01  0.00000000E+00
  7.90000000E+02  1.40000000E+01  0.00000000E+00
  7.90000000E+02  1.20000000E+01  0.00000000E+00
  7.90000000E+02  1.00000000E+01  0.00000000E+00
  7.90000000E+02  8.00000000E+00  0.00000000E+00
  7.90000000E+02  6.00000000E+00  0.00000000E+00
  7.90000000E+02  4.00000000E+00  0.00000000E+00
  7.90000000E+02  2.00000000E+00  0.00000000E+00
  7.90000000E+02 -3.33066907E-14  0.00000000E+00
  8.00000000E+02  1.00000000E+02  0.00000000E+00
  8.00000000E+02  9.80000000E+01  0.00000000E+00
  8.00000000E+02  9.60000000E+01  0.00000000E+00
  8.00000000E+02  9.40000000E+01  0.00000000E+00
  8.00000000E+02  9.20000000E+01  0.00000000E+00
  8.00000000E+02  9.00000000E+01  0.00000000E+00
  8.00000000E+02  8.80000000E+01  0.00000000E+00
  8.00000000E+02  8.60000000E+01  0.00000000E+00
  8.00000000E+02  8.40000000E+01  0.00000000E+00
  8.00000000E+02  8.20000000E+01  0.00000000E+00
  8.00000000E+02  8.00000000E+01  0.00000000E+00
  8.00000000E+02  7.80000000E+01  0.00000000E+00
  8.00000000E+02  7.60000000E+01  0.00000000E+00
  8.00000000E+02  7.40000000E+01  0.00000000E+00
  8.00000000E+02  7.20000000E+01  0.00000000E+00
  8.00000000E+02  7.00000000E+01  0.00000000E+00
  8.00000000E+02  6.80000000E+01  0.00000000E+00
  8.00000000E+02  6.60000000E+01  0.00000000E+00
  8.00000000E+02  6.40000000E+01  0.00000000E+00
  8.00000000E+02  6.20000000E+01  0.00000000E+00
  8.00000000E+02  6.00000000E+01  0.00000000E+00
  8.00000000E+02  5.80000000E+01  0.00000000E+00
  8.00000000E+02  5.60000000E+01  0.00000000E+00
  8.00000000E+02  5.40000000E+01  0.00000000E+00
  8.00000000E+02  5.20000000E+01  0.00000000E+00
  8.00000000E+02  5.00000000E+01  0.00000000E+00
  8.00000000E+02  4.80000000E+01  0.00000000E+00
  8.00000000E+02  4.60000000E+01  0.00000000E+00
  8.00000000E+02  4.40000000E+01  0.00000000E+00
  8.00000000E+02  4.20000000E+01  0.00000000E+00
  8.00000000E+02  4.00000000E+01  0.00000000E+00
  8.00000000E+02  3.80000000E+01  0.00000000E+00
  8.00000000E+02  3.60000000E+01  0.00000000E+00
  8.00000000E+02  3.40000000E+01  0.00000000E+00
  8.00000000E+02  3.20000000E+01  0.00000000E+00
  8.00000000E+02  3.00000000E+01  0.00000000E+00
  8.00000000E+02  2.80000000E+01  0.00000000E+00
  8.00000000E+02  2.60000000E+01  0.00000000E+00
  8.00000000E+02  2.40000000E+01  0.00000000E+00
  8.00000000E+02  2.20000000E+01  0.00000000E+00
  8.00000000E+02  2.00000000E+01  0.00000000E+00
  8.00000000E+02  1.80000000E+01  0.00000000E+00
  8.00000000E+02  1.60000000E+01  0.00000000E+00
  8.00000000E+02  1.40000000E+01  0.00000000E+00
  8.00000000E+02  1.20000000E+01  0.00000000E+00
  8.00000000E+02  1.00000000E+01  0.00000000E+00
  8.00000000E+02  8.00000000E+00  0.00000000E+00
  8.00000000E+02  6.00000000E+00  0.00000000E+00
  8.00000000E+02  4.00000000E+00  0.00000000E+00
  8.00000000E+02  2.00000000E+00  0.00000000E+00
  8.00000000E+02 -3.33066907E-14  0.00000000E+00
  8.10000000E+02  1.00000000E+02  0.00000000E+00
  8.10000000E+02  9.80000000E+01  0.00000000E+00
  8.10000000E+02  9.60000000E+01  0.00000000E+00
  8.10000000E+02  9.40000000E+01  0.00000000E+00
  8.10000000E+02  9.20000000E+01  0.00000000E+00
  8.10000000E+02  9.00000000E+01  0.00000000E+00
  8.10000000E+02  8.80000000E+01  0.00000000E+00
  8.10000000E+02  8.60000000E+01  0.00000000E+00
  8.10000000E+02  8.40000000E+01  0.00000000E+00
  8.10000000E+02  8.20000000E+01  0.00000000E+00
  8.10000000E+02  8.00000000E+01  0.00000000E+00
  8.10000000E+02  7.80000000E+01  0.00000000E+00
  8.10000000E+02  7.60000000E+01  0.00000000E+00
  8.10000000E+02  7.40000000E+01  0.00000000E+00
  8.10000000E+02  7.20000000E+01  0.00000000E+00
  8.10000000E+02  7.00000000E+01  0.00000000E+00
  8.10000000E+02  6.80000000E+01  0.00000000E+00
  8.10000000E+02  6.60000000E+01  0.00000000E+00
  8.10000000E+02  6.40000000E+01  0.00000000E+00
  8.10000000E+02  6.20000000E+01  0.00000000E+00
  8.10000000E+02  6.00000000E+01  0.00000000E+00
  8.10000000E+02  5.80000000E+01  0.00000000E+00
  8.10000000E+02  5.60000000E+01  0.00000000E+00
  8.10000000E+02  5.40000000E+01  0.00000000E+00
  8.10000000E+02  5.20000000E+01  0.00000000E+00
  8.10000000E+02  5.00000000E+01  0.00000000E+00
  8.10000000E+02  4.80000000E+01  0.00000000E+00
  8.10000000E+02  4.60000000E+01  0.00000000E+00
  8.10000000E+02  4.40000000E+01  0.00000000E+00
  8.10000000E+02  4.20000000E+01  0.00000000E+00
  8.10000000E+02  4.00000000E+01  0.00000000E+00
  8.10000000E+02  3.80000000E+01  0.00000000E+00
  8.10000000E+02  3.60000000E+01  0.00000000E+00
  8.10000000E+02  3.40000000E+01  0.00000000E+00
  8.10000000E+02  3.20000000E+01  0.00000000E+00
  8.10000000E+02  3.00000000E+01  0.00000000E+00
  8.10000000E+02  2.80000000E+01  0.00000000E+00
  8.10000000E+02  2.60000000E+01  0.00000000E+00
  8.10000000E+02  2.40000000E+01  0.00000000E+00
  8.10000000E+02  2.20000000E+01  0.00000000E+00
  8.10000000E+02  2.00000000E+01  0.00000000E+00
  8.10000000E+02  1.80000000E+01  0.00000000E+00
  8.10000000E+02  1.60000000E+01  0.00000000E+00
  8.10000000E+02  1.40000000E+01  0.00000000E+00
  8.10000000E+02  1.20000000E+01  0.00000000E+00
  8.10000000E+02  1.00000000E+01  0.00000000E+00
  8.10000000E+02  8.00000000E+00  0.00000000E+00
  8.10000000E+02  6.00000000E+00  0.00000000E+00
  8.10000000E+02  4.00000000E+00  0.00000000E+00
  8.10000000E+02  2.00000000E+00  0.00000000E+00
  8.10000000E+02 -3.33066907E-14  0.00000000E+00
  8.20000000E+02  1.00000000E+02  0.00000000E+00
  8.20000000E+02  9.80000000E+01  0.00000000E+00
  8.20000000E+02  9.60000000E+01  0.00000000E+00
  8.20000000E+02  9.40000000E+01  0.00000000E+00
  8.20000000E+02  9.20000000E+01  0.00000000E+00
  8.20000000E+02  9.00000000E+01  0.00000000E+00
  8.20000000E+02  8.80000000E+01  0.00000000E+00
  8.20000000E+02  8.60000000E+01  0.00000000E+00
  8.20000000E+02  8.40000000E+01  0.00000000E+00
  8.20000000E+02  8.20000000E+01  0.00000000E+00
  8.20000000E+02  8.00000000E+01  0.00000000E+00
  8.20000000E+02  7.80000000E+01  0.00000000E+00
  8.20000000E+02  7.60000000E+01  0.00000000E+00
  8.20000000E+02  7.40000000E+01  0.00000000E+00
  8.20000000E+02  7.20000000E+01  0.00000000E+00
  8.20000000E+02  7.00000000E+01  0.00000000E+00
  8.20000000E+02  6.80000000E+01  0.00000000E+00
  8.20000000E+02  6.60000000E+01  0.00000000E+00
  8.20000000E+02  6.40000000E+01  0.00000000E+00
  8.20000000E+02  6.20000000E+01  0.00000000E+00
  8.20000000E+02  6.00000000E+01  0.00000000E+00
  8.20000000E+02  5.80000000E+01  0.00000000E+00
  8.20000000E+02  5.60000000E+01  0.00000000E+00
  8.20000000E+02  5.40000000E+01  0.00000000E+00
  8.20000000E+02  5.20000000E+01  0.00000000E+00
  8.20000000E+02  5.00000000E+01  0.00000000E+00
  8.20000000E+02  4.80000000E+01  0.00000000E+00
  8.20000000E+02  4.60000000E+01  0.00000000E+00
  8.20000000E+02  4.40000000E+01  0.00000000E+00
  8.20000000E+02  4.20000000E+01  0.00000000E+00
  8.20000000E+02  4.00000000E+01  0.00000000E+00
  8.20000000E+02  3.80000000E+01  0.00000000E+00
  8.20000000E+02  3.60000000E+01  0.00000000E+00
  8.20000000E+02  3.40000000E+01  0.00000000E+00
  8.20000000E+02  3.20000000E+01  0.00000000E+00
  8.20000000E+02  3.00000000E+01  0.00000000E+00
  8.20000000E+02  2.80000000E+01  0.00000000E+00
  8.20000000E+02  2.60000000E+01  0.00000000E+00
  8.20000000E+02  2.40000000E+01  0.00000000E+00
  8.20000000E+02  2.20000000E+01  0.00000000E+00
  8.20000000E+02  2.00000000E+01  0.00000000E+00
  8.20000000E+02  1.80000000E+01  0.00000000E+00
  8.20000000E+02  1.60000000E+01  0.00000000E+00
  8.20000000E+02  1.40000000E+01  0.00000000E+00
  8.20000000E+02  1.20000000E+01  0.00000000E+00
  8.20000000E+02  1.00000000E+01  0.00000000E+00
  8.20000000E+02  8.00000000E+00  0.00000000E+00
  8.20000000E+02  6.00000000E+00  0.00000000E+00
  8.20000000E+02  4.00000000E+00  0.00000000E+00
  8.20000000E+02  2.00000000E+00  0.00000000E+00
  8.20000000E+02 -3.33066907E-14  0.00000000E+00
  8.30000000E+02  1.00000000E+02  0.00000000E+00
  8.30000000E+02  9.80000000E+01  0.00000000E+00
  8.30000000E+02  9.60000000E+01  0.00000000E+00
  8.30000000E+02  9.40000000E+01  0.00000000E+00
  8.30000000E+02  9.20000000E+01  0.00000000E+00
  8.30000000E+02  9.00000000E+01  0.00000000E+00
  8.30000000E+02  8.80000000E+01  0.00000000E+00
  8.30000000E+02  8.60000000E+01  0.00000000E+00
  8.30000000E+02  8.40000000E+01  0.00000000E+00
  8.30000000E+02  8.20000000E+01  0.00000000E+00
  8.30000000E+02  8.00000000E+01  0.00000000E+00
  8.30000000E+02  7.80000000E+01  0.00000000E+00
  8.30000000E+02  7.60000000E+01  0.00000000E+00
  8.30000000E+02  7.40000000E+01  0.00000000E+00
  8.30000000E+02  7.20000000E+01  0.00000000E+00
  8.30000000E+02  7.00000000E+01  0.00000000E+00
  8.30000000E+02  6.80000000E+01  0.00000000E+00
  8.30000000E+02  6.60000000E+01  0.00000000E+00
  8.30000000E+02  6.40000000E+01  0.00000000E+00
  8.30000000E+02  6.20000000E+01  0.00000000E+00
  8.30000000E+02  6.00000000E+01  0.00000000E+00
  8.30000000E+02  5.80000000E+01  0.00000000E+00
  8.30000000E+02  5.60000000E+01  0.00000000E+00
  8.30000000E+02  5.40000000E+01  0.00000000E+00
  8.30000000E+02  5.20000000E+01  0.00000000E+00
  8.30000000E+02  5.00000000E+01  0.00000000E+00
  8.30000000E+02  4.80000000E+01  0.00000000E+00
  8.30000000E+02  4.60000000E+01  0.00000000E+00
  8.30000000E+02  4.40000000E+01  0.00000000E+00
  8.30000000E+02  4.20000000E+01  0.00000000E+00
  8.30000000E+02  4.00000000E+01  0.00000000E+00
  8.30000000E+02  3.80000000E+01  0.00000000E+00
  8.30000000E+02  3.60000000E+01  0.00000000E+00
  8.30000000E+02  3.40000000E+01  0.00000000E+00
  8.30000000E+02  3.20000000E+01  0.00000000E+00
  8.30000000E+02  3.00000000E+01  0.00000000E+00
  8.30000000E+02  2.80000000E+01  0.00000000E+00
  8.30000000E+02  2.60000000E+01  0.00000000E+00
  8.30000000E+02  2.40000000E+01  0.00000000E+00
  8.30000000E+02  2.20000000E+01  0.00000000E+00
  8.30000000E+02  2.00000000E+01  0.00000000E+00
  8.30000000E+02  1.80000000E+01  0.00000000E+00
  8.30000000E+02  1.60000000E+01  0.00000000E+00
  8.30000000E+02  1.40000000E+01  0.00000000E+00
  8.30000000E+02  1.20000000E+01  0.00000000E+00
  8.30000000E+02  1.00000000E+01  0.00000000E+00
  8.30000000E+02  8.00000000E+00  0.00000000E+00
  8.30000000E+02  6.00000000E+00  0.00000000E+00
  8.30000000E+02  4.00000000E+00  0.00000000E+00
  8.30000000E+02  2.00000000E+00  0.00000000E+00
  8.30000000E+02 -3.33066907E-14  0.00000000E+00
  8.40000000E+02  1.00000000E+02  0.00000000E+00
  8.40000000E+02  9.80000000E+01  0.00000000E+00
  8.40000000E+02  9.60000000E+01  0.00000000E+00
  8.40000000E+02  9.40000000E+01  0.00000000E+00
  8.40000000E+02  9.20000000E+01  0.00000000E+00
  8.40000000E+02  9.00000000E+01  0.00000000E+00
  8.40000000E+02  8.80000000E+01  0.00000000E+00
  8.40000000E+02  8.60000000E+01  0.00000000E+00
  8.40000000E+02  8.40000000E+01  0.00000000E+00
  8.40000000E+02  8.20000000E+01  0.00000000E+00
  8.40000000E+02  8.00000000E+01  0.00000000E+00
  8.40000000E+02  7.80000000E+01  0.00000000E+00
  8.40000000E+02  7.60000000E+01  0.00000000E+00
  8.40000000E+02  7.40000000E+01  0.00000000E+00
  8.40000000E+02  7.20000000E+01  0.00000000E+00
  8.40000000E+02  7.00000000E+01  0.00000000E+00
  8.40000000E+02  6.80000000E+01  0.00000000E+00
  8.40000000E+02  6.60000000E+01  0.00000000E+00
  8.40000000E+02  6.40000000E+01  0.00000000E+00
  8.40000000E+02  6.20000000E+01  0.00000000E+00
  8.40000000E+02  6.00000000E+01  0.00000000E+00
  8.40000000E+02  5.80000000E+01  0.00000000E+00
  8.40000000E+02  5.60000000E+01  0.00000000E+00
  8.40000000E+02  5.40000000E+01  0.00000000E+00
  8.40000000E+02  5.20000000E+01  0.00000000E+00
  8.40000000E+02  5.00000000E+01  0.00000000E+00
  8.40000000E+02  4.80000000E+01  0.00000000E+00
  8.40000000E+02  4.60000000E+01  0.00000000E+00
  8.40000000E+02  4.40000000E+01  0.00000000E+00
  8.40000000E+02  4.20000000E+01  0.00000000E+00
  8.40000000E+02  4.00000000E+01  0.00000000E+00
  8.40000000E+02  3.80000000E+01  0.00000000E+00
  8.40000000E+02  3.60000000E+01  0.00000000E+00
  8.40000000E+02  3.40000000E+01  0.00000000E+00
  8.40000000E+02  3.20000000E+01  0.00000000E+00
  8.40000000E+02  3.00000000E+01  0.00000000E+00
  8.40000000E+02  2.80000000E+01  0.00000000E+00
  8.40000000E+02  2.60000000E+01  0.00000000E+00
  8.40000000E+02  2.40000000E+01  0.00000000E+00
  8.40000000E+02  2.20000000E+01  0.00000000E+00
  8.40000000E+02  2.00000000E+01  0.00000000E+00
  8.40000000E+02  1.80000000E+01  0.00000000E+00
  8.40000000E+02  1.60000000E+01  0.00000000E+00
  8.40000000E+02  1.40000000E+01  0.00000000E+00
  8.40000000E+02  1.20000000E+01  0.00000000E+00
  8.40000000E+02  1.00000000E+01  0.00000000E+00
  8.40000000E+02  8.00000000E+00  0.00000000E+00
  8.40000000E+02  6.00000000E+00  0.00000000E+00
  8.40000000E+02  4.00000000E+00  0.00000000E+00
  8.40000000E+02  2.00000000E+00  0.00000000E+00
  8.40000000E+02 -3.33066907E-14  0.00000000E+00
  8.50000000E+02  1.00000000E+02  0.00000000E+00
  8.50000000E+02  9.80000000E+01  0.00000000E+00
  8.50000000E+02  9.60000000E+01  0.00000000E+00
  8.50000000E+02  9.40000000E+01  0.00000000E+00
  8.50000000E+02  9.20000000E+01  0.00000000E+00
  8.50000000E+02  9.00000000E+01  0.00000000E+00
  8.50000000E+02  8.80000000E+01  0.00000000E+00
  8.50000000E+02  8.60000000E+01  0.00000000E+00
  8.50000000E+02  8.40000000E+01  0.00000000E+00
  8.50000000E+02  8.20000000E+01  0.00000000E+00
  8.50000000E+02  8.00000000E+01  0.00000000E+00
  8.50000000E+02  7.80000000E+01  0.00000000E+00
  8.50000000E+02  7.60000000E+01  0.00000000E+00
  8.50000000E+02  7.40000000E+01  0.00000000E+00
  8.50000000E+02  7.20000000E+01  0.00000000E+00
  8.50000000E+02  7.00000000E+01  0.00000000E+00
  8.50000000E+02  6.80000000E+01  0.00000000E+00
  8.50000000E+02  6.60000000E+01  0.00000000E+00
  8.50000000E+02  6.40000000E+01  0.00000000E+00
  8.50000000E+02  6.20000000E+01  0.00000000E+00
  8.50000000E+02  6.00000000E+01  0.00000000E+00
  8.50000000E+02  5.80000000E+01  0.00000000E+00
  8.50000000E+02  5.60000000E+01  0.00000000E+00
  8.50000000E+02  5.40000000E+01  0.00000000E+00
  8.50000000E+02  5.20000000E+01  0.00000000E+00
  8.50000000E+02  5.00000000E+01  0.00000000E+00
  8.50000000E+02  4.80000000E+01  0.00000000E+00
  8.50000000E+02  4.60000000E+01  0.00000000E+00
  8.50000000E+02  4.40000000E+01  0.00000000E+00
  8.50000000E+02  4.20000000E+01  0.00000000E+00
  8.50000000E+02  4.00000000E+01  0.00000000E+00
  8.50000000E+02  3.80000000E+01  0.00000000E+00
  8.50000000E+02  3.60000000E+01  0.00000000E+00
  8.50000000E+02  3.40000000E+01  0.00000000E+00
  8.50000000E+02  3.20000000E+01  0.00000000E+00
  8.50000000E+02  3.00000000E+01  0.00000000E+00
  8.50000000E+02  2.80000000E+01  0.00000000E+00
  8.50000000E+02  2.60000000E+01  0.00000000E+00
  8.50000000E+02  2.40000000E+01  0.00000000E+00
  8.50000000E+02  2.20000000E+01  0.00000000E+00
  8.50000000E+02  2.00000000E+01  0.00000000E+00
  8.50000000E+02  1.80000000E+01  0.00000000E+00
  8.50000000E+02  1.60000000E+01  0.00000000E+00
  8.50000000E+02  1.40000000E+01  0.00000000E+00
  8.50000000E+02  1.20000000E+01  0.00000000E+00
  8.50000000E+02  1.00000000E+01  0.00000000E+00
  8.50000000E+02  8.00000000E+00  0.00000000E+00
  8.50000000E+02  6.00000000E+00  0.00000000E+00
  8.50000000E+02  4.00000000E+00  0.00000000E+00
  8.50000000E+02  2.00000000E+00  0.00000000E+00
  8.50000000E+02 -3.33066907E-14  0.00000000E+00
  8.60000000E+02  1.00000000E+02  0.00000000E+00
  8.60000000E+02  9.80000000E+01  0.00000000E+00
  8.60000000E+02  9.60000000E+01  0.00000000E+00
  8.60000000E+02  9.40000000E+01  0.00000000E+00
  8.60000000E+02  9.20000000E+01  0.00000000E+00
  8.60000000E+02  9.00000000E+01  0.00000000E+00
  8.60000000E+02  8.80000000E+01  0.00000000E+00
  8.60000000E+02  8.60000000E+01  0.00000000E+00
  8.60000000E+02  8.40000000E+01  0.00000000E+00
  8.60000000E+02  8.20000000E+01  0.00000000E+00
  8.60000000E+02  8.00000000E+01  0.00000000E+00
  8.60000000E+02  7.80000000E+01  0.00000000E+00
  8.60000000E+02  7.60000000E+01  0.00000000E+00
  8.60000000E+02  7.40000000E+01  0.00000000E+00
  8.60000000E+02  7.20000000E+01  0.00000000E+00
  8.60000000E+02  7.00000000E+01  0.00000000E+00
  8.60000000E+02  6.80000000E+01  0.00000000E+00
  8.60000000E+02  6.60000000E+01  0.00000000E+00
  8.60000000E+02  6.40000000E+01  0.00000000E+00
  8.60000000E+02  6.20000000E+01  0.00000000E+00
  8.60000000E+02  6.00000000E+01  0.00000000E+00
  8.60000000E+02  5.80000000E+01  0.00000000E+00
  8.60000000E+02  5.60000000E+01  0.00000000E+00
  8.60000000E+02  5.40000000E+01  0.00000000E+00
  8.60000000E+02  5.20000000E+01  0.00000000E+00
  8.60000000E+02  5.00000000E+01  0.00000000E+00
  8.60000000E+02  4.80000000E+01  0.00000000E+00
  8.60000000E+02  4.60000000E+01  0.00000000E+00
  8.60000000E+02  4.40000000E+01  0.00000000E+00
  8.60000000E+02  4.20000000E+01  0.00000000E+00
  8.60000000E+02  4.00000000E+01  0.00000000E+00
  8.60000000E+02  3.80000000E+01  0.00000000E+00
  8.60000000E+02  3.60000000E+01  0.00000000E+00
  8.60000000E+02  3.40000000E+01  0.00000000E+00
  8.60000000E+02  3.20000000E+01  0.00000000E+00
  8.60000000E+02  3.00000000E+01  0.00000000E+00
  8.60000000E+02  2.80000000E+01  0.00000000E+00
  8.60000000E+02  2.60000000E+01  0.00000000E+00
  8.60000000E+02  2.40000000E+01  0.00000000E+00
  8.60000000E+02  2.20000000E+01  0.00000000E+00
  8.60000000E+02  2.00000000E+01  0.00000000E+00
  8.60000000E+02  1.80000000E+01  0.00000000E+00
  8.60000000E+02  1.60000000E+01  0.00000000E+00
  8.60000000E+02  1.40000000E+01  0.00000000E+00
  8.60000000E+02  1.20000000E+01  0.00000000E+00
  8.60000000E+02  1.00000000E+01  0.00000000E+00
  8.60000000E+02  8.00000000E+00  0.00000000E+00
  8.60000000E+02  6.00000000E+00  0.00000000E+00
  8.60000000E+02  4.00000000E+00  0.00000000E+00
  8.60000000E+02  2.00000000E+00  0.00000000E+00
  8.60000000E+02 -3.33066907E-14  0.00000000E+00
  8.70000000E+02  1.00000000E+02  0.00000000E+00
  8.70000000E+02  9.80000000E+01  0.00000000E+00
  8.70000000E+02  9.60000000E+01  0.00000000E+00
  8.70000000E+02  9.40000000E+01  0.00000000E+00
  8.70000000E+02  9.20000000E+01  0.00000000E+00
  8.70000000E+02  9.00000000E+01  0.00000000E+00
  8.70000000E+02  8.80000000E+01  0.00000000E+00
  8.70000000E+02  8.60000000E+01  0.00000000E+00
  8.70000000E+02  8.40000000E+01  0.00000000E+00
  8.70000000E+02  8.20000000E+01  0.00000000E+00
  8.70000000E+02  8.00000000E+01  0.00000000E+00
  8.70000000E+02  7.80000000E+01  0.00000000E+00
  8.70000000E+02  7.60000000E+01  0.00000000E+00
  8.70000000E+02  7.40000000E+01  0.00000000E+00
  8.70000000E+02  7.20000000E+01  0.00000000E+00
  8.70000000E+02  7.00000000E+01  0.00000000E+00
  8.70000000E+02  6.80000000E+01  0.00000000E+00
  8.70000000E+02  6.60000000E+01  0.00000000E+00
  8.70000000E+02  6.40000000E+01  0.00000000E+00
  8.70000000E+02  6.20000000E+01  0.00000000E+00
  8.70000000E+02  6.00000000E+01  0.00000000E+00
  8.70000000E+02  5.80000000E+01  0.00000000E+00
  8.70000000E+02  5.60000000E+01  0.00000000E+00
  8.70000000E+02  5.40000000E+01  0.00000000E+00
  8.70000000E+02  5.20000000E+01  0.00000000E+00
  8.70000000E+02  5.00000000E+01  0.00000000E+00
  8.70000000E+02  4.80000000E+01  0.00000000E+00
  8.70000000E+02  4.60000000E+01  0.00000000E+00
  8.70000000E+02  4.40000000E+01  0.00000000E+00
  8.70000000E+02  4.20000000E+01  0.00000000E+00
  8.70000000E+02  4.00000000E+01  0.00000000E+00
  8.70000000E+02  3.80000000E+01  0.00000000E+00
  8.70000000E+02  3.60000000E+01  0.00000000E+00
  8.70000000E+02  3.40000000E+01  0.00000000E+00
  8.70000000E+02  3.20000000E+01  0.00000000E+00
  8.70000000E+02  3.00000000E+01  0.00000000E+00
  8.70000000E+02  2.80000000E+01  0.00000000E+00
  8.70000000E+02  2.60000000E+01  0.00000000E+00
  8.70000000E+02  2.40000000E+01  0.00000000E+00
  8.70000000E+02  2.20000000E+01  0.00000000E+00
  8.70000000E+02  2.00000000E+01  0.00000000E+00
  8.70000000E+02  1.80000000E+01  0.00000000E+00
  8.70000000E+02  1.60000000E+01  0.00000000E+00
  8.70000000E+02  1.40000000E+01  0.00000000E+00
  8.70000000E+02  1.20000000E+01  0.00000000E+00
  8.70000000E+02  1.00000000E+01  0.00000000E+00
  8.70000000E+02  8.00000000E+00  0.00000000E+00
  8.70000000E+02  6.00000000E+00  0.00000000E+00
  8.70000000E+02  4.00000000E+00  0.00000000E+00
  8.70000000E+02  2.00000000E+00  0.00000000E+00
  8.70000000E+02 -3.33066907E-14  0.00000000E+00
  8.80000000E+02  1.00000000E+02  0.00000000E+00
  8.80000000E+02  9.80000000E+01  0.00000000E+00
  8.80000000E+02  9.60000000E+01  0.00000000E+00
  8.80000000E+02  9.40000000E+01  0.00000000E+00
  8.80000000E+02  9.20000000E+01  0.00000000E+00
  8.80000000E+02  9.00000000E+01  0.00000000E+00
  8.80000000E+02  8.80000000E+01  0.00000000E+00
  8.80000000E+02  8.60000000E+01  0.00000000E+00
  8.80000000E+02  8.40000000E+01  0.00000000E+00
  8.80000000E+02  8.20000000E+01  0.00000000E+00
  8.80000000E+02  8.00000000E+01  0.00000000E+00
  8.80000000E+02  7.80000000E+01  0.00000000E+00
  8.80000000E+02  7.60000000E+01  0.00000000E+00
  8.80000000E+02  7.40000000E+01  0.00000000E+00
  8.80000000E+02  7.20000000E+01  0.00000000E+00
  8.80000000E+02  7.00000000E+01  0.00000000E+00
  8.80000000E+02  6.80000000E+01  0.00000000E+00
  8.80000000E+02  6.60000000E+01  0.00000000E+00
  8.80000000E+02  6.40000000E+01  0.00000000E+00
  8.80000000E+02  6.20000000E+01  0.00000000E+00
  8.80000000E+02  6.00000000E+01  0.00000000E+00
  8.80000000E+02  5.80000000E+01  0.00000000E+00
  8.80000000E+02  5.60000000E+01  0.00000000E+00
  8.80000000E+02  5.40000000E+01  0.00000000E+00
  8.80000000E+02  5.20000000E+01  0.00000000E+00
  8.80000000E+02  5.00000000E+01  0.00000000E+00
  8.80000000E+02  4.80000000E+01  0.00000000E+00
  8.80000000E+02  4.60000000E+01  0.00000000E+00
  8.80000000E+02  4.40000000E+01  0.00000000E+00
  8.80000000E+02  4.20000000E+01  0.00000000E+00
  8.80000000E+02  4.00000000E+01  0.00000000E+00
  8.80000000E+02  3.80000000E+01  0.00000000E+00
  8.80000000E+02  3.60000000E+01  0.00000000E+00
  8.80000000E+02  3.40000000E+01  0.00000000E+00
  8.80000000E+02  3.20000000E+01  0.00000000E+00
  8.80000000E+02  3.00000000E+01  0.00000000E+00
  8.80000000E+02  2.80000000E+01  0.00000000E+00
  8.80000000E+02  2.60000000E+01  0.00000000E+00
  8.80000000E+02  2.40000000E+01  0.00000000E+00
  8.80000000E+02  2.20000000E+01  0.00000000E+00
  8.80000000E+02  2.00000000E+01  0.00000000E+00
  8.80000000E+02  1.80000000E+01  0.00000000E+00
  8.80000000E+02  1.60000000E+01  0.00000000E+00
  8.80000000E+02  1.40000000E+01  0.00000000E+00
  8.80000000E+02  1.20000000E+01  0.00000000E+00
  8.80000000E+02  1.00000000E+01  0.00000000E+00
  8.80000000E+02  8.00000000E+00  0.00000000E+00
  8.80000000E+02  6.00000000E+00  0.00000000E+00
  8.80000000E+02  4.00000000E+00  0.00000000E+00
  8.80000000E+02  2.00000000E+00  0.00000000E+00
  8.80000000E+02 -3.33066907E-14  0.00000000E+00
  8.90000000E+02  1.00000000E+02  0.00000000E+00
  8.90000000E+02  9.80000000E+01  0.00000000E+00
  8.90000000E+02  9.60000000E+01  0.00000000E+00
  8.90000000E+02  9.40000000E+01  0.00000000E+00
  8.90000000E+02  9.20000000E+01  0.00000000E+00
  8.90000000E+02  9.00000000E+01  0.00000000E+00
  8.90000000E+02  8.80000000E+01  0.00000000E+00
  8.90000000E+02  8.60000000E+01  0.00000000E+00
  8.90000000E+02  8.40000000E+01  0.00000000E+00
  8.90000000E+02  8.20000000E+01  0.00000000E+00
  8.90000000E+02  8.00000000E+01  0.00000000E+00
  8.90000000E+02  7.80000000E+01  0.00000000E+00
  8.90000000E+02  7.60000000E+01  0.00000000E+00
  8.90000000E+02  7.40000000E+01  0.00000000E+00
  8.90000000E+02  7.20000000E+01  0.00000000E+00
  8.90000000E+02  7.00000000E+01  0.00000000E+00
  8.90000000E+02  6.80000000E+01  0.00000000E+00
  8.90000000E+02  6.60000000E+01  0.00000000E+00
  8.90000000E+02  6.40000000E+01  0.00000000E+00
  8.90000000E+02  6.20000000E+01  0.00000000E+00
  8.90000000E+02  6.00000000E+01  0.00000000E+00
  8.90000000E+02  5.80000000E+01  0.00000000E+00
  8.90000000E+02  5.60000000E+01  0.00000000E+00
  8.90000000E+02  5.40000000E+01  0.00000000E+00
  8.90000000E+02  5.20000000E+01  0.00000000E+00
  8.90000000E+02  5.00000000E+01  0.00000000E+00
  8.90000000E+02  4.80000000E+01  0.00000000E+00
  8.90000000E+02  4.60000000E+01  0.00000000E+00
  8.90000000E+02  4.40000000E+01  0.00000000E+00
  8.90000000E+02  4.20000000E+01  0.00000000E+00
  8.90000000E+02  4.00000000E+01  0.00000000E+00
  8.90000000E+02  3.80000000E+01  0.00000000E+00
  8.90000000E+02  3.60000000E+01  0.00000000E+00
  8.90000000E+02  3.40000000E+01  0.00000000E+00
  8.90000000E+02  3.20000000E+01  0.00000000E+00
  8.90000000E+02  3.00000000E+01  0.00000000E+00
  8.90000000E+02  2.80000000E+01  0.00000000E+00
  8.90000000E+02  2.60000000E+01  0.00000000E+00
  8.90000000E+02  2.40000000E+01  0.00000000E+00
  8.90000000E+02  2.20000000E+01  0.00000000E+00
  8.90000000E+02  2.00000000E+01  0.00000000E+00
  8.90000000E+02  1.80000000E+01  0.00000000E+00
  8.90000000E+02  1.60000000E+01  0.00000000E+00
  8.90000000E+02  1.40000000E+01  0.00000000E+00
  8.90000000E+02  1.20000000E+01  0.00000000E+00
  8.90000000E+02  1.00000000E+01  0.00000000E+00
  8.90000000E+02  8.00000000E+00  0.00000000E+00
  8.90000000E+02  6.00000000E+00  0.00000000E+00
  8.90000000E+02  4.00000000E+00  0.00000000E+00
  8.90000000E+02  2.00000000E+00  0.00000000E+00
  8.90000000E+02 -3.33066907E-14  0.00000000E+00
  9.00000000E+02  1.00000000E+02  0.00000000E+00
  9.00000000E+02  9.80000000E+01  0.00000000E+00
  9.00000000E+02  9.60000000E+01  0.00000000E+00
  9.00000000E+02  9.40000000E+01  0.00000000E+00
  9.00000000E+02  9.20000000E+01  0.00000000E+00
  9.00000000E+02  9.00000000E+01  0.00000000E+00
  9.00000000E+02  8.80000000E+01  0.00000000E+00
  9.00000000E+02  8.60000000E+01  0.00000000E+00
  9.00000000E+02  8.40000000E+01  0.00000000E+00
  9.00000000E+02  8.20000000E+01  0.00000000E+00
  9.00000000E+02  8.00000000E+01  0.00000000E+00
  9.00000000E+02  7.80000000E+01  0.00000000E+00
  9.00000000E+02  7.60000000E+01  0.00000000E+00
  9.00000000E+02  7.40000000E+01  0.00000000E+00
  9.00000000E+02  7.20000000E+01  0.00000000E+00
  9.00000000E+02  7.00000000E+01  0.00000000E+00
  9.00000000E+02  6.80000000E+01  0.00000000E+00
  9.00000000E+02  6.60000000E+01  0.00000000E+00
  9.00000000E+02  6.40000000E+01  0.00000000E+00
  9.00000000E+02  6.20000000E+01  0.00000000E+00
  9.00000000E+02  6.00000000E+01  0.00000000E+00
  9.00000000E+02  5.80000000E+01  0.00000000E+00
  9.00000000E+02  5.60000000E+01  0.00000000E+00
  9.00000000E+02  5.40000000E+01  0.00000000E+00
  9.00000000E+02  5.20000000E+01  0.00000000E+00
  9.00000000E+02  5.00000000E+01  0.00000000E+00
  9.00000000E+02  4.80000000E+01  0.00000000E+00
  9.00000000E+02  4.60000000E+01  0.00000000E+00
  9.00000000E+02  4.40000000E+01  0.00000000E+00
  9.00000000E+02  4.20000000E+01  0.00000000E+00
  9.00000000E+02  4.00000000E+01  0.00000000E+00
  9.00000000E+02  3.80000000E+01  0.00000000E+00
  9.00000000E+02  3.60000000E+01  0.00000000E+00
  9.00000000E+02  3.40000000E+01  0.00000000E+00
  9.00000000E+02  3.20000000E+01  0.00000000E+00
  9.00000000E+02  3.00000000E+01  0.00000000E+00
  9.00000000E+02  2.80000000E+01  0.00000000E+00
  9.00000000E+02  2.60000000E+01  0.00000000E+00
  9.00000000E+02  2.40000000E+01  0.00000000E+00
  9.00000000E+02  2.20000000E+01  0.00000000E+00
  9.00000000E+02  2.00000000E+01  0.00000000E+00
  9.00000000E+02  1.80000000E+01  0.00000000E+00
  9.00000000E+02  1.60000000E+01  0.00000000E+00
  9.00000000E+02  1.40000000E+01  0.00000000E+00
  9.00000000E+02  1.20000000E+01  0.00000000E+00
  9.00000000E+02  1.00000000E+01  0.00000000E+00
  9.00000000E+02  8.00000000E+00  0.00000000E+00
  9.00000000E+02  6.00000000E+00  0.00000000E+00
  9.00000000E+02  4.00000000E+00  0.00000000E+00
  9.00000000E+02  2.00000000E+00  0.00000000E+00
  9.00000000E+02 -3.33066907E-14  0.00000000E+00
  9.10000000E+02  1.00000000E+02  0.00000000E+00
  9.10000000E+02  9.80000000E+01  0.00000000E+00
  9.10000000E+02  9.60000000E+01  0.00000000E+00
  9.10000000E+02  9.40000000E+01  0.00000000E+00
  9.10000000E+02  9.20000000E+01  0.00000000E+00
  9.10000000E+02  9.00000000E+01  0.00000000E+00
  9.10000000E+02  8.80000000E+01  0.00000000E+00
  9.10000000E+02  8.60000000E+01  0.00000000E+00
  9.10000000E+02  8.40000000E+01  0.00000000E+00
  9.10000000E+02  8.20000000E+01  0.00000000E+00
  9.10000000E+02  8.00000000E+01  0.00000000E+00
  9.10000000E+02  7.80000000E+01  0.00000000E+00
  9.10000000E+02  7.60000000E+01  0.00000000E+00
  9.10000000E+02  7.40000000E+01  0.00000000E+00
  9.10000000E+02  7.20000000E+01  0.00000000E+00
  9.10000000E+02  7.00000000E+01  0.00000000E+00
  9.10000000E+02  6.80000000E+01  0.00000000E+00
  9.10000000E+02  6.60000000E+01  0.00000000E+00
  9.10000000E+02  6.40000000E+01  0.00000000E+00
  9.10000000E+02  6.20000000E+01  0.00000000E+00
  9.10000000E+02  6.00000000E+01  0.00000000E+00
  9.10000000E+02  5.80000000E+01  0.00000000E+00
  9.10000000E+02  5.60000000E+01  0.00000000E+00
  9.10000000E+02  5.40000000E+01  0.00000000E+00
  9.10000000E+02  5.20000000E+01  0.00000000E+00
  9.10000000E+02  5.00000000E+01  0.00000000E+00
  9.10000000E+02  4.80000000E+01  0.00000000E+00
  9.10000000E+02  4.60000000E+01  0.00000000E+00
  9.10000000E+02  4.40000000E+01  0.00000000E+00
  9.10000000E+02  4.20000000E+01  0.00000000E+00
  9.10000000E+02  4.00000000E+01  0.00000000E+00
  9.10000000E+02  3.80000000E+01  0.00000000E+00
  9.10000000E+02  3.60000000E+01  0.00000000E+00
  9.10000000E+02  3.40000000E+01  0.00000000E+00
  9.10000000E+02  3.20000000E+01  0.00000000E+00
  9.10000000E+02  3.00000000E+01  0.00000000E+00
  9.10000000E+02  2.80000000E+01  0.00000000E+00
  9.10000000E+02  2.60000000E+01  0.00000000E+00
  9.10000000E+02  2.40000000E+01  0.00000000E+00
  9.10000000E+02  2.20000000E+01  0.00000000E+00
  9.10000000E+02  2.00000000E+01  0.00000000E+00
  9.10000000E+02  1.80000000E+01  0.00000000E+00
  9.10000000E+02  1.60000000E+01  0.00000000E+00
  9.10000000E+02  1.40000000E+01  0.00000000E+00
  9.10000000E+02  1.20000000E+01  0.00000000E+00
  9.10000000E+02  1.00000000E+01  0.00000000E+00
  9.10000000E+02  8.00000000E+00  0.00000000E+00
  9.10000000E+02  6.00000000E+00  0.00000000E+00
  9.10000000E+02  4.00000000E+00  0.00000000E+00
  9.10000000E+02  2.00000000E+00  0.00000000E+00
  9.10000000E+02 -3.33066907E-14  0.00000000E+00
  9.20000000E+02  1.00000000E+02  0.00000000E+00
  9.20000000E+02  9.80000000E+01  0.00000000E+00
  9.20000000E+02  9.60000000E+01  0.00000000E+00
  9.20000000E+02  9.40000000E+01  0.00000000E+00
  9.20000000E+02  9.20000000E+01  0.00000000E+00
  9.20000000E+02  9.00000000E+01  0.00000000E+00
  9.20000000E+02  8.80000000E+01  0.00000000E+00
  9.20000000E+02  8.60000000E+01  0.00000000E+00
  9.20000000E+02  8.40000000E+01  0.00000000E+00
  9.20000000E+02  8.20000000E+01  0.00000000E+00
  9.20000000E+02  8.00000000E+01  0.00000000E+00
  9.20000000E+02  7.80000000E+01  0.00000000E+00
  9.20000000E+02  7.60000000E+01  0.00000000E+00
  9.20000000E+02  7.40000000E+01  0.00000000E+00
  9.20000000E+02  7.20000000E+01  0.00000000E+00
  9.20000000E+02  7.00000000E+01  0.00000000E+00
  9.20000000E+02  6.80000000E+01  0.00000000E+00
  9.20000000E+02  6.60000000E+01  0.00000000E+00
  9.20000000E+02  6.40000000E+01  0.00000000E+00
  9.20000000E+02  6.20000000E+01  0.00000000E+00
  9.20000000E+02  6.00000000E+01  0.00000000E+00
  9.20000000E+02  5.80000000E+01  0.00000000E+00
  9.20000000E+02  5.60000000E+01  0.00000000E+00
  9.20000000E+02  5.40000000E+01  0.00000000E+00
  9.20000000E+02  5.20000000E+01  0.00000000E+00
  9.20000000E+02  5.00000000E+01  0.00000000E+00
  9.20000000E+02  4.80000000E+01  0.00000000E+00
  9.20000000E+02  4.60000000E+01  0.00000000E+00
  9.20000000E+02  4.40000000E+01  0.00000000E+00
  9.20000000E+02  4.20000000E+01  0.00000000E+00
  9.20000000E+02  4.00000000E+01  0.00000000E+00
  9.20000000E+02  3.80000000E+01  0.00000000E+00
  9.20000000E+02  3.60000000E+01  0.00000000E+00
  9.20000000E+02  3.40000000E+01  0.00000000E+00
  9.20000000E+02  3.20000000E+01  0.00000000E+00
  9.20000000E+02  3.00000000E+01  0.00000000E+00
  9.20000000E+02  2.80000000E+01  0.00000000E+00
  9.20000000E+02  2.60000000E+01  0.00000000E+00
  9.20000000E+02  2.40000000E+01  0.00000000E+00
  9.20000000E+02  2.20000000E+01  0.00000000E+00
  9.20000000E+02  2.00000000E+01  0.00000000E+00
  9.20000000E+02  1.80000000E+01  0.00000000E+00
  9.20000000E+02  1.60000000E+01  0.00000000E+00
  9.20000000E+02  1.40000000E+01  0.00000000E+00
  9.20000000E+02  1.20000000E+01  0.00000000E+00
  9.20000000E+02  1.00000000E+01  0.00000000E+00
  9.20000000E+02  8.00000000E+00  0.00000000E+00
  9.20000000E+02  6.00000000E+00  0.00000000E+00
  9.20000000E+02  4.00000000E+00  0.00000000E+00
  9.20000000E+02  2.00000000E+00  0.00000000E+00
  9.20000000E+02 -3.33066907E-14  0.00000000E+00
  9.30000000E+02  1.00000000E+02  0.00000000E+00
  9.30000000E+02  9.80000000E+01  0.00000000E+00
  9.30000000E+02  9.60000000E+01  0.00000000E+00
  9.30000000E+02  9.40000000E+01  0.00000000E+00
  9.30000000E+02  9.20000000E+01  0.00000000E+00
  9.30000000E+02  9.00000000E+01  0.00000000E+00
  9.30000000E+02  8.80000000E+01  0.00000000E+00
  9.30000000E+02  8.60000000E+01  0.00000000E+00
  9.30000000E+02  8.40000000E+01  0.00000000E+00
  9.30000000E+02  8.20000000E+01  0.00000000E+00
  9.30000000E+02  8.00000000E+01  0.00000000E+00
  9.30000000E+02  7.80000000E+01  0.00000000E+00
  9.30000000E+02  7.60000000E+01  0.00000000E+00
  9.30000000E+02  7.40000000E+01  0.00000000E+00
  9.30000000E+02  7.20000000E+01  0.00000000E+00
  9.30000000E+02  7.00000000E+01  0.00000000E+00
  9.30000000E+02  6.80000000E+01  0.00000000E+00
  9.30000000E+02  6.60000000E+01  0.00000000E+00
  9.30000000E+02  6.40000000E+01  0.00000000E+00
  9.30000000E+02  6.20000000E+01  0.00000000E+00
  9.30000000E+02  6.00000000E+01  0.00000000E+00
  9.30000000E+02  5.80000000E+01  0.00000000E+00
  9.30000000E+02  5.60000000E+01  0.00000000E+00
  9.30000000E+02  5.40000000E+01  0.00000000E+00
  9.30000000E+02  5.20000000E+01  0.00000000E+00
  9.30000000E+02  5.00000000E+01  0.00000000E+00
  9.30000000E+02  4.80000000E+01  0.00000000E+00
  9.30000000E+02  4.60000000E+01  0.00000000E+00
  9.30000000E+02  4.40000000E+01  0.00000000E+00
  9.30000000E+02  4.20000000E+01  0.00000000E+00
  9.30000000E+02  4.00000000E+01  0.00000000E+00
  9.30000000E+02  3.80000000E+01  0.00000000E+00
  9.30000000E+02  3.60000000E+01  0.00000000E+00
  9.30000000E+02  3.40000000E+01  0.00000000E+00
  9.30000000E+02  3.20000000E+01  0.00000000E+00
  9.30000000E+02  3.00000000E+01  0.00000000E+00
  9.30000000E+02  2.80000000E+01  0.00000000E+00
  9.30000000E+02  2.60000000E+01  0.00000000E+00
  9.30000000E+02  2.40000000E+01  0.00000000E+00
  9.30000000E+02  2.20000000E+01  0.00000000E+00
  9.30000000E+02  2.00000000E+01  0.00000000E+00
  9.30000000E+02  1.80000000E+01  0.00000000E+00
  9.30000000E+02  1.60000000E+01  0.00000000E+00
  9.30000000E+02  1.40000000E+01  0.00000000E+00
  9.30000000E+02  1.20000000E+01  0.00000000E+00
  9.30000000E+02  1.00000000E+01  0.00000000E+00
  9.30000000E+02  8.00000000E+00  0.00000000E+00
  9.30000000E+02  6.00000000E+00  0.00000000E+00
  9.30000000E+02  4.00000000E+00  0.00000000E+00
  9.30000000E+02  2.00000000E+00  0.00000000E+00
  9.30000000E+02 -3.33066907E-14  0.00000000E+00
  9.40000000E+02  1.00000000E+02  0.00000000E+00
  9.40000000E+02  9.80000000E+01  0.00000000E+00
  9.40000000E+02  9.60000000E+01  0.00000000E+00
  9.40000000E+02  9.40000000E+01  0.00000000E+00
  9.40000000E+02  9.20000000E+01  0.00000000E+00
  9.40000000E+02  9.00000000E+01  0.00000000E+00
  9.40000000E+02  8.80000000E+01  0.00000000E+00
  9.40000000E+02  8.60000000E+01  0.00000000E+00
  9.40000000E+02  8.40000000E+01  0.00000000E+00
  9.40000000E+02  8.20000000E+01  0.00000000E+00
  9.40000000E+02  8.00000000E+01  0.00000000E+00
  9.40000000E+02  7.80000000E+01  0.00000000E+00
  9.40000000E+02  7.60000000E+01  0.00000000E+00
  9.40000000E+02  7.40000000E+01  0.00000000E+00
  9.40000000E+02  7.20000000E+01  0.00000000E+00
  9.40000000E+02  7.00000000E+01  0.00000000E+00
  9.40000000E+02  6.80000000E+01  0.00000000E+00
  9.40000000E+02  6.60000000E+01  0.00000000E+00
  9.40000000E+02  6.40000000E+01  0.00000000E+00
  9.40000000E+02  6.20000000E+01  0.00000000E+00
  9.40000000E+02  6.00000000E+01  0.00000000E+00
  9.40000000E+02  5.80000000E+01  0.00000000E+00
  9.40000000E+02  5.60000000E+01  0.00000000E+00
  9.40000000E+02  5.40000000E+01  0.00000000E+00
  9.40000000E+02  5.20000000E+01  0.00000000E+00
  9.40000000E+02  5.00000000E+01  0.00000000E+00
  9.40000000E+02  4.80000000E+01  0.00000000E+00
  9.40000000E+02  4.60000000E+01  0.00000000E+00
  9.40000000E+02  4.40000000E+01  0.00000000E+00
  9.40000000E+02  4.20000000E+01  0.00000000E+00
  9.40000000E+02  4.00000000E+01  0.00000000E+00
  9.40000000E+02  3.80000000E+01  0.00000000E+00
  9.40000000E+02  3.60000000E+01  0.00000000E+00
  9.40000000E+02  3.40000000E+01  0.00000000E+00
  9.40000000E+02  3.20000000E+01  0.00000000E+00
  9.40000000E+02  3.00000000E+01  0.00000000E+00
  9.40000000E+02  2.80000000E+01  0.00000000E+00
  9.40000000E+02  2.60000000E+01  0.00000000E+00
  9.40000000E+02  2.40000000E+01  0.00000000E+00
  9.40000000E+02  2.20000000E+01  0.00000000E+00
  9.40000000E+02  2.00000000E+01  0.00000000E+00
  9.40000000E+02  1.80000000E+01  0.00000000E+00
  9.40000000E+02  1.60000000E+01  0.00000000E+00
  9.40000000E+02  1.40000000E+01  0.00000000E+00
  9.40000000E+02  1.20000000E+01  0.00000000E+00
  9.40000000E+02  1.00000000E+01  0.00000000E+00
  9.40000000E+02  8.00000000E+00  0.00000000E+00
  9.40000000E+02  6.00000000E+00  0.00000000E+00
  9.40000000E+02  4.00000000E+00  0.00000000E+00
  9.40000000E+02  2.00000000E+00  0.00000000E+00
  9.40000000E+02 -3.33066907E-14  0.00000000E+00
  9.50000000E+02  1.00000000E+02  0.00000000E+00
  9.50000000E+02  9.80000000E+01  0.00000000E+00
  9.50000000E+02  9.60000000E+01  0.00000000E+00
  9.50000000E+02  9.40000000E+01  0.00000000E+00
  9.50000000E+02  9.20000000E+01  0.00000000E+00
  9.50000000E+02  9.00000000E+01  0.00000000E+00
  9.50000000E+02  8.80000000E+01  0.00000000E+00
  9.50000000E+02  8.60000000E+01  0.00000000E+00
  9.50000000E+02  8.40000000E+01  0.00000000E+00
  9.50000000E+02  8.20000000E+01  0.00000000E+00
  9.50000000E+02  8.00000000E+01  0.00000000E+00
  9.50000000E+02  7.80000000E+01  0.00000000E+00
  9.50000000E+02  7.60000000E+01  0.00000000E+00
  9.50000000E+02  7.40000000E+01  0.00000000E+00
  9.50000000E+02  7.20000000E+01  0.00000000E+00
  9.50000000E+02  7.00000000E+01  0.00000000E+00
  9.50000000E+02  6.80000000E+01  0.00000000E+00
  9.50000000E+02  6.60000000E+01  0.00000000E+00
  9.50000000E+02  6.40000000E+01  0.00000000E+00
  9.50000000E+02  6.20000000E+01  0.00000000E+00
  9.50000000E+02  6.00000000E+01  0.00000000E+00
  9.50000000E+02  5.80000000E+01  0.00000000E+00
  9.50000000E+02  5.60000000E+01  0.00000000E+00
  9.50000000E+02  5.40000000E+01  0.00000000E+00
  9.50000000E+02  5.20000000E+01  0.00000000E+00
  9.50000000E+02  5.00000000E+01  0.00000000E+00
  9.50000000E+02  4.80000000E+01  0.00000000E+00
  9.50000000E+02  4.60000000E+01  0.00000000E+00
  9.50000000E+02  4.40000000E+01  0.00000000E+00
  9.50000000E+02  4.20000000E+01  0.00000000E+00
  9.50000000E+02  4.00000000E+01  0.00000000E+00
  9.50000000E+02  3.80000000E+01  0.00000000E+00
  9.50000000E+02  3.60000000E+01  0.00000000E+00
  9.50000000E+02  3.40000000E+01  0.00000000E+00
  9.50000000E+02  3.20000000E+01  0.00000000E+00
  9.50000000E+02  3.00000000E+01  0.00000000E+00
  9.50000000E+02  2.80000000E+01  0.00000000E+00
  9.50000000E+02  2.60000000E+01  0.00000000E+00
  9.50000000E+02  2.40000000E+01  0.00000000E+00
  9.50000000E+02  2.20000000E+01  0.00000000E+00
  9.50000000E+02  2.00000000E+01  0.00000000E+00
  9.50000000E+02  1.80000000E+01  0.00000000E+00
  9.50000000E+02  1.60000000E+01  0.00000000E+00
  9.50000000E+02  1.40000000E+01  0.00000000E+00
  9.50000000E+02  1.20000000E+01  0.00000000E+00
  9.50000000E+02  1.00000000E+01  0.00000000E+00
  9.50000000E+02  8.00000000E+00  0.00000000E+00
  9.50000000E+02  6.00000000E+00  0.00000000E+00
  9.50000000E+02  4.00000000E+00  0.00000000E+00
  9.50000000E+02  2.00000000E+00  0.00000000E+00
  9.50000000E+02 -3.33066907E-14  0.00000000E+00
  9.60000000E+02  1.00000000E+02  0.00000000E+00
  9.60000000E+02  9.80000000E+01  0.00000000E+00
  9.60000000E+02  9.60000000E+01  0.00000000E+00
  9.60000000E+02  9.40000000E+01  0.00000000E+00
  9.60000000E+02  9.20000000E+01  0.00000000E+00
  9.60000000E+02  9.00000000E+01  0.00000000E+00
  9.60000000E+02  8.80000000E+01  0.00000000E+00
  9.60000000E+02  8.60000000E+01  0.00000000E+00
  9.60000000E+02  8.40000000E+01  0.00000000E+00
  9.60000000E+02  8.20000000E+01  0.00000000E+00
  9.60000000E+02  8.00000000E+01  0.00000000E+00
  9.60000000E+02  7.80000000E+01  0.00000000E+00
  9.60000000E+02  7.60000000E+01  0.00000000E+00
  9.60000000E+02  7.40000000E+01  0.00000000E+00
  9.60000000E+02  7.20000000E+01  0.00000000E+00
  9.60000000E+02  7.00000000E+01  0.00000000E+00
  9.60000000E+02  6.80000000E+01  0.00000000E+00
  9.60000000E+02  6.60000000E+01  0.00000000E+00
  9.60000000E+02  6.40000000E+01  0.00000000E+00
  9.60000000E+02  6.20000000E+01  0.00000000E+00
  9.60000000E+02  6.00000000E+01  0.00000000E+00
  9.60000000E+02  5.80000000E+01  0.00000000E+00
  9.60000000E+02  5.60000000E+01  0.00000000E+00
  9.60000000E+02  5.40000000E+01  0.00000000E+00
  9.60000000E+02  5.20000000E+01  0.00000000E+00
  9.60000000E+02  5.00000000E+01  0.00000000E+00
  9.60000000E+02  4.80000000E+01  0.00000000E+00
  9.60000000E+02  4.60000000E+01  0.00000000E+00
  9.60000000E+02  4.40000000E+01  0.00000000E+00
  9.60000000E+02  4.20000000E+01  0.00000000E+00
  9.60000000E+02  4.00000000E+01  0.00000000E+00
  9.60000000E+02  3.80000000E+01  0.00000000E+00
  9.60000000E+02  3.60000000E+01  0.00000000E+00
  9.60000000E+02  3.40000000E+01  0.00000000E+00
  9.60000000E+02  3.20000000E+01  0.00000000E+00
  9.60000000E+02  3.00000000E+01  0.00000000E+00
  9.60000000E+02  2.80000000E+01  0.00000000E+00
  9.60000000E+02  2.60000000E+01  0.00000000E+00
  9.60000000E+02  2.40000000E+01  0.00000000E+00
  9.60000000E+02  2.20000000E+01  0.00000000E+00
  9.60000000E+02  2.00000000E+01  0.00000000E+00
  9.60000000E+02  1.80000000E+01  0.00000000E+00
  9.60000000E+02  1.60000000E+01  0.00000000E+00
  9.60000000E+02  1.40000000E+01  0.00000000E+00
  9.60000000E+02  1.20000000E+01  0.00000000E+00
  9.60000000E+02  1.00000000E+01  0.00000000E+00
  9.60000000E+02  8.00000000E+00  0.00000000E+00
  9.60000000E+02  6.00000000E+00  0.00000000E+00
  9.60000000E+02  4.00000000E+00  0.00000000E+00
  9.60000000E+02  2.00000000E+00  0.00000000E+00
  9.60000000E+02 -3.33066907E-14  0.00000000E+00
  9.70000000E+02  1.00000000E+02  0.00000000E+00
  9.70000000E+02  9.80000000E+01  0.00000000E+00
  9.70000000E+02  9.60000000E+01  0.00000000E+00
  9.70000000E+02  9.40000000E+01  0.00000000E+00
  9.70000000E+02  9.20000000E+01  0.00000000E+00
  9.70000000E+02  9.00000000E+01  0.00000000E+00
  9.70000000E+02  8.80000000E+01  0.00000000E+00
  9.70000000E+02  8.60000000E+01  0.00000000E+00
  9.70000000E+02  8.40000000E+01  0.00000000E+00
  9.70000000E+02  8.20000000E+01  0.00000000E+00
  9.70000000E+02  8.00000000E+01  0.00000000E+00
  9.70000000E+02  7.80000000E+01  0.00000000E+00
  9.70000000E+02  7.60000000E+01  0.00000000E+00
  9.70000000E+02  7.40000000E+01  0.00000000E+00
  9.70000000E+02  7.20000000E+01  0.00000000E+00
  9.70000000E+02  7.00000000E+01  0.00000000E+00
  9.70000000E+02  6.80000000E+01  0.00000000E+00
  9.70000000E+02  6.60000000E+01  0.00000000E+00
  9.70000000E+02  6.40000000E+01  0.00000000E+00
  9.70000000E+02  6.20000000E+01  0.00000000E+00
  9.70000000E+02  6.00000000E+01  0.00000000E+00
  9.70000000E+02  5.80000000E+01  0.00000000E+00
  9.70000000E+02  5.60000000E+01  0.00000000E+00
  9.70000000E+02  5.40000000E+01  0.00000000E+00
  9.70000000E+02  5.20000000E+01  0.00000000E+00
  9.70000000E+02  5.00000000E+01  0.00000000E+00
  9.70000000E+02  4.80000000E+01  0.00000000E+00
  9.70000000E+02  4.60000000E+01  0.00000000E+00
  9.70000000E+02  4.40000000E+01  0.00000000E+00
  9.70000000E+02  4.20000000E+01  0.00000000E+00
  9.70000000E+02  4.00000000E+01  0.00000000E+00
  9.70000000E+02  3.80000000E+01  0.00000000E+00
  9.70000000E+02  3.60000000E+01  0.00000000E+00
  9.70000000E+02  3.40000000E+01  0.00000000E+00
  9.70000000E+02  3.20000000E+01  0.00000000E+00
  9.70000000E+02  3.00000000E+01  0.00000000E+00
  9.70000000E+02  2.80000000E+01  0.00000000E+00
  9.70000000E+02  2.60000000E+01  0.00000000E+00
  9.70000000E+02  2.40000000E+01  0.00000000E+00
  9.70000000E+02  2.20000000E+01  0.00000000E+00
  9.70000000E+02  2.00000000E+01  0.00000000E+00
  9.70000000E+02  1.80000000E+01  0.00000000E+00
  9.70000000E+02  1.60000000E+01  0.00000000E+00
  9.70000000E+02  1.40000000E+01  0.00000000E+00
  9.70000000E+02  1.20000000E+01  0.00000000E+00
  9.70000000E+02  1.00000000E+01  0.00000000E+00
  9.70000000E+02  8.00000000E+00  0.00000000E+00
  9.70000000E+02  6.00000000E+00  0.00000000E+00
  9.70000000E+02  4.00000000E+00  0.00000000E+00
  9.70000000E+02  2.00000000E+00  0.00000000E+00
  9.70000000E+02 -3.33066907E-14  0.00000000E+00
  9.80000000E+02  1.00000000E+02  0.00000000E+00
  9.80000000E+02  9.80000000E+01  0.00000000E+00
  9.80000000E+02  9.60000000E+01  0.00000000E+00
  9.80000000E+02  9.40000000E+01  0.00000000E+00
  9.80000000E+02  9.20000000E+01  0.00000000E+00
  9.80000000E+02  9.00000000E+01  0.00000000E+00
  9.80000000E+02  8.80000000E+01  0.00000000E+00
  9.80000000E+02  8.60000000E+01  0.00000000E+00
  9.80000000E+02  8.40000000E+01  0.00000000E+00
  9.80000000E+02  8.20000000E+01  0.00000000E+00
  9.80000000E+02  8.00000000E+01  0.00000000E+00
  9.80000000E+02  7.80000000E+01  0.00000000E+00
  9.80000000E+02  7.60000000E+01  0.00000000E+00
  9.80000000E+02  7.40000000E+01  0.00000000E+00
  9.80000000E+02  7.20000000E+01  0.00000000E+00
  9.80000000E+02  7.00000000E+01  0.00000000E+00
  9.80000000E+02  6.80000000E+01  0.00000000E+00
  9.80000000E+02  6.60000000E+01  0.00000000E+00
  9.80000000E+02  6.40000000E+01  0.00000000E+00
  9.80000000E+02  6.20000000E+01  0.00000000E+00
  9.80000000E+02  6.00000000E+01  0.00000000E+00
  9.80000000E+02  5.80000000E+01  0.00000000E+00
  9.80000000E+02  5.60000000E+01  0.00000000E+00
  9.80000000E+02  5.40000000E+01  0.00000000E+00
  9.80000000E+02  5.20000000E+01  0.00000000E+00
  9.80000000E+02  5.00000000E+01  0.00000000E+00
  9.80000000E+02  4.80000000E+01  0.00000000E+00
  9.80000000E+02  4.60000000E+01  0.00000000E+00
  9.80000000E+02  4.40000000E+01  0.00000000E+00
  9.80000000E+02  4.20000000E+01  0.00000000E+00
  9.80000000E+02  4.00000000E+01  0.00000000E+00
  9.80000000E+02  3.80000000E+01  0.00000000E+00
  9.80000000E+02  3.60000000E+01  0.00000000E+00
  9.80000000E+02  3.40000000E+01  0.00000000E+00
  9.80000000E+02  3.20000000E+01  0.00000000E+00
  9.80000000E+02  3.00000000E+01  0.00000000E+00
  9.80000000E+02  2.80000000E+01  0.00000000E+00
  9.80000000E+02  2.60000000E+01  0.00000000E+00
  9.80000000E+02  2.40000000E+01  0.00000000E+00
  9.80000000E+02  2.20000000E+01  0.00000000E+00
  9.80000000E+02  2.00000000E+01  0.00000000E+00
  9.80000000E+02  1.80000000E+01  0.00000000E+00
  9.80000000E+02  1.60000000E+01  0.00000000E+00
  9.80000000E+02  1.40000000E+01  0.00000000E+00
  9.80000000E+02  1.20000000E+01  0.00000000E+00
  9.80000000E+02  1.00000000E+01  0.00000000E+00
  9.80000000E+02  8.00000000E+00  0.00000000E+00
  9.80000000E+02  6.00000000E+00  0.00000000E+00
  9.80000000E+02  4.00000000E+00  0.00000000E+00
  9.80000000E+02  2.00000000E+00  0.00000000E+00
  9.80000000E+02 -3.33066907E-14  0.00000000E+00
  9.90000000E+02  1.00000000E+02  0.00000000E+00
  9.90000000E+02  9.80000000E+01  0.00000000E+00
  9.90000000E+02  9.60000000E+01  0.00000000E+00
  9.90000000E+02  9.40000000E+01  0.00000000E+00
  9.90000000E+02  9.20000000E+01  0.00000000E+00
  9.90000000E+02  9.00000000E+01  0.00000000E+00
  9.90000000E+02  8.80000000E+01  0.00000000E+00
  9.90000000E+02  8.60000000E+01  0.00000000E+00
  9.90000000E+02  8.40000000E+01  0.00000000E+00
  9.90000000E+02  8.20000000E+01  0.00000000E+00
  9.90000000E+02  8.00000000E+01  0.00000000E+00
  9.90000000E+02  7.80000000E+01  0.00000000E+00
  9.90000000E+02  7.60000000E+01  0.00000000E+00
  9.90000000E+02  7.40000000E+01  0.00000000E+00
  9.90000000E+02  7.20000000E+01  0.00000000E+00
  9.90000000E+02  7.00000000E+01  0.00000000E+00
  9.90000000E+02  6.80000000E+01  0.00000000E+00
  9.90000000E+02  6.60000000E+01  0.00000000E+00
  9.90000000E+02  6.40000000E+01  0.00000000E+00
  9.90000000E+02  6.20000000E+01  0.00000000E+00
  9.90000000E+02  6.00000000E+01  0.00000000E+00
  9.90000000E+02  5.80000000E+01  0.00000000E+00
  9.90000000E+02  5.60000000E+01  0.00000000E+00
  9.90000000E+02  5.40000000E+01  0.00000000E+00
  9.90000000E+02  5.20000000E+01  0.00000000E+00
  9.90000000E+02  5.00000000E+01  0.00000000E+00
  9.90000000E+02  4.80000000E+01  0.00000000E+00
  9.90000000E+02  4.60000000E+01  0.00000000E+00
  9.90000000E+02  4.40000000E+01  0.00000000E+00
  9.90000000E+02  4.20000000E+01  0.00000000E+00
  9.90000000E+02  4.00000000E+01  0.00000000E+00
  9.90000000E+02  3.80000000E+01  0.00000000E+00
  9.90000000E+02  3.60000000E+01  0.00000000E+00
  9.90000000E+02  3.40000000E+01  0.00000000E+00
  9.90000000E+02  3.20000000E+01  0.00000000E+00
  9.90000000E+02  3.00000000E+01  0.00000000E+00
  9.90000000E+02  2.80000000E+01  0.00000000E+00
  9.90000000E+02  2.60000000E+01  0.00000000E+00
  9.90000000E+02  2.40000000E+01  0.00000000E+00
  9.90000000E+02  2.20000000E+01  0.00000000E+00
  9.90000000E+02  2.00000000E+01  0.00000000E+00
  9.90000000E+02  1.80000000E+01  0.00000000E+00
  9.90000000E+02  1.60000000E+01  0.00000000E+00
  9.90000000E+02  1.40000000E+01  0.00000000E+00
  9.90000000E+02  1.20000000E+01  0.00000000E+00
  9.90000000E+02  1.00000000E+01  0.00000000E+00
  9.90000000E+02  8.00000000E+00  0.00000000E+00
  9.90000000E+02  6.00000000E+00  0.00000000E+00
  9.90000000E+02  4.00000000E+00  0.00000000E+00
  9.90000000E+02  2.00000000E+00  0.00000000E+00
  9.90000000E+02 -3.33066907E-14  0.00000000E+00
  1.00000000E+03  1.00000000E+02  0.00000000E+00
  1.00000000E+03  9.80000000E+01  0.00000000E+00
  1.00000000E+03  9.60000000E+01  0.00000000E+00
  1.00000000E+03  9.40000000E+01  0.00000000E+00
  1.00000000E+03  9.20000000E+01  0.00000000E+00
  1.00000000E+03  9.00000000E+01  0.00000000E+00
  1.00000000E+03  8.80000000E+01  0.00000000E+00
  1.00000000E+03  8.60000000E+01  0.00000000E+00
  1.00000000E+03  8.40000000E+01  0.00000000E+00
  1.00000000E+03  8.20000000E+01  0.00000000E+00
  1.00000000E+03  8.00000000E+01  0.00000000E+00
  1.00000000E+03  7.80000000E+01  0.00000000E+00
  1.00000000E+03  7.60000000E+01  0.00000000E+00
  1.00000000E+03  7.40000000E+01  0.00000000E+00
  1.00000000E+03  7.20000000E+01  0.00000000E+00
  1.00000000E+03  7.00000000E+01  0.00000000E+00
  1.00000000E+03  6.80000000E+01  0.00000000E+00
  1.00000000E+03  6.60000000E+01  0.00000000E+00
  1.00000000E+03  6.40000000E+01  0.00000000E+00
  1.00000000E+03  6.20000000E+01  0.00000000E+00
  1.00000000E+03  6.00000000E+01  0.00000000E+00
  1.00000000E+03  5.80000000E+01  0.00000000E+00
  1.00000000E+03  5.60000000E+01  0.00000000E+00
  1.00000000E+03  5.40000000E+01  0.00000000E+00
  1.00000000E+03  5.20000000E+01  0.00000000E+00
  1.00000000E+03  5.00000000E+01  0.00000000E+00
  1.00000000E+03  4.80000000E+01  0.00000000E+00
  1.00000000E+03  4.60000000E+01  0.00000000E+00
  1.00000000E+03  4.40000000E+01  0.00000000E+00
  1.00000000E+03  4.20000000E+01  0.00000000E+00
  1.00000000E+03  4.00000000E+01  0.00000000E+00
  1.00000000E+03  3.80000000E+01  0.00000000E+00
  1.00000000E+03  3.60000000E+01  0.00000000E+00
  1.00000000E+03  3.40000000E+01  0.00000000E+00
  1.00000000E+03  3.20000000E+01  0.00000000E+00
  1.00000000E+03  3.00000000E+01  0.00000000E+00
  1.00000000E+03  2.80000000E+01  0.00000000E+00
  1.00000000E+03  2.60000000E+01  0.00000000E+00
  1.00000000E+03  2.40000000E+01  0.00000000E+00
  1.00000000E+03  2.20000000E+01  0.00000000E+00
  1.00000000E+03  2.00000000E+01  0.00000000E+00
  1.00000000E+03  1.80000000E+01  0.00000000E+00
  1.00000000E+03  1.60000000E+01  0.00000000E+00
  1.00000000E+03  1.40000000E+01  0.00000000E+00
  1.00000000E+03  1.20000000E+01  0.00000000E+00
  1.00000000E+03  1.00000000E+01  0.00000000E+00
  1.00000000E+03  8.00000000E+00  0.00000000E+00
  1.00000000E+03  6.00000000E+00  0.00000000E+00
  1.00000000E+03  4.00000000E+00  0.00000000E+00
  1.00000000E+03  2.00000000E+00  0.00000000E+00
  1.00000000E+03 -3.33066907E-14  0.00000000E+00
CELLS      5000     25000
         4           0           1          52          51
         4           1           2          53          52
         4           2           3          54          53
         4           3           4          55          54
         4           4           5          56          55
         4           5           6          57          56
         4           6           7          58          57
         4           7           8          59          58
         4           8           9          60          59
         4           9          10          61          60
         4          10          11          62          61
         4          11          12          63          62
         4          12          13          64          63
         4          13          14          65          64
         4          14          15          66          65
         4          15          16          67          66
         4          16          17          68          67
         4          17          18          69          68
         4          18          19          70          69
         4          19          20          71          70
         4          20          21          72          71
         4          21          22          73          72
         4          22          23          74          73
         4          23          24          75          74
         4          24          25          76          75
         4          25          26          77          76
         4          26          27          78          77
         4          27          28          79          78
         4          28          29          80          79
         4          29          30          81          80
         4          30          31          82          81
         4          31          32          83          82
         4          32          33          84          83
         4          33          34          85          84
         4          34          35          86          85
         4          35          36          87          86
         4          36          37          88          87
         4          37          38          89          88
         4          38          39          90          89
         4          39          40          91          90
         4          40          41          92          91
         4          41          42          93          92
         4          42          43          94          93
         4          43          44          95          94
         4          44          45          96          95
         4          45          46          97          96
         4          46          47          98          97
         4          47          48          99          98
         4          48          49         100          99
         4          49          50         101         100
         4          51          52         103         102
         4          52          53         104         103
         4          53          54         105         104
         4          54          55         106         105
         4          55          56         107         106
         4          56          57         108         107
         4          57          58         109         108
         4          58          59         110         109
         4          59          60         111         110
         4          60          61         112         111
         4          61          62         113         112
         4          62          63         114         113
         4          63          64         115         114
         4          64          65         116         115
         4          65          66         117         116
         4          66          67         118         117
         4          67          68         119         118
         4          68          69         120         119
         4          69          70         121         120
         4          70          71         122         121
         4          71          72         123         122
         4          72          73         124         123
         4          73          74         125         124
         4          74          75         126         125
         4          75          76         127         126
         4          76          77         128         127
         4          77          78         129         128
         4          78          79         130         129
         4          79          80         131         130
         4          80          81         132         131
         4          81          82         133         132
         4          82          83         134         133
         4          83          84         135         134
         4          84          85         136         135
         4          85          86         137         136
         4          86          87         138         137
         4          87          88         139         138
         4          88          89         140         139
         4          89          90         141         140
         4          90          91         142         141
         4          91          92         143         142
         4          92          93         144         143
         4          93          94         145         144
         4          94          95         146         145
         4          95          96         147         146
         4          96          97         148         147
         4          97          98         149         148
         4          98          99         150         149
         4          99         100         151         150
         4         100         101         152         151
         4         102         103         154         153
         4         103         104         155         154
         4         104         105         156         155
         4         105         106         157         156
         4         106         107         158         157
         4         107         108         159         158
         4         108         109         160         159
         4         109         110         161         160
         4         110         111         162         161
         4         111         112         163         162
         4         112         113         164         163
         4         113         114         165         164
         4         114         115         166         165
         4         115         116         167         166
         4         116         117         168         167
         4         117         118         169         168
         4         118         119         170         169
         4         119         120         171         170
         4         120         121         172         171
         4         121         122         173         172
         4         122         123         174         173
         4         123         124         175         174
         4         124         125         176         175
         4         125         126         177         176
         4         126         127         178         177
         4         127         128         179         178
         4         128         129         180         179
         4         129         130         181         180
         4         130         131         182         181
         4         131         132         183         182
         4         132         133         184         183
         4         133         134         185         184
         4         134         135         186         185
         4         135         136         187         186
         4         136         137         188         187
         4         137         138         189         188
         4         138         139         190         189
         4         139         140         191         190
         4         140         141         192         191
         4         141         142         193         192
         4         142         143         194         193
         4         143         144         195         194
         4         144         145         196         195
         4         145         146         197         196
         4         146         147         198         197
         4         147         148         199         198
         4         148         149         200         199
         4         149         150         201         200
         4         150         151         202         201
         4         151         152         203         202
         4         153         154         205         204
         4         154         155         206         205
         4         155         156         207         206
         4         156         157         208         207
         4         157         158         209         208
         4         158         159         210         209
         4         159         160         211         210
         4         160         161         212         211
         4         161         162         213         212
         4         162         163         214         213
         4         163         164         215         214
         4         164         165         216         215
         4         165         166         217         216
         4         166         167         218         217
         4         167         168         219         218
         4         168         169         220         219
         4         169         170         221         220
         4         170         171         222         221
         4         171         172         223         222
         4         172         173         224         223
         4         173         174         225         224
         4         174         175         226         225
         4         175         176         227         226
         4         176         177         228         227
         4         177         178         229         228
         4         178         179         230         229
         4         179         180         231         230
         4         180         181         232         231
         4         181         182         233         232
         4         182         183         234         233
         4         183         184         235         234
         4         184         185         236         235
         4         185         186         237         236
         4         186         187         238         237
         4         187         188         239         238
         4         188         189         240         239
         4         189         190         241         240
         4         190         191         242         241
         4         191         192         243         242
         4         192         193         244         243
         4         193         194         245         244
         4         194         195         246         245
         4         195         196         247         246
         4         196         197         248         247
         4         197         198         249         248
         4         198         199         250         249
         4         199         200         251         250
         4         200         201         252         251
         4         201         202         253         252
         4         202         203         254         253
         4         204         205         256         255
         4         205         206         257         256
         4         206         207         258         257
         4         207         208         259         258
         4         208         209         260         259
         4         209         210         261         260
         4         210         211         262         261
         4         211         212         263         262
         4         212         213         264         263
         4         213         214         265         264
         4         214         215         266         265
         4         215         216         267         266
         4         216         217         268         267
         4         217         218         269         268
         4         218         219         270         269
         4         219         220         271         270
         4         220         221         272         271
         4         221         222         273         272
         4         222         223         274         273
         4         223         224         275         274
         4         224         225         276         275
         4         225         226         277         276
         4         226         227         278         277
         4         227         228         279         278
         4         228         229         280         279
         4         229         230         281         280
         4         230         231         282         281
         4         231         232         283         282
         4         232         233         284         283
         4         233         234         285         284
         4         234         235         286         285
         4         235         236         287         286
         4         236         237         288         287
         4         237         238         289         288
         4         238         239         290         289
         4         239         240         291         290
         4         240         241         292         291
         4         241         242         293         292
         4         242         243         294         293
         4         243         244         295         294
         4         244         245         296         295
         4         245         246         297         296
         4         246         247         298         297
         4         247         248         299         298
         4         248         249         300         299
         4         249         250         301         300
         4         250         251         302         301
         4         251         252         303         302
         4         252         253         304         303
         4         253         254         305         304
         4         255         256         307         306
         4         256         257         308         307
         4         257         258         309         308
         4         258         259         310         309
         4         259         260         311         310
         4         260         261         312         311
         4         261         262         313         312
         4         262         263         314         313
         4         263         264         315         314
         4         264         265         316         315
         4         265         266         317         316
         4         266         267         318         317
         4         267         268         319         318
         4         268         269         320         319
         4         269         270         321         320
         4         270         271         322         321
         4         271         272         323         322
         4         272         273         324         323
         4         273         274         325         324
         4         274         275         326         325
         4         275         276         327         326
         4         276         277         328         327
         4         277         278         329         328
         4         278         279         330         329
         4         279         280         331         330
         4         280         281         332         331
         4         281         282         333         332
         4         282         283         334         333
         4         283         284         335         334
         4         284         285         336         335
         4         285         286         337         336
         4         286         287         338         337
         4         287         288         339         338
         4         288         289         340         339
         4         289         290         341         340
         4         290         291         342         341
         4         291         292         343         342
         4         292         293         344         343
         4         293         294         345         344
         4         294         295         346         345
         4         295         296         347         346
         4         296         297         348         347
         4         297         298         349         348
         4         298         299         350         349
         4         299         300         351         350
         4         300         301         352         351
         4         301         302         353         352
         4         302         303         354         353
         4         303         304         355         354
         4         304         305         356         355
         4         306         307         358         357
         4         307         308         359         358
         4         308         309         360         359
         4         309         310         361         360
         4         310         311         362         361
         4         311         312         363         362
         4         312         313         364         363
         4         313         314         365         364
         4         314         315         366         365
         4         315         316         367         366
         4         316         317         368         367
         4         317         318         369         368
         4         318         319         370         369
         4         319         320         371         370
         4         320         321         372         371
         4         321         322         373         372
         4         322         323         374         373
         4         323         324         375         374
         4         324         325         376         375
         4         325         326         377         376
         4         326         327         378         377
         4         327         328         379         378
         4         328         329         380         379
         4         329         330         381         380
         4         330         331         382         381
         4         331         332         383         382
         4         332         333         384         383
         4         333         334         385         384
         4         334         335         386         385
         4         335         336         387         386
         4         336         337         388         387
         4         337         338         389         388
         4         338         339         390         389
         4         339         340         391         390
         4         340         341         392         391
         4         341         342         393         392
         4         342         343         394         393
         4         343         344         395         394
         4         344         345         396         395
         4         345         346         397         396
         4         346         347         398         397
         4         347         348         399         398
         4         348         349         400         399
         4         349         350         401         400
         4         350         351         402         401
         4         351         352         403         402
         4         352         353         404         403
         4         353         354         405         404
         4         354         355         406         405
         4         355         356         407         406
         4         357         358         409         408
         4         358         359         410         409
         4         359         360         411         410
         4         360         361         412         411
         4         361         362         413         412
         4         362         363         414         413
         4         363         364         415         414
         4         364         365         416         415
         4         365         366         417         416
         4         366         367         418         417
         4         367         368         419         418
         4         368         369         420         419
         4         369         370         421         420
         4         370         371         422         421
         4         371         372         423         422
         4         372         373         424         423
         4         373         374         425         424
         4         374         375         426         425
         4         375         376         427         426
         4         376         377         428         427
         4         377         378         429         428
         4         378         379         430         429
         4         379         380         431         430
         4         380         381         432         431
         4         381         382         433         432
         4         382         383         434         433
         4         383         384         435         434
         4         384         385         436         435
         4         385         386         437         436
         4         386         387         438         437
         4         387         388         439         438
         4         388         389         440         439
         4         389         390         441         440
         4         390         391         442         441
         4         391         392         443         442
         4         392         393         444         443
         4         393         394         445         444
         4         394         395         446         445
         4         395         396         447         446
         4         396         397         448         447
         4         397         398         449         448
         4         398         399         450         449
         4         399         400         451         450
         4         400         401         452         451
         4         401         402         453         452
         4         402         403         454         453
         4         403         404         455         454
         4         404         405         456         455
         4         405         406         457         456
         4         406         407         458         457
         4         408         409         460         459
         4         409         410         461         460
         4         410         411         462         461
         4         411         412         463         462
         4         412         413         464         463
         4         413         414         465         464
         4         414         415         466         465
         4         415         416         467         466
         4         416         417         468         467
         4         417         418         469         468
         4         418         419         470         469
         4         419         420         471         470
         4         420         421         472         471
         4         421         422         473         472
         4         422         423         474         473
         4         423         424         475         474
         4         424         425         476         475
         4         425         426         477         476
         4         426         427         478         477
         4         427         428         479         478
         4         428         429         480         479
         4         429         430         481         480
         4         430         431         482         481
         4         431         432         483         482
         4         432         433         484         483
         4         433         434         485         484
         4         434         435         486         485
         4         435         436         487         486
         4         436         437         488         487
         4         437         438         489         488
         4         438         439         490         489
         4         439         440         491         490
         4         440         441         492         491
         4         441         442         493         492
         4         442         443         494         493
         4         443         444         495         494
         4         444         445         496         495
         4         445         446         497         496
         4         446         447         498         497
         4         447         448         499         498
         4         448         449         500         499
         4         449         450         501         500
         4         450         451         502         501
         4         451         452         503         502
         4         452         453         504         503
         4         453         454         505         504
         4         454         455         506         505
         4         455         456         507         506
         4         456         457         508         507
         4         457         458         509         508
         4         459         460         511         510
         4         460         461         512         511
         4         461         462         513         512
         4         462         463         514         513
         4         463         464         515         514
         4         464         465         516         515
         4         465         466         517         516
         4         466         467         518         517
         4         467         468         519         518
         4         468         469         520         519
         4         469         470         521         520
         4         470         471         522         521
         4         471         472         523         522
         4         472         473         524         523
         4         473         474         525         524
         4         474         475         526         525
         4         475         476         527         526
         4         476         477         528         527
         4         477         478         529         528
         4         478         479         530         529
         4         479         480         531         530
         4         480         481         532         531
         4         481         482         533         532
         4         482         483         534         533
         4         483         484         535         534
         4         484         485         536         535
         4         485         486         537         536
         4         486         487         538         537
         4         487         488         539         538
         4         488         489         540         539
         4         489         490         541         540
         4         490         491         542         541
         4         491         492         543         542
         4         492         493         544         543
         4         493         494         545         544
         4         494         495         546         545
         4         495         496         547         546
         4         496         497         548         547
         4         497         498         549         548
         4         498         499         550         549
         4         499         500         551         550
         4         500         501         552         551
         4         501         502         553         552
         4         502         503         554         553
         4         503         504         555         554
         4         504         505         556         555
         4         505         506         557         556
         4         506         507         558         557
         4         507         508         559         558
         4         508         509         560         559
         4         510         511         562         561
         4         511         512         563         562
         4         512         513         564         563
         4         513         514         565         564
         4         514         515         566         565
         4         515         516         567         566
         4         516         517         568         567
         4         517         518         569         568
         4         518         519         570         569
         4         519         520         571         570
         4         520         521         572         571
         4         521         522         573         572
         4         522         523         574         573
         4         523         524         575         574
         4         524         525         576         575
         4         525         526         577         576
         4         526         527         578         577
         4         527         528         579         578
         4         528         529         580         579
         4         529         530         581         580
         4         530         531         582         581
         4         531         532         583         582
         4         532         533         584         583
         4         533         534         585         584
         4         534         535         586         585
         4         535         536         587         586
         4         536         537         588         587
         4         537         538         589         588
         4         538         539         590         589
         4         539         540         591         590
         4         540         541         592         591
         4         541         542         593         592
         4         542         543         594         593
         4         543         544         595         594
         4         544         545         596         595
         4         545         546         597         596
         4         546         547         598         597
         4         547         548         599         598
         4         548         549         600         599
         4         549         550         601         600
         4         550         551         602         601
         4         551         552         603         602
         4         552         553         604         603
         4         553         554         605         604
         4         554         555         606         605
         4         555         556         607         606
         4         556         557         608         607
         4         557         558         609         608
         4         558         559         610         609
         4         559         560         611         610
         4         561         562         613         612
         4         562         563         614         613
         4         563         564         615         614
         4         564         565         616         615
         4         565         566         617         616
         4         566         567         618         617
         4         567         568         619         618
         4         568         569         620         619
         4         569         570         621         620
         4         570         571         622         621
         4         571         572         623         622
         4         572         573         624         623
         4         573         574         625         624
         4         574         575         626         625
         4         575         576         627         626
         4         576         577         628         627
         4         577         578         629         628
         4         578         579         630         629
         4         579         580         631         630
         4         580         581         632         631
         4         581         582         633         632
         4         582         583         634         633
         4         583         584         635         634
         4         584         585         636         635
         4         585         586         637         636
         4         586         587         638         637
         4         587         588         639         638
         4         588         589         640         639
         4         589         590         641         640
         4         590         591         642         641
         4         591         592         643         642
         4         592         593         644         643
         4         593         594         645         644
         4         594         595         646         645
         4         595         596         647         646
         4         596         597         648         647
         4         597         598         649         648
         4         598         599         650         649
         4         599         600         651         650
         4         600         601         652         651
         4         601         602         653         652
         4         602         603         654         653
         4         603         604         655         654
         4         604         605         656         655
         4         605         606         657         656
         4         606         607         658         657
         4         607         608         659         658
         4         608         609         660         659
         4         609         610         661         660
         4         610         611         662         661
         4         612         613         664         663
         4         613         614         665         664
         4         614         615         666         665
         4         615         616         667         666
         4         616         617         668         667
         4         617         618         669         668
         4         618         619         670         669
         4         619         620         671         670
         4         620         621         672         671
         4         621         622         673         672
         4         622         623         674         673
         4         623         624         675         674
         4         624         625         676         675
         4         625         626         677         676
         4         626         627         678         677
         4         627         628         679         678
         4         628         629         680         679
         4         629         630         681         680
         4         630         631         682         681
         4         631         632         683         682
         4         632         633         684         683
         4         633         634         685         684
         4         634         635         686         685
         4         635         636         687         686
         4         636         637         688         687
         4         637         638         689         688
         4         638         639         690         689
         4         639         640         691         690
         4         640         641         692         691
         4         641         642         693         692
         4         642         643         694         693
         4         643         644         695         694
         4         644         645         696         695
         4         645         646         697         696
         4         646         647         698         697
         4         647         648         699         698
         4         648         649         700         699
         4         649         650         701         700
         4         650         651         702         701
         4         651         652         703         702
         4         652         653         704         703
         4         653         654         705         704
         4         654         655         706         705
         4         655         656         707         706
         4         656         657         708         707
         4         657         658         709         708
         4         658         659         710         709
         4         659         660         711         710
         4         660         661         712         711
         4         661         662         713         712
         4         663         664         715         714
         4         664         665         716         715
         4         665         666         717         716
         4         666         667         718         717
         4         667         668         719         718
         4         668         669         720         719
         4         669         670         721         720
         4         670         671         722         721
         4         671         672         723         722
         4         672         673         724         723
         4         673         674         725         724
         4         674         675         726         725
         4         675         676         727         726
         4         676         677         728         727
         4         677         678         729         728
         4         678         679         730         729
         4         679         680         731         730
         4         680         681         732         731
         4         681         682         733         732
         4         682         683         734         733
         4         683         684         735         734
         4         684         685         736         735
         4         685         686         737         736
         4         686         687         738         737
         4         687         688         739         738
         4         688         689         740         739
         4         689         690         741         740
         4         690         691         742         741
         4         691         692         743         742
         4         692         693         744         743
         4         693         694         745         744
         4         694         695         746         745
         4         695         696         747         746
         4         696         697         748         747
         4         697         698         749         748
         4         698         699         750         749
         4         699         700         751         750
         4         700         701         752         751
         4         701         702         753         752
         4         702         703         754         753
         4         703         704         755         754
         4         704         705         756         755
         4         705         706         757         756
         4         706         707         758         757
         4         707         708         759         758
         4         708         709         760         759
         4         709         710         761         760
         4         710         711         762         761
         4         711         712         763         762
         4         712         713         764         763
         4         714         715         766         765
         4         715         716         767         766
         4         716         717         768         767
         4         717         718         769         768
         4         718         719         770         769
         4         719         720         771         770
         4         720         721         772         771
         4         721         722         773         772
         4         722         723         774         773
         4         723         724         775         774
         4         724         725         776         775
         4         725         726         777         776
         4         726         727         778         777
         4         727         728         779         778
         4         728         729         780         779
         4         729         730         781         780
         4         730         731         782         781
         4         731         732         783         782
         4         732         733         784         783
         4         733         734         785         784
         4         734         735         786         785
         4         735         736         787         786
         4         736         737         788         787
         4         737         738         789         788
         4         738         739         790         789
         4         739         740         791         790
         4         740         741         792         791
         4         741         742         793         792
         4         742         743         794         793
         4         743         744         795         794
         4         744         745         796         795
         4         745         746         797         796
         4         746         747         798         797
         4         747         748         799         798
         4         748         749         800         799
         4         749         750         801         800
         4         750         751         802         801
         4         751         752         803         802
         4         752         753         804         803
         4         753         754         805         804
         4         754         755         806         805
         4         755         756         807         806
         4         756         757         808         807
         4         757         758         809         808
         4         758         759         810         809
         4         759         760         811         810
         4         760         761         812         811
         4         761         762         813         812
         4         762         763         814         813
         4         763         764         815         814
         4         765         766         817         816
         4         766         767         818         817
         4         767         768         819         818
         4         768         769         820         819
         4         769         770         821         820
         4         770         771         822         821
         4         771         772         823         822
         4         772         773         824         823
         4         773         774         825         824
         4         774         775         826         825
         4         775         776         827         826
         4         776         777         828         827
         4         777         778         829         828
         4         778         779         830         829
         4         779         780         831         830
         4         780         781         832         831
         4         781         782         833         832
         4         782         783         834         833
         4         783         784         835         834
         4         784         785         836         835
         4         785         786         837         836
         4         786         787         838         837
         4         787         788         839         838
         4         788         789         840         839
         4         789         790         841         840
         4         790         791         842         841
         4         791         792         843         842
         4         792         793         844         843
         4         793         794         845         844
         4         794         795         846         845
         4         795         796         847         846
         4         796         797         848         847
         4         797         798         849         848
         4         798         799         850         849
         4         799         800         851         850
         4         800         801         852         851
         4         801         802         853         852
         4         802         803         854         853
         4         803         804         855         854
         4         804         805         856         855
         4         805         806         857         856
         4         806         807         858         857
         4         807         808         859         858
         4         808         809         860         859
         4         809         810         861         860
         4         810         811         862         861
         4         811         812         863         862
         4         812         813         864         863
         4         813         814         865         864
         4         814         815         866         865
         4         816         817         868         867
         4         817         818         869         868
         4         818         819         870         869
         4         819         820         871         870
         4         820         821         872         871
         4         821         822         873         872
         4         822         823         874         873
         4         823         824         875         874
         4         824         825         876         875
         4         825         826         877         876
         4         826         827         878         877
         4         827         828         879         878
         4         828         829         880         879
         4         829         830         881         880
         4         830         831         882         881
         4         831         832         883         882
         4         832         833         884         883
         4         833         834         885         884
         4         834         835         886         885
         4         835         836         887         886
         4         836         837         888         887
         4         837         838         889         888
         4         838         839         890         889
         4         839         840         891         890
         4         840         841         892         891
         4         841         842         893         892
         4         842         843         894         893
         4         843         844         895         894
         4         844         845         896         895
         4         845         846         897         896
         4         846         847         898         897
         4         847         848         899         898
         4         848         849         900         899
         4         849         850         901         900
         4         850         851         902         901
         4         851         852         903         902
         4         852         853         904         903
         4         853         854         905         904
         4         854         855         906         905
         4         855         856         907         906
         4         856         857         908         907
         4         857         858         909         908
         4         858         859         910         909
         4         859         860         911         910
         4         860         861         912         911
         4         861         862         913         912
         4         862         863         914         913
         4         863         864         915         914
         4         864         865         916         915
         4         865         866         917         916
         4         867         868         919         918
         4         868         869         920         919
         4         869         870         921         920
         4         870         871         922         921
         4         871         872         923         922
         4         872         873         924         923
         4         873         874         925         924
         4         874         875         926         925
         4         875         876         927         926
         4         876         877         928         927
         4         877         878         929         928
         4         878         879         930         929
         4         879         880         931         930
         4         880         881         932         931
         4         881         882         933         932
         4         882         883         934         933
         4         883         884         935         934
         4         884         885         936         935
         4         885         886         937         936
         4         886         887         938         937
         4         887         888         939         938
         4         888         889         940         939
         4         889         890         941         940
         4         890         891         942         941
         4         891         892         943         942
         4         892         893         944         943
         4         893         894         945         944
         4         894         895         946         945
         4         895         896         947         946
         4         896         897         948         947
         4         897         898         949         948
         4         898         899         950         949
         4         899         900         951         950
         4         900         901         952         951
         4         901         902         953         952
         4         902         903         954         953
         4         903         904         955         954
         4         904         905         956         955
         4         905         906         957         956
         4         906         907         958         957
         4         907         908         959         958
         4         908         909         960         959
         4         909         910         961         960
         4         910         911         962         961
         4         911         912         963         962
         4         912         913         964         963
         4         913         914         965         964
         4         914         915         966         965
         4         915         916         967         966
         4         916         917         968         967
         4         918         919         970         969
         4         919         920         971         970
         4         920         921         972         971
         4         921         922         973         972
         4         922         923         974         973
         4         923         924         975         974
         4         924         925         976         975
         4         925         926         977         976
         4         926         927         978         977
         4         927         928         979         978
         4         928         929         980         979
         4         929         930         981         980
         4         930         931         982         981
         4         931         932         983         982
         4         932         933         984         983
         4         933         934         985         984
         4         934         935         986         985
         4         935         936         987         986
         4         936         937         988         987
         4         937         938         989         988
         4         938         939         990         989
         4         939         940         991         990
         4         940         941         992         991
         4         941         942         993         992
         4         942         943         994         993
         4         943         944         995         994
         4         944         945         996         995
         4         945         946         997         996
         4         946         947         998         997
         4         947         948         999         998
         4         948         949        1000         999
         4         949         950        1001        1000
         4         950         951        1002        1001
         4         951         952        1003        1002
         4         952         953        1004        1003
         4         953         954        1005        1004
         4         954         955        1006        1005
         4         955         956        1007        1006
         4         956         957        1008        1007
         4         957         958        1009        1008
         4         958         959        1010        1009
         4         959         960        1011        1010
         4         960         961        1012        1011
         4         961         962        1013        1012
         4         962         963        1014        1013
         4         963         964        1015        1014
         4         964         965        1016        1015
         4         965         966        1017        1016
         4         966         967        1018        1017
         4         967         968        1019        1018
         4         969         970        1021        1020
         4         970         971        1022        1021
         4         971         972        1023        1022
         4         972         973        1024        1023
         4         973         974        1025        1024
         4         974         975        1026        1025
         4         975         976        1027        1026
         4         976         977        1028        1027
         4         977         978        1029        1028
         4         978         979        1030        1029
         4         979         980        1031        1030
         4         980         981        1032        1031
         4         981         982        1033        1032
         4         982         983        1034        1033
         4         983         984        1035        1034
         4         984         985        1036        1035
         4         985         986        1037        1036
         4         986         987        1038        1037
         4         987         988        1039        1038
         4         988         989        1040        1039
         4         989         990        1041        1040
         4         990         991        1042        1041
         4         991         992        1043        1042
         4         992         993        1044        1043
         4         993         994        1045        1044
         4         994         995        1046        1045
         4         995         996        1047        1046
         4         996         997        1048        1047
         4         997         998        1049        1048
         4         998         999        1050        1049
         4         999        1000        1051        1050
         4        1000        1001        1052        1051
         4        1001        1002        1053        1052
         4        1002        1003        1054        1053
         4        1003        1004        1055        1054
         4        1004        1005        1056        1055
         4        1005        1006        1057        1056
         4        1006        1007        1058        1057
         4        1007        1008        1059        1058
         4        1008        1009        1060        1059
         4        1009        1010        1061        1060
         4        1010        1011        1062        1061
         4        1011        1012        1063        1062
         4        1012        1013        1064        1063
         4        1013        1014        1065        1064
         4        1014        1015        1066        1065
         4        1015        1016        1067        1066
         4        1016        1017        1068        1067
         4        1017        1018        1069        1068
         4        1018        1019        1070        1069
         4        1020        1021        1072        1071
         4        1021        1022        1073        1072
         4        1022        1023        1074        1073
         4        1023        1024        1075        1074
         4        1024        1025        1076        1075
         4        1025        1026        1077        1076
         4        1026        1027        1078        1077
         4        1027        1028        1079        1078
         4        1028        1029        1080        1079
         4        1029        1030        1081        1080
         4        1030        1031        1082        1081
         4        1031        1032        1083        1082
         4        1032        1033        1084        1083
         4        1033        1034        1085        1084
         4        1034        1035        1086        1085
         4        1035        1036        1087        1086
         4        1036        1037        1088        1087
         4        1037        1038        1089        1088
         4        1038        1039        1090        1089
         4        1039        1040        1091        1090
         4        1040        1041        1092        1091
         4        1041        1042        1093        1092
         4        1042        1043        1094        1093
         4        1043        1044        1095        1094
         4        1044        1045        1096        1095
         4        1045        1046        1097        1096
         4        1046        1047        1098        1097
         4        1047        1048        1099        1098
         4        1048        1049        1100        1099
         4        1049        1050        1101        1100
         4        1050        1051        1102        1101
         4        1051        1052        1103        1102
         4        1052        1053        1104        1103
         4        1053        1054        1105        1104
         4        1054        1055        1106        1105
         4        1055        1056        1107        1106
         4        1056        1057        1108        1107
         4        1057        1058        1109        1108
         4        1058        1059        1110        1109
         4        1059        1060        1111        1110
         4        1060        1061        1112        1111
         4        1061        1062        1113        1112
         4        1062        1063        1114        1113
         4        1063        1064        1115        1114
         4        1064        1065        1116        1115
         4        1065        1066        1117        1116
         4        1066        1067        1118        1117
         4        1067        1068        1119        1118
         4        1068        1069        1120        1119
         4        1069        1070        1121        1120
         4        1071        1072        1123        1122
         4        1072        1073        1124        1123
         4        1073        1074        1125        1124
         4        1074        1075        1126        1125
         4        1075        1076        1127        1126
         4        1076        1077        1128        1127
         4        1077        1078        1129        1128
         4        1078        1079        1130        1129
         4        1079        1080        1131        1130
         4        1080        1081        1132        1131
         4        1081        1082        1133        1132
         4        1082        1083        1134        1133
         4        1083        1084        1135        1134
         4        1084        1085        1136        1135
         4        1085        1086        1137        1136
         4        1086        1087        1138        1137
         4        1087        1088        1139        1138
         4        1088        1089        1140        1139
         4        1089        1090        1141        1140
         4        1090        1091        1142        1141
         4        1091        1092        1143        1142
         4        1092        1093        1144        1143
         4        1093        1094        1145        1144
         4        1094        1095        1146        1145
         4        1095        1096        1147        1146
         4        1096        1097        1148        1147
         4        1097        1098        1149        1148
         4        1098        1099        1150        1149
         4        1099        1100        1151        1150
         4        1100        1101        1152        1151
         4        1101        1102        1153        1152
         4        1102        1103        1154        1153
         4        1103        1104        1155        1154
         4        1104        1105        1156        1155
         4        1105        1106        1157        1156
         4        1106        1107        1158        1157
         4        1107        1108        1159        1158
         4        1108        1109        1160        1159
         4        1109        1110        1161        1160
         4        1110        1111        1162        1161
         4        1111        1112        1163        1162
         4        1112        1113        1164        1163
         4        1113        1114        1165        1164
         4        1114        1115        1166        1165
         4        1115        1116        1167        1166
         4        1116        1117        1168        1167
         4        1117        1118        1169        1168
         4        1118        1119        1170        1169
         4        1119        1120        1171        1170
         4        1120        1121        1172        1171
         4        1122        1123        1174        1173
         4        1123        1124        1175        1174
         4        1124        1125        1176        1175
         4        1125        1126        1177        1176
         4        1126        1127        1178        1177
         4        1127        1128        1179        1178
         4        1128        1129        1180        1179
         4        1129        1130        1181        1180
         4        1130        1131        1182        1181
         4        1131        1132        1183        1182
         4        1132        1133        1184        1183
         4        1133        1134        1185        1184
         4        1134        1135        1186        1185
         4        1135        1136        1187        1186
         4        1136        1137        1188        1187
         4        1137        1138        1189        1188
         4        1138        1139        1190        1189
         4        1139        1140        1191        1190
         4        1140        1141        1192        1191
         4        1141        1142        1193        1192
         4        1142        1143        1194        1193
         4        1143        1144        1195        1194
         4        1144        1145        1196        1195
         4        1145        1146        1197        1196
         4        1146        1147        1198        1197
         4        1147        1148        1199        1198
         4        1148        1149        1200        1199
         4        1149        1150        1201        1200
         4        1150        1151        1202        1201
         4        1151        1152        1203        1202
         4        1152        1153        1204        1203
         4        1153        1154        1205        1204
         4        1154        1155        1206        1205
         4        1155        1156        1207        1206
         4        1156        1157        1208        1207
         4        1157        1158        1209        1208
         4        1158        1159        1210        1209
         4        1159        1160        1211        1210
         4        1160        1161        1212        1211
         4        1161        1162        1213        1212
         4        1162        1163        1214        1213
         4        1163        1164        1215        1214
         4        1164        1165        1216        1215
         4        1165        1166        1217        1216
         4        1166        1167        1218        1217
         4        1167        1168        1219        1218
         4        1168        1169        1220        1219
         4        1169        1170        1221        1220
         4        1170        1171        1222        1221
         4        1171        1172        1223        1222
         4        1173        1174        1225        1224
         4        1174        1175        1226        1225
         4        1175        1176        1227        1226
         4        1176        1177        1228        1227
         4        1177        1178        1229        1228
         4        1178        1179        1230        1229
         4        1179        1180        1231        1230
         4        1180        1181        1232        1231
         4        1181        1182        1233        1232
         4        1182        1183        1234        1233
         4        1183        1184        1235        1234
         4        1184        1185        1236        1235
         4        1185        1186        1237        1236
         4        1186        1187        1238        1237
         4        1187        1188        1239        1238
         4        1188        1189        1240        1239
         4        1189        1190        1241        1240
         4        1190        1191        1242        1241
         4        1191        1192        1243        1242
         4        1192        1193        1244        1243
         4        1193        1194        1245        1244
         4        1194        1195        1246        1245
         4        1195        1196        1247        1246
         4        1196        1197        1248        1247
         4        1197        1198        1249        1248
         4        1198        1199        1250        1249
         4        1199        1200        1251        1250
         4        1200        1201        1252        1251
         4        1201        1202        1253        1252
         4        1202        1203        1254        1253
         4        1203        1204        1255        1254
         4        1204        1205        1256        1255
         4        1205        1206        1257        1256
         4        1206        1207        1258        1257
         4        1207        1208        1259        1258
         4        1208        1209        1260        1259
         4        1209        1210        1261        1260
         4        1210        1211        1262        1261
         4        1211        1212        1263        1262
         4        1212        1213        1264        1263
         4        1213        1214        1265        1264
         4        1214        1215        1266        1265
         4        1215        1216        1267        1266
         4        1216        1217        1268        1267
         4        1217        1218        1269        1268
         4        1218        1219        1270        1269
         4        1219        1220        1271        1270
         4        1220        1221        1272        1271
         4        1221        1222        1273        1272
         4        1222        1223        1274        1273
         4        1224        1225        1276        1275
         4        1225        1226        1277        1276
         4        1226        1227        1278        1277
         4        1227        1228        1279        1278
         4        1228        1229        1280        1279
         4        1229        1230        1281        1280
         4        1230        1231        1282        1281
         4        1231        1232        1283        1282
         4        1232        1233        1284        1283
         4        1233        1234        1285        1284
         4        1234        1235        1286        1285
         4        1235        1236        1287        1286
         4        1236        1237        1288        1287
         4        1237        1238        1289        1288
         4        1238        1239        1290        1289
         4        1239        1240        1291        1290
         4        1240        1241        1292        1291
         4        1241        1242        1293        1292
         4        1242        1243        1294        1293
         4        1243        1244        1295        1294
         4        1244        1245        1296        1295
         4        1245        1246        1297        1296
         4        1246        1247        1298        1297
         4        1247        1248        1299        1298
         4        1248        1249        1300        1299
         4        1249        1250        1301        1300
         4        1250        1251        1302        1301
         4        1251        1252        1303        1302
         4        1252        1253        1304        1303
         4        1253        1254        1305        1304
         4        1254        1255        1306        1305
         4        1255        1256        1307        1306
         4        1256        1257        1308        1307
         4        1257        1258        1309        1308
         4        1258        1259        1310        1309
         4        1259        1260        1311        1310
         4        1260        1261        1312        1311
         4        1261        1262        1313        1312
         4        1262        1263        1314        1313
         4        1263        1264        1315        1314
         4        1264        1265        1316        1315
         4        1265        1266        1317        1316
         4        1266        1267        1318        1317
         4        1267        1268        1319        1318
         4        1268        1269        1320        1319
         4        1269        1270        1321        1320
         4        1270        1271        1322        1321
         4        1271        1272        1323        1322
         4        1272        1273        1324        1323
         4        1273        1274        1325        1324
         4        1275        1276        1327        1326
         4        1276        1277        1328        1327
         4        1277        1278        1329        1328
         4        1278        1279        1330        1329
         4        1279        1280        1331        1330
         4        1280        1281        1332        1331
         4        1281        1282        1333        1332
         4        1282        1283        1334        1333
         4        1283        1284        1335        1334
         4        1284        1285        1336        1335
         4        1285        1286        1337        1336
         4        1286        1287        1338        1337
         4        1287        1288        1339        1338
         4        1288        1289        1340        1339
         4        1289        1290        1341        1340
         4        1290        1291        1342        1341
         4        1291        1292        1343        1342
         4        1292        1293        1344        1343
         4        1293        1294        1345        1344
         4        1294        1295        1346        1345
         4        1295        1296        1347        1346
         4        1296        1297        1348        1347
         4        1297        1298        1349        1348
         4        1298        1299        1350        1349
         4        1299        1300        1351        1350
         4        1300        1301        1352        1351
         4        1301        1302        1353        1352
         4        1302        1303        1354        1353
         4        1303        1304        1355        1354
         4        1304        1305        1356        1355
         4        1305        1306        1357        1356
         4        1306        1307        1358        1357
         4        1307        1308        1359        1358
         4        1308        1309        1360        1359
         4        1309        1310        1361        1360
         4        1310        1311        1362        1361
         4        1311        1312        1363        1362
         4        1312        1313        1364        1363
         4        1313        1314        1365        1364
         4        1314        1315        1366        1365
         4        1315        1316        1367        1366
         4        1316        1317        1368        1367
         4        1317        1318        1369        1368
         4        1318        1319        1370        1369
         4        1319        1320        1371        1370
         4        1320        1321        1372        1371
         4        1321        1322        1373        1372
         4        1322        1323        1374        1373
         4        1323        1324        1375        1374
         4        1324        1325        1376        1375
         4        1326        1327        1378        1377
         4        1327        1328        1379        1378
         4        1328        1329        1380        1379
         4        1329        1330        1381        1380
         4        1330        1331        1382        1381
         4        1331        1332        1383        1382
         4        1332        1333        1384        1383
         4        1333        1334        1385        1384
         4        1334        1335        1386        1385
         4        1335        1336        1387        1386
         4        1336        1337        1388        1387
         4        1337        1338        1389        1388
         4        1338        1339        1390        1389
         4        1339        1340        1391        1390
         4        1340        1341        1392        1391
         4        1341        1342        1393        1392
         4        1342        1343        1394        1393
         4        1343        1344        1395        1394
         4        1344        1345        1396        1395
         4        1345        1346        1397        1396
         4        1346        1347        1398        1397
         4        1347        1348        1399        1398
         4        1348        1349        1400        1399
         4        1349        1350        1401        1400
         4        1350        1351        1402        1401
         4        1351        1352        1403        1402
         4        1352        1353        1404        1403
         4        1353        1354        1405        1404
         4        1354        1355        1406        1405
         4        1355        1356        1407        1406
         4        1356        1357        1408        1407
         4        1357        1358        1409        1408
         4        1358        1359        1410        1409
         4        1359        1360        1411        1410
         4        1360        1361        1412        1411
         4        1361        1362        1413        1412
         4        1362        1363        1414        1413
         4        1363        1364        1415        1414
         4        1364        1365        1416        1415
         4        1365        1366        1417        1416
         4        1366        1367        1418        1417
         4        1367        1368        1419        1418
         4        1368        1369        1420        1419
         4        1369        1370        1421        1420
         4        1370        1371        1422        1421
         4        1371        1372        1423        1422
         4        1372        1373        1424        1423
         4        1373        1374        1425        1424
         4        1374        1375        1426        1425
         4        1375        1376        1427        1426
         4        1377        1378        1429        1428
         4        1378        1379        1430        1429
         4        1379        1380        1431        1430
         4        1380        1381        1432        1431
         4        1381        1382        1433        1432
         4        1382        1383        1434        1433
         4        1383        1384        1435        1434
         4        1384        1385        1436        1435
         4        1385        1386        1437        1436
         4        1386        1387        1438        1437
         4        1387        1388        1439        1438
         4        1388        1389        1440        1439
         4        1389        1390        1441        1440
         4        1390        1391        1442        1441
         4        1391        1392        1443        1442
         4        1392        1393        1444        1443
         4        1393        1394        1445        1444
         4        1394        1395        1446        1445
         4        1395        1396        1447        1446
         4        1396        1397        1448        1447
         4        1397        1398        1449        1448
         4        1398        1399        1450        1449
         4        1399        1400        1451        1450
         4        1400        1401        1452        1451
         4        1401        1402        1453        1452
         4        1402        1403        1454        1453
         4        1403        1404        1455        1454
         4        1404        1405        1456        1455
         4        1405        1406        1457        1456
         4        1406        1407        1458        1457
         4        1407        1408        1459        1458
         4        1408        1409        1460        1459
         4        1409        1410        1461        1460
         4        1410        1411        1462        1461
         4        1411        1412        1463        1462
         4        1412        1413        1464        1463
         4        1413        1414        1465        1464
         4        1414        1415        1466        1465
         4        1415        1416        1467        1466
         4        1416        1417        1468        1467
         4        1417        1418        1469        1468
         4        1418        1419        1470        1469
         4        1419        1420        1471        1470
         4        1420        1421        1472        1471
         4        1421        1422        1473        1472
         4        1422        1423        1474        1473
         4        1423        1424        1475        1474
         4        1424        1425        1476        1475
         4        1425        1426        1477        1476
         4        1426        1427        1478        1477
         4        1428        1429        1480        1479
         4        1429        1430        1481        1480
         4        1430        1431        1482        1481
         4        1431        1432        1483        1482
         4        1432        1433        1484        1483
         4        1433        1434        1485        1484
         4        1434        1435        1486        1485
         4        1435        1436        1487        1486
         4        1436        1437        1488        1487
         4        1437        1438        1489        1488
         4        1438        1439        1490        1489
         4        1439        1440        1491        1490
         4        1440        1441        1492        1491
         4        1441        1442        1493        1492
         4        1442        1443        1494        1493
         4        1443        1444        1495        1494
         4        1444        1445        1496        1495
         4        1445        1446        1497        1496
         4        1446        1447        1498        1497
         4        1447        1448        1499        1498
         4        1448        1449        1500        1499
         4        1449        1450        1501        1500
         4        1450        1451        1502        1501
         4        1451        1452        1503        1502
         4        1452        1453        1504        1503
         4        1453        1454        1505        1504
         4        1454        1455        1506        1505
         4        1455        1456        1507        1506
         4        1456        1457        1508        1507
         4        1457        1458        1509        1508
         4        1458        1459        1510        1509
         4        1459        1460        1511        1510
         4        1460        1461        1512        1511
         4        1461        1462        1513        1512
         4        1462        1463        1514        1513
         4        1463        1464        1515        1514
         4        1464        1465        1516        1515
         4        1465        1466        1517        1516
         4        1466        1467        1518        1517
         4        1467        1468        1519        1518
         4        1468        1469        1520        1519
         4        1469        1470        1521        1520
         4        1470        1471        1522        1521
         4        1471        1472        1523        1522
         4        1472        1473        1524        1523
         4        1473        1474        1525        1524
         4        1474        1475        1526        1525
         4        1475        1476        1527        1526
         4        1476        1477        1528        1527
         4        1477        1478        1529        1528
         4        1479        1480        1531        1530
         4        1480        1481        1532        1531
         4        1481        1482        1533        1532
         4        1482        1483        1534        1533
         4        1483        1484        1535        1534
         4        1484        1485        1536        1535
         4        1485        1486        1537        1536
         4        1486        1487        1538        1537
         4        1487        1488        1539        1538
         4        1488        1489        1540        1539
         4        1489        1490        1541        1540
         4        1490        1491        1542        1541
         4        1491        1492        1543        1542
         4        1492        1493        1544        1543
         4        1493        1494        1545        1544
         4        1494        1495        1546        1545
         4        1495        1496        1547        1546
         4        1496        1497        1548        1547
         4        1497        1498        1549        1548
         4        1498        1499        1550        1549
         4        1499        1500        1551        1550
         4        1500        1501        1552        1551
         4        1501        1502        1553        1552
         4        1502        1503        1554        1553
         4        1503        1504        1555        1554
         4        1504        1505        1556        1555
         4        1505        1506        1557        1556
         4        1506        1507        1558        1557
         4        1507        1508        1559        1558
         4        1508        1509        1560        1559
         4        1509        1510        1561        1560
         4        1510        1511        1562        1561
         4        1511        1512        1563        1562
         4        1512        1513        1564        1563
         4        1513        1514        1565        1564
         4        1514        1515        1566        1565
         4        1515        1516        1567        1566
         4        1516        1517        1568        1567
         4        1517        1518        1569        1568
         4        1518        1519        1570        1569
         4        1519        1520        1571        1570
         4        1520        1521        1572        1571
         4        1521        1522        1573        1572
         4        1522        1523        1574        1573
         4        1523        1524        1575        1574
         4        1524        1525        1576        1575
         4        1525        1526        1577        1576
         4        1526        1527        1578        1577
         4        1527        1528        1579        1578
         4        1528        1529        1580        1579
         4        1530        1531        1582        1581
         4        1531        1532        1583        1582
         4        1532        1533        1584        1583
         4        1533        1534        1585        1584
         4        1534        1535        1586        1585
         4        1535        1536        1587        1586
         4        1536        1537        1588        1587
         4        1537        1538        1589        1588
         4        1538        1539        1590        1589
         4        1539        1540        1591        1590
         4        1540        1541        1592        1591
         4        1541        1542        1593        1592
         4        1542        1543        1594        1593
         4        1543        1544        1595        1594
         4        1544        1545        1596        1595
         4        1545        1546        1597        1596
         4        1546        1547        1598        1597
         4        1547        1548        1599        1598
         4        1548        1549        1600        1599
         4        1549        1550        1601        1600
         4        1550        1551        1602        1601
         4        1551        1552        1603        1602
         4        1552        1553        1604        1603
         4        1553        1554        1605        1604
         4        1554        1555        1606        1605
         4        1555        1556        1607        1606
         4        1556        1557        1608        1607
         4        1557        1558        1609        1608
         4        1558        1559        1610        1609
         4        1559        1560        1611        1610
         4        1560        1561        1612        1611
         4        1561        1562        1613        1612
         4        1562        1563        1614        1613
         4        1563        1564        1615        1614
         4        1564        1565        1616        1615
         4        1565        1566        1617        1616
         4        1566        1567        1618        1617
         4        1567        1568        1619        1618
         4        1568        1569        1620        1619
         4        1569        1570        1621        1620
         4        1570        1571        1622        1621
         4        1571        1572        1623        1622
         4        1572        1573        1624        1623
         4        1573        1574        1625        1624
         4        1574        1575        1626        1625
         4        1575        1576        1627        1626
         4        1576        1577        1628        1627
         4        1577        1578        1629        1628
         4        1578        1579        1630        1629
         4        1579        1580        1631        1630
         4        1581        1582        1633        1632
         4        1582        1583        1634        1633
         4        1583        1584        1635        1634
         4        1584        1585        1636        1635
         4        1585        1586        1637        1636
         4        1586        1587        1638        1637
         4        1587        1588        1639        1638
         4        1588        1589        1640        1639
         4        1589        1590        1641        1640
         4        1590        1591        1642        1641
         4        1591        1592        1643        1642
         4        1592        1593        1644        1643
         4        1593        1594        1645        1644
         4        1594        1595        1646        1645
         4        1595        1596        1647        1646
         4        1596        1597        1648        1647
         4        1597        1598        1649        1648
         4        1598        1599        1650        1649
         4        1599        1600        1651        1650
         4        1600        1601        1652        1651
         4        1601        1602        1653        1652
         4        1602        1603        1654        1653
         4        1603        1604        1655        1654
         4        1604        1605        1656        1655
         4        1605        1606        1657        1656
         4        1606        1607        1658        1657
         4        1607        1608        1659        1658
         4        1608        1609        1660        1659
         4        1609        1610        1661        1660
         4        1610        1611        1662        1661
         4        1611        1612        1663        1662
         4        1612        1613        1664        1663
         4        1613        1614        1665        1664
         4        1614        1615        1666        1665
         4        1615        1616        1667        1666
         4        1616        1617        1668        1667
         4        1617        1618        1669        1668
         4        1618        1619        1670        1669
         4        1619        1620        1671        1670
         4        1620        1621        1672        1671
         4        1621        1622        1673        1672
         4        1622        1623        1674        1673
         4        1623        1624        1675        1674
         4        1624        1625        1676        1675
         4        1625        1626        1677        1676
         4        1626        1627        1678        1677
         4        1627        1628        1679        1678
         4        1628        1629        1680        1679
         4        1629        1630        1681        1680
         4        1630        1631        1682        1681
         4        1632        1633        1684        1683
         4        1633        1634        1685        1684
         4        1634        1635        1686        1685
         4        1635        1636        1687        1686
         4        1636        1637        1688        1687
         4        1637        1638        1689        1688
         4        1638        1639        1690        1689
         4        1639        1640        1691        1690
         4        1640        1641        1692        1691
         4        1641        1642        1693        1692
         4        1642        1643        1694        1693
         4        1643        1644        1695        1694
         4        1644        1645        1696        1695
         4        1645        1646        1697        1696
         4        1646        1647        1698        1697
         4        1647        1648        1699        1698
         4        1648        1649        1700        1699
         4        1649        1650        1701        1700
         4        1650        1651        1702        1701
         4        1651        1652        1703        1702
         4        1652        1653        1704        1703
         4        1653        1654        1705        1704
         4        1654        1655        1706        1705
         4        1655        1656        1707        1706
         4        1656        1657        1708        1707
         4        1657        1658        1709        1708
         4        1658        1659        1710        1709
         4        1659        1660        1711        1710
         4        1660        1661        1712        1711
         4        1661        1662        1713        1712
         4        1662        1663        1714        1713
         4        1663        1664        1715        1714
         4        1664        1665        1716        1715
         4        1665        1666        1717        1716
         4        1666        1667        1718        1717
         4        1667        1668        1719        1718
         4        1668        1669        1720        1719
         4        1669        1670        1721        1720
         4        1670        1671        1722        1721
         4        1671        1672        1723        1722
         4        1672        1673        1724        1723
         4        1673        1674        1725        1724
         4        1674        1675        1726        1725
         4        1675        1676        1727        1726
         4        1676        1677        1728        1727
         4        1677        1678        1729        1728
         4        1678        1679        1730        1729
         4        1679        1680        1731        1730
         4        1680        1681        1732        1731
         4        1681        1682        1733        1732
         4        1683        1684        1735        1734
         4        1684        1685        1736        1735
         4        1685        1686        1737        1736
         4        1686        1687        1738        1737
         4        1687        1688        1739        1738
         4        1688        1689        1740        1739
         4        1689        1690        1741        1740
         4        1690        1691        1742        1741
         4        1691        1692        1743        1742
         4        1692        1693        1744        1743
         4        1693        1694        1745        1744
         4        1694        1695        1746        1745
         4        1695        1696        1747        1746
         4        1696        1697        1748        1747
         4        1697        1698        1749        1748
         4        1698        1699        1750        1749
         4        1699        1700        1751        1750
         4        1700        1701        1752        1751
         4        1701        1702        1753        1752
         4        1702        1703        1754        1753
         4        1703        1704        1755        1754
         4        1704        1705        1756        1755
         4        1705        1706        1757        1756
         4        1706        1707        1758        1757
         4        1707        1708        1759        1758
         4        1708        1709        1760        1759
         4        1709        1710        1761        1760
         4        1710        1711        1762        1761
         4        1711        1712        1763        1762
         4        1712        1713        1764        1763
         4        1713        1714        1765        1764
         4        1714        1715        1766        1765
         4        1715        1716        1767        1766
         4        1716        1717        1768        1767
         4        1717        1718        1769        1768
         4        1718        1719        1770        1769
         4        1719        1720        1771        1770
         4        1720        1721        1772        1771
         4        1721        1722        1773        1772
         4        1722        1723        1774        1773
         4        1723        1724        1775        1774
         4        1724        1725        1776        1775
         4        1725        1726        1777        1776
         4        1726        1727        1778        1777
         4        1727        1728        1779        1778
         4        1728        1729        1780        1779
         4        1729        1730        1781        1780
         4        1730        1731        1782        1781
         4        1731        1732        1783        1782
         4        1732        1733        1784        1783
         4        1734        1735        1786        1785
         4        1735        1736        1787        1786
         4        1736        1737        1788        1787
         4        1737        1738        1789        1788
         4        1738        1739        1790        1789
         4        1739        1740        1791        1790
         4        1740        1741        1792        1791
         4        1741        1742        1793        1792
         4        1742        1743        1794        1793
         4        1743        1744        1795        1794
         4        1744        1745        1796        1795
         4        1745        1746        1797        1796
         4        1746        1747        1798        1797
         4        1747        1748        1799        1798
         4        1748        1749        1800        1799
         4        1749        1750        1801        1800
         4        1750        1751        1802        1801
         4        1751        1752        1803        1802
         4        1752        1753        1804        1803
         4        1753        1754        1805        1804
         4        1754        1755        1806        1805
         4        1755        1756        1807        1806
         4        1756        1757        1808        1807
         4        1757        1758        1809        1808
         4        1758        1759        1810        1809
         4        1759        1760        1811        1810
         4        1760        1761        1812        1811
         4        1761        1762        1813        1812
         4        1762        1763        1814        1813
         4        1763        1764        1815        1814
         4        1764        1765        1816        1815
         4        1765        1766        1817        1816
         4        1766        1767        1818        1817
         4        1767        1768        1819        1818
         4        1768        1769        1820        1819
         4        1769        1770        1821        1820
         4        1770        1771        1822        1821
         4        1771        1772        1823        1822
         4        1772        1773        1824        1823
         4        1773        1774        1825        1824
         4        1774        1775        1826        1825
         4        1775        1776        1827        1826
         4        1776        1777        1828        1827
         4        1777        1778        1829        1828
         4        1778        1779        1830        1829
         4        1779        1780        1831        1830
         4        1780        1781        1832        1831
         4        1781        1782        1833        1832
         4        1782        1783        1834        1833
         4        1783        1784        1835        1834
         4        1785        1786        1837        1836
         4        1786        1787        1838        1837
         4        1787        1788        1839        1838
         4        1788        1789        1840        1839
         4        1789        1790        1841        1840
         4        1790        1791        1842        1841
         4        1791        1792        1843        1842
         4        1792        1793        1844        1843
         4        1793        1794        1845        1844
         4        1794        1795        1846        1845
         4        1795        1796        1847        1846
         4        1796        1797        1848        1847
         4        1797        1798        1849        1848
         4        1798        1799        1850        1849
         4        1799        1800        1851        1850
         4        1800        1801        1852        1851
         4        1801        1802        1853        1852
         4        1802        1803        1854        1853
         4        1803        1804        1855        1854
         4        1804        1805        1856        1855
         4        1805        1806        1857        1856
         4        1806        1807        1858        1857
         4        1807        1808        1859        1858
         4        1808        1809        1860        1859
         4        1809        1810        1861        1860
         4        1810        1811        1862        1861
         4        1811        1812        1863        1862
         4        1812        1813        1864        1863
         4        1813        1814        1865        1864
         4        1814        1815        1866        1865
         4        1815        1816        1867        1866
         4        1816        1817        1868        1867
         4        1817        1818        1869        1868
         4        1818        1819        1870        1869
         4        1819        1820        1871        1870
         4        1820        1821        1872        1871
         4        1821        1822        1873        1872
         4        1822        1823        1874        1873
         4        1823        1824        1875        1874
         4        1824        1825        1876        1875
         4        1825        1826        1877        1876
         4        1826        1827        1878        1877
         4        1827        1828        1879        1878
         4        1828        1829        1880        1879
         4        1829        1830        1881        1880
         4        1830        1831        1882        1881
         4        1831        1832        1883        1882
         4        1832        1833        1884        1883
         4        1833        1834        1885        1884
         4        1834        1835        1886        1885
         4        1836        1837        1888        1887
         4        1837        1838        1889        1888
         4        1838        1839        1890        1889
         4        1839        1840        1891        1890
         4        1840        1841        1892        1891
         4        1841        1842        1893        1892
         4        1842        1843        1894        1893
         4        1843        1844        1895        1894
         4        1844        1845        1896        1895
         4        1845        1846        1897        1896
         4        1846        1847        1898        1897
         4        1847        1848        1899        1898
         4        1848        1849        1900        1899
         4        1849        1850        1901        1900
         4        1850        1851        1902        1901
         4        1851        1852        1903        1902
         4        1852        1853        1904        1903
         4        1853        1854        1905        1904
         4        1854        1855        1906        1905
         4        1855        1856        1907        1906
         4        1856        1857        1908        1907
         4        1857        1858        1909        1908
         4        1858        1859        1910        1909
         4        1859        1860        1911        1910
         4        1860        1861        1912        1911
         4        1861        1862        1913        1912
         4        1862        1863        1914        1913
         4        1863        1864        1915        1914
         4        1864        1865        1916        1915
         4        1865        1866        1917        1916
         4        1866        1867        1918        1917
         4        1867        1868        1919        1918
         4        1868        1869        1920        1919
         4        1869        1870        1921        1920
         4        1870        1871        1922        1921
         4        1871        1872        1923        1922
         4        1872        1873        1924        1923
         4        1873        1874        1925        1924
         4        1874        1875        1926        1925
         4        1875        1876        1927        1926
         4        1876        1877        1928        1927
         4        1877        1878        1929        1928
         4        1878        1879        1930        1929
         4        1879        1880        1931        1930
         4        1880        1881        1932        1931
         4        1881        1882        1933        1932
         4        1882        1883        1934        1933
         4        1883        1884        1935        1934
         4        1884        1885        1936        1935
         4        1885        1886        1937        1936
         4        1887        1888        1939        1938
         4        1888        1889        1940        1939
         4        1889        1890        1941        1940
         4        1890        1891        1942        1941
         4        1891        1892        1943        1942
         4        1892        1893        1944        1943
         4        1893        1894        1945        1944
         4        1894        1895        1946        1945
         4        1895        1896        1947        1946
         4        1896        1897        1948        1947
         4        1897        1898        1949        1948
         4        1898        1899        1950        1949
         4        1899        1900        1951        1950
         4        1900        1901        1952        1951
         4        1901        1902        1953        1952
         4        1902        1903        1954        1953
         4        1903        1904        1955        1954
         4        1904        1905        1956        1955
         4        1905        1906        1957        1956
         4        1906        1907        1958        1957
         4        1907        1908        1959        1958
         4        1908        1909        1960        1959
         4        1909        1910        1961        1960
         4        1910        1911        1962        1961
         4        1911        1912        1963        1962
         4        1912        1913        1964        1963
         4        1913        1914        1965        1964
         4        1914        1915        1966        1965
         4        1915        1916        1967        1966
         4        1916        1917        1968        1967
         4        1917        1918        1969        1968
         4        1918        1919        1970        1969
         4        1919        1920        1971        1970
         4        1920        1921        1972        1971
         4        1921        1922        1973        1972
         4        1922        1923        1974        1973
         4        1923        1924        1975        1974
         4        1924        1925        1976        1975
         4        1925        1926        1977        1976
         4        1926        1927        1978        1977
         4        1927        1928        1979        1978
         4        1928        1929        1980        1979
         4        1929        1930        1981        1980
         4        1930        1931        1982        1981
         4        1931        1932        1983        1982
         4        1932        1933        1984        1983
         4        1933        1934        1985        1984
         4        1934        1935        1986        1985
         4        1935        1936        1987        1986
         4        1936        1937        1988        1987
         4        1938        1939        1990        1989
         4        1939        1940        1991        1990
         4        1940        1941        1992        1991
         4        1941        1942        1993        1992
         4        1942        1943        1994        1993
         4        1943        1944        1995        1994
         4        1944        1945        1996        1995
         4        1945        1946        1997        1996
         4        1946        1947        1998        1997
         4        1947        1948        1999        1998
         4        1948        1949        2000        1999
         4        1949        1950        2001        2000
         4        1950        1951        2002        2001
         4        1951        1952        2003        2002
         4        1952        1953        2004        2003
         4        1953        1954        2005        2004
         4        1954        1955        2006        2005
         4        1955        1956        2007        2006
         4        1956        1957        2008        2007
         4        1957        1958        2009        2008
         4        1958        1959        2010        2009
         4        1959        1960        2011        2010
         4        1960        1961        2012        2011
         4        1961        1962        2013        2012
         4        1962        1963        2014        2013
         4        1963        1964        2015        2014
         4        1964        1965        2016        2015
         4        1965        1966        2017        2016
         4        1966        1967        2018        2017
         4        1967        1968        2019        2018
         4        1968        1969        2020        2019
         4        1969        1970        2021        2020
         4        1970        1971        2022        2021
         4        1971        1972        2023        2022
         4        1972        1973        2024        2023
         4        1973        1974        2025        2024
         4        1974        1975        2026        2025
         4        1975        1976        2027        2026
         4        1976        1977        2028        2027
         4        1977        1978        2029        2028
         4        1978        1979        2030        2029
         4        1979        1980        2031        2030
         4        1980        1981        2032        2031
         4        1981        1982        2033        2032
         4        1982        1983        2034        2033
         4        1983        1984        2035        2034
         4        1984        1985        2036        2035
         4        1985        1986        2037        2036
         4        1986        1987        2038        2037
         4        1987        1988        2039        2038
         4        1989        1990        2041        2040
         4        1990        1991        2042        2041
         4        1991        1992        2043        2042
         4        1992        1993        2044        2043
         4        1993        1994        2045        2044
         4        1994        1995        2046        2045
         4        1995        1996        2047        2046
         4        1996        1997        2048        2047
         4        1997        1998        2049        2048
         4        1998        1999        2050        2049
         4        1999        2000        2051        2050
         4        2000        2001        2052        2051
         4        2001        2002        2053        2052
         4        2002        2003        2054        2053
         4        2003        2004        2055        2054
         4        2004        2005        2056        2055
         4        2005        2006        2057        2056
         4        2006        2007        2058        2057
         4        2007        2008        2059        2058
         4        2008        2009        2060        2059
         4        2009        2010        2061        2060
         4        2010        2011        2062        2061
         4        2011        2012        2063        2062
         4        2012        2013        2064        2063
         4        2013        2014        2065        2064
         4        2014        2015        2066        2065
         4        2015        2016        2067        2066
         4        2016        2017        2068        2067
         4        2017        2018        2069        2068
         4        2018        2019        2070        2069
         4        2019        2020        2071        2070
         4        2020        2021        2072        2071
         4        2021        2022        2073        2072
         4        2022        2023        2074        2073
         4        2023        2024        2075        2074
         4        2024        2025        2076        2075
         4        2025        2026        2077        2076
         4        2026        2027        2078        2077
         4        2027        2028        2079        2078
         4        2028        2029        2080        2079
         4        2029        2030        2081        2080
         4        2030        2031        2082        2081
         4        2031        2032        2083        2082
         4        2032        2033        2084        2083
         4        2033        2034        2085        2084
         4        2034        2035        2086        2085
         4        2035        2036        2087        2086
         4        2036        2037        2088        2087
         4        2037        2038        2089        2088
         4        2038        2039        2090        2089
         4        2040        2041        2092        2091
         4        2041        2042        2093        2092
         4        2042        2043        2094        2093
         4        2043        2044        2095        2094
         4        2044        2045        2096        2095
         4        2045        2046        2097        2096
         4        2046        2047        2098        2097
         4        2047        2048        2099        2098
         4        2048        2049        2100        2099
         4        2049        2050        2101        2100
         4        2050        2051        2102        2101
         4        2051        2052        2103        2102
         4        2052        2053        2104        2103
         4        2053        2054        2105        2104
         4        2054        2055        2106        2105
         4        2055        2056        2107        2106
         4        2056        2057        2108        2107
         4        2057        2058        2109        2108
         4        2058        2059        2110        2109
         4        2059        2060        2111        2110
         4        2060        2061        2112        2111
         4        2061        2062        2113        2112
         4        2062        2063        2114        2113
         4        2063        2064        2115        2114
         4        2064        2065        2116        2115
         4        2065        2066        2117        2116
         4        2066        2067        2118        2117
         4        2067        2068        2119        2118
         4        2068        2069        2120        2119
         4        2069        2070        2121        2120
         4        2070        2071        2122        2121
         4        2071        2072        2123        2122
         4        2072        2073        2124        2123
         4        2073        2074        2125        2124
         4        2074        2075        2126        2125
         4        2075        2076        2127        2126
         4        2076        2077        2128        2127
         4        2077        2078        2129        2128
         4        2078        2079        2130        2129
         4        2079        2080        2131        2130
         4        2080        2081        2132        2131
         4        2081        2082        2133        2132
         4        2082        2083        2134        2133
         4        2083        2084        2135        2134
         4        2084        2085        2136        2135
         4        2085        2086        2137        2136
         4        2086        2087        2138        2137
         4        2087        2088        2139        2138
         4        2088        2089        2140        2139
         4        2089        2090        2141        2140
         4        2091        2092        2143        2142
         4        2092        2093        2144        2143
         4        2093        2094        2145        2144
         4        2094        2095        2146        2145
         4        2095        2096        2147        2146
         4        2096        2097        2148        2147
         4        2097        2098        2149        2148
         4        2098        2099        2150        2149
         4        2099        2100        2151        2150
         4        2100        2101        2152        2151
         4        2101        2102        2153        2152
         4        2102        2103        2154        2153
         4        2103        2104        2155        2154
         4        2104        2105        2156        2155
         4        2105        2106        2157        2156
         4        2106        2107        2158        2157
         4        2107        2108        2159        2158
         4        2108        2109        2160        2159
         4        2109        2110        2161        2160
         4        2110        2111        2162        2161
         4        2111        2112        2163        2162
         4        2112        2113        2164        2163
         4        2113        2114        2165        2164
         4        2114        2115        2166        2165
         4        2115        2116        2167        2166
         4        2116        2117        2168        2167
         4        2117        2118        2169        2168
         4        2118        2119        2170        2169
         4        2119        2120        2171        2170
         4        2120        2121        2172        2171
         4        2121        2122        2173        2172
         4        2122        2123        2174        2173
         4        2123        2124        2175        2174
         4        2124        2125        2176        2175
         4        2125        2126        2177        2176
         4        2126        2127        2178        2177
         4        2127        2128        2179        2178
         4        2128        2129        2180        2179
         4        2129        2130        2181        2180
         4        2130        2131        2182        2181
         4        2131        2132        2183        2182
         4        2132        2133        2184        2183
         4        2133        2134        2185        2184
         4        2134        2135        2186        2185
         4        2135        2136        2187        2186
         4        2136        2137        2188        2187
         4        2137        2138        2189        2188
         4        2138        2139        2190        2189
         4        2139        2140        2191        2190
         4        2140        2141        2192        2191
         4        2142        2143        2194        2193
         4        2143        2144        2195        2194
         4        2144        2145        2196        2195
         4        2145        2146        2197        2196
         4        2146        2147        2198        2197
         4        2147        2148        2199        2198
         4        2148        2149        2200        2199
         4        2149        2150        2201        2200
         4        2150        2151        2202        2201
         4        2151        2152        2203        2202
         4        2152        2153        2204        2203
         4        2153        2154        2205        2204
         4        2154        2155        2206        2205
         4        2155        2156        2207        2206
         4        2156        2157        2208        2207
         4        2157        2158        2209        2208
         4        2158        2159        2210        2209
         4        2159        2160        2211        2210
         4        2160        2161        2212        2211
         4        2161        2162        2213        2212
         4        2162        2163        2214        2213
         4        2163        2164        2215        2214
         4        2164        2165        2216        2215
         4        2165        2166        2217        2216
         4        2166        2167        2218        2217
         4        2167        2168        2219        2218
         4        2168        2169        2220        2219
         4        2169        2170        2221        2220
         4        2170        2171        2222        2221
         4        2171        2172        2223        2222
         4        2172        2173        2224        2223
         4        2173        2174        2225        2224
         4        2174        2175        2226        2225
         4        2175        2176        2227        2226
         4        2176        2177        2228        2227
         4        2177        2178        2229        2228
         4        2178        2179        2230        2229
         4        2179        2180        2231        2230
         4        2180        2181        2232        2231
         4        2181        2182        2233        2232
         4        2182        2183        2234        2233
         4        2183        2184        2235        2234
         4        2184        2185        2236        2235
         4        2185        2186        2237        2236
         4        2186        2187        2238        2237
         4        2187        2188        2239        2238
         4        2188        2189        2240        2239
         4        2189        2190        2241        2240
         4        2190        2191        2242        2241
         4        2191        2192        2243        2242
         4        2193        2194        2245        2244
         4        2194        2195        2246        2245
         4        2195        2196        2247        2246
         4        2196        2197        2248        2247
         4        2197        2198        2249        2248
         4        2198        2199        2250        2249
         4        2199        2200        2251        2250
         4        2200        2201        2252        2251
         4        2201        2202        2253        2252
         4        2202        2203        2254        2253
         4        2203        2204        2255        2254
         4        2204        2205        2256        2255
         4        2205        2206        2257        2256
         4        2206        2207        2258        2257
         4        2207        2208        2259        2258
         4        2208        2209        2260        2259
         4        2209        2210        2261        2260
         4        2210        2211        2262        2261
         4        2211        2212        2263        2262
         4        2212        2213        2264        2263
         4        2213        2214        2265        2264
         4        2214        2215        2266        2265
         4        2215        2216        2267        2266
         4        2216        2217        2268        2267
         4        2217        2218        2269        2268
         4        2218        2219        2270        2269
         4        2219        2220        2271        2270
         4        2220        2221        2272        2271
         4        2221        2222        2273        2272
         4        2222        2223        2274        2273
         4        2223        2224        2275        2274
         4        2224        2225        2276        2275
         4        2225        2226        2277        2276
         4        2226        2227        2278        2277
         4        2227        2228        2279        2278
         4        2228        2229        2280        2279
         4        2229        2230        2281        2280
         4        2230        2231        2282        2281
         4        2231        2232        2283        2282
         4        2232        2233        2284        2283
         4        2233        2234        2285        2284
         4        2234        2235        2286        2285
         4        2235        2236        2287        2286
         4        2236        2237        2288        2287
         4        2237        2238        2289        2288
         4        2238        2239        2290        2289
         4        2239        2240        2291        2290
         4        2240        2241        2292        2291
         4        2241        2242        2293        2292
         4        2242        2243        2294        2293
         4        2244        2245        2296        2295
         4        2245        2246        2297        2296
         4        2246        2247        2298        2297
         4        2247        2248        2299        2298
         4        2248        2249        2300        2299
         4        2249        2250        2301        2300
         4        2250        2251        2302        2301
         4        2251        2252        2303        2302
         4        2252        2253        2304        2303
         4        2253        2254        2305        2304
         4        2254        2255        2306        2305
         4        2255        2256        2307        2306
         4        2256        2257        2308        2307
         4        2257        2258        2309        2308
         4        2258        2259        2310        2309
         4        2259        2260        2311        2310
         4        2260        2261        2312        2311
         4        2261        2262        2313        2312
         4        2262        2263        2314        2313
         4        2263        2264        2315        2314
         4        2264        2265        2316        2315
         4        2265        2266        2317        2316
         4        2266        2267        2318        2317
         4        2267        2268        2319        2318
         4        2268        2269        2320        2319
         4        2269        2270        2321        2320
         4        2270        2271        2322        2321
         4        2271        2272        2323        2322
         4        2272        2273        2324        2323
         4        2273        2274        2325        2324
         4        2274        2275        2326        2325
         4        2275        2276        2327        2326
         4        2276        2277        2328        2327
         4        2277        2278        2329        2328
         4        2278        2279        2330        2329
         4        2279        2280        2331        2330
         4        2280        2281        2332        2331
         4        2281        2282        2333        2332
         4        2282        2283        2334        2333
         4        2283        2284        2335        2334
         4        2284        2285        2336        2335
         4        2285        2286        2337        2336
         4        2286        2287        2338        2337
         4        2287        2288        2339        2338
         4        2288        2289        2340        2339
         4        2289        2290        2341        2340
         4        2290        2291        2342        2341
         4        2291        2292        2343        2342
         4        2292        2293        2344        2343
         4        2293        2294        2345        2344
         4        2295        2296        2347        2346
         4        2296        2297        2348        2347
         4        2297        2298        2349        2348
         4        2298        2299        2350        2349
         4        2299        2300        2351        2350
         4        2300        2301        2352        2351
         4        2301        2302        2353        2352
         4        2302        2303        2354        2353
         4        2303        2304        2355        2354
         4        2304        2305        2356        2355
         4        2305        2306        2357        2356
         4        2306        2307        2358        2357
         4        2307        2308        2359        2358
         4        2308        2309        2360        2359
         4        2309        2310        2361        2360
         4        2310        2311        2362        2361
         4        2311        2312        2363        2362
         4        2312        2313        2364        2363
         4        2313        2314        2365        2364
         4        2314        2315        2366        2365
         4        2315        2316        2367        2366
         4        2316        2317        2368        2367
         4        2317        2318        2369        2368
         4        2318        2319        2370        2369
         4        2319        2320        2371        2370
         4        2320        2321        2372        2371
         4        2321        2322        2373        2372
         4        2322        2323        2374        2373
         4        2323        2324        2375        2374
         4        2324        2325        2376        2375
         4        2325        2326        2377        2376
         4        2326        2327        2378        2377
         4        2327        2328        2379        2378
         4        2328        2329        2380        2379
         4        2329        2330        2381        2380
         4        2330        2331        2382        2381
         4        2331        2332        2383        2382
         4        2332        2333        2384        2383
         4        2333        2334        2385        2384
         4        2334        2335        2386        2385
         4        2335        2336        2387        2386
         4        2336        2337        2388        2387
         4        2337        2338        2389        2388
         4        2338        2339        2390        2389
         4        2339        2340        2391        2390
         4        2340        2341        2392        2391
         4        2341        2342        2393        2392
         4        2342        2343        2394        2393
         4        2343        2344        2395        2394
         4        2344        2345        2396        2395
         4        2346        2347        2398        2397
         4        2347        2348        2399        2398
         4        2348        2349        2400        2399
         4        2349        2350        2401        2400
         4        2350        2351        2402        2401
         4        2351        2352        2403        2402
         4        2352        2353        2404        2403
         4        2353        2354        2405        2404
         4        2354        2355        2406        2405
         4        2355        2356        2407        2406
         4        2356        2357        2408        2407
         4        2357        2358        2409        2408
         4        2358        2359        2410        2409
         4        2359        2360        2411        2410
         4        2360        2361        2412        2411
         4        2361        2362        2413        2412
         4        2362        2363        2414        2413
         4        2363        2364        2415        2414
         4        2364        2365        2416        2415
         4        2365        2366        2417        2416
         4        2366        2367        2418        2417
         4        2367        2368        2419        2418
         4        2368        2369        2420        2419
         4        2369        2370        2421        2420
         4        2370        2371        2422        2421
         4        2371        2372        2423        2422
         4        2372        2373        2424        2423
         4        2373        2374        2425        2424
         4        2374        2375        2426        2425
         4        2375        2376        2427        2426
         4        2376        2377        2428        2427
         4        2377        2378        2429        2428
         4        2378        2379        2430        2429
         4        2379        2380        2431        2430
         4        2380        2381        2432        2431
         4        2381        2382        2433        2432
         4        2382        2383        2434        2433
         4        2383        2384        2435        2434
         4        2384        2385        2436        2435
         4        2385        2386        2437        2436
         4        2386        2387        2438        2437
         4        2387        2388        2439        2438
         4        2388        2389        2440        2439
         4        2389        2390        2441        2440
         4        2390        2391        2442        2441
         4        2391        2392        2443        2442
         4        2392        2393        2444        2443
         4        2393        2394        2445        2444
         4        2394        2395        2446        2445
         4        2395        2396        2447        2446
         4        2397        2398        2449        2448
         4        2398        2399        2450        2449
         4        2399        2400        2451        2450
         4        2400        2401        2452        2451
         4        2401        2402        2453        2452
         4        2402        2403        2454        2453
         4        2403        2404        2455        2454
         4        2404        2405        2456        2455
         4        2405        2406        2457        2456
         4        2406        2407        2458        2457
         4        2407        2408        2459        2458
         4        2408        2409        2460        2459
         4        2409        2410        2461        2460
         4        2410        2411        2462        2461
         4        2411        2412        2463        2462
         4        2412        2413        2464        2463
         4        2413        2414        2465        2464
         4        2414        2415        2466        2465
         4        2415        2416        2467        2466
         4        2416        2417        2468        2467
         4        2417        2418        2469        2468
         4        2418        2419        2470        2469
         4        2419        2420        2471        2470
         4        2420        2421        2472        2471
         4        2421        2422        2473        2472
         4        2422        2423        2474        2473
         4        2423        2424        2475        2474
         4        2424        2425        2476        2475
         4        2425        2426        2477        2476
         4        2426        2427        2478        2477
         4        2427        2428        2479        2478
         4        2428        2429        2480        2479
         4        2429        2430        2481        2480
         4        2430        2431        2482        2481
         4        2431        2432        2483        2482
         4        2432        2433        2484        2483
         4        2433        2434        2485        2484
         4        2434        2435        2486        2485
         4        2435        2436        2487        2486
         4        2436        2437        2488        2487
         4        2437        2438        2489        2488
         4        2438        2439        2490        2489
         4        2439        2440        2491        2490
         4        2440        2441        2492        2491
         4        2441        2442        2493        2492
         4        2442        2443        2494        2493
         4        2443        2444        2495        2494
         4        2444        2445        2496        2495
         4        2445        2446        2497        2496
         4        2446        2447        2498        2497
         4        2448        2449        2500        2499
         4        2449        2450        2501        2500
         4        2450        2451        2502        2501
         4        2451        2452        2503        2502
         4        2452        2453        2504        2503
         4        2453        2454        2505        2504
         4        2454        2455        2506        2505
         4        2455        2456        2507        2506
         4        2456        2457        2508        2507
         4        2457        2458        2509        2508
         4        2458        2459        2510        2509
         4        2459        2460        2511        2510
         4        2460        2461        2512        2511
         4        2461        2462        2513        2512
         4        2462        2463        2514        2513
         4        2463        2464        2515        2514
         4        2464        2465        2516        2515
         4        2465        2466        2517        2516
         4        2466        2467        2518        2517
         4        2467        2468        2519        2518
         4        2468        2469        2520        2519
         4        2469        2470        2521        2520
         4        2470        2471        2522        2521
         4        2471        2472        2523        2522
         4        2472        2473        2524        2523
         4        2473        2474        2525        2524
         4        2474        2475        2526        2525
         4        2475        2476        2527        2526
         4        2476        2477        2528        2527
         4        2477        2478        2529        2528
         4        2478        2479        2530        2529
         4        2479        2480        2531        2530
         4        2480        2481        2532        2531
         4        2481        2482        2533        2532
         4        2482        2483        2534        2533
         4        2483        2484        2535        2534
         4        2484        2485        2536        2535
         4        2485        2486        2537        2536
         4        2486        2487        2538        2537
         4        2487        2488        2539        2538
         4        2488        2489        2540        2539
         4        2489        2490        2541        2540
         4        2490        2491        2542        2541
         4        2491        2492        2543        2542
         4        2492        2493        2544        2543
         4        2493        2494        2545        2544
         4        2494        2495        2546        2545
         4        2495        2496        2547        2546
         4        2496        2497        2548        2547
         4        2497        2498        2549        2548
         4        2499        2500        2551        2550
         4        2500        2501        2552        2551
         4        2501        2502        2553        2552
         4        2502        2503        2554        2553
         4        2503        2504        2555        2554
         4        2504        2505        2556        2555
         4        2505        2506        2557        2556
         4        2506        2507        2558        2557
         4        2507        2508        2559        2558
         4        2508        2509        2560        2559
         4        2509        2510        2561        2560
         4        2510        2511        2562        2561
         4        2511        2512        2563        2562
         4        2512        2513        2564        2563
         4        2513        2514        2565        2564
         4        2514        2515        2566        2565
         4        2515        2516        2567        2566
         4        2516        2517        2568        2567
         4        2517        2518        2569        2568
         4        2518        2519        2570        2569
         4        2519        2520        2571        2570
         4        2520        2521        2572        2571
         4        2521        2522        2573        2572
         4        2522        2523        2574        2573
         4        2523        2524        2575        2574
         4        2524        2525        2576        2575
         4        2525        2526        2577        2576
         4        2526        2527        2578        2577
         4        2527        2528        2579        2578
         4        2528        2529        2580        2579
         4        2529        2530        2581        2580
         4        2530        2531        2582        2581
         4        2531        2532        2583        2582
         4        2532        2533        2584        2583
         4        2533        2534        2585        2584
         4        2534        2535        2586        2585
         4        2535        2536        2587        2586
         4        2536        2537        2588        2587
         4        2537        2538        2589        2588
         4        2538        2539        2590        2589
         4        2539        2540        2591        2590
         4        2540        2541        2592        2591
         4        2541        2542        2593        2592
         4        2542        2543        2594        2593
         4        2543        2544        2595        2594
         4        2544        2545        2596        2595
         4        2545        2546        2597        2596
         4        2546        2547        2598        2597
         4        2547        2548        2599        2598
         4        2548        2549        2600        2599
         4        2550        2551        2602        2601
         4        2551        2552        2603        2602
         4        2552        2553        2604        2603
         4        2553        2554        2605        2604
         4        2554        2555        2606        2605
         4        2555        2556        2607        2606
         4        2556        2557        2608        2607
         4        2557        2558        2609        2608
         4        2558        2559        2610        2609
         4        2559        2560        2611        2610
         4        2560        2561        2612        2611
         4        2561        2562        2613        2612
         4        2562        2563        2614        2613
         4        2563        2564        2615        2614
         4        2564        2565        2616        2615
         4        2565        2566        2617        2616
         4        2566        2567        2618        2617
         4        2567        2568        2619        2618
         4        2568        2569        2620        2619
         4        2569        2570        2621        2620
         4        2570        2571        2622        2621
         4        2571        2572        2623        2622
         4        2572        2573        2624        2623
         4        2573        2574        2625        2624
         4        2574        2575        2626        2625
         4        2575        2576        2627        2626
         4        2576        2577        2628        2627
         4        2577        2578        2629        2628
         4        2578        2579        2630        2629
         4        2579        2580        2631        2630
         4        2580        2581        2632        2631
         4        2581        2582        2633        2632
         4        2582        2583        2634        2633
         4        2583        2584        2635        2634
         4        2584        2585        2636        2635
         4        2585        2586        2637        2636
         4        2586        2587        2638        2637
         4        2587        2588        2639        2638
         4        2588        2589        2640        2639
         4        2589        2590        2641        2640
         4        2590        2591        2642        2641
         4        2591        2592        2643        2642
         4        2592        2593        2644        2643
         4        2593        2594        2645        2644
         4        2594        2595        2646        2645
         4        2595        2596        2647        2646
         4        2596        2597        2648        2647
         4        2597        2598        2649        2648
         4        2598        2599        2650        2649
         4        2599        2600        2651        2650
         4        2601        2602        2653        2652
         4        2602        2603        2654        2653
         4        2603        2604        2655        2654
         4        2604        2605        2656        2655
         4        2605        2606        2657        2656
         4        2606        2607        2658        2657
         4        2607        2608        2659        2658
         4        2608        2609        2660        2659
         4        2609        2610        2661        2660
         4        2610        2611        2662        2661
         4        2611        2612        2663        2662
         4        2612        2613        2664        2663
         4        2613        2614        2665        2664
         4        2614        2615        2666        2665
         4        2615        2616        2667        2666
         4        2616        2617        2668        2667
         4        2617        2618        2669        2668
         4        2618        2619        2670        2669
         4        2619        2620        2671        2670
         4        2620        2621        2672        2671
         4        2621        2622        2673        2672
         4        2622        2623        2674        2673
         4        2623        2624        2675        2674
         4        2624        2625        2676        2675
         4        2625        2626        2677        2676
         4        2626        2627        2678        2677
         4        2627        2628        2679        2678
         4        2628        2629        2680        2679
         4        2629        2630        2681        2680
         4        2630        2631        2682        2681
         4        2631        2632        2683        2682
         4        2632        2633        2684        2683
         4        2633        2634        2685        2684
         4        2634        2635        2686        2685
         4        2635        2636        2687        2686
         4        2636        2637        2688        2687
         4        2637        2638        2689        2688
         4        2638        2639        2690        2689
         4        2639        2640        2691        2690
         4        2640        2641        2692        2691
         4        2641        2642        2693        2692
         4        2642        2643        2694        2693
         4        2643        2644        2695        2694
         4        2644        2645        2696        2695
         4        2645        2646        2697        2696
         4        2646        2647        2698        2697
         4        2647        2648        2699        2698
         4        2648        2649        2700        2699
         4        2649        2650        2701        2700
         4        2650        2651        2702        2701
         4        2652        2653        2704        2703
         4        2653        2654        2705        2704
         4        2654        2655        2706        2705
         4        2655        2656        2707        2706
         4        2656        2657        2708        2707
         4        2657        2658        2709        2708
         4        2658        2659        2710        2709
         4        2659        2660        2711        2710
         4        2660        2661        2712        2711
         4        2661        2662        2713        2712
         4        2662        2663        2714        2713
         4        2663        2664        2715        2714
         4        2664        2665        2716        2715
         4        2665        2666        2717        2716
         4        2666        2667        2718        2717
         4        2667        2668        2719        2718
         4        2668        2669        2720        2719
         4        2669        2670        2721        2720
         4        2670        2671        2722        2721
         4        2671        2672        2723        2722
         4        2672        2673        2724        2723
         4        2673        2674        2725        2724
         4        2674        2675        2726        2725
         4        2675        2676        2727        2726
         4        2676        2677        2728        2727
         4        2677        2678        2729        2728
         4        2678        2679        2730        2729
         4        2679        2680        2731        2730
         4        2680        2681        2732        2731
         4        2681        2682        2733        2732
         4        2682        2683        2734        2733
         4        2683        2684        2735        2734
         4        2684        2685        2736        2735
         4        2685        2686        2737        2736
         4        2686        2687        2738        2737
         4        2687        2688        2739        2738
         4        2688        2689        2740        2739
         4        2689        2690        2741        2740
         4        2690        2691        2742        2741
         4        2691        2692        2743        2742
         4        2692        2693        2744        2743
         4        2693        2694        2745        2744
         4        2694        2695        2746        2745
         4        2695        2696        2747        2746
         4        2696        2697        2748        2747
         4        2697        2698        2749        2748
         4        2698        2699        2750        2749
         4        2699        2700        2751        2750
         4        2700        2701        2752        2751
         4        2701        2702        2753        2752
         4        2703        2704        2755        2754
         4        2704        2705        2756        2755
         4        2705        2706        2757        2756
         4        2706        2707        2758        2757
         4        2707        2708        2759        2758
         4        2708        2709        2760        2759
         4        2709        2710        2761        2760
         4        2710        2711        2762        2761
         4        2711        2712        2763        2762
         4        2712        2713        2764        2763
         4        2713        2714        2765        2764
         4        2714        2715        2766        2765
         4        2715        2716        2767        2766
         4        2716        2717        2768        2767
         4        2717        2718        2769        2768
         4        2718        2719        2770        2769
         4        2719        2720        2771        2770
         4        2720        2721        2772        2771
         4        2721        2722        2773        2772
         4        2722        2723        2774        2773
         4        2723        2724        2775        2774
         4        2724        2725        2776        2775
         4        2725        2726        2777        2776
         4        2726        2727        2778        2777
         4        2727        2728        2779        2778
         4        2728        2729        2780        2779
         4        2729        2730        2781        2780
         4        2730        2731        2782        2781
         4        2731        2732        2783        2782
         4        2732        2733        2784        2783
         4        2733        2734        2785        2784
         4        2734        2735        2786        2785
         4        2735        2736        2787        2786
         4        2736        2737        2788        2787
         4        2737        2738        2789        2788
         4        2738        2739        2790        2789
         4        2739        2740        2791        2790
         4        2740        2741        2792        2791
         4        2741        2742        2793        2792
         4        2742        2743        2794        2793
         4        2743        2744        2795        2794
         4        2744        2745        2796        2795
         4        2745        2746        2797        2796
         4        2746        2747        2798        2797
         4        2747        2748        2799        2798
         4        2748        2749        2800        2799
         4        2749        2750        2801        2800
         4        2750        2751        2802        2801
         4        2751        2752        2803        2802
         4        2752        2753        2804        2803
         4        2754        2755        2806        2805
         4        2755        2756        2807        2806
         4        2756        2757        2808        2807
         4        2757        2758        2809        2808
         4        2758        2759        2810        2809
         4        2759        2760        2811        2810
         4        2760        2761        2812        2811
         4        2761        2762        2813        2812
         4        2762        2763        2814        2813
         4        2763        2764        2815        2814
         4        2764        2765        2816        2815
         4        2765        2766        2817        2816
         4        2766        2767        2818        2817
         4        2767        2768        2819        2818
         4        2768        2769        2820        2819
         4        2769        2770        2821        2820
         4        2770        2771        2822        2821
         4        2771        2772        2823        2822
         4        2772        2773        2824        2823
         4        2773        2774        2825        2824
         4        2774        2775        2826        2825
         4        2775        2776        2827        2826
         4        2776        2777        2828        2827
         4        2777        2778        2829        2828
         4        2778        2779        2830        2829
         4        2779        2780        2831        2830
         4        2780        2781        2832        2831
         4        2781        2782        2833        2832
         4        2782        2783        2834        2833
         4        2783        2784        2835        2834
         4        2784        2785        2836        2835
         4        2785        2786        2837        2836
         4        2786        2787        2838        2837
         4        2787        2788        2839        2838
         4        2788        2789        2840        2839
         4        2789        2790        2841        2840
         4        2790        2791        2842        2841
         4        2791        2792        2843        2842
         4        2792        2793        2844        2843
         4        2793        2794        2845        2844
         4        2794        2795        2846        2845
         4        2795        2796        2847        2846
         4        2796        2797        2848        2847
         4        2797        2798        2849        2848
         4        2798        2799        2850        2849
         4        2799        2800        2851        2850
         4        2800        2801        2852        2851
         4        2801        2802        2853        2852
         4        2802        2803        2854        2853
         4        2803        2804        2855        2854
         4        2805        2806        2857        2856
         4        2806        2807        2858        2857
         4        2807        2808        2859        2858
         4        2808        2809        2860        2859
         4        2809        2810        2861        2860
         4        2810        2811        2862        2861
         4        2811        2812        2863        2862
         4        2812        2813        2864        2863
         4        2813        2814        2865        2864
         4        2814        2815        2866        2865
         4        2815        2816        2867        2866
         4        2816        2817        2868        2867
         4        2817        2818        2869        2868
         4        2818        2819        2870        2869
         4        2819        2820        2871        2870
         4        2820        2821        2872        2871
         4        2821        2822        2873        2872
         4        2822        2823        2874        2873
         4        2823        2824        2875        2874
         4        2824        2825        2876        2875
         4        2825        2826        2877        2876
         4        2826        2827        2878        2877
         4        2827        2828        2879        2878
         4        2828        2829        2880        2879
         4        2829        2830        2881        2880
         4        2830        2831        2882        2881
         4        2831        2832        2883        2882
         4        2832        2833        2884        2883
         4        2833        2834        2885        2884
         4        2834        2835        2886        2885
         4        2835        2836        2887        2886
         4        2836        2837        2888        2887
         4        2837        2838        2889        2888
         4        2838        2839        2890        2889
         4        2839        2840        2891        2890
         4        2840        2841        2892        2891
         4        2841        2842        2893        2892
         4        2842        2843        2894        2893
         4        2843        2844        2895        2894
         4        2844        2845        2896        2895
         4        2845        2846        2897        2896
         4        2846        2847        2898        2897
         4        2847        2848        2899        2898
         4        2848        2849        2900        2899
         4        2849        2850        2901        2900
         4        2850        2851        2902        2901
         4        2851        2852        2903        2902
         4        2852        2853        2904        2903
         4        2853        2854        2905        2904
         4        2854        2855        2906        2905
         4        2856        2857        2908        2907
         4        2857        2858        2909        2908
         4        2858        2859        2910        2909
         4        2859        2860        2911        2910
         4        2860        2861        2912        2911
         4        2861        2862        2913        2912
         4        2862        2863        2914        2913
         4        2863        2864        2915        2914
         4        2864        2865        2916        2915
         4        2865        2866        2917        2916
         4        2866        2867        2918        2917
         4        2867        2868        2919        2918
         4        2868        2869        2920        2919
         4        2869        2870        2921        2920
         4        2870        2871        2922        2921
         4        2871        2872        2923        2922
         4        2872        2873        2924        2923
         4        2873        2874        2925        2924
         4        2874        2875        2926        2925
         4        2875        2876        2927        2926
         4        2876        2877        2928        2927
         4        2877        2878        2929        2928
         4        2878        2879        2930        2929
         4        2879        2880        2931        2930
         4        2880        2881        2932        2931
         4        2881        2882        2933        2932
         4        2882        2883        2934        2933
         4        2883        2884        2935        2934
         4        2884        2885        2936        2935
         4        2885        2886        2937        2936
         4        2886        2887        2938        2937
         4        2887        2888        2939        2938
         4        2888        2889        2940        2939
         4        2889        2890        2941        2940
         4        2890        2891        2942        2941
         4        2891        2892        2943        2942
         4        2892        2893        2944        2943
         4        2893        2894        2945        2944
         4        2894        2895        2946        2945
         4        2895        2896        2947        2946
         4        2896        2897        2948        2947
         4        2897        2898        2949        2948
         4        2898        2899        2950        2949
         4        2899        2900        2951        2950
         4        2900        2901        2952        2951
         4        2901        2902        2953        2952
         4        2902        2903        2954        2953
         4        2903        2904        2955        2954
         4        2904        2905        2956        2955
         4        2905        2906        2957        2956
         4        2907        2908        2959        2958
         4        2908        2909        2960        2959
         4        2909        2910        2961        2960
         4        2910        2911        2962        2961
         4        2911        2912        2963        2962
         4        2912        2913        2964        2963
         4        2913        2914        2965        2964
         4        2914        2915        2966        2965
         4        2915        2916        2967        2966
         4        2916        2917        2968        2967
         4        2917        2918        2969        2968
         4        2918        2919        2970        2969
         4        2919        2920        2971        2970
         4        2920        2921        2972        2971
         4        2921        2922        2973        2972
         4        2922        2923        2974        2973
         4        2923        2924        2975        2974
         4        2924        2925        2976        2975
         4        2925        2926        2977        2976
         4        2926        2927        2978        2977
         4        2927        2928        2979        2978
         4        2928        2929        2980        2979
         4        2929        2930        2981        2980
         4        2930        2931        2982        2981
         4        2931        2932        2983        2982
         4        2932        2933        2984        2983
         4        2933        2934        2985        2984
         4        2934        2935        2986        2985
         4        2935        2936        2987        2986
         4        2936        2937        2988        2987
         4        2937        2938        2989        2988
         4        2938        2939        2990        2989
         4        2939        2940        2991        2990
         4        2940        2941        2992        2991
         4        2941        2942        2993        2992
         4        2942        2943        2994        2993
         4        2943        2944        2995        2994
         4        2944        2945        2996        2995
         4        2945        2946        2997        2996
         4        2946        2947        2998        2997
         4        2947        2948        2999        2998
         4        2948        2949        3000        2999
         4        2949        2950        3001        3000
         4        2950        2951        3002        3001
         4        2951        2952        3003        3002
         4        2952        2953        3004        3003
         4        2953        2954        3005        3004
         4        2954        2955        3006        3005
         4        2955        2956        3007        3006
         4        2956        2957        3008        3007
         4        2958        2959        3010        3009
         4        2959        2960        3011        3010
         4        2960        2961        3012        3011
         4        2961        2962        3013        3012
         4        2962        2963        3014        3013
         4        2963        2964        3015        3014
         4        2964        2965        3016        3015
         4        2965        2966        3017        3016
         4        2966        2967        3018        3017
         4        2967        2968        3019        3018
         4        2968        2969        3020        3019
         4        2969        2970        3021        3020
         4        2970        2971        3022        3021
         4        2971        2972        3023        3022
         4        2972        2973        3024        3023
         4        2973        2974        3025        3024
         4        2974        2975        3026        3025
         4        2975        2976        3027        3026
         4        2976        2977        3028        3027
         4        2977        2978        3029        3028
         4        2978        2979        3030        3029
         4        2979        2980        3031        3030
         4        2980        2981        3032        3031
         4        2981        2982        3033        3032
         4        2982        2983        3034        3033
         4        2983        2984        3035        3034
         4        2984        2985        3036        3035
         4        2985        2986        3037        3036
         4        2986        2987        3038        3037
         4        2987        2988        3039        3038
         4        2988        2989        3040        3039
         4        2989        2990        3041        3040
         4        2990        2991        3042        3041
         4        2991        2992        3043        3042
         4        2992        2993        3044        3043
         4        2993        2994        3045        3044
         4        2994        2995        3046        3045
         4        2995        2996        3047        3046
         4        2996        2997        3048        3047
         4        2997        2998        3049        3048
         4        2998        2999        3050        3049
         4        2999        3000        3051        3050
         4        3000        3001        3052        3051
         4        3001        3002        3053        3052
         4        3002        3003        3054        3053
         4        3003        3004        3055        3054
         4        3004        3005        3056        3055
         4        3005        3006        3057        3056
         4        3006        3007        3058        3057
         4        3007        3008        3059        3058
         4        3009        3010        3061        3060
         4        3010        3011        3062        3061
         4        3011        3012        3063        3062
         4        3012        3013        3064        3063
         4        3013        3014        3065        3064
         4        3014        3015        3066        3065
         4        3015        3016        3067        3066
         4        3016        3017        3068        3067
         4        3017        3018        3069        3068
         4        3018        3019        3070        3069
         4        3019        3020        3071        3070
         4        3020        3021        3072        3071
         4        3021        3022        3073        3072
         4        3022        3023        3074        3073
         4        3023        3024        3075        3074
         4        3024        3025        3076        3075
         4        3025        3026        3077        3076
         4        3026        3027        3078        3077
         4        3027        3028        3079        3078
         4        3028        3029        3080        3079
         4        3029        3030        3081        3080
         4        3030        3031        3082        3081
         4        3031        3032        3083        3082
         4        3032        3033        3084        3083
         4        3033        3034        3085        3084
         4        3034        3035        3086        3085
         4        3035        3036        3087        3086
         4        3036        3037        3088        3087
         4        3037        3038        3089        3088
         4        3038        3039        3090        3089
         4        3039        3040        3091        3090
         4        3040        3041        3092        3091
         4        3041        3042        3093        3092
         4        3042        3043        3094        3093
         4        3043        3044        3095        3094
         4        3044        3045        3096        3095
         4        3045        3046        3097        3096
         4        3046        3047        3098        3097
         4        3047        3048        3099        3098
         4        3048        3049        3100        3099
         4        3049        3050        3101        3100
         4        3050        3051        3102        3101
         4        3051        3052        3103        3102
         4        3052        3053        3104        3103
         4        3053        3054        3105        3104
         4        3054        3055        3106        3105
         4        3055        3056        3107        3106
         4        3056        3057        3108        3107
         4        3057        3058        3109        3108
         4        3058        3059        3110        3109
         4        3060        3061        3112        3111
         4        3061        3062        3113        3112
         4        3062        3063        3114        3113
         4        3063        3064        3115        3114
         4        3064        3065        3116        3115
         4        3065        3066        3117        3116
         4        3066        3067        3118        3117
         4        3067        3068        3119        3118
         4        3068        3069        3120        3119
         4        3069        3070        3121        3120
         4        3070        3071        3122        3121
         4        3071        3072        3123        3122
         4        3072        3073        3124        3123
         4        3073        3074        3125        3124
         4        3074        3075        3126        3125
         4        3075        3076        3127        3126
         4        3076        3077        3128        3127
         4        3077        3078        3129        3128
         4        3078        3079        3130        3129
         4        3079        3080        3131        3130
         4        3080        3081        3132        3131
         4        3081        3082        3133        3132
         4        3082        3083        3134        3133
         4        3083        3084        3135        3134
         4        3084        3085        3136        3135
         4        3085        3086        3137        3136
         4        3086        3087        3138        3137
         4        3087        3088        3139        3138
         4        3088        3089        3140        3139
         4        3089        3090        3141        3140
         4        3090        3091        3142        3141
         4        3091        3092        3143        3142
         4        3092        3093        3144        3143
         4        3093        3094        3145        3144
         4        3094        3095        3146        3145
         4        3095        3096        3147        3146
         4        3096        3097        3148        3147
         4        3097        3098        3149        3148
         4        3098        3099        3150        3149
         4        3099        3100        3151        3150
         4        3100        3101        3152        3151
         4        3101        3102        3153        3152
         4        3102        3103        3154        3153
         4        3103        3104        3155        3154
         4        3104        3105        3156        3155
         4        3105        3106        3157        3156
         4        3106        3107        3158        3157
         4        3107        3108        3159        3158
         4        3108        3109        3160        3159
         4        3109        3110        3161        3160
         4        3111        3112        3163        3162
         4        3112        3113        3164        3163
         4        3113        3114        3165        3164
         4        3114        3115        3166        3165
         4        3115        3116        3167        3166
         4        3116        3117        3168        3167
         4        3117        3118        3169        3168
         4        3118        3119        3170        3169
         4        3119        3120        3171        3170
         4        3120        3121        3172        3171
         4        3121        3122        3173        3172
         4        3122        3123        3174        3173
         4        3123        3124        3175        3174
         4        3124        3125        3176        3175
         4        3125        3126        3177        3176
         4        3126        3127        3178        3177
         4        3127        3128        3179        3178
         4        3128        3129        3180        3179
         4        3129        3130        3181        3180
         4        3130        3131        3182        3181
         4        3131        3132        3183        3182
         4        3132        3133        3184        3183
         4        3133        3134        3185        3184
         4        3134        3135        3186        3185
         4        3135        3136        3187        3186
         4        3136        3137        3188        3187
         4        3137        3138        3189        3188
         4        3138        3139        3190        3189
         4        3139        3140        3191        3190
         4        3140        3141        3192        3191
         4        3141        3142        3193        3192
         4        3142        3143        3194        3193
         4        3143        3144        3195        3194
         4        3144        3145        3196        3195
         4        3145        3146        3197        3196
         4        3146        3147        3198        3197
         4        3147        3148        3199        3198
         4        3148        3149        3200        3199
         4        3149        3150        3201        3200
         4        3150        3151        3202        3201
         4        3151        3152        3203        3202
         4        3152        3153        3204        3203
         4        3153        3154        3205        3204
         4        3154        3155        3206        3205
         4        3155        3156        3207        3206
         4        3156        3157        3208        3207
         4        3157        3158        3209        3208
         4        3158        3159        3210        3209
         4        3159        3160        3211        3210
         4        3160        3161        3212        3211
         4        3162        3163        3214        3213
         4        3163        3164        3215        3214
         4        3164        3165        3216        3215
         4        3165        3166        3217        3216
         4        3166        3167        3218        3217
         4        3167        3168        3219        3218
         4        3168        3169        3220        3219
         4        3169        3170        3221        3220
         4        3170        3171        3222        3221
         4        3171        3172        3223        3222
         4        3172        3173        3224        3223
         4        3173        3174        3225        3224
         4        3174        3175        3226        3225
         4        3175        3176        3227        3226
         4        3176        3177        3228        3227
         4        3177        3178        3229        3228
         4        3178        3179        3230        3229
         4        3179        3180        3231        3230
         4        3180        3181        3232        3231
         4        3181        3182        3233        3232
         4        3182        3183        3234        3233
         4        3183        3184        3235        3234
         4        3184        3185        3236        3235
         4        3185        3186        3237        3236
         4        3186        3187        3238        3237
         4        3187        3188        3239        3238
         4        3188        3189        3240        3239
         4        3189        3190        3241        3240
         4        3190        3191        3242        3241
         4        3191        3192        3243        3242
         4        3192        3193        3244        3243
         4        3193        3194        3245        3244
         4        3194        3195        3246        3245
         4        3195        3196        3247        3246
         4        3196        3197        3248        3247
         4        3197        3198        3249        3248
         4        3198        3199        3250        3249
         4        3199        3200        3251        3250
         4        3200        3201        3252        3251
         4        3201        3202        3253        3252
         4        3202        3203        3254        3253
         4        3203        3204        3255        3254
         4        3204        3205        3256        3255
         4        3205        3206        3257        3256
         4        3206        3207        3258        3257
         4        3207        3208        3259        3258
         4        3208        3209        3260        3259
         4        3209        3210        3261        3260
         4        3210        3211        3262        3261
         4        3211        3212        3263        3262
         4        3213        3214        3265        3264
         4        3214        3215        3266        3265
         4        3215        3216        3267        3266
         4        3216        3217        3268        3267
         4        3217        3218        3269        3268
         4        3218        3219        3270        3269
         4        3219        3220        3271        3270
         4        3220        3221        3272        3271
         4        3221        3222        3273        3272
         4        3222        3223        3274        3273
         4        3223        3224        3275        3274
         4        3224        3225        3276        3275
         4        3225        3226        3277        3276
         4        3226        3227        3278        3277
         4        3227        3228        3279        3278
         4        3228        3229        3280        3279
         4        3229        3230        3281        3280
         4        3230        3231        3282        3281
         4        3231        3232        3283        3282
         4        3232        3233        3284        3283
         4        3233        3234        3285        3284
         4        3234        3235        3286        3285
         4        3235        3236        3287        3286
         4        3236        3237        3288        3287
         4        3237        3238        3289        3288
         4        3238        3239        3290        3289
         4        3239        3240        3291        3290
         4        3240        3241        3292        3291
         4        3241        3242        3293        3292
         4        3242        3243        3294        3293
         4        3243        3244        3295        3294
         4        3244        3245        3296        3295
         4        3245        3246        3297        3296
         4        3246        3247        3298        3297
         4        3247        3248        3299        3298
         4        3248        3249        3300        3299
         4        3249        3250        3301        3300
         4        3250        3251        3302        3301
         4        3251        3252        3303        3302
         4        3252        3253        3304        3303
         4        3253        3254        3305        3304
         4        3254        3255        3306        3305
         4        3255        3256        3307        3306
         4        3256        3257        3308        3307
         4        3257        3258        3309        3308
         4        3258        3259        3310        3309
         4        3259        3260        3311        3310
         4        3260        3261        3312        3311
         4        3261        3262        3313        3312
         4        3262        3263        3314        3313
         4        3264        3265        3316        3315
         4        3265        3266        3317        3316
         4        3266        3267        3318        3317
         4        3267        3268        3319        3318
         4        3268        3269        3320        3319
         4        3269        3270        3321        3320
         4        3270        3271        3322        3321
         4        3271        3272        3323        3322
         4        3272        3273        3324        3323
         4        3273        3274        3325        3324
         4        3274        3275        3326        3325
         4        3275        3276        3327        3326
         4        3276        3277        3328        3327
         4        3277        3278        3329        3328
         4        3278        3279        3330        3329
         4        3279        3280        3331        3330
         4        3280        3281        3332        3331
         4        3281        3282        3333        3332
         4        3282        3283        3334        3333
         4        3283        3284        3335        3334
         4        3284        3285        3336        3335
         4        3285        3286        3337        3336
         4        3286        3287        3338        3337
         4        3287        3288        3339        3338
         4        3288        3289        3340        3339
         4        3289        3290        3341        3340
         4        3290        3291        3342        3341
         4        3291        3292        3343        3342
         4        3292        3293        3344        3343
         4        3293        3294        3345        3344
         4        3294        3295        3346        3345
         4        3295        3296        3347        3346
         4        3296        3297        3348        3347
         4        3297        3298        3349        3348
         4        3298        3299        3350        3349
         4        3299        3300        3351        3350
         4        3300        3301        3352        3351
         4        3301        3302        3353        3352
         4        3302        3303        3354        3353
         4        3303        3304        3355        3354
         4        3304        3305        3356        3355
         4        3305        3306        3357        3356
         4        3306        3307        3358        3357
         4        3307        3308        3359        3358
         4        3308        3309        3360        3359
         4        3309        3310        3361        3360
         4        3310        3311        3362        3361
         4        3311        3312        3363        3362
         4        3312        3313        3364        3363
         4        3313        3314        3365        3364
         4        3315        3316        3367        3366
         4        3316        3317        3368        3367
         4        3317        3318        3369        3368
         4        3318        3319        3370        3369
         4        3319        3320        3371        3370
         4        3320        3321        3372        3371
         4        3321        3322        3373        3372
         4        3322        3323        3374        3373
         4        3323        3324        3375        3374
         4        3324        3325        3376        3375
         4        3325        3326        3377        3376
         4        3326        3327        3378        3377
         4        3327        3328        3379        3378
         4        3328        3329        3380        3379
         4        3329        3330        3381        3380
         4        3330        3331        3382        3381
         4        3331        3332        3383        3382
         4        3332        3333        3384        3383
         4        3333        3334        3385        3384
         4        3334        3335        3386        3385
         4        3335        3336        3387        3386
         4        3336        3337        3388        3387
         4        3337        3338        3389        3388
         4        3338        3339        3390        3389
         4        3339        3340        3391        3390
         4        3340        3341        3392        3391
         4        3341        3342        3393        3392
         4        3342        3343        3394        3393
         4        3343        3344        3395        3394
         4        3344        3345        3396        3395
         4        3345        3346        3397        3396
         4        3346        3347        3398        3397
         4        3347        3348        3399        3398
         4        3348        3349        3400        3399
         4        3349        3350        3401        3400
         4        3350        3351        3402        3401
         4        3351        3352        3403        3402
         4        3352        3353        3404        3403
         4        3353        3354        3405        3404
         4        3354        3355        3406        3405
         4        3355        3356        3407        3406
         4        3356        3357        3408        3407
         4        3357        3358        3409        3408
         4        3358        3359        3410        3409
         4        3359        3360        3411        3410
         4        3360        3361        3412        3411
         4        3361        3362        3413        3412
         4        3362        3363        3414        3413
         4        3363        3364        3415        3414
         4        3364        3365        3416        3415
         4        3366        3367        3418        3417
         4        3367        3368        3419        3418
         4        3368        3369        3420        3419
         4        3369        3370        3421        3420
         4        3370        3371        3422        3421
         4        3371        3372        3423        3422
         4        3372        3373        3424        3423
         4        3373        3374        3425        3424
         4        3374        3375        3426        3425
         4        3375        3376        3427        3426
         4        3376        3377        3428        3427
         4        3377        3378        3429        3428
         4        3378        3379        3430        3429
         4        3379        3380        3431        3430
         4        3380        3381        3432        3431
         4        3381        3382        3433        3432
         4        3382        3383        3434        3433
         4        3383        3384        3435        3434
         4        3384        3385        3436        3435
         4        3385        3386        3437        3436
         4        3386        3387        3438        3437
         4        3387        3388        3439        3438
         4        3388        3389        3440        3439
         4        3389        3390        3441        3440
         4        3390        3391        3442        3441
         4        3391        3392        3443        3442
         4        3392        3393        3444        3443
         4        3393        3394        3445        3444
         4        3394        3395        3446        3445
         4        3395        3396        3447        3446
         4        3396        3397        3448        3447
         4        3397        3398        3449        3448
         4        3398        3399        3450        3449
         4        3399        3400        3451        3450
         4        3400        3401        3452        3451
         4        3401        3402        3453        3452
         4        3402        3403        3454        3453
         4        3403        3404        3455        3454
         4        3404        3405        3456        3455
         4        3405        3406        3457        3456
         4        3406        3407        3458        3457
         4        3407        3408        3459        3458
         4        3408        3409        3460        3459
         4        3409        3410        3461        3460
         4        3410        3411        3462        3461
         4        3411        3412        3463        3462
         4        3412        3413        3464        3463
         4        3413        3414        3465        3464
         4        3414        3415        3466        3465
         4        3415        3416        3467        3466
         4        3417        3418        3469        3468
         4        3418        3419        3470        3469
         4        3419        3420        3471        3470
         4        3420        3421        3472        3471
         4        3421        3422        3473        3472
         4        3422        3423        3474        3473
         4        3423        3424        3475        3474
         4        3424        3425        3476        3475
         4        3425        3426        3477        3476
         4        3426        3427        3478        3477
         4        3427        3428        3479        3478
         4        3428        3429        3480        3479
         4        3429        3430        3481        3480
         4        3430        3431        3482        3481
         4        3431        3432        3483        3482
         4        3432        3433        3484        3483
         4        3433        3434        3485        3484
         4        3434        3435        3486        3485
         4        3435        3436        3487        3486
         4        3436        3437        3488        3487
         4        3437        3438        3489        3488
         4        3438        3439        3490        3489
         4        3439        3440        3491        3490
         4        3440        3441        3492        3491
         4        3441        3442        3493        3492
         4        3442        3443        3494        3493
         4        3443        3444        3495        3494
         4        3444        3445        3496        3495
         4        3445        3446        3497        3496
         4        3446        3447        3498        3497
         4        3447        3448        3499        3498
         4        3448        3449        3500        3499
         4        3449        3450        3501        3500
         4        3450        3451        3502        3501
         4        3451        3452        3503        3502
         4        3452        3453        3504        3503
         4        3453        3454        3505        3504
         4        3454        3455        3506        3505
         4        3455        3456        3507        3506
         4        3456        3457        3508        3507
         4        3457        3458        3509        3508
         4        3458        3459        3510        3509
         4        3459        3460        3511        3510
         4        3460        3461        3512        3511
         4        3461        3462        3513        3512
         4        3462        3463        3514        3513
         4        3463        3464        3515        3514
         4        3464        3465        3516        3515
         4        3465        3466        3517        3516
         4        3466        3467        3518        3517
         4        3468        3469        3520        3519
         4        3469        3470        3521        3520
         4        3470        3471        3522        3521
         4        3471        3472        3523        3522
         4        3472        3473        3524        3523
         4        3473        3474        3525        3524
         4        3474        3475        3526        3525
         4        3475        3476        3527        3526
         4        3476        3477        3528        3527
         4        3477        3478        3529        3528
         4        3478        3479        3530        3529
         4        3479        3480        3531        3530
         4        3480        3481        3532        3531
         4        3481        3482        3533        3532
         4        3482        3483        3534        3533
         4        3483        3484        3535        3534
         4        3484        3485        3536        3535
         4        3485        3486        3537        3536
         4        3486        3487        3538        3537
         4        3487        3488        3539        3538
         4        3488        3489        3540        3539
         4        3489        3490        3541        3540
         4        3490        3491        3542        3541
         4        3491        3492        3543        3542
         4        3492        3493        3544        3543
         4        3493        3494        3545        3544
         4        3494        3495        3546        3545
         4        3495        3496        3547        3546
         4        3496        3497        3548        3547
         4        3497        3498        3549        3548
         4        3498        3499        3550        3549
         4        3499        3500        3551        3550
         4        3500        3501        3552        3551
         4        3501        3502        3553        3552
         4        3502        3503        3554        3553
         4        3503        3504        3555        3554
         4        3504        3505        3556        3555
         4        3505        3506        3557        3556
         4        3506        3507        3558        3557
         4        3507        3508        3559        3558
         4        3508        3509        3560        3559
         4        3509        3510        3561        3560
         4        3510        3511        3562        3561
         4        3511        3512        3563        3562
         4        3512        3513        3564        3563
         4        3513        3514        3565        3564
         4        3514        3515        3566        3565
         4        3515        3516        3567        3566
         4        3516        3517        3568        3567
         4        3517        3518        3569        3568
         4        3519        3520        3571        3570
         4        3520        3521        3572        3571
         4        3521        3522        3573        3572
         4        3522        3523        3574        3573
         4        3523        3524        3575        3574
         4        3524        3525        3576        3575
         4        3525        3526        3577        3576
         4        3526        3527        3578        3577
         4        3527        3528        3579        3578
         4        3528        3529        3580        3579
         4        3529        3530        3581        3580
         4        3530        3531        3582        3581
         4        3531        3532        3583        3582
         4        3532        3533        3584        3583
         4        3533        3534        3585        3584
         4        3534        3535        3586        3585
         4        3535        3536        3587        3586
         4        3536        3537        3588        3587
         4        3537        3538        3589        3588
         4        3538        3539        3590        3589
         4        3539        3540        3591        3590
         4        3540        3541        3592        3591
         4        3541        3542        3593        3592
         4        3542        3543        3594        3593
         4        3543        3544        3595        3594
         4        3544        3545        3596        3595
         4        3545        3546        3597        3596
         4        3546        3547        3598        3597
         4        3547        3548        3599        3598
         4        3548        3549        3600        3599
         4        3549        3550        3601        3600
         4        3550        3551        3602        3601
         4        3551        3552        3603        3602
         4        3552        3553        3604        3603
         4        3553        3554        3605        3604
         4        3554        3555        3606        3605
         4        3555        3556        3607        3606
         4        3556        3557        3608        3607
         4        3557        3558        3609        3608
         4        3558        3559        3610        3609
         4        3559        3560        3611        3610
         4        3560        3561        3612        3611
         4        3561        3562        3613        3612
         4        3562        3563        3614        3613
         4        3563        3564        3615        3614
         4        3564        3565        3616        3615
         4        3565        3566        3617        3616
         4        3566        3567        3618        3617
         4        3567        3568        3619        3618
         4        3568        3569        3620        3619
         4        3570        3571        3622        3621
         4        3571        3572        3623        3622
         4        3572        3573        3624        3623
         4        3573        3574        3625        3624
         4        3574        3575        3626        3625
         4        3575        3576        3627        3626
         4        3576        3577        3628        3627
         4        3577        3578        3629        3628
         4        3578        3579        3630        3629
         4        3579        3580        3631        3630
         4        3580        3581        3632        3631
         4        3581        3582        3633        3632
         4        3582        3583        3634        3633
         4        3583        3584        3635        3634
         4        3584        3585        3636        3635
         4        3585        3586        3637        3636
         4        3586        3587        3638        3637
         4        3587        3588        3639        3638
         4        3588        3589        3640        3639
         4        3589        3590        3641        3640
         4        3590        3591        3642        3641
         4        3591        3592        3643        3642
         4        3592        3593        3644        3643
         4        3593        3594        3645        3644
         4        3594        3595        3646        3645
         4        3595        3596        3647        3646
         4        3596        3597        3648        3647
         4        3597        3598        3649        3648
         4        3598        3599        3650        3649
         4        3599        3600        3651        3650
         4        3600        3601        3652        3651
         4        3601        3602        3653        3652
         4        3602        3603        3654        3653
         4        3603        3604        3655        3654
         4        3604        3605        3656        3655
         4        3605        3606        3657        3656
         4        3606        3607        3658        3657
         4        3607        3608        3659        3658
         4        3608        3609        3660        3659
         4        3609        3610        3661        3660
         4        3610        3611        3662        3661
         4        3611        3612        3663        3662
         4        3612        3613        3664        3663
         4        3613        3614        3665        3664
         4        3614        3615        3666        3665
         4        3615        3616        3667        3666
         4        3616        3617        3668        3667
         4        3617        3618        3669        3668
         4        3618        3619        3670        3669
         4        3619        3620        3671        3670
         4        3621        3622        3673        3672
         4        3622        3623        3674        3673
         4        3623        3624        3675        3674
         4        3624        3625        3676        3675
         4        3625        3626        3677        3676
         4        3626        3627        3678        3677
         4        3627        3628        3679        3678
         4        3628        3629        3680        3679
         4        3629        3630        3681        3680
         4        3630        3631        3682        3681
         4        3631        3632        3683        3682
         4        3632        3633        3684        3683
         4        3633        3634        3685        3684
         4        3634        3635        3686        3685
         4        3635        3636        3687        3686
         4        3636        3637        3688        3687
         4        3637        3638        3689        3688
         4        3638        3639        3690        3689
         4        3639        3640        3691        3690
         4        3640        3641        3692        3691
         4        3641        3642        3693        3692
         4        3642        3643        3694        3693
         4        3643        3644        3695        3694
         4        3644        3645        3696        3695
         4        3645        3646        3697        3696
         4        3646        3647        3698        3697
         4        3647        3648        3699        3698
         4        3648        3649        3700        3699
         4        3649        3650        3701        3700
         4        3650        3651        3702        3701
         4        3651        3652        3703        3702
         4        3652        3653        3704        3703
         4        3653        3654        3705        3704
         4        3654        3655        3706        3705
         4        3655        3656        3707        3706
         4        3656        3657        3708        3707
         4        3657        3658        3709        3708
         4        3658        3659        3710        3709
         4        3659        3660        3711        3710
         4        3660        3661        3712        3711
         4        3661        3662        3713        3712
         4        3662        3663        3714        3713
         4        3663        3664        3715        3714
         4        3664        3665        3716        3715
         4        3665        3666        3717        3716
         4        3666        3667        3718        3717
         4        3667        3668        3719        3718
         4        3668        3669        3720        3719
         4        3669        3670        3721        3720
         4        3670        3671        3722        3721
         4        3672        3673        3724        3723
         4        3673        3674        3725        3724
         4        3674        3675        3726        3725
         4        3675        3676        3727        3726
         4        3676        3677        3728        3727
         4        3677        3678        3729        3728
         4        3678        3679        3730        3729
         4        3679        3680        3731        3730
         4        3680        3681        3732        3731
         4        3681        3682        3733        3732
         4        3682        3683        3734        3733
         4        3683        3684        3735        3734
         4        3684        3685        3736        3735
         4        3685        3686        3737        3736
         4        3686        3687        3738        3737
         4        3687        3688        3739        3738
         4        3688        3689        3740        3739
         4        3689        3690        3741        3740
         4        3690        3691        3742        3741
         4        3691        3692        3743        3742
         4        3692        3693        3744        3743
         4        3693        3694        3745        3744
         4        3694        3695        3746        3745
         4        3695        3696        3747        3746
         4        3696        3697        3748        3747
         4        3697        3698        3749        3748
         4        3698        3699        3750        3749
         4        3699        3700        3751        3750
         4        3700        3701        3752        3751
         4        3701        3702        3753        3752
         4        3702        3703        3754        3753
         4        3703        3704        3755        3754
         4        3704        3705        3756        3755
         4        3705        3706        3757        3756
         4        3706        3707        3758        3757
         4        3707        3708        3759        3758
         4        3708        3709        3760        3759
         4        3709        3710        3761        3760
         4        3710        3711        3762        3761
         4        3711        3712        3763        3762
         4        3712        3713        3764        3763
         4        3713        3714        3765        3764
         4        3714        3715        3766        3765
         4        3715        3716        3767        3766
         4        3716        3717        3768        3767
         4        3717        3718        3769        3768
         4        3718        3719        3770        3769
         4        3719        3720        3771        3770
         4        3720        3721        3772        3771
         4        3721        3722        3773        3772
         4        3723        3724        3775        3774
         4        3724        3725        3776        3775
         4        3725        3726        3777        3776
         4        3726        3727        3778        3777
         4        3727        3728        3779        3778
         4        3728        3729        3780        3779
         4        3729        3730        3781        3780
         4        3730        3731        3782        3781
         4        3731        3732        3783        3782
         4        3732        3733        3784        3783
         4        3733        3734        3785        3784
         4        3734        3735        3786        3785
         4        3735        3736        3787        3786
         4        3736        3737        3788        3787
         4        3737        3738        3789        3788
         4        3738        3739        3790        3789
         4        3739        3740        3791        3790
         4        3740        3741        3792        3791
         4        3741        3742        3793        3792
         4        3742        3743        3794        3793
         4        3743        3744        3795        3794
         4        3744        3745        3796        3795
         4        3745        3746        3797        3796
         4        3746        3747        3798        3797
         4        3747        3748        3799        3798
         4        3748        3749        3800        3799
         4        3749        3750        3801        3800
         4        3750        3751        3802        3801
         4        3751        3752        3803        3802
         4        3752        3753        3804        3803
         4        3753        3754        3805        3804
         4        3754        3755        3806        3805
         4        3755        3756        3807        3806
         4        3756        3757        3808        3807
         4        3757        3758        3809        3808
         4        3758        3759        3810        3809
         4        3759        3760        3811        3810
         4        3760        3761        3812        3811
         4        3761        3762        3813        3812
         4        3762        3763        3814        3813
         4        3763        3764        3815        3814
         4        3764        3765        3816        3815
         4        3765        3766        3817        3816
         4        3766        3767        3818        3817
         4        3767        3768        3819        3818
         4        3768        3769        3820        3819
         4        3769        3770        3821        3820
         4        3770        3771        3822        3821
         4        3771        3772        3823        3822
         4        3772        3773        3824        3823
         4        3774        3775        3826        3825
         4        3775        3776        3827        3826
         4        3776        3777        3828        3827
         4        3777        3778        3829        3828
         4        3778        3779        3830        3829
         4        3779        3780        3831        3830
         4        3780        3781        3832        3831
         4        3781        3782        3833        3832
         4        3782        3783        3834        3833
         4        3783        3784        3835        3834
         4        3784        3785        3836        3835
         4        3785        3786        3837        3836
         4        3786        3787        3838        3837
         4        3787        3788        3839        3838
         4        3788        3789        3840        3839
         4        3789        3790        3841        3840
         4        3790        3791        3842        3841
         4        3791        3792        3843        3842
         4        3792        3793        3844        3843
         4        3793        3794        3845        3844
         4        3794        3795        3846        3845
         4        3795        3796        3847        3846
         4        3796        3797        3848        3847
         4        3797        3798        3849        3848
         4        3798        3799        3850        3849
         4        3799        3800        3851        3850
         4        3800        3801        3852        3851
         4        3801        3802        3853        3852
         4        3802        3803        3854        3853
         4        3803        3804        3855        3854
         4        3804        3805        3856        3855
         4        3805        3806        3857        3856
         4        3806        3807        3858        3857
         4        3807        3808        3859        3858
         4        3808        3809        3860        3859
         4        3809        3810        3861        3860
         4        3810        3811        3862        3861
         4        3811        3812        3863        3862
         4        3812        3813        3864        3863
         4        3813        3814        3865        3864
         4        3814        3815        3866        3865
         4        3815        3816        3867        3866
         4        3816        3817        3868        3867
         4        3817        3818        3869        3868
         4        3818        3819        3870        3869
         4        3819        3820        3871        3870
         4        3820        3821        3872        3871
         4        3821        3822        3873        3872
         4        3822        3823        3874        3873
         4        3823        3824        3875        3874
         4        3825        3826        3877        3876
         4        3826        3827        3878        3877
         4        3827        3828        3879        3878
         4        3828        3829        3880        3879
         4        3829        3830        3881        3880
         4        3830        3831        3882        3881
         4        3831        3832        3883        3882
         4        3832        3833        3884        3883
         4        3833        3834        3885        3884
         4        3834        3835        3886        3885
         4        3835        3836        3887        3886
         4        3836        3837        3888        3887
         4        3837        3838        3889        3888
         4        3838        3839        3890        3889
         4        3839        3840        3891        3890
         4        3840        3841        3892        3891
         4        3841        3842        3893        3892
         4        3842        3843        3894        3893
         4        3843        3844        3895        3894
         4        3844        3845        3896        3895
         4        3845        3846        3897        3896
         4        3846        3847        3898        3897
         4        3847        3848        3899        3898
         4        3848        3849        3900        3899
         4        3849        3850        3901        3900
         4        3850        3851        3902        3901
         4        3851        3852        3903        3902
         4        3852        3853        3904        3903
         4        3853        3854        3905        3904
         4        3854        3855        3906        3905
         4        3855        3856        3907        3906
         4        3856        3857        3908        3907
         4        3857        3858        3909        3908
         4        3858        3859        3910        3909
         4        3859        3860        3911        3910
         4        3860        3861        3912        3911
         4        3861        3862        3913        3912
         4        3862        3863        3914        3913
         4        3863        3864        3915        3914
         4        3864        3865        3916        3915
         4        3865        3866        3917        3916
         4        3866        3867        3918        3917
         4        3867        3868        3919        3918
         4        3868        3869        3920        3919
         4        3869        3870        3921        3920
         4        3870        3871        3922        3921
         4        3871        3872        3923        3922
         4        3872        3873        3924        3923
         4        3873        3874        3925        3924
         4        3874        3875        3926        3925
         4        3876        3877        3928        3927
         4        3877        3878        3929        3928
         4        3878        3879        3930        3929
         4        3879        3880        3931        3930
         4        3880        3881        3932        3931
         4        3881        3882        3933        3932
         4        3882        3883        3934        3933
         4        3883        3884        3935        3934
         4        3884        3885        3936        3935
         4        3885        3886        3937        3936
         4        3886        3887        3938        3937
         4        3887        3888        3939        3938
         4        3888        3889        3940        3939
         4        3889        3890        3941        3940
         4        3890        3891        3942        3941
         4        3891        3892        3943        3942
         4        3892        3893        3944        3943
         4        3893        3894        3945        3944
         4        3894        3895        3946        3945
         4        3895        3896        3947        3946
         4        3896        3897        3948        3947
         4        3897        3898        3949        3948
         4        3898        3899        3950        3949
         4        3899        3900        3951        3950
         4        3900        3901        3952        3951
         4        3901        3902        3953        3952
         4        3902        3903        3954        3953
         4        3903        3904        3955        3954
         4        3904        3905        3956        3955
         4        3905        3906        3957        3956
         4        3906        3907        3958        3957
         4        3907        3908        3959        3958
         4        3908        3909        3960        3959
         4        3909        3910        3961        3960
         4        3910        3911        3962        3961
         4        3911        3912        3963        3962
         4        3912        3913        3964        3963
         4        3913        3914        3965        3964
         4        3914        3915        3966        3965
         4        3915        3916        3967        3966
         4        3916        3917        3968        3967
         4        3917        3918        3969        3968
         4        3918        3919        3970        3969
         4        3919        3920        3971        3970
         4        3920        3921        3972        3971
         4        3921        3922        3973        3972
         4        3922        3923        3974        3973
         4        3923        3924        3975        3974
         4        3924        3925        3976        3975
         4        3925        3926        3977        3976
         4        3927        3928        3979        3978
         4        3928        3929        3980        3979
         4        3929        3930        3981        3980
         4        3930        3931        3982        3981
         4        3931        3932        3983        3982
         4        3932        3933        3984        3983
         4        3933        3934        3985        3984
         4        3934        3935        3986        3985
         4        3935        3936        3987        3986
         4        3936        3937        3988        3987
         4        3937        3938        3989        3988
         4        3938        3939        3990        3989
         4        3939        3940        3991        3990
         4        3940        3941        3992        3991
         4        3941        3942        3993        3992
         4        3942        3943        3994        3993
         4        3943        3944        3995        3994
         4        3944        3945        3996        3995
         4        3945        3946        3997        3996
         4        3946        3947        3998        3997
         4        3947        3948        3999        3998
         4        3948        3949        4000        3999
         4        3949        3950        4001        4000
         4        3950        3951        4002        4001
         4        3951        3952        4003        4002
         4        3952        3953        4004        4003
         4        3953        3954        4005        4004
         4        3954        3955        4006        4005
         4        3955        3956        4007        4006
         4        3956        3957        4008        4007
         4        3957        3958        4009        4008
         4        3958        3959        4010        4009
         4        3959        3960        4011        4010
         4        3960        3961        4012        4011
         4        3961        3962        4013        4012
         4        3962        3963        4014        4013
         4        3963        3964        4015        4014
         4        3964        3965        4016        4015
         4        3965        3966        4017        4016
         4        3966        3967        4018        4017
         4        3967        3968        4019        4018
         4        3968        3969        4020        4019
         4        3969        3970        4021        4020
         4        3970        3971        4022        4021
         4        3971        3972        4023        4022
         4        3972        3973        4024        4023
         4        3973        3974        4025        4024
         4        3974        3975        4026        4025
         4        3975        3976        4027        4026
         4        3976        3977        4028        4027
         4        3978        3979        4030        4029
         4        3979        3980        4031        4030
         4        3980        3981        4032        4031
         4        3981        3982        4033        4032
         4        3982        3983        4034        4033
         4        3983        3984        4035        4034
         4        3984        3985        4036        4035
         4        3985        3986        4037        4036
         4        3986        3987        4038        4037
         4        3987        3988        4039        4038
         4        3988        3989        4040        4039
         4        3989        3990        4041        4040
         4        3990        3991        4042        4041
         4        3991        3992        4043        4042
         4        3992        3993        4044        4043
         4        3993        3994        4045        4044
         4        3994        3995        4046        4045
         4        3995        3996        4047        4046
         4        3996        3997        4048        4047
         4        3997        3998        4049        4048
         4        3998        3999        4050        4049
         4        3999        4000        4051        4050
         4        4000        4001        4052        4051
         4        4001        4002        4053        4052
         4        4002        4003        4054        4053
         4        4003        4004        4055        4054
         4        4004        4005        4056        4055
         4        4005        4006        4057        4056
         4        4006        4007        4058        4057
         4        4007        4008        4059        4058
         4        4008        4009        4060        4059
         4        4009        4010        4061        4060
         4        4010        4011        4062        4061
         4        4011        4012        4063        4062
         4        4012        4013        4064        4063
         4        4013        4014        4065        4064
         4        4014        4015        4066        4065
         4        4015        4016        4067        4066
         4        4016        4017        4068        4067
         4        4017        4018        4069        4068
         4        4018        4019        4070        4069
         4        4019        4020        4071        4070
         4        4020        4021        4072        4071
         4        4021        4022        4073        4072
         4        4022        4023        4074        4073
         4        4023        4024        4075        4074
         4        4024        4025        4076        4075
         4        4025        4026        4077        4076
         4        4026        4027        4078        4077
         4        4027        4028        4079        4078
         4        4029        4030        4081        4080
         4        4030        4031        4082        4081
         4        4031        4032        4083        4082
         4        4032        4033        4084        4083
         4        4033        4034        4085        4084
         4        4034        4035        4086        4085
         4        4035        4036        4087        4086
         4        4036        4037        4088        4087
         4        4037        4038        4089        4088
         4        4038        4039        4090        4089
         4        4039        4040        4091        4090
         4        4040        4041        4092        4091
         4        4041        4042        4093        4092
         4        4042        4043        4094        4093
         4        4043        4044        4095        4094
         4        4044        4045        4096        4095
         4        4045        4046        4097        4096
         4        4046        4047        4098        4097
         4        4047        4048        4099        4098
         4        4048        4049        4100        4099
         4        4049        4050        4101        4100
         4        4050        4051        4102        4101
         4        4051        4052        4103        4102
         4        4052        4053        4104        4103
         4        4053        4054        4105        4104
         4        4054        4055        4106        4105
         4        4055        4056        4107        4106
         4        4056        4057        4108        4107
         4        4057        4058        4109        4108
         4        4058        4059        4110        4109
         4        4059        4060        4111        4110
         4        4060        4061        4112        4111
         4        4061        4062        4113        4112
         4        4062        4063        4114        4113
         4        4063        4064        4115        4114
         4        4064        4065        4116        4115
         4        4065        4066        4117        4116
         4        4066        4067        4118        4117
         4        4067        4068        4119        4118
         4        4068        4069        4120        4119
         4        4069        4070        4121        4120
         4        4070        4071        4122        4121
         4        4071        4072        4123        4122
         4        4072        4073        4124        4123
         4        4073        4074        4125        4124
         4        4074        4075        4126        4125
         4        4075        4076        4127        4126
         4        4076        4077        4128        4127
         4        4077        4078        4129        4128
         4        4078        4079        4130        4129
         4        4080        4081        4132        4131
         4        4081        4082        4133        4132
         4        4082        4083        4134        4133
         4        4083        4084        4135        4134
         4        4084        4085        4136        4135
         4        4085        4086        4137        4136
         4        4086        4087        4138        4137
         4        4087        4088        4139        4138
         4        4088        4089        4140        4139
         4        4089        4090        4141        4140
         4        4090        4091        4142        4141
         4        4091        4092        4143        4142
         4        4092        4093        4144        4143
         4        4093        4094        4145        4144
         4        4094        4095        4146        4145
         4        4095        4096        4147        4146
         4        4096        4097        4148        4147
         4        4097        4098        4149        4148
         4        4098        4099        4150        4149
         4        4099        4100        4151        4150
         4        4100        4101        4152        4151
         4        4101        4102        4153        4152
         4        4102        4103        4154        4153
         4        4103        4104        4155        4154
         4        4104        4105        4156        4155
         4        4105        4106        4157        4156
         4        4106        4107        4158        4157
         4        4107        4108        4159        4158
         4        4108        4109        4160        4159
         4        4109        4110        4161        4160
         4        4110        4111        4162        4161
         4        4111        4112        4163        4162
         4        4112        4113        4164        4163
         4        4113        4114        4165        4164
         4        4114        4115        4166        4165
         4        4115        4116        4167        4166
         4        4116        4117        4168        4167
         4        4117        4118        4169        4168
         4        4118        4119        4170        4169
         4        4119        4120        4171        4170
         4        4120        4121        4172        4171
         4        4121        4122        4173        4172
         4        4122        4123        4174        4173
         4        4123        4124        4175        4174
         4        4124        4125        4176        4175
         4        4125        4126        4177        4176
         4        4126        4127        4178        4177
         4        4127        4128        4179        4178
         4        4128        4129        4180        4179
         4        4129        4130        4181        4180
         4        4131        4132        4183        4182
         4        4132        4133        4184        4183
         4        4133        4134        4185        4184
         4        4134        4135        4186        4185
         4        4135        4136        4187        4186
         4        4136        4137        4188        4187
         4        4137        4138        4189        4188
         4        4138        4139        4190        4189
         4        4139        4140        4191        4190
         4        4140        4141        4192        4191
         4        4141        4142        4193        4192
         4        4142        4143        4194        4193
         4        4143        4144        4195        4194
         4        4144        4145        4196        4195
         4        4145        4146        4197        4196
         4        4146        4147        4198        4197
         4        4147        4148        4199        4198
         4        4148        4149        4200        4199
         4        4149        4150        4201        4200
         4        4150        4151        4202        4201
         4        4151        4152        4203        4202
         4        4152        4153        4204        4203
         4        4153        4154        4205        4204
         4        4154        4155        4206        4205
         4        4155        4156        4207        4206
         4        4156        4157        4208        4207
         4        4157        4158        4209        4208
         4        4158        4159        4210        4209
         4        4159        4160        4211        4210
         4        4160        4161        4212        4211
         4        4161        4162        4213        4212
         4        4162        4163        4214        4213
         4        4163        4164        4215        4214
         4        4164        4165        4216        4215
         4        4165        4166        4217        4216
         4        4166        4167        4218        4217
         4        4167        4168        4219        4218
         4        4168        4169        4220        4219
         4        4169        4170        4221        4220
         4        4170        4171        4222        4221
         4        4171        4172        4223        4222
         4        4172        4173        4224        4223
         4        4173        4174        4225        4224
         4        4174        4175        4226        4225
         4        4175        4176        4227        4226
         4        4176        4177        4228        4227
         4        4177        4178        4229        4228
         4        4178        4179        4230        4229
         4        4179        4180        4231        4230
         4        4180        4181        4232        4231
         4        4182        4183        4234        4233
         4        4183        4184        4235        4234
         4        4184        4185        4236        4235
         4        4185        4186        4237        4236
         4        4186        4187        4238        4237
         4        4187        4188        4239        4238
         4        4188        4189        4240        4239
         4        4189        4190        4241        4240
         4        4190        4191        4242        4241
         4        4191        4192        4243        4242
         4        4192        4193        4244        4243
         4        4193        4194        4245        4244
         4        4194        4195        4246        4245
         4        4195        4196        4247        4246
         4        4196        4197        4248        4247
         4        4197        4198        4249        4248
         4        4198        4199        4250        4249
         4        4199        4200        4251        4250
         4        4200        4201        4252        4251
         4        4201        4202        4253        4252
         4        4202        4203        4254        4253
         4        4203        4204        4255        4254
         4        4204        4205        4256        4255
         4        4205        4206        4257        4256
         4        4206        4207        4258        4257
         4        4207        4208        4259        4258
         4        4208        4209        4260        4259
         4        4209        4210        4261        4260
         4        4210        4211        4262        4261
         4        4211        4212        4263        4262
         4        4212        4213        4264        4263
         4        4213        4214        4265        4264
         4        4214        4215        4266        4265
         4        4215        4216        4267        4266
         4        4216        4217        4268        4267
         4        4217        4218        4269        4268
         4        4218        4219        4270        4269
         4        4219        4220        4271        4270
         4        4220        4221        4272        4271
         4        4221        4222        4273        4272
         4        4222        4223        4274        4273
         4        4223        4224        4275        4274
         4        4224        4225        4276        4275
         4        4225        4226        4277        4276
         4        4226        4227        4278        4277
         4        4227        4228        4279        4278
         4        4228        4229        4280        4279
         4        4229        4230        4281        4280
         4        4230        4231        4282        4281
         4        4231        4232        4283        4282
         4        4233        4234        4285        4284
         4        4234        4235        4286        4285
         4        4235        4236        4287        4286
         4        4236        4237        4288        4287
         4        4237        4238        4289        4288
         4        4238        4239        4290        4289
         4        4239        4240        4291        4290
         4        4240        4241        4292        4291
         4        4241        4242        4293        4292
         4        4242        4243        4294        4293
         4        4243        4244        4295        4294
         4        4244        4245        4296        4295
         4        4245        4246        4297        4296
         4        4246        4247        4298        4297
         4        4247        4248        4299        4298
         4        4248        4249        4300        4299
         4        4249        4250        4301        4300
         4        4250        4251        4302        4301
         4        4251        4252        4303        4302
         4        4252        4253        4304        4303
         4        4253        4254        4305        4304
         4        4254        4255        4306        4305
         4        4255        4256        4307        4306
         4        4256        4257        4308        4307
         4        4257        4258        4309        4308
         4        4258        4259        4310        4309
         4        4259        4260        4311        4310
         4        4260        4261        4312        4311
         4        4261        4262        4313        4312
         4        4262        4263        4314        4313
         4        4263        4264        4315        4314
         4        4264        4265        4316        4315
         4        4265        4266        4317        4316
         4        4266        4267        4318        4317
         4        4267        4268        4319        4318
         4        4268        4269        4320        4319
         4        4269        4270        4321        4320
         4        4270        4271        4322        4321
         4        4271        4272        4323        4322
         4        4272        4273        4324        4323
         4        4273        4274        4325        4324
         4        4274        4275        4326        4325
         4        4275        4276        4327        4326
         4        4276        4277        4328        4327
         4        4277        4278        4329        4328
         4        4278        4279        4330        4329
         4        4279        4280        4331        4330
         4        4280        4281        4332        4331
         4        4281        4282        4333        4332
         4        4282        4283        4334        4333
         4        4284        4285        4336        4335
         4        4285        4286        4337        4336
         4        4286        4287        4338        4337
         4        4287        4288        4339        4338
         4        4288        4289        4340        4339
         4        4289        4290        4341        4340
         4        4290        4291        4342        4341
         4        4291        4292        4343        4342
         4        4292        4293        4344        4343
         4        4293        4294        4345        4344
         4        4294        4295        4346        4345
         4        4295        4296        4347        4346
         4        4296        4297        4348        4347
         4        4297        4298        4349        4348
         4        4298        4299        4350        4349
         4        4299        4300        4351        4350
         4        4300        4301        4352        4351
         4        4301        4302        4353        4352
         4        4302        4303        4354        4353
         4        4303        4304        4355        4354
         4        4304        4305        4356        4355
         4        4305        4306        4357        4356
         4        4306        4307        4358        4357
         4        4307        4308        4359        4358
         4        4308        4309        4360        4359
         4        4309        4310        4361        4360
         4        4310        4311        4362        4361
         4        4311        4312        4363        4362
         4        4312        4313        4364        4363
         4        4313        4314        4365        4364
         4        4314        4315        4366        4365
         4        4315        4316        4367        4366
         4        4316        4317        4368        4367
         4        4317        4318        4369        4368
         4        4318        4319        4370        4369
         4        4319        4320        4371        4370
         4        4320        4321        4372        4371
         4        4321        4322        4373        4372
         4        4322        4323        4374        4373
         4        4323        4324        4375        4374
         4        4324        4325        4376        4375
         4        4325        4326        4377        4376
         4        4326        4327        4378        4377
         4        4327        4328        4379        4378
         4        4328        4329        4380        4379
         4        4329        4330        4381        4380
         4        4330        4331        4382        4381
         4        4331        4332        4383        4382
         4        4332        4333        4384        4383
         4        4333        4334        4385        4384
         4        4335        4336        4387        4386
         4        4336        4337        4388        4387
         4        4337        4338        4389        4388
         4        4338        4339        4390        4389
         4        4339        4340        4391        4390
         4        4340        4341        4392        4391
         4        4341        4342        4393        4392
         4        4342        4343        4394        4393
         4        4343        4344        4395        4394
         4        4344        4345        4396        4395
         4        4345        4346        4397        4396
         4        4346        4347        4398        4397
         4        4347        4348        4399        4398
         4        4348        4349        4400        4399
         4        4349        4350        4401        4400
         4        4350        4351        4402        4401
         4        4351        4352        4403        4402
         4        4352        4353        4404        4403
         4        4353        4354        4405        4404
         4        4354        4355        4406        4405
         4        4355        4356        4407        4406
         4        4356        4357        4408        4407
         4        4357        4358        4409        4408
         4        4358        4359        4410        4409
         4        4359        4360        4411        4410
         4        4360        4361        4412        4411
         4        4361        4362        4413        4412
         4        4362        4363        4414        4413
         4        4363        4364        4415        4414
         4        4364        4365        4416        4415
         4        4365        4366        4417        4416
         4        4366        4367        4418        4417
         4        4367        4368        4419        4418
         4        4368        4369        4420        4419
         4        4369        4370        4421        4420
         4        4370        4371        4422        4421
         4        4371        4372        4423        4422
         4        4372        4373        4424        4423
         4        4373        4374        4425        4424
         4        4374        4375        4426        4425
         4        4375        4376        4427        4426
         4        4376        4377        4428        4427
         4        4377        4378        4429        4428
         4        4378        4379        4430        4429
         4        4379        4380        4431        4430
         4        4380        4381        4432        4431
         4        4381        4382        4433        4432
         4        4382        4383        4434        4433
         4        4383        4384        4435        4434
         4        4384        4385        4436        4435
         4        4386        4387        4438        4437
         4        4387        4388        4439        4438
         4        4388        4389        4440        4439
         4        4389        4390        4441        4440
         4        4390        4391        4442        4441
         4        4391        4392        4443        4442
         4        4392        4393        4444        4443
         4        4393        4394        4445        4444
         4        4394        4395        4446        4445
         4        4395        4396        4447        4446
         4        4396        4397        4448        4447
         4        4397        4398        4449        4448
         4        4398        4399        4450        4449
         4        4399        4400        4451        4450
         4        4400        4401        4452        4451
         4        4401        4402        4453        4452
         4        4402        4403        4454        4453
         4        4403        4404        4455        4454
         4        4404        4405        4456        4455
         4        4405        4406        4457        4456
         4        4406        4407        4458        4457
         4        4407        4408        4459        4458
         4        4408        4409        4460        4459
         4        4409        4410        4461        4460
         4        4410        4411        4462        4461
         4        4411        4412        4463        4462
         4        4412        4413        4464        4463
         4        4413        4414        4465        4464
         4        4414        4415        4466        4465
         4        4415        4416        4467        4466
         4        4416        4417        4468        4467
         4        4417        4418        4469        4468
         4        4418        4419        4470        4469
         4        4419        4420        4471        4470
         4        4420        4421        4472        4471
         4        4421        4422        4473        4472
         4        4422        4423        4474        4473
         4        4423        4424        4475        4474
         4        4424        4425        4476        4475
         4        4425        4426        4477        4476
         4        4426        4427        4478        4477
         4        4427        4428        4479        4478
         4        4428        4429        4480        4479
         4        4429        4430        4481        4480
         4        4430        4431        4482        4481
         4        4431        4432        4483        4482
         4        4432        4433        4484        4483
         4        4433        4434        4485        4484
         4        4434        4435        4486        4485
         4        4435        4436        4487        4486
         4        4437        4438        4489        4488
         4        4438        4439        4490        4489
         4        4439        4440        4491        4490
         4        4440        4441        4492        4491
         4        4441        4442        4493        4492
         4        4442        4443        4494        4493
         4        4443        4444        4495        4494
         4        4444        4445        4496        4495
         4        4445        4446        4497        4496
         4        4446        4447        4498        4497
         4        4447        4448        4499        4498
         4        4448        4449        4500        4499
         4        4449        4450        4501        4500
         4        4450        4451        4502        4501
         4        4451        4452        4503        4502
         4        4452        4453        4504        4503
         4        4453        4454        4505        4504
         4        4454        4455        4506        4505
         4        4455        4456        4507        4506
         4        4456        4457        4508        4507
         4        4457        4458        4509        4508
         4        4458        4459        4510        4509
         4        4459        4460        4511        4510
         4        4460        4461        4512        4511
         4        4461        4462        4513        4512
         4        4462        4463        4514        4513
         4        4463        4464        4515        4514
         4        4464        4465        4516        4515
         4        4465        4466        4517        4516
         4        4466        4467        4518        4517
         4        4467        4468        4519        4518
         4        4468        4469        4520        4519
         4        4469        4470        4521        4520
         4        4470        4471        4522        4521
         4        4471        4472        4523        4522
         4        4472        4473        4524        4523
         4        4473        4474        4525        4524
         4        4474        4475        4526        4525
         4        4475        4476        4527        4526
         4        4476        4477        4528        4527
         4        4477        4478        4529        4528
         4        4478        4479        4530        4529
         4        4479        4480        4531        4530
         4        4480        4481        4532        4531
         4        4481        4482        4533        4532
         4        4482        4483        4534        4533
         4        4483        4484        4535        4534
         4        4484        4485        4536        4535
         4        4485        4486        4537        4536
         4        4486        4487        4538        4537
         4        4488        4489        4540        4539
         4        4489        4490        4541        4540
         4        4490        4491        4542        4541
         4        4491        4492        4543        4542
         4        4492        4493        4544        4543
         4        4493        4494        4545        4544
         4        4494        4495        4546        4545
         4        4495        4496        4547        4546
         4        4496        4497        4548        4547
         4        4497        4498        4549        4548
         4        4498        4499        4550        4549
         4        4499        4500        4551        4550
         4        4500        4501        4552        4551
         4        4501        4502        4553        4552
         4        4502        4503        4554        4553
         4        4503        4504        4555        4554
         4        4504        4505        4556        4555
         4        4505        4506        4557        4556
         4        4506        4507        4558        4557
         4        4507        4508        4559        4558
         4        4508        4509        4560        4559
         4        4509        4510        4561        4560
         4        4510        4511        4562        4561
         4        4511        4512        4563        4562
         4        4512        4513        4564        4563
         4        4513        4514        4565        4564
         4        4514        4515        4566        4565
         4        4515        4516        4567        4566
         4        4516        4517        4568        4567
         4        4517        4518        4569        4568
         4        4518        4519        4570        4569
         4        4519        4520        4571        4570
         4        4520        4521        4572        4571
         4        4521        4522        4573        4572
         4        4522        4523        4574        4573
         4        4523        4524        4575        4574
         4        4524        4525        4576        4575
         4        4525        4526        4577        4576
         4        4526        4527        4578        4577
         4        4527        4528        4579        4578
         4        4528        4529        4580        4579
         4        4529        4530        4581        4580
         4        4530        4531        4582        4581
         4        4531        4532        4583        4582
         4        4532        4533        4584        4583
         4        4533        4534        4585        4584
         4        4534        4535        4586        4585
         4        4535        4536        4587        4586
         4        4536        4537        4588        4587
         4        4537        4538        4589        4588
         4        4539        4540        4591        4590
         4        4540        4541        4592        4591
         4        4541        4542        4593        4592
         4        4542        4543        4594        4593
         4        4543        4544        4595        4594
         4        4544        4545        4596        4595
         4        4545        4546        4597        4596
         4        4546        4547        4598        4597
         4        4547        4548        4599        4598
         4        4548        4549        4600        4599
         4        4549        4550        4601        4600
         4        4550        4551        4602        4601
         4        4551        4552        4603        4602
         4        4552        4553        4604        4603
         4        4553        4554        4605        4604
         4        4554        4555        4606        4605
         4        4555        4556        4607        4606
         4        4556        4557        4608        4607
         4        4557        4558        4609        4608
         4        4558        4559        4610        4609
         4        4559        4560        4611        4610
         4        4560        4561        4612        4611
         4        4561        4562        4613        4612
         4        4562        4563        4614        4613
         4        4563        4564        4615        4614
         4        4564        4565        4616        4615
         4        4565        4566        4617        4616
         4        4566        4567        4618        4617
         4        4567        4568        4619        4618
         4        4568        4569        4620        4619
         4        4569        4570        4621        4620
         4        4570        4571        4622        4621
         4        4571        4572        4623        4622
         4        4572        4573        4624        4623
         4        4573        4574        4625        4624
         4        4574        4575        4626        4625
         4        4575        4576        4627        4626
         4        4576        4577        4628        4627
         4        4577        4578        4629        4628
         4        4578        4579        4630        4629
         4        4579        4580        4631        4630
         4        4580        4581        4632        4631
         4        4581        4582        4633        4632
         4        4582        4583        4634        4633
         4        4583        4584        4635        4634
         4        4584        4585        4636        4635
         4        4585        4586        4637        4636
         4        4586        4587        4638        4637
         4        4587        4588        4639        4638
         4        4588        4589        4640        4639
         4        4590        4591        4642        4641
         4        4591        4592        4643        4642
         4        4592        4593        4644        4643
         4        4593        4594        4645        4644
         4        4594        4595        4646        4645
         4        4595        4596        4647        4646
         4        4596        4597        4648        4647
         4        4597        4598        4649        4648
         4        4598        4599        4650        4649
         4        4599        4600        4651        4650
         4        4600        4601        4652        4651
         4        4601        4602        4653        4652
         4        4602        4603        4654        4653
         4        4603        4604        4655        4654
         4        4604        4605        4656        4655
         4        4605        4606        4657        4656
         4        4606        4607        4658        4657
         4        4607        4608        4659        4658
         4        4608        4609        4660        4659
         4        4609        4610        4661        4660
         4        4610        4611        4662        4661
         4        4611        4612        4663        4662
         4        4612        4613        4664        4663
         4        4613        4614        4665        4664
         4        4614        4615        4666        4665
         4        4615        4616        4667        4666
         4        4616        4617        4668        4667
         4        4617        4618        4669        4668
         4        4618        4619        4670        4669
         4        4619        4620        4671        4670
         4        4620        4621        4672        4671
         4        4621        4622        4673        4672
         4        4622        4623        4674        4673
         4        4623        4624        4675        4674
         4        4624        4625        4676        4675
         4        4625        4626        4677        4676
         4        4626        4627        4678        4677
         4        4627        4628        4679        4678
         4        4628        4629        4680        4679
         4        4629        4630        4681        4680
         4        4630        4631        4682        4681
         4        4631        4632        4683        4682
         4        4632        4633        4684        4683
         4        4633        4634        4685        4684
         4        4634        4635        4686        4685
         4        4635        4636        4687        4686
         4        4636        4637        4688        4687
         4        4637        4638        4689        4688
         4        4638        4639        4690        4689
         4        4639        4640        4691        4690
         4        4641        4642        4693        4692
         4        4642        4643        4694        4693
         4        4643        4644        4695        4694
         4        4644        4645        4696        4695
         4        4645        4646        4697        4696
         4        4646        4647        4698        4697
         4        4647        4648        4699        4698
         4        4648        4649        4700        4699
         4        4649        4650        4701        4700
         4        4650        4651        4702        4701
         4        4651        4652        4703        4702
         4        4652        4653        4704        4703
         4        4653        4654        4705        4704
         4        4654        4655        4706        4705
         4        4655        4656        4707        4706
         4        4656        4657        4708        4707
         4        4657        4658        4709        4708
         4        4658        4659        4710        4709
         4        4659        4660        4711        4710
         4        4660        4661        4712        4711
         4        4661        4662        4713        4712
         4        4662        4663        4714        4713
         4        4663        4664        4715        4714
         4        4664        4665        4716        4715
         4        4665        4666        4717        4716
         4        4666        4667        4718        4717
         4        4667        4668        4719        4718
         4        4668        4669        4720        4719
         4        4669        4670        4721        4720
         4        4670        4671        4722        4721
         4        4671        4672        4723        4722
         4        4672        4673        4724        4723
         4        4673        4674        4725        4724
         4        4674        4675        4726        4725
         4        4675        4676        4727        4726
         4        4676        4677        4728        4727
         4        4677        4678        4729        4728
         4        4678        4679        4730        4729
         4        4679        4680        4731        4730
         4        4680        4681        4732        4731
         4        4681        4682        4733        4732
         4        4682        4683        4734        4733
         4        4683        4684        4735        4734
         4        4684        4685        4736        4735
         4        4685        4686        4737        4736
         4        4686        4687        4738        4737
         4        4687        4688        4739        4738
         4        4688        4689        4740        4739
         4        4689        4690        4741        4740
         4        4690        4691        4742        4741
         4        4692        4693        4744        4743
         4        4693        4694        4745        4744
         4        4694        4695        4746        4745
         4        4695        4696        4747        4746
         4        4696        4697        4748        4747
         4        4697        4698        4749        4748
         4        4698        4699        4750        4749
         4        4699        4700        4751        4750
         4        4700        4701        4752        4751
         4        4701        4702        4753        4752
         4        4702        4703        4754        4753
         4        4703        4704        4755        4754
         4        4704        4705        4756        4755
         4        4705        4706        4757        4756
         4        4706        4707        4758        4757
         4        4707        4708        4759        4758
         4        4708        4709        4760        4759
         4        4709        4710        4761        4760
         4        4710        4711        4762        4761
         4        4711        4712        4763        4762
         4        4712        4713        4764        4763
         4        4713        4714        4765        4764
         4        4714        4715        4766        4765
         4        4715        4716        4767        4766
         4        4716        4717        4768        4767
         4        4717        4718        4769        4768
         4        4718        4719        4770        4769
         4        4719        4720        4771        4770
         4        4720        4721        4772        4771
         4        4721        4722        4773        4772
         4        4722        4723        4774        4773
         4        4723        4724        4775        4774
         4        4724        4725        4776        4775
         4        4725        4726        4777        4776
         4        4726        4727        4778        4777
         4        4727        4728        4779        4778
         4        4728        4729        4780        4779
         4        4729        4730        4781        4780
         4        4730        4731        4782        4781
         4        4731        4732        4783        4782
         4        4732        4733        4784        4783
         4        4733        4734        4785        4784
         4        4734        4735        4786        4785
         4        4735        4736        4787        4786
         4        4736        4737        4788        4787
         4        4737        4738        4789        4788
         4        4738        4739        4790        4789
         4        4739        4740        4791        4790
         4        4740        4741        4792        4791
         4        4741        4742        4793        4792
         4        4743        4744        4795        4794
         4        4744        4745        4796        4795
         4        4745        4746        4797        4796
         4        4746        4747        4798        4797
         4        4747        4748        4799        4798
         4        4748        4749        4800        4799
         4        4749        4750        4801        4800
         4        4750        4751        4802        4801
         4        4751        4752        4803        4802
         4        4752        4753        4804        4803
         4        4753        4754        4805        4804
         4        4754        4755        4806        4805
         4        4755        4756        4807        4806
         4        4756        4757        4808        4807
         4        4757        4758        4809        4808
         4        4758        4759        4810        4809
         4        4759        4760        4811        4810
         4        4760        4761        4812        4811
         4        4761        4762        4813        4812
         4        4762        4763        4814        4813
         4        4763        4764        4815        4814
         4        4764        4765        4816        4815
         4        4765        4766        4817        4816
         4        4766        4767        4818        4817
         4        4767        4768        4819        4818
         4        4768        4769        4820        4819
         4        4769        4770        4821        4820
         4        4770        4771        4822        4821
         4        4771        4772        4823        4822
         4        4772        4773        4824        4823
         4        4773        4774        4825        4824
         4        4774        4775        4826        4825
         4        4775        4776        4827        4826
         4        4776        4777        4828        4827
         4        4777        4778        4829        4828
         4        4778        4779        4830        4829
         4        4779        4780        4831        4830
         4        4780        4781        4832        4831
         4        4781        4782        4833        4832
         4        4782        4783        4834        4833
         4        4783        4784        4835        4834
         4        4784        4785        4836        4835
         4        4785        4786        4837        4836
         4        4786        4787        4838        4837
         4        4787        4788        4839        4838
         4        4788        4789        4840        4839
         4        4789        4790        4841        4840
         4        4790        4791        4842        4841
         4        4791        4792        4843        4842
         4        4792        4793        4844        4843
         4        4794        4795        4846        4845
         4        4795        4796        4847        4846
         4        4796        4797        4848        4847
         4        4797        4798        4849        4848
         4        4798        4799        4850        4849
         4        4799        4800        4851        4850
         4        4800        4801        4852        4851
         4        4801        4802        4853        4852
         4        4802        4803        4854        4853
         4        4803        4804        4855        4854
         4        4804        4805        4856        4855
         4        4805        4806        4857        4856
         4        4806        4807        4858        4857
         4        4807        4808        4859        4858
         4        4808        4809        4860        4859
         4        4809        4810        4861        4860
         4        4810        4811        4862        4861
         4        4811        4812        4863        4862
         4        4812        4813        4864        4863
         4        4813        4814        4865        4864
         4        4814        4815        4866        4865
         4        4815        4816        4867        4866
         4        4816        4817        4868        4867
         4        4817        4818        4869        4868
         4        4818        4819        4870        4869
         4        4819        4820        4871        4870
         4        4820        4821        4872        4871
         4        4821        4822        4873        4872
         4        4822        4823        4874        4873
         4        4823        4824        4875        4874
         4        4824        4825        4876        4875
         4        4825        4826        4877        4876
         4        4826        4827        4878        4877
         4        4827        4828        4879        4878
         4        4828        4829        4880        4879
         4        4829        4830        4881        4880
         4        4830        4831        4882        4881
         4        4831        4832        4883        4882
         4        4832        4833        4884        4883
         4        4833        4834        4885        4884
         4        4834        4835        4886        4885
         4        4835        4836        4887        4886
         4        4836        4837        4888        4887
         4        4837        4838        4889        4888
         4        4838        4839        4890        4889
         4        4839        4840        4891        4890
         4        4840        4841        4892        4891
         4        4841        4842        4893        4892
         4        4842        4843        4894        4893
         4        4843        4844        4895        4894
         4        4845        4846        4897        4896
         4        4846        4847        4898        4897
         4        4847        4848        4899        4898
         4        4848        4849        4900        4899
         4        4849        4850        4901        4900
         4        4850        4851        4902        4901
         4        4851        4852        4903        4902
         4        4852        4853        4904        4903
         4        4853        4854        4905        4904
         4        4854        4855        4906        4905
         4        4855        4856        4907        4906
         4        4856        4857        4908        4907
         4        4857        4858        4909        4908
         4        4858        4859        4910        4909
         4        4859        4860        4911        4910
         4        4860        4861        4912        4911
         4        4861        4862        4913        4912
         4        4862        4863        4914        4913
         4        4863        4864        4915        4914
         4        4864        4865        4916        4915
         4        4865        4866        4917        4916
         4        4866        4867        4918        4917
         4        4867        4868        4919        4918
         4        4868        4869        4920        4919
         4        4869        4870        4921        4920
         4        4870        4871        4922        4921
         4        4871        4872        4923        4922
         4        4872        4873        4924        4923
         4        4873        4874        4925        4924
         4        4874        4875        4926        4925
         4        4875        4876        4927        4926
         4        4876        4877        4928        4927
         4        4877        4878        4929        4928
         4        4878        4879        4930        4929
         4        4879        4880        4931        4930
         4        4880        4881        4932        4931
         4        4881        4882        4933        4932
         4        4882        4883        4934        4933
         4        4883        4884        4935        4934
         4        4884        4885        4936        4935
         4        4885        4886        4937        4936
         4        4886        4887        4938        4937
         4        4887        4888        4939        4938
         4        4888        4889        4940        4939
         4        4889        4890        4941        4940
         4        4890        4891        4942        4941
         4        4891        4892        4943        4942
         4        4892        4893        4944        4943
         4        4893        4894        4945        4944
         4        4894        4895        4946        4945
         4        4896        4897        4948        4947
         4        4897        4898        4949        4948
         4        4898        4899        4950        4949
         4        4899        4900        4951        4950
         4        4900        4901        4952        4951
         4        4901        4902        4953        4952
         4        4902        4903        4954        4953
         4        4903        4904        4955        4954
         4        4904        4905        4956        4955
         4        4905        4906        4957        4956
         4        4906        4907        4958        4957
         4        4907        4908        4959        4958
         4        4908        4909        4960        4959
         4        4909        4910        4961        4960
         4        4910        4911        4962        4961
         4        4911        4912        4963        4962
         4        4912        4913        4964        4963
         4        4913        4914        4965        4964
         4        4914        4915        4966        4965
         4        4915        4916        4967        4966
         4        4916        4917        4968        4967
         4        4917        4918        4969        4968
         4        4918        4919        4970        4969
         4        4919        4920        4971        4970
         4        4920        4921        4972        4971
         4        4921        4922        4973        4972
         4        4922        4923        4974        4973
         4        4923        4924        4975        4974
         4        4924        4925        4976        4975
         4        4925        4926        4977        4976
         4        4926        4927        4978        4977
         4        4927        4928        4979        4978
         4        4928        4929        4980        4979
         4        4929        4930        4981        4980
         4        4930        4931        4982        4981
         4        4931        4932        4983        4982
         4        4932        4933        4984        4983
         4        4933        4934        4985        4984
         4        4934        4935        4986        4985
         4        4935        4936        4987        4986
         4        4936        4937        4988        4987
         4        4937        4938        4989        4988
         4        4938        4939        4990        4989
         4        4939        4940        4991        4990
         4        4940        4941        4992        4991
         4        4941        4942        4993        4992
         4        4942        4943        4994        4993
         4        4943        4944        4995        4994
         4        4944        4945        4996        4995
         4        4945        4946        4997        4996
         4        4947        4948        4999        4998
         4        4948        4949        5000        4999
         4        4949        4950        5001        5000
         4        4950        4951        5002        5001
         4        4951        4952        5003        5002
         4        4952        4953        5004        5003
         4        4953        4954        5005        5004
         4        4954        4955        5006        5005
         4        4955        4956        5007        5006
         4        4956        4957        5008        5007
         4        4957        4958        5009        5008
         4        4958        4959        5010        5009
         4        4959        4960        5011        5010
         4        4960        4961        5012        5011
         4        4961        4962        5013        5012
         4        4962        4963        5014        5013
         4        4963        4964        5015        5014
         4        4964        4965        5016        5015
         4        4965        4966        5017        5016
         4        4966        4967        5018        5017
         4        4967        4968        5019        5018
         4        4968        4969        5020        5019
         4        4969        4970        5021        5020
         4        4970        4971        5022        5021
         4        4971        4972        5023        5022
         4        4972        4973        5024        5023
         4        4973        4974        5025        5024
         4        4974        4975        5026        5025
         4        4975        4976        5027        5026
         4        4976        4977        5028        5027
         4        4977        4978        5029        5028
         4        4978        4979        5030        5029
         4        4979        4980        5031        5030
         4        4980        4981        5032        5031
         4        4981        4982        5033        5032
         4        4982        4983        5034        5033
         4        4983        4984        5035        5034
         4        4984        4985        5036        5035
         4        4985        4986        5037        5036
         4        4986        4987        5038        5037
         4        4987        4988        5039        5038
         4        4988        4989        5040        5039
         4        4989        4990        5041        5040
         4        4990        4991        5042        5041
         4        4991        4992        5043        5042
         4        4992        4993        5044        5043
         4        4993        4994        5045        5044
         4        4994        4995        5046        5045
         4        4995        4996        5047        5046
         4        4996        4997        5048        5047
         4        4998        4999        5050        5049
         4        4999        5000        5051        5050
         4        5000        5001        5052        5051
         4        5001        5002        5053        5052
         4        5002        5003        5054        5053
         4        5003        5004        5055        5054
         4        5004        5005        5056        5055
         4        5005        5006        5057        5056
         4        5006        5007        5058        5057
         4        5007        5008        5059        5058
         4        5008        5009        5060        5059
         4        5009        5010        5061        5060
         4        5010        5011        5062        5061
         4        5011        5012        5063        5062
         4        5012        5013        5064        5063
         4        5013        5014        5065        5064
         4        5014        5015        5066        5065
         4        5015        5016        5067        5066
         4        5016        5017        5068        5067
         4        5017        5018        5069        5068
         4        5018        5019        5070        5069
         4        5019        5020        5071        5070
         4        5020        5021        5072        5071
         4        5021        5022        5073        5072
         4        5022        5023        5074        5073
         4        5023        5024        5075        5074
         4        5024        5025        5076        5075
         4        5025        5026        5077        5076
         4        5026        5027        5078        5077
         4        5027        5028        5079        5078
         4        5028        5029        5080        5079
         4        5029        5030        5081        5080
         4        5030        5031        5082        5081
         4        5031        5032        5083        5082
         4        5032        5033        5084        5083
         4        5033        5034        5085        5084
         4        5034        5035        5086        5085
         4        5035        5036        5087        5086
         4        5036        5037        5088        5087
         4        5037        5038        5089        5088
         4        5038        5039        5090        5089
         4        5039        5040        5091        5090
         4        5040        5041        5092        5091
         4        5041        5042        5093        5092
         4        5042        5043        5094        5093
         4        5043        5044        5095        5094
         4        5044        5045        5096        5095
         4        5045        5046        5097        5096
         4        5046        5047        5098        5097
         4        5047        5048        5099        5098
         4        5049        5050        5101        5100
         4        5050        5051        5102        5101
         4        5051        5052        5103        5102
         4        5052        5053        5104        5103
         4        5053        5054        5105        5104
         4        5054        5055        5106        5105
         4        5055        5056        5107        5106
         4        5056        5057        5108        5107
         4        5057        5058        5109        5108
         4        5058        5059        5110        5109
         4        5059        5060        5111        5110
         4        5060        5061        5112        5111
         4        5061        5062        5113        5112
         4        5062        5063        5114        5113
         4        5063        5064        5115        5114
         4        5064        5065        5116        5115
         4        5065        5066        5117        5116
         4        5066        5067        5118        5117
         4        5067        5068        5119        5118
         4        5068        5069        5120        5119
         4        5069        5070        5121        5120
         4        5070        5071        5122        5121
         4        5071        5072        5123        5122
         4        5072        5073        5124        5123
         4        5073        5074        5125        5124
         4        5074        5075        5126        5125
         4        5075        5076        5127        5126
         4        5076        5077        5128        5127
         4        5077        5078        5129        5128
         4        5078        5079        5130        5129
         4        5079        5080        5131        5130
         4        5080        5081        5132        5131
         4        5081        5082        5133        5132
         4        5082        5083        5134        5133
         4        5083        5084        5135        5134
         4        5084        5085        5136        5135
         4        5085        5086        5137        5136
         4        5086        5087        5138        5137
         4        5087        5088        5139        5138
         4        5088        5089        5140        5139
         4        5089        5090        5141        5140
         4        5090        5091        5142        5141
         4        5091        5092        5143        5142
         4        5092        5093        5144        5143
         4        5093        5094        5145        5144
         4        5094        5095        5146        5145
         4        5095        5096        5147        5146
         4        5096        5097        5148        5147
         4        5097        5098        5149        5148
         4        5098        5099        5150        5149
CELL_TYPES       5000
9
9
9
9
9
9
9
9
9
9
9
9
9
9
9
9
9
9
9
9
9
9
9
9
9
9
9
9
9
9
9
9
9
9
9
9
9
9
9
9
9
9
9
9
9
9
9
9
9
9
9
9
9
9
9
9
9
9
9
9
9
9
9
9
9
9
9
9
9
9
9
9
9
9
9
9
9
9
9
9
9
9
9
9
9
9
9
9
9
9
9
9
9
9
9
9
9
9
9
9
9
9
9
9
9
9
9
9
9
9
9
9
9
9
9
9
9
9
9
9
9
9
9
9
9
9
9
9
9
9
9
9
9
9
9
9
9
9
9
9
9
9
9
9
9
9
9
9
9
9
9
9
9
9
9
9
9
9
9
9
9
9
9
9
9
9
9
9
9
9
9
9
9
9
9
9
9
9
9
9
9
9
9
9
9
9
9
9
9
9
9
9
9
9
9
9
9
9
9
9
9
9
9
9
9
9
9
9
9
9
9
9
9
9
9
9
9
9
9
9
9
9
9
9
9
9
9
9
9
9
9
9
9
9
9
9
9
9
9
9
9
9
9
9
9
9
9
9
9
9
9
9
9
9
9
9
9
9
9
9
9
9
9
9
9
9
9
9
9
9
9
9
9
9
9
9
9
9
9
9
9
9
9
9
9
9
9
9
9
9
9
9
9
9
9
9
9
9
9
9
9
9
9
9
9
9
9
9
9
9
9
9
9
9
9
9
9
9
9
9
9
9
9
9
9
9
9
9
9
9
9
9
9
9
9
9
9
9
9
9
9
9
9
9
9
9
9
9
9
9
9
9
9
9
9
9
9
9
9
9
9
9
9
9
9
9
9
9
9
9
9
9
9
9
9
9
9
9
9
9
9
9
9
9
9
9
9
9
9
9
9
9
9
9
9
9
9
9
9
9
9
9
9
9
9
9
9
9
9
9
9
9
9
9
9
9
9
9
9
9
9
9
9
9
9
9
9
9
9
9
9
9
9
9
9
9
9
9
9
9
9
9
9
9
9
9
9
9
9
9
9
9
9
9
9
9
9
9
9
9
9
9
9
9
9
9
9
9
9
9
9
9
9
9
9
9
9
9
9
9
9
9
9
9
9
9
9
9
9
9
9
9
9
9
9
9
9
9
9
9
9
9
9
9
9
9
9
9
9
9
9
9
9
9
9
9
9
9
9
9
9
9
9
9
9
9
9
9
9
9
9
9
9
9
9
9
9
9
9
9
9
9
9
9
9
9
9
9
9
9
9
9
9
9
9
9
9
9
9
9
9
9
9
9
9
9
9
9
9
9
9
9
9
9
9
9
9
9
9
9
9
9
9
9
9
9
9
9
9
9
9
9
9
9
9
9
9
9
9
9
9
9
9
9
9
9
9
9
9
9
9
9
9
9
9
9
9
9
9
9
9
9
9
9
9
9
9
9
9
9
9
9
9
9
9
9
9
9
9
9
9
9
9
9
9
9
9
9
9
9
9
9
9
9
9
9
9
9
9
9
9
9
9
9
9
9
9
9
9
9
9
9
9
9
9
9
9
9
9
9
9
9
9
9
9
9
9
9
9
9
9
9
9
9
9
9
9
9
9
9
9
9
9
9
9
9
9
9
9
9
9
9
9
9
9
9
9
9
9
9
9
9
9
9
9
9
9
9
9
9
9
9
9
9
9
9
9
9
9
9
9
9
9
9
9
9
9
9
9
9
9
9
9
9
9
9
9
9
9
9
9
9
9
9
9
9
9
9
9
9
9
9
9
9
9
9
9
9
9
9
9
9
9
9
9
9
9
9
9
9
9
9
9
9
9
9
9
9
9
9
9
9
9
9
9
9
9
9
9
9
9
9
9
9
9
9
9
9
9
9
9
9
9
9
9
9
9
9
9
9
9
9
9
9
9
9
9
9
9
9
9
9
9
9
9
9
9
9
9
9
9
9
9
9
9
9
9
9
9
9
9
9
9
9
9
9
9
9
9
9
9
9
9
9
9
9
9
9
9
9
9
9
9
9
9
9
9
9
9
9
9
9
9
9
9
9
9
9
9
9
9
9
9
9
9
9
9
9
9
9
9
9
9
9
9
9
9
9
9
9
9
9
9
9
9
9
9
9
9
9
9
9
9
9
9
9
9
9
9
9
9
9
9
9
9
9
9
9
9
9
9
9
9
9
9
9
9
9
9
9
9
9
9
9
9
9
9
9
9
9
9
9
9
9
9
9
9
9
9
9
9
9
9
9
9
9
9
9
9
9
9
9
9
9
9
9
9
9
9
9
9
9
9
9
9
9
9
9
9
9
9
9
9
9
9
9
9
9
9
9
9
9
9
9
9
9
9
9
9
9
9
9
9
9
9
9
9
9
9
9
9
9
9
9
9
9
9
9
9
9
9
9
9
9
9
9
9
9
9
9
9
9
9
9
9
9
9
9
9
9
9
9
9
9
9
9
9
9
9
9
9
9
9
9
9
9
9
9
9
9
9
9
9
9
9
9
9
9
9
9
9
9
9
9
9
9
9
9
9
9
9
9
9
9
9
9
9
9
9
9
9
9
9
9
9
9
9
9
9
9
9
9
9
9
9
9
9
9
9
9
9
9
9
9
9
9
9
9
9
9
9
9
9
9
9
9
9
9
9
9
9
9
9
9
9
9
9
9
9
9
9
9
9
9
9
9
9
9
9
9
9
9
9
9
9
9
9
9
9
9
9
9
9
9
9
9
9
9
9
9
9
9
9
9
9
9
9
9
9
9
9
9
9
9
9
9
9
9
9
9
9
9
9
9
9
9
9
9
9
9
9
9
9
9
9
9
9
9
9
9
9
9
9
9
9
9
9
9
9
9
9
9
9
9
9
9
9
9
9
9
9
9
9
9
9
9
9
9
9
9
9
9
9
9
9
9
9
9
9
9
9
9
9
9
9
9
9
9
9
9
9
9
9
9
9
9
9
9
9
9
9
9
9
9
9
9
9
9
9
9
9
9
9
9
9
9
9
9
9
9
9
9
9
9
9
9
9
9
9
9
9
9
9
9
9
9
9
9
9
9
9
9
9
9
9
9
9
9
9
9
9
9
9
9
9
9
9
9
9
9
9
9
9
9
9
9
9
9
9
9
9
9
9
9
9
9
9
9
9
9
9
9
9
9
9
9
9
9
9
9
9
9
9
9
9
9
9
9
9
9
9
9
9
9
9
9
9
9
9
9
9
9
9
9
9
9
9
9
9
9
9
9
9
9
9
9
9
9
9
9
9
9
9
9
9
9
9
9
9
9
9
9
9
9
9
9
9
9
9
9
9
9
9
9
9
9
9
9
9
9
9
9
9
9
9
9
9
9
9
9
9
9
9
9
9
9
9
9
9
9
9
9
9
9
9
9
9
9
9
9
9
9
9
9
9
9
9
9
9
9
9
9
9
9
9
9
9
9
9
9
9
9
9
9
9
9
9
9
9
9
9
9
9
9
9
9
9
9
9
9
9
9
9
9
9
9
9
9
9
9
9
9
9
9
9
9
9
9
9
9
9
9
9
9
9
9
9
9
9
9
9
9
9
9
9
9
9
9
9
9
9
9
9
9
9
9
9
9
9
9
9
9
9
9
9
9
9
9
9
9
9
9
9
9
9
9
9
9
9
9
9
9
9
9
9
9
9
9
9
9
9
9
9
9
9
9
9
9
9
9
9
9
9
9
9
9
9
9
9
9
9
9
9
9
9
9
9
9
9
9
9
9
9
9
9
9
9
9
9
9
9
9
9
9
9
9
9
9
9
9
9
9
9
9
9
9
9
9
9
9
9
9
9
9
9
9
9
9
9
9
9
9
9
9
9
9
9
9
9
9
9
9
9
9
9
9
9
9
9
9
9
9
9
9
9
9
9
9
9
9
9
9
9
9
9
9
9
9
9
9
9
9
9
9
9
9
9
9
9
9
9
9
9
9
9
9
9
9
9
9
9
9
9
9
9
9
9
9
9
9
9
9
9
9
9
9
9
9
9
9
9
9
9
9
9
9
9
9
9
9
9
9
9
9
9
9
9
9
9
9
9
9
9
9
9
9
9
9
9
9
9
9
9
9
9
9
9
9
9
9
9
9
9
9
9
9
9
9
9
9
9
9
9
9
9
9
9
9
9
9
9
9
9
9
9
9
9
9
9
9
9
9
9
9
9
9
9
9
9
9
9
9
9
9
9
9
9
9
9
9
9
9
9
9
9
9
9
9
9
9
9
9
9
9
9
9
9
9
9
9
9
9
9
9
9
9
9
9
9
9
9
9
9
9
9
9
9
9
9
9
9
9
9
9
9
9
9
9
9
9
9
9
9
9
9
9
9
9
9
9
9
9
9
9
9
9
9
9
9
9
9
9
9
9
9
9
9
9
9
9
9
9
9
9
9
9
9
9
9
9
9
9
9
9
9
9
9
9
9
9
9
9
9
9
9
9
9
9
9
9
9
9
9
9
9
9
9
9
9
9
9
9
9
9
9
9
9
9
9
9
9
9
9
9
9
9
9
9
9
9
9
9
9
9
9
9
9
9
9
9
9
9
9
9
9
9
9
9
9
9
9
9
9
9
9
9
9
9
9
9
9
9
9
9
9
9
9
9
9
9
9
9
9
9
9
9
9
9
9
9
9
9
9
9
9
9
9
9
9
9
9
9
9
9
9
9
9
9
9
9
9
9
9
9
9
9
9
9
9
9
9
9
9
9
9
9
9
9
9
9
9
9
9
9
9
9
9
9
9
9
9
9
9
9
9
9
9
9
9
9
9
9
9
9
9
9
9
9
9
9
9
9
9
9
9
9
9
9
9
9
9
9
9
9
9
9
9
9
9
9
9
9
9
9
9
9
9
9
9
9
9
9
9
9
9
9
9
9
9
9
9
9
9
9
9
9
9
9
9
9
9
9
9
9
9
9
9
9
9
9
9
9
9
9
9
9
9
9
9
9
9
9
9
9
9
9
9
9
9
9
9
9
9
9
9
9
9
9
9
9
9
9
9
9
9
9
9
9
9
9
9
9
9
9
9
9
9
9
9
9
9
9
9
9
9
9
9
9
9
9
9
9
9
9
9
9
9
9
9
9
9
9
9
9
9
9
9
9
9
9
9
9
9
9
9
9
9
9
9
9
9
9
9
9
9
9
9
9
9
9
9
9
9
9
9
9
9
9
9
9
9
9
9
9
9
9
9
9
9
9
9
9
9
9
9
9
9
9
9
9
9
9
9
9
9
9
9
9
9
9
9
9
9
9
9
9
9
9
9
9
9
9
9
9
9
9
9
9
9
9
9
9
9
9
9
9
9
9
9
9
9
9
9
9
9
9
9
9
9
9
9
9
9
9
9
9
9
9
9
9
9
9
9
9
9
9
9
9
9
9
9
9
9
9
9
9
9
9
9
9
9
9
9
9
9
9
9
9
9
9
9
9
9
9
9
9
9
9
9
9
9
9
9
9
9
9
9
9
9
9
9
9
9
9
9
9
9
9
9
9
9
9
9
9
9
9
9
9
9
9
9
9
9
9
9
9
9
9
9
9
9
9
9
9
9
9
9
9
9
9
9
9
9
9
9
9
9
9
9
9
9
9
9
9
9
9
9
9
9
9
9
9
9
9
9
9
9
9
9
9
9
9
9
9
9
9
9
9
9
9
9
9
9
9
9
9
9
9
9
9
9
9
9
9
9
9
9
9
9
9
9
9
9
9
9
9
9
9
9
9
9
9
9
9
9
9
9
9
9
9
9
9
9
9
9
9
9
9
9
9
9
9
9
9
9
9
9
9
9
9
9
9
9
9
9
9
9
9
9
9
9
9
9
9
9
9
9
9
9
9
9
9
9
9
9
9
9
9
9
9
9
9
9
9
9
9
9
9
9
9
9
9
9
9
9
9
9
9
9
9
9
9
9
9
9
9
9
9
9
9
9
9
9
9
9
9
9
9
9
9
9
9
9
9
9
9
9
9
9
9
9
9
9
9
9
9
9
9
9
9
9
9
9
9
9
9
9
9
9
9
9
9
9
9
9
9
9
9
9
9
9
9
9
9
9
9
9
9
9
9
9
9
9
9
9
9
9
9
9
9
9
9
9
9
9
9
9
9
9
9
9
9
9
9
9
9
9
9
9
9
9
9
9
9
9
9
9
9
9
9
9
9
9
9
9
9
9
9
9
9
9
9
9
9
9
9
9
9
9
9
9
9
9
9
9
9
9
9
9
9
9
9
9
9
9
9
9
9
9
9
9
9
9
9
9
9
9
9
9
9
9
9
9
9
9
9
9
9
9
9
9
9
9
9
9
9
9
9
9
9
9
9
9
9
9
9
9
9
9
9
9
9
9
9
9
9
9
9
9
9
9
9
9
9
9
9
9
9
9
9
9
9
9
9
9
9
9
9
9
9
9
9
9
9
9
9
9
9
9
9
9
9
9
9
9
9
9
9
9
9
9
9
9
9
9
9
9
9
9
9
9
9
9
9
9
9
9
9
9
9
9
9
9
9
9
9
9
9
9
9
9
9
9
9
9
9
9
9
9
9
9
9
9
9
9
9
9
9
9
9
9
9
9
9
9
9
9
9
9
9
9
9
9
9
9
9
9
9
9
9
9
9
9
9
9
9
9
9
9
9
9
9
9
9
9
9
9
9
9
9
9
9
9
9
9
9
9
9
9
9
9
9
9
9
9
9
9
9
9
9
9
9
9
9
9
9
9
9
9
9
9
9
9
9
9
9
9
9
9
9
9
9
9
9
9
9
9
9
9
9
9
9
9
9
9
9
9
9
9
9
9
9
9
9
9
9
9
9
9
9
9
9
9
9
9
9
9
9
9
9
9
9
9
9
9
9
9
9
9
9
9
9
9
9
9
9
9
9
9
9
9
9
9
9
9
9
9
9
9
9
9
9
9
9
9
9
9
9
9
9
9
9
9
9
9
9
9
9
9
9
9
9
9
9
9
9
9
9
9
9
9
9
9
9
9
9
9
9
9
9
9
9
9
9
9
9
9
9
9
9
9
9
9
9
9
9
9
9
9
9
9
9
9
9
9
9
9
9
9
9
9
9
9
9
9
9
9
9
9
9
9
9
9
9
9
9
9
9
9
9
9
9
9
9
9
9
9
9
9
9
9
9
9
9
9
9
9
9
9
9
9
9
9
9
9
9
9
9
9
9
9
9
9
9
9
9
9
9
9
9
9
9
9
9
9
9
9
9
9
9
9
9
9
9
9
9
9
9
9
9
9
9
9
9
9
9
9
9
9
9
9
9
9
9
9
9
9
9
9
9
9
9
9
9
9
9
9
9
9
9
9
9
9
9
9
9
9
9
9
9
9
9
9
9
9
9
9
9
9
9
9
9
9
9
9
9
9
9
9
9
9
9
9
9
9
9
9
9
9
9
9
9
9
9
9
9
9
9
9
9
9
9
9
9
9
9
9
9
9
9
9
9
9
9
9
9
9
9
9
9
9
9
9
9
9
9
9
9
9
9
9
9
9
9
9
9
9
9
9
9
9
9
9
9
9
9
9
9
9
9
9
9
9
9
9
9
9
9
9
9
9
9
9
9
9
9
9
9
9
9
9
9
9
9
9
9
9
9
9
9
9
9
9
9
9
9
9
9
9
9
9
9
9
9
9
9
9
9
9
9
9
9
9
9
9
9
9
9
9
9
9
9
9
9
9
9
9
9
9
9
9
9
9
9
9
9
9
9
9
9
9
9
9
9
9
9
9
9
9
9
9
9
9
9
9
9
9
9
9
9
9
9
9
9
9
9
9
9
9
9
9
9
9
9
9
9
9
9
9
9
9
9
9
9
9
9
9
9
9
9
9
9
9
9
9
9
9
9
9
9
9
9
9
9
9
9
9
9
9
9
9
9
9
9
9
9
9
9
9
9
9
9
9
9
9
9
9
9
9
9
9
9
9
9
9
9
9
9
9
9
9
9
9
9
9
9
9
9
9
9
9
9
9
9
9
9
9
9
9
9
9
9
9
9
9
9
9
9
9
9
9
9
9
9
9
9
9
9
9
9
9
9
9
9
9
9
9
9
9
9
9
9
9
9
9
9
9
9
9
9
9
9
9
9
9
9
9
9
9
9
9
9
9
9
9
9
9
9
9
9
9
9
9
9
9
9
9
9
9
9
9
9
9
9
9
9
9
9
9
9
9
9
9
9
9
9
9
9
9
9
9
9
9
9
9
9
9
9
9
9
9
9
9
9
9
9
9
9
9
9
9
9
9
9
9
9
9
9
9
9
9
9
9
9
9
9
9
9
9
9
9
9
9
9
9
9
9
9
9
9
9
9
9
9
9
9
9
9
9
9
9
9
9
9
9
9
9
9
9
9
9
9
9
9
9
9
9
9
9
9
9
9
9
9
9
9
9
9
9
9
9
9
9
9
9
9
9
9
9
9
9
9
9
9
9
9
9
9
9
9
9
9
9
9
9
9
9
9
9
9
9
9
9
9
9
9
9
9
9
9
9
9
9
9
9
9
9
9
9
9
9
9
9
9
9
9
9
9
9
9
9
9
9
9
9
9
9
9
9
9
9
9
9
9
9
9
9
9
9
9
9
9
9
9
9
9
9
9
9
9
9
9
9
9
9
9
9
9
9
9
9
9
9
9
9
9
9
9
9
9
9
9
9
9
9
9
9
9
9
9
9
9
9
9
9
9
9
9
9
9
9
9
9
9
9
9
9
9
9
9
9
9
9
9
9
9
9
9
9
9
9
9
9
9
9
9
9
9
9
9
9
9
9
9
9
9
9
9
9
9
9
9
9
9
9
9
9
9
9
9
9
9
9
9
9
9
9
9
9
9
9
9
9
9
9
9
9
9
9
9
9
9
9
9
9
9
9
9
9
9
9
9
9
9
9
9
9
9
9
9
9
9
9
9
9
9
9
9
9
9
9
9
9
9
9
9
9
9
9
9
9
9
9
9
9
9
9
9
9
9
9
9
9
9
9
9
9
9
9
9
9
9
9
9
9
9
9
9
9
9
9
9
9
9
9
9
9
9
9
9
9
9
9
9
9
9
9
9
9
9
9
9
9
9
9
9
9
9
9
9
9
9
9
9
9
9
9
9
9
9
9
9
9
9
9
9
9
9
9
9
9
9
9
9
9
9
9
9
9
9
9
9
9
9
9
9
9
9
9
9
9
9
9
9
9
9
9
9
9
9
9
9
9
9
9
9
9
9
9
9
9
9
9
9
9
9
9
9
9
9
9
9
9
9
9
9
9
9
9
9
9
9
9
9
9
9
9
9
9
9
9
9
9
9
9
9
9
9
9
9
9
9
9
9
9
9
9
9
9
9
9
9
9
9
9
9
9
9
9
9
9
9
9
9
9
9
9
9
9
9
9
9
9
9
9
9
9
9
9
9
9
9
9
9
9
9
9
9
9
9
9
9
9
9
9
9
9
9
9
9
9
9
9
9
9
9
9
9
9
9
9
9
9
9
9
9
9
9
9
9
9
9
9
9
9
9
9
9
9
9
9
9
9
9
9
9
9
9
9
9
9
9
9
9
9
9
9
9
9
9
9
9
9
9
9
9
9
9
9
9
9
9
9
9
9
9
9
9
9
9
9
9
9
9
9
9
9
9
9
9
9
9
9
9
9
9
9
9
9
9
9
9
9
9
9
9
9
9
9
9
9
9
9
9
9
9
9
9
9
9
9
9
9
9
9
9
9
9
9
9
9
9
9
9
9
9
9
9
9
9
9
9
9
9
9
9
9
9
9
9
9
9
9
9
9
9
9
9
9
9
9
9
9
9
9
9
9
9
9
9
9
9
9
9
9
9
9
9
9
9
9
9
9
9
9
9
9
9
9
9
9
9
9
9
9
9
9
9
9
9
9
9
9
9
9
9
9
9
9
9
9
9
9
9
9
9
9
9
9
9
9
9
9
9
9
9
9
9
9
9
9
9
9
9
9
9
9
9
9
9
9
9
9
9
9
9
9
9
9
9
9
9
9
9
9
9
9
9
9
9
9
9
9
9
9
9
9
9
9
9
9
9
9
9
9
9
9
9
9
9
9
9
9
9
9
9
9
9
9
9
9
9
9
9
9
9
9
9
9
9
9
9
9
9
9
9
9
9
9
9
9
9
9
9
9
9
9
9
9
9
9
9
9
9
9
9
9
9
9
9
9
9
9
9
9
9
9
9
9
9
9
9
9
9
9
9
9
9
9
9
9
9
9
9
9
9
9
9
9
9
9
9
9
9
9
9
9
9
9
9
9
9
9
9
9
9
9
9
9
9
9
9
9
9
9
9
9
9
9
9
9
9
9
9
9
9
9
9
9
9
9
9
9
9
9
9
9
9
9
9
9
9
9
9
9
9
9
9
9
9
9
9
9
9
9
9
9
9
9
9
9
9
9
9
9
9
9
9
9
9
9
9
9
9
9
9
9
9
9
9
9
9
9
9
9
9
9
9
9
9
9
9
9
9
9
9
9
9
9
9
9
9
9
9
9
9
9
9
9
9
9
9
9
9
9
9
9
9
9
9
9
9
9
9
9
9
9
9
9
9
9
9
9
9
9
9
9
9
9
9
9
9
9
9
9
9
9
9
9
9
9
9
9
9
9
9
9
9
9
9
9
9
9
9
9
9
9
9
9
9
9
9
9
9
9
9
9
9
9
9
9
9
9
9
9
9
9
9
9
9
9
9
9
9
9
9
9
9
9
9
9
9
9
9
9
9
9
9
9
9
9
9
9
9
9
9
9
9
9
9
9
9
9
9
9
9
9
9
9
9
9
9
9
9
9
9
9
9
9
9
9
9
9
9
9
9
9
9
9
9
9
9
9
9
9
9
9
9
9
9
9
9
9
9
9
9
9
9
9
9
9
9
9
9
9
9
9
9
9
9
9
9
9
9
9
9
9
9
9
9
9
9
9
9
9
9
9
9
9
9
9
9
9
9
9
9
9
9
9
9
9
9
9
9
9
9
9
9
9
9
9
9
9
9
9
9
9
9
9
9
9
9
9
9
9
9
9
9
9
9
9
9
9
9
9
9
9
9
9
9
9
9
9
9
9
9
9
9
9
9
9
9
9
9
9
9
9
9
9
9
9
9
9
9
9
9
9
9
9
9
9
9
9
9
9
9
9
9
9
9
9
9
9
9
9
9
9
9
9
9
9
9
9
9
9
9
9
9
9
9
9
9
9
9
9
9
9
9
9
9
9
9
9
9
9
9
9
9
9
9
9
9
9
9
9
9
9
9
9
9
9
9
9
9
9
9
9
9
9
9
9
9
9
9
9
9
9
9
9
9
9
9
9
9
9
9
9
9
9
9
9
9
9
9
9
9
9
9
9
9
POINT_DATA      5151
SCALARS p double 
LOOKUP_TABLE default
   50000000.0000000     
   50000000.0000000     
   50000000.0000000     
   50000000.0000000     
   50000000.0000000     
   50000000.0000000     
   50000000.0000000     
   50000000.0000000     
   50000000.0000000     
   50000000.0000000     
   50000000.0000000     
   50000000.0000000     
   50000000.0000000     
   50000000.0000000     
   50000000.0000000     
   50000000.0000000     
   50000000.0000000     
   50000000.0000000     
   50000000.0000000     
   50000000.0000000     
   50000000.0000000     
   50000000.0000000     
   50000000.0000000     
   50000000.0000000     
   50000000.0000000     
   50000000.0000000     
   50000000.0000000     
   50000000.0000000     
   50000000.0000000     
   50000000.0000000     
   50000000.0000000     
   50000000.0000000     
   50000000.0000000     
   50000000.0000000     
   50000000.0000000     
   50000000.0000000     
   50000000.0000000     
   50000000.0000000     
   50000000.0000000     
   50000000.0000000     
   50000000.0000000     
   50000000.0000000     
   50000000.0000000     
   50000000.0000000     
   50000000.0000000     
   50000000.0000000     
   50000000.0000000     
   50000000.0000000     
   50000000.0000000     
   50000000.0000000     
   50000000.0000000     
   49954225.1364327     
   49954232.3198591     
   49954251.8763740     
   49954281.4032063     
   49954319.0675986     
   49954363.4441664     
   49954413.4041876     
   49954468.0388928     
   49954526.6053602     
   49954588.4876815     
   49954653.1686133     
   49954720.2085458     
   49954789.2296576     
   49954859.9038026     
   49954931.9431221     
   49955005.0926717     
   49955079.1245590     
   49955153.8332266     
   49955229.0316107     
   49955304.5479775     
   49955380.2232879     
   49955455.9089749     
   49955531.4650455     
   49955606.7584399     
   49955681.6615888     
   49955756.0511285     
   49955829.8067328     
   49955902.8100316     
   49955974.9435881     
   49956046.0899085     
   49956116.1304602     
   49956184.9446721     
   49956252.4088929     
   49956318.3952769     
   49956382.7705638     
   49956445.3947123     
   49956506.1193377     
   49956564.7858882     
   49956621.2234781     
   49956675.2462663     
   49956726.6502293     
   49956775.2091212     
   49956820.6693279     
   49956862.7431976     
   49956901.1002362     
   49956935.3552640     
   49956965.0521703     
   49956989.6411734     
   49957008.4463318     
   49957020.6181733     
   49957025.0632565     
   49910004.4124089     
   49910012.3028166     
   49910035.0925027     
   49910071.3813706     
   49910119.7688093     
   49910178.9266374     
   49910247.6304361     
   49910324.7686490     
   49910409.3402524     
   49910500.4469731     
   49910597.2833077     
   49910699.1260720     
   49910805.3243528     
   49910915.2902617     
   49911028.4906337     
   49911144.4396781     
   49911262.6925214     
   49911382.8395556     
   49911504.5014926     
   49911627.3250304     
   49911750.9790442     
   49911875.1512195     
   49911999.5450604     
   49912123.8772083     
   49912247.8750179     
   49912371.2743424     
   49912493.8174835     
   49912615.2512708     
   49912735.3252319     
   49912853.7898227     
   49912970.3946845     
   49913084.8868984     
   49913197.0092032     
   49913306.4981475     
   49913413.0821376     
   49913516.4793479     
   49913616.3954504     
   49913712.5211212     
   49913804.5292762     
   49913892.0719877     
   49913974.7770337     
   49914052.2440438     
   49914124.0402255     
   49914189.6957103     
   49914248.6986565     
   49914300.4904433     
   49914344.4616483     
   49914379.9501636     
   49914406.2440084     
   49914422.5935779     
   49914428.2420001     
   49866945.3578344     
   49866953.3982471     
   49866976.7697938     
   49867014.3902279     
   49867065.2098054     
   49867128.2045860     
   49867202.3806467     
   49867286.7807280     
   49867380.4899211     
   49867482.6393495     
   49867592.4078126     
   49867709.0217291     
   49867831.7538072     
   49867959.9208341     
   49868092.8809052     
   49868230.0303364     
   49868370.8004373     
   49868514.6542659     
   49868661.0834460     
   49868809.6050969     
   49868959.7589020     
   49869111.1043292     
   49869263.2180027     
   49869415.6912217     
   49869568.1276125     
   49869720.1409025     
   49869871.3527988     
   49870021.3909555     
   49870169.8870127     
   49870316.4746900     
   49870460.7879198     
   49870602.4590028     
   49870741.1167736     
   49870876.3847615     
   49871007.8793389     
   49871135.2078467     
   49871257.9666980     
   49871375.7394604     
   49871488.0949329     
   49871594.5852418     
   49871694.7439986     
   49871788.0845879     
   49871874.0986774     
   49871952.2550819     
   49872021.9991385     
   49872082.7527724     
   49872133.9153902     
   49872174.8655718     
   49872204.9630644     
   49872223.5494743     
   49872229.9436232     
   49824747.6432671     
   49824755.3072073     
   49824777.7716765     
   49824814.2323179     
   49824863.8784885     
   49824925.9019182     
   49824999.5015552     
   49825083.8872573     
   49825178.2830385     
   49825281.9299225     
   49825394.0882996     
   49825514.0397028     
   49825641.0879792     
   49825774.5598830     
   49825913.8051513     
   49826058.1961408     
   49826207.1271050     
   49826360.0131887     
   49826516.2892097     
   49826675.4082834     
   49826836.8403399     
   49827000.0705708     
   49827164.5978355     
   49827329.9330491     
   49827495.5975690     
   49827661.1215905     
   49827826.0425606     
   49827989.9036146     
   49828152.2520385     
   49828312.6377604     
   49828470.6118708     
   49828625.7251759     
   49828777.5267843     
   49828925.5627328     
   49829069.3746565     
   49829208.4985124     
   49829342.4633684     
   49829470.7902732     
   49829592.9912287     
   49829708.5682875     
   49829817.0128041     
   49829917.8048693     
   49830010.4129550     
   49830094.2937889     
   49830168.8924641     
   49830233.6427642     
   49830287.9676574     
   49830331.2799110     
   49830362.9828577     
   49830382.4716977     
   49830389.1367335     
   49783153.8976781     
   49783161.0058530     
   49783181.9340836     
   49783216.0765848     
   49783262.8126886     
   49783321.5100476     
   49783391.5283587     
   49783472.2228177     
   49783562.9471539     
   49783663.0562664     
   49783771.9084927     
   49783888.8675346     
   49784013.3040507     
   49784144.5969248     
   49784282.1342241     
   49784425.3138625     
   49784573.5439939     
   49784726.2431605     
   49784882.8402257     
   49785042.7741200     
   49785205.4934268     
   49785370.4558380     
   49785537.1274988     
   49785704.9822674     
   49785873.5009071     
   49786042.1702280     
   49786210.4821927     
   49786377.9330006     
   49786544.0221604     
   49786708.2515632     
   49786870.1245649     
   49787029.1450874     
   49787184.8167482     
   49787336.6420279     
   49787484.1214845     
   49787626.7530254     
   49787764.0312474     
   49787895.4468550     
   49788020.4861692     
   49788138.6307348     
   49788249.3570385     
   49788352.1363425     
   49788446.4346421     
   49788531.7127486     
   49788607.4265033     
   49788673.0271284     
   49788727.9617294     
   49788771.6739735     
   49788803.6049597     
   49788823.1942047     
   49788829.8803060     
   49741935.9369108     
   49741942.4181787     
   49741961.5693138     
   49741992.9335900     
   49742036.0330385     
   49742090.3715548     
   49742155.4376605     
   49742230.7071022     
   49742315.6452877     
   49742409.7095325     
   49742512.3511004     
   49742623.0170313     
   49742741.1517567     
   49742866.1985068     
   49742997.6005154     
   49743134.8020290     
   49743277.2491314     
   49743424.3903918     
   49743575.6773506     
   49743730.5648562     
   49743888.5112648     
   49744048.9785201     
   49744211.4321253     
   49744375.3410229     
   49744540.1773956     
   49744705.4164017     
   49744870.5358574     
   49745035.0158783     
   49745198.3384912     
   49745359.9872270     
   49745519.4467047     
   49745676.2022164     
   49745829.7393224     
   49745979.5434644     
   49746125.0996070     
   49746265.8919128     
   49746401.4034609     
   49746531.1160141     
   49746654.5098415     
   49746771.0636025     
   49746880.2542959     
   49746981.5572797     
   49747074.4463632     
   49747158.3939768     
   49747232.8714182     
   49747297.3491785     
   49747351.2973419     
   49747394.1860493     
   49747425.4860097     
   49747444.6690571     
   49747451.2088638     
   49700886.7033386     
   49700892.5637543     
   49700909.9270256     
   49700938.4473577     
   49700977.7551332     
   49701027.4592198     
   49701087.1492165     
   49701156.3975815     
   49701234.7616378     
   49701321.7854529     
   49701417.0015928     
   49701519.9327434     
   49701630.0932007     
   49701746.9902252     
   49701870.1252651     
   49701998.9950481     
   49702133.0925466     
   49702271.9078213     
   49702414.9287488     
   49702561.6416384     
   49702711.5317483     
   49702864.0837058     
   49703018.7818416     
   49703175.1104460     
   49703332.5539563     
   49703490.5970826     
   49703648.7248825     
   49703806.4227916     
   49703963.1766185     
   49704118.4725135     
   49704271.7969163     
   49704422.6364930     
   49704570.4780665     
   49704714.8085490     
   49704855.1148819     
   49704990.8839892     
   49705121.6027487     
   49705246.7579869     
   49705365.8365011     
   49705478.3251122     
   49705583.7107515     
   49705681.4805838     
   49705771.1221676     
   49705852.1236544     
   49705923.9740259     
   49705986.1633677     
   49706038.1831794     
   49706079.5267187     
   49706109.6893821     
   49706128.1691206     
   49706134.4668573     
   49659815.2590007     
   49659820.5454362     
   49659836.2411329     
   49659862.0814308     
   49659897.7771822     
   49659943.0166166     
   49659997.4671341     
   49660060.7770308     
   49660132.5771510     
   49660212.4824612     
   49660300.0935413     
   49660394.9979916     
   49660496.7717530     
   49660604.9803398     
   49660719.1799855     
   49660838.9187002     
   49660963.7372437     
   49661093.1700131     
   49661226.7458505     
   49661363.9887715     
   49661504.4186205     
   49661647.5516551     
   49661792.9010655     
   49661939.9774327     
   49662088.2891320     
   49662237.3426849     
   49662386.6430674     
   49662535.6939780     
   49662683.9980716     
   49662831.0571646     
   49662976.3724164     
   49663119.4444917     
   49663259.7737091     
   49663396.8601804     
   49663530.2039437     
   49663659.3050966     
   49663783.6639301     
   49663902.7810683     
   49664016.1576164     
   49664123.2953187     
   49664223.6967288     
   49664316.8653932     
   49664402.3060501     
   49664479.5248416     
   49664548.0295422     
   49664607.3298006     
   49664656.9373953     
   49664696.3665014     
   49664725.1339661     
   49664742.7595873     
   49664748.7663997     
   49618543.2421958     
   49618548.0240682     
   49618562.2439843     
   49618585.6948251     
   49618618.1456100     
   49618659.3429832     
   49618709.0126600     
   49618766.8608316     
   49618832.5755222     
   49618905.8278964     
   49618986.2735150     
   49619073.5535363     
   49619167.2958616     
   49619267.1162231     
   49619372.6192140     
   49619483.3992610     
   49619599.0415378     
   49619719.1228221     
   49619843.2122958     
   49619970.8722912     
   49620101.6589830     
   49620235.1230309     
   49620370.8101723     
   49620508.2617704     
   49620647.0153188     
   49620786.6049067     
   49620926.5616468     
   49621066.4140702     
   49621205.6884908     
   49621343.9093427     
   49621480.5994938     
   49621615.2805388     
   49621747.4730744     
   49621876.6969597     
   49622002.4715642     
   49622124.3160069     
   49622241.7493871     
   49622354.2910103     
   49622461.4606109     
   49622562.7785717     
   49622657.7661434     
   49622745.9456641     
   49622826.8407778     
   49622899.9766560     
   49622964.8802177     
   49623021.0803509     
   49623068.1081333     
   49623105.4970508     
   49623132.7832140     
   49623149.5055706     
   49623155.2061112     
   49576902.2306684     
   49576906.5870521     
   49576919.5555499     
   49576940.9678116     
   49576970.6330471     
   49577008.3392072     
   49577053.8541427     
   49577106.9267397     
   49577167.2880263     
   49577234.6522508     
   49577308.7179270     
   49577389.1688468     
   49577475.6750558     
   49577567.8937940     
   49577665.4703970     
   49577768.0391609     
   49577875.2241664     
   49577986.6400663     
   49578101.8928328     
   49578220.5804674     
   49578342.2936739     
   49578466.6164941     
   49578593.1269093     
   49578721.3974066     
   49578850.9955142     
   49578981.4843050     
   49579112.4228710     
   49579243.3667708     
   49579373.8684512     
   49579503.4776457     
   49579631.7417504     
   49579758.2061809     
   49579882.4147098     
   49580003.9097890     
   49580122.2328561     
   49580236.9246281     
   49580347.5253825     
   49580453.5752286     
   49580554.6143675     
   49580650.1833454     
   49580739.8232967     
   49580823.0761810     
   49580899.4850122     
   49580968.5940809     
   49581029.9491694     
   49581083.0977589     
   49581127.5892300     
   49581162.9750535     
   49581188.8089725     
   49581204.6471736     
   49581210.0484468     
   49534731.6931428     
   49534735.7046409     
   49534747.6534163     
   49534767.3950457     
   49534794.7645432     
   49534829.5772890     
   49534871.6299503     
   49534920.7013894     
   49534976.5535586     
   49535038.9323790     
   49535107.5686004     
   49535182.1786434     
   49535262.4654180     
   49535348.1191216     
   49535438.8180126     
   49535534.2291594     
   49535634.0091648     
   49535737.8048646     
   49535845.2540002     
   49535955.9858657     
   49536069.6219288     
   49536185.7764256     
   49536304.0569315     
   49536424.0649057     
   49536545.3962128     
   49536667.6416206     
   49536790.3872747     
   49536913.2151528     
   49537035.7034961     
   49537157.4272235     
   49537277.9583241     
   49537396.8662340     
   49537513.7181954     
   49537628.0795991     
   49537739.5143127     
   49537847.5849945     
   49537951.8533934     
   49538051.8806362     
   49538147.2275030     
   49538237.4546903     
   49538322.1230633     
   49538400.7938969     
   49538473.0291062     
   49538538.3914658     
   49538596.4448187     
   49538646.7542737     
   49538688.8863926     
   49538722.4093643     
   49538746.8931682     
   49538761.9097243     
   49538767.0330296     
   49491877.3508443     
   49491881.0944490     
   49491892.2466393     
   49491910.6753000     
   49491936.2298469     
   49491968.7419494     
   49492008.0262522     
   49492053.8810936     
   49492106.0892205     
   49492164.4184956     
   49492228.6225970     
   49492298.4417073     
   49492373.6031921     
   49492453.8222652     
   49492538.8026409     
   49492628.2371707     
   49492721.8084653     
   49492819.1895000     
   49492920.0442036     
   49493024.0280294     
   49493130.7885102     
   49493239.9657943     
   49493351.1931639     
   49493464.0975371     
   49493578.2999503     
   49493693.4160248     
   49493809.0564153     
   49493924.8272423     
   49494040.3305071     
   49494155.1644913     
   49494268.9241404     
   49494381.2014324     
   49494491.5857311     
   49494599.6641258     
   49494705.0217555     
   49494807.2421219     
   49494905.9073867     
   49495000.5986583     
   49495090.8962639     
   49495176.3800111     
   49495256.6294362     
   49495331.2240413     
   49495399.7435186     
   49495461.7679639     
   49495516.8780773     
   49495564.6553528     
   49495604.6822548     
   49495636.5423830     
   49495659.8206241     
   49495674.1032908     
   49495678.9782479     
   49448189.8336754     
   49448193.3797980     
   49448203.9406430     
   49448221.3874330     
   49448245.5750679     
   49448276.3426785     
   49448313.5141839     
   49448356.8988532     
   49448406.2918679     
   49448461.4748843     
   49448522.2165949     
   49448588.2732850     
   49448659.3893868     
   49448735.2980257     
   49448815.7215618     
   49448900.3721218     
   49448988.9521235     
   49449081.1547899     
   49449176.6646538     
   49449275.1580514     
   49449376.3036041     
   49449479.7626895     
   49449585.1898994     
   49449692.2334865     
   49449800.5357978     
   49449909.7336953     
   49450019.4589650     
   49450129.3387119     
   49450238.9957427     
   49450348.0489367     
   49450456.1136023     
   49450562.8018229     
   49450667.7227889     
   49450770.4831184     
   49450870.6871651     
   49450967.9373148     
   49451061.8342698     
   49451151.9773211     
   49451237.9646097     
   49451319.3933756     
   49451395.8601961     
   49451466.9612115     
   49451532.2923409     
   49451591.4494847     
   49451644.0287171     
   49451689.6264664     
   49451727.8396833     
   49451758.2659983     
   49451780.5038665     
   49451794.1527007     
   49451798.8129921     
   49403523.5534537     
   49403526.9644436     
   49403537.1164895     
   49403553.8773422     
   49403577.1005197     
   49403606.6257242     
   49403642.2792659     
   49403683.8744953     
   49403731.2122401     
   49403784.0812460     
   49403842.2586204     
   49403905.5102771     
   49403973.5913810     
   49404046.2467921     
   49404123.2115067     
   49404204.2110966     
   49404288.9621434     
   49404377.1726685     
   49404468.5425571     
   49404562.7639770     
   49404659.5217898     
   49404758.4939547     
   49404859.3519255     
   49404961.7610384     
   49405065.3808914     
   49405169.8657160     
   49405274.8647376     
   49405380.0225288     
   49405484.9793518     
   49405589.3714914     
   49405692.8315787     
   49405794.9889041     
   49405895.4697208     
   49405993.8975386     
   49406089.8934066     
   49406183.0761871     
   49406273.0628181     
   49406359.4685667     
   49406441.9072716     
   49406519.9915759     
   49406593.3331496     
   49406661.5429011     
   49406724.2311800     
   49406781.0079681     
   49406831.4830610     
   49406875.2662389     
   49406911.9674269     
   49406941.1968455     
   49406962.5651497     
   49406975.6835580     
   49406980.1639708     
   49357735.7396295     
   49357739.0692972     
   49357748.9706677     
   49357765.3029529     
   49357787.9130991     
   49357816.6360941     
   49357851.2952847     
   49357891.7027037     
   49357937.6594036     
   49357988.9557976     
   49358045.3720054     
   49358106.6782027     
   49358172.6349746     
   49358242.9936699     
   49358317.4967579     
   49358395.8781833     
   49358477.8637224     
   49358563.1713369     
   49358651.5115254     
   49358742.5876722     
   49358836.0963929     
   49358931.7278754     
   49359029.1662168     
   49359128.0897548     
   49359228.1713941     
   49359329.0789264     
   49359430.4753446     
   49359532.0191498     
   49359633.3646520     
   49359734.1622639     
   49359834.0587862     
   49359932.6976869     
   49360029.7193714     
   49360124.7614459     
   49360217.4589716     
   49360307.4447123     
   49360394.3493720     
   49360477.8018253     
   49360557.4293387     
   49360632.8577841     
   49360703.7118428     
   49360769.6152015     
   49360830.1907393     
   49360885.0607058     
   49360933.8468908     
   49360976.1707849     
   49361011.6537310     
   49361039.9170677     
   49361060.5822626     
   49361073.2710379     
   49361077.6054865     
   49310685.5982892     
   49310688.8920738     
   49310698.6767201     
   49310714.7992226     
   49310737.0961174     
   49310765.3937040     
   49310799.5082781     
   49310839.2463741     
   49310884.4050164     
   49310934.7719781     
   49310990.1260471     
   49311050.2372973     
   49311114.8673643     
   49311183.7697258     
   49311256.6899844     
   49311333.3661528     
   49311413.5289407     
   49311496.9020420     
   49311583.2024225     
   49311672.1406065     
   49311763.4209633     
   49311856.7419904     
   49311951.7965960     
   49312048.2723776     
   49312145.8518981     
   49312244.2129578     
   49312343.0288631     
   49312441.9686898     
   49312540.6975425     
   49312638.8768091     
   49312736.1644091     
   49312832.2150374     
   49312926.6804016     
   49313019.2094539     
   49313109.4486160     
   49313197.0419989     
   49313281.6316150     
   49313362.8575839     
   49313440.3583323     
   49313513.7707857     
   49313582.7305539     
   49313646.8721094     
   49313705.8289585     
   49313759.2338054     
   49313806.7187090     
   49313847.9152322     
   49313882.4545846     
   49313909.9677571     
   49313930.0856501     
   49313942.4391937     
   49313946.6594610     
   49262233.5658942     
   49262236.8614135     
   49262246.6405568     
   49262262.7355127     
   49262284.9696453     
   49262313.1576492     
   49262347.1057161     
   49262386.6117111     
   49262431.4653581     
   49262481.4484332     
   49262536.3349651     
   49262595.8914429     
   49262659.8770286     
   49262728.0437752     
   49262800.1368485     
   49262875.8947527     
   49262955.0495587     
   49263037.3271348     
   49263122.4473787     
   49263210.1244501     
   49263300.0670053     
   49263391.9784293     
   49263485.5570696     
   49263580.4964675     
   49263676.4855888     
   49263773.2090517     
   49263870.3473532     
   49263967.5770929     
   49264064.5711926     
   49264160.9991144     
   49264256.5270740     
   49264350.8182502     
   49264443.5329908     
   49264534.3290140     
   49264622.8616049     
   49264708.7838076     
   49264791.7466127     
   49264871.3991387     
   49264947.3888095     
   49265019.3615254     
   49265086.9618298     
   49265149.8330690     
   49265207.6175481     
   49265259.9566793     
   49265306.4911264     
   49265346.8609422     
   49265380.7057005     
   49265407.6646230     
   49265427.3766991     
   49265439.4808017     
   49265443.6157959     
   49212240.6367741     
   49212243.9645745     
   49212253.8287840     
   49212270.0450428     
   49212292.4216257     
   49212320.7595473     
   49212354.8526772     
   49212394.4878648     
   49212439.4450727     
   49212489.4975185     
   49212544.4118237     
   49212603.9481693     
   49212667.8604574     
   49212735.8964783     
   49212807.7980823     
   49212883.3013556     
   49212962.1367999     
   49213044.0295149     
   49213128.6993833     
   49213215.8612580     
   49213305.2251502     
   49213396.4964197     
   49213489.3759642     
   49213583.5604101     
   49213678.7423021     
   49213774.6102929     
   49213870.8493317     
   49213967.1408507     
   49214063.1629510     
   49214158.5905858     
   49214253.0957416     
   49214346.3476170     
   49214438.0127986     
   49214527.7554338     
   49214615.2374009     
   49214700.1184754     
   49214782.0564926     
   49214860.7075075     
   49214935.7259492     
   49215006.7647730     
   49215073.4756073     
   49215135.5088969     
   49215192.5140415     
   49215244.1395308     
   49215290.0330743     
   49215329.8417268     
   49215363.2120106     
   49215389.7900316     
   49215409.2215923     
   49215421.1523000     
   49215425.2276704     
   49160567.7488519     
   49160571.1332325     
   49160581.1547605     
   49160597.6114310     
   49160620.2951682     
   49160648.9918929     
   49160683.4815986     
   49160723.5384371     
   49160768.9308118     
   49160819.4214788     
   49160874.7676552     
   49160934.7211335     
   49160999.0284022     
   49161067.4307720     
   49161139.6645066     
   49161215.4609578     
   49161294.5467051     
   49161376.6436983     
   49161461.4694030     
   49161548.7369492     
   49161638.1552813     
   49161729.4293104     
   49161822.2600679     
   49161916.3448596     
   49162011.3774209     
   49162107.0480720     
   49162203.0438732     
   49162299.0487797     
   49162394.7437955     
   49162489.8071271     
   49162583.9143353     
   49162676.7384858     
   49162767.9502982     
   49162857.2182929     
   49162944.2089365     
   49163028.5867838     
   49163110.0146187     
   49163188.1535921     
   49163262.6633559     
   49163333.2021965     
   49163399.4271631     
   49163460.9941943     
   49163517.5582410     
   49163568.7733870     
   49163614.2929648     
   49163653.7696696     
   49163686.8556697     
   49163713.2027131     
   49163732.4622311     
   49163744.2854394     
   49163748.3234346     
   49107075.2160265     
   49107078.6758561     
   49107088.9109812     
   49107105.7011425     
   49107128.8211541     
   49107158.0409425     
   49107193.1255948     
   49107233.8354132     
   49107279.9259787     
   49107331.1482204     
   49107387.2484919     
   49107447.9686540     
   49107513.0461621     
   49107582.2141601     
   49107655.2015779     
   49107731.7332339     
   49107811.5299415     
   49107894.3086191     
   49107979.7824028     
   49108067.6607628     
   49108157.6496216     
   49108249.4514747     
   49108342.7655127     
   49108437.2877455     
   49108532.7111269     
   49108628.7256809     
   49108725.0186276     
   49108821.2745102     
   49108917.1753222     
   49109012.4006333     
   49109106.6277160     
   49109199.5316711     
   49109290.7855525     
   49109380.0604908     
   49109467.0258157     
   49109551.3491773     
   49109632.6966656     
   49109710.7329284     
   49109785.1212873     
   49109855.5238523     
   49109921.6016337     
   49109983.0146522     
   49110039.4220472     
   49110090.4821822     
   49110135.8527486     
   49110175.1908666     
   49110208.1531844     
   49110234.3959743     
   49110253.5752272     
   49110265.3467442     
   49110269.3662268     
   49051622.1985197     
   49051625.7479980     
   49051636.2392239     
   49051653.4334373     
   49051677.0879624     
   49051706.9562272     
   49051742.7877890     
   49051784.3283682     
   49051831.3198880     
   49051883.5005198     
   49051940.6047353     
   49052002.3633640     
   49052068.5036550     
   49052138.7493450     
   49052212.8207295     
   49052290.4347388     
   49052371.3050177     
   49052455.1420088     
   49052541.6530387     
   49052630.5424074     
   49052721.5114803     
   49052814.2587821     
   49052908.4800933     
   49053003.8685476     
   49053100.1147322     
   49053196.9067877     
   49053293.9305104     
   49053390.8694543     
   49053487.4050342     
   49053583.2166294     
   49053677.9816867     
   49053771.3758244     
   49053863.0729349     
   49053952.7452880     
   49054040.0636328     
   49054124.6972997     
   49054206.3143006     
   49054284.5814293     
   49054359.1643595     
   49054429.7277430     
   49054495.9353057     
   49054557.4499423     
   49054613.9338101     
   49054665.0484213     
   49054710.4547328     
   49054749.8132360     
   49054782.7840437     
   49054809.0269760     
   49054828.2016450     
   49054839.9675368     
   49054843.9840932     
   48994066.2045794     
   48994069.8539145     
   48994080.6319382     
   48994098.2814106     
   48994122.5420721     
   48994153.1506486     
   48994189.8408622     
   48994232.3434478     
   48994280.3861756     
   48994333.6938790     
   48994391.9884876     
   48994454.9890647     
   48994522.4118503     
   48994593.9703076     
   48994669.3751734     
   48994748.3345136     
   48994830.5537809     
   48994915.7358763     
   48995003.5812137     
   48995093.7877872     
   48995186.0512410     
   48995280.0649416     
   48995375.5200524     
   48995472.1056093     
   48995569.5085987     
   48995667.4140373     
   48995765.5050518     
   48995863.4629609     
   48995960.9673578     
   48996057.6961931     
   48996153.3258584     
   48996247.5312708     
   48996339.9859561     
   48996430.3621341     
   48996518.3308021     
   48996603.5618192     
   48996685.7239897     
   48996764.4851468     
   48996839.5122346     
   48996910.4713910     
   48996977.0280284     
   48997038.8469148     
   48997095.5922533     
   48997146.9277613     
   48997192.5167481     
   48997232.0221924     
   48997265.1068183     
   48997291.4331698     
   48997310.6636854     
   48997322.4607711     
   48997326.4868720     
   48934262.6184609     
   48934266.3744508     
   48934277.4598609     
   48934295.5991873     
   48934320.5147062     
   48934351.9264685     
   48934389.5522994     
   48934433.1078034     
   48934482.3063736     
   48934536.8592061     
   48934596.4753188     
   48934660.8615738     
   48934729.7227046     
   48934802.7613466     
   48934879.6780716     
   48934960.1714253     
   48935043.9379679     
   48935130.6723186     
   48935220.0672018     
   48935311.8134965     
   48935405.6002880     
   48935501.1149218     
   48935598.0430595     
   48935696.0687369     
   48935794.8744230     
   48935894.1410814     
   48935993.5482329     
   48936092.7740182     
   48936191.4952635     
   48936289.3875454     
   48936386.1252575     
   48936481.3816769     
   48936574.8290320     
   48936666.1385699     
   48936754.9806245     
   48936841.0246848     
   48936923.9394629     
   48937003.3929624     
   48937079.0525459     
   48937150.5850037     
   48937217.6566203     
   48937279.9332426     
   48937337.0803459     
   48937388.7631008     
   48937434.6464389     
   48937474.3951180     
   48937507.6737874     
   48937534.1470515     
   48937553.4795340     
   48937565.3359410     
   48937569.3811234     
   48872064.2507211     
   48872068.1172384     
   48872079.5219328     
   48872098.1713962     
   48872123.7707200     
   48872156.0234827     
   48872194.6317421     
   48872239.2960307     
   48872289.7153565     
   48872345.5872063     
   48872406.6075539     
   48872472.4708707     
   48872542.8701410     
   48872617.4968798     
   48872696.0411533     
   48872778.1916038     
   48872863.6354757     
   48872952.0586458     
   48873043.1456545     
   48873136.5797407     
   48873232.0428782     
   48873329.2158144     
   48873427.7781105     
   48873527.4081843     
   48873627.7833537     
   48873728.5798825     
   48873829.4730266     
   48873930.1370828     
   48874030.2454374     
   48874129.4706165     
   48874227.4843368     
   48874323.9575579     
   48874418.5605342     
   48874510.9628683     
   48874600.8335641     
   48874687.8410810     
   48874771.6533878     
   48874851.9380175     
   48874928.3621211     
   48875000.5925229     
   48875068.2957747     
   48875131.1382107     
   48875188.7860016     
   48875240.9052095     
   48875287.1618416     
   48875327.2219047     
   48875360.7514586     
   48875387.4166699     
   48875406.8838651     
   48875418.8195842     
   48875422.8906328     
   48807320.9076939     
   48807324.8860756     
   48807336.6144090     
   48807355.7818476     
   48807382.0766995     
   48807415.1864106     
   48807454.7975502     
   48807500.5958011     
   48807552.2659522     
   48807609.4918948     
   48807671.9566218     
   48807739.3422295     
   48807811.3299228     
   48807887.6000229     
   48807967.8319781     
   48808051.7043758     
   48808138.8949588     
   48808229.0806425     
   48808321.9375345     
   48808417.1409571     
   48808514.3654704     
   48808613.2848986     
   48808713.5723572     
   48808814.9002818     
   48808916.9404593     
   48809019.3640591     
   48809121.8416670     
   48809224.0433192     
   48809325.6385383     
   48809426.2963694     
   48809525.6854182     
   48809623.4738890     
   48809719.3296239     
   48809812.9201424     
   48809903.9126818     
   48809991.9742387     
   48810076.7716091     
   48810157.9714314     
   48810235.2402273     
   48810308.2444450     
   48810376.6505014     
   48810440.1248245     
   48810498.3338969     
   48810550.9442979     
   48810597.6227472     
   48810638.0361476     
   48810671.8516281     
   48810698.7365867     
   48810718.3587336     
   48810730.3861343     
   48810734.4872521     
   48739878.9776358     
   48739883.0669873     
   48739895.1166669     
   48739914.7989379     
   48739941.7858233     
   48739975.7490847     
   48740016.3602049     
   48740063.2903723     
   48740116.2104680     
   48740174.7910563     
   48740238.7023766     
   48740307.6143385     
   48740381.1965187     
   48740459.1181607     
   48740541.0481761     
   48740626.6551483     
   48740715.6073387     
   48740807.5726938     
   48740902.2188549     
   48740999.2131694     
   48741098.2227040     
   48741198.9142587     
   48741300.9543839     
   48741404.0093967     
   48741507.7454010     
   48741611.8283069     
   48741715.9238524     
   48741819.6976259     
   48741922.8150897     
   48742024.9416046     
   48742125.7424554     
   48742224.8828769     
   48742322.0280813     
   48742416.8432856     
   48742508.9937403     
   48742598.1447581     
   48742683.9617438     
   48742766.1102236     
   48742844.2558762     
   48742918.0645634     
   48742987.2023609     
   48743051.3355902     
   48743110.1308499     
   48743163.2550479     
   48743210.3754335     
   48743251.1596299     
   48743285.2756664     
   48743312.3920109     
   48743332.1776033     
   48743344.3018877     
   48743348.4348457     
   48669581.0315234     
   48669585.2289446     
   48669597.5916997     
   48669617.7757782     
   48669645.4374960     
   48669680.2334722     
   48669721.8206074     
   48669769.8560650     
   48669823.9972539     
   48669883.9018129     
   48669949.2275980     
   48670019.6326708     
   48670094.7752889     
   48670174.3138985     
   48670257.9071284     
   48670345.2137856     
   48670435.8928531     
   48670529.6034885     
   48670626.0050251     
   48670724.7569736     
   48670825.5190257     
   48670927.9510588     
   48671031.7131424     
   48671136.4655454     
   48671241.8687445     
   48671347.5834341     
   48671453.2705370     
   48671558.5912161     
   48671663.2068873     
   48671766.7792327     
   48671868.9702157     
   48671969.4420958     
   48672067.8574446     
   48672163.8791628     
   48672257.1704970     
   48672347.3950584     
   48672434.2168406     
   48672517.3002388     
   48672596.3100694     
   48672670.9115899     
   48672740.7705191     
   48672805.5530580     
   48672864.9259105     
   48672918.5563054     
   48672966.1120173     
   48673007.2613889     
   48673041.6733536     
   48673069.0174570     
   48673088.9638804     
   48673101.1834632     
   48673105.3477261     
   48596265.4368772     
   48596269.7376199     
   48596282.3996717     
   48596303.0634260     
   48596331.3701421     
   48596366.9619203     
   48596409.4816769     
   48596458.5731220     
   48596513.8807380     
   48596575.0497602     
   48596641.7261583     
   48596713.5566196     
   48596790.1885340     
   48596871.2699796     
   48596956.4497105     
   48597045.3771454     
   48597137.7023574     
   48597233.0760659     
   48597331.1496286     
   48597431.5750358     
   48597534.0049047     
   48597638.0924762     
   48597743.4916114     
   48597849.8567900     
   48597956.8431096     
   48598064.1062856     
   48598171.3026523     
   48598278.0891649     
   48598384.1234022     
   48598489.0635701     
   48598592.5685060     
   48598694.2976839     
   48598793.9112200     
   48598891.0698788     
   48598985.4350807     
   48599076.6689090     
   48599164.4341183     
   48599248.3941429     
   48599328.2131061     
   48599403.5558297     
   48599474.0878440     
   48599539.4753979     
   48599599.3854700     
   48599653.4857798     
   48599701.4447989     
   48599742.9317629     
   48599777.6166837     
   48599805.1703612     
   48599825.2643969     
   48599837.5712064     
   48599841.7640323     
   48519765.9833239     
   48519770.3808907     
   48519783.3232484     
   48519804.4359329     
   48519833.3458687     
   48519869.6813405     
   48519913.0719662     
   48519963.1486708     
   48520019.5436613     
   48520081.8904028     
   48520149.8235952     
   48520222.9791516     
   48520300.9941774     
   48520383.5069505     
   48520470.1569023     
   48520560.5845999     
   48520654.4317296     
   48520751.3410809     
   48520850.9565315     
   48520952.9230332     
   48521056.8865996     
   48521162.4942932     
   48521269.3942144     
   48521377.2354910     
   48521485.6682688     
   48521594.3437024     
   48521702.9139477     
   48521811.0321540     
   48521918.3524578     
   48522024.5299765     
   48522129.2208035     
   48522232.0820033     
   48522332.7716078     
   48522430.9486125     
   48522526.2729740     
   48522618.4056072     
   48522707.0083839     
   48522791.7441311     
   48522872.2766305     
   48522948.2706174     
   48523019.3917818     
   48523085.3067676     
   48523145.6831741     
   48523200.1895570     
   48523248.4954300     
   48523290.2712664     
   48523325.1885013     
   48523352.9195347     
   48523373.1377332     
   48523385.5174341     
   48523389.7339483     
   48439911.5189181     
   48439916.0051098     
   48439929.2037170     
   48439950.7262228     
   48439980.1860116     
   48440017.1983381     
   48440061.3802969     
   48440112.3507925     
   48440169.7305107     
   48440233.1418895     
   48440302.2090922     
   48440376.5579795     
   48440455.8160837     
   48440539.6125831     
   48440627.5782768     
   48440719.3455606     
   48440814.5484036     
   48440912.8223253     
   48441013.8043736     
   48441117.1331037     
   48441222.4485567     
   48441329.3922403     
   48441437.6071090     
   48441546.7375459     
   48441656.4293440     
   48441766.3296895     
   48441876.0871442     
   48441985.3516303     
   48442093.7744138     
   48442201.0080902     
   48442306.7065699     
   48442410.5250639     
   48442512.1200709     
   48442611.1493638     
   48442707.2719779     
   48442800.1481989     
   48442889.4395509     
   48442974.8087860     
   48443055.9198734     
   48443132.4379894     
   48443204.0295075     
   48443270.3619891     
   48443331.1041743     
   48443385.9259740     
   48443434.4984605     
   48443476.4938605     
   48443511.5855472     
   48443539.4480327     
   48443559.7569615     
   48443572.1891035     
   48443576.4223479     
   48356525.5965289     
   48356530.1614489     
   48356543.5872025     
   48356565.4720989     
   48356595.4168586     
   48356633.0245794     
   48356677.9007017     
   48356729.6529750     
   48356787.8914240     
   48356852.2283159     
   48356922.2781271     
   48356997.6575110     
   48357077.9852658     
   48357162.8823033     
   48357251.9716172     
   48357344.8782530     
   48357441.2292774     
   48357540.6537485     
   48357642.7826867     
   48357747.2490462     
   48357853.6876862     
   48357961.7353432     
   48358071.0306040     
   48358181.2138787     
   48358291.9273742     
   48358402.8150687     
   48358513.5226861     
   48358623.6976711     
   48358732.9891649     
   48358841.0479812     
   48358947.5265828     
   48359052.0790582     
   48359154.3610995     
   48359254.0299801     
   48359350.7445326     
   48359444.1651279     
   48359533.9536540     
   48359619.7734959     
   48359701.2895149     
   48359778.1680293     
   48359850.0767950     
   48359916.6849864     
   48359977.6631774     
   48360032.6833240     
   48360081.4187454     
   48360123.5441071     
   48360158.7354031     
   48360186.6699390     
   48360207.0263157     
   48360219.4844124     
   48360223.7253711     
   48269426.1298916     
   48269430.7619130     
   48269444.3805735     
   48269466.5719731     
   48269496.9251363     
   48269535.0319742     
   48269580.4872453     
   48269632.8885168     
   48269691.8361266     
   48269756.9331441     
   48269827.7853319     
   48269904.0011078     
   48269985.1915065     
   48270070.9701413     
   48270160.9531671     
   48270254.7592422     
   48270352.0094917     
   48270452.3274701     
   48270555.3391247     
   48270660.6727597     
   48270767.9589993     
   48270876.8307530     
   48270986.9231796     
   48271097.8736520     
   48271209.3217233     
   48271320.9090917     
   48271432.2795669     
   48271543.0790365     
   48271652.9554327     
   48271761.5586995     
   48271868.5407603     
   48271973.5554855     
   48272076.2586609     
   48272176.3079565     
   48272273.3628951     
   48272367.0848220     
   48272457.1368745     
   48272543.1839520     
   48272624.8926863     
   48272701.9314124     
   48272773.9701398     
   48272840.6805238     
   48272901.7358371     
   48272956.8109420     
   48273005.5822629     
   48273047.7277589     
   48273082.9268971     
   48273110.8606254     
   48273131.2113469     
   48273143.6628931     
   48273147.9004987     
   48178425.0592141     
   48178429.7449160     
   48178443.5169265     
   48178465.9502005     
   48178496.6231397     
   48178535.1175482     
   48178581.0185889     
   48178633.9147389     
   48178693.3977449     
   48178759.0625790     
   48178830.5073939     
   48178907.3334776     
   48178989.1452092     
   48179075.5500135     
   48179166.1583166     
   48179260.5835010     
   48179358.4418606     
   48179459.3525570     
   48179562.9375741     
   48179668.8216745     
   48179776.6323548     
   48179885.9998025     
   48179996.5568514     
   48180107.9389391     
   48180219.7840628     
   48180331.7327369     
   48180443.4279503     
   48180554.5151235     
   48180664.6420670     
   48180773.4589388     
   48180880.6182035     
   48180985.7745904     
   48181088.5850529     
   48181188.7087276     
   48181285.8068942     
   48181379.5429349     
   48181469.5822956     
   48181555.5924454     
   48181637.2428383     
   48181714.2048741     
   48181786.1518600     
   48181852.7589723     
   48181913.7032188     
   48181968.6634009     
   48182017.3200771     
   48182059.3555252     
   48182094.4537061     
   48182122.3002278     
   48182142.5823087     
   48182154.9887425     
   48182159.2098623     
   48083328.0265430     
   48083332.7506208     
   48083346.6308482     
   48083369.2322168     
   48083400.1236981     
   48083438.8781938     
   48083485.0724849     
   48083538.2871815     
   48083598.1066706     
   48083664.1190655     
   48083735.9161531     
   48083813.0933424     
   48083895.2496116     
   48083981.9874565     
   48084072.9128369     
   48084167.6351249     
   48084265.7670515     
   48084366.9246540     
   48084470.7272237     
   48084576.7972528     
   48084684.7603819     
   48084794.2453474     
   48084904.8839295     
   48085016.3108992     
   48085128.1639667     
   48085240.0837294     
   48085351.7136199     
   48085462.6998544     
   48085572.6913818     
   48085681.3398319     
   48085788.2994650     
   48085893.2271209     
   48085995.7821689     
   48086095.6264573     
   48086192.4242638     
   48086285.8422456     
   48086375.5493904     
   48086461.2169676     
   48086542.5184790     
   48086619.1296110     
   48086690.7281858     
   48086756.9941144     
   48086817.6093486     
   48086872.2578336     
   48086920.6254617     
   48086962.4000252     
   48086997.2711706     
   48087024.9303519     
   48087045.0707853     
   48087057.3874040     
   48087061.5768126     
   47983934.0614240     
   47983938.8065776     
   47983952.7439913     
   47983975.4300089     
   47984006.4255032     
   47984045.2958182     
   47984091.6107111     
   47984144.9442942     
   47984204.8749751     
   47984270.9853980     
   47984342.8623829     
   47984420.0968658     
   47984502.2838379     
   47984589.0222847     
   47984679.9151251     
   47984774.5691498     
   47984872.5949600     
   47984973.6069057     
   47985077.2230243     
   47985183.0649787     
   47985290.7579957     
   47985399.9308044     
   47985510.2155744     
   47985621.2478542     
   47985732.6665100     
   47985844.1136640     
   47985955.2346334     
   47986065.6778690     
   47986175.0948949     
   47986283.1402472     
   47986389.4714137     
   47986493.7487738     
   47986595.6355381     
   47986694.7976886     
   47986790.9039195     
   47986883.6255777     
   47986972.6366036     
   47987057.6134724     
   47987138.2351359     
   47987214.1829641     
   47987285.1406872     
   47987350.7943383     
   47987410.8321960     
   47987464.9447275     
   47987512.8245316     
   47987554.1662828     
   47987588.6666748     
   47987616.0243652     
   47987635.9399198     
   47987648.1157574     
   47987652.2560949     
   47880035.2777435     
   47880040.0245483     
   47880053.9618455     
   47880076.6388023     
   47880107.6096804     
   47880146.4337703     
   47880192.6753247     
   47880245.9034905     
   47880305.6922412     
   47880371.6203080     
   47880443.2711111     
   47880520.2326898     
   47880602.0976325     
   47880688.4630070     
   47880778.9302892     
   47880873.1052931     
   47880970.5980991     
   47881071.0229834     
   47881173.9983462     
   47881279.1466408     
   47881386.0943018     
   47881494.4716737     
   47881603.9129397     
   47881714.0560499     
   47881824.5426503     
   47881935.0180114     
   47882045.1309568     
   47882154.5337927     
   47882262.8822365     
   47882369.8353466     
   47882475.0554515     
   47882578.2080798     
   47882678.9618901     
   47882776.9886011     
   47882871.9629220     
   47882963.5624835     
   47883051.4677683     
   47883135.3620431     
   47883214.9312893     
   47883289.8641356     
   47883359.8517898     
   47883424.5879713     
   47883483.7688440     
   47883537.0929495     
   47883584.2611401     
   47883624.9765134     
   47883658.9443456     
   47883685.8720265     
   47883705.4689937     
   47883717.4466683     
   47883721.5183896     
   47771416.5830264     
   47771421.3097895     
   47771435.1829802     
   47771457.7462357     
   47771488.5488727     
   47771527.1458112     
   47771573.0974981     
   47771625.9698292     
   47771685.3340709     
   47771750.7667818     
   47771821.8497328     
   47771898.1698276     
   47771979.3190223     
   47772064.8942448     
   47772154.4973138     
   47772247.7348580     
   47772344.2182341     
   47772443.5634454     
   47772545.3910603     
   47772649.3261301     
   47772754.9981075     
   47772862.0407642     
   47772970.0921092     
   47773078.7943070     
   47773187.7935957     
   47773296.7402052     
   47773405.2882758     
   47773513.0957766     
   47773619.8244241     
   47773725.1396014     
   47773828.7102771     
   47773930.2089248     
   47774029.3114426     
   47774125.6970730     
   47774219.0483231     
   47774309.0508847     
   47774395.3935555     
   47774477.7681600     
   47774555.8694708     
   47774629.3951301     
   47774698.0455722     
   47774761.5239455     
   47774819.5360354     
   47774871.7901874     
   47774917.9972303     
   47774957.8704005     
   47774991.1252656     
   47775017.4796492     
   47775036.6535560     
   47775048.3690964     
   47775052.3504129     
   47657855.4018711     
   47657860.0844780     
   47657873.8224392     
   47657896.1557078     
   47657926.6305205     
   47657964.7993101     
   47658010.2206172     
   47658062.4590008     
   47658121.0849487     
   47658185.6747874     
   47658255.8105908     
   47658331.0800891     
   47658411.0765774     
   47658495.3988232     
   47658583.6509742     
   47658675.4424658     
   47658770.3879282     
   47658868.1070936     
   47658968.2247030     
   47659070.3704130     
   47659174.1787028     
   47659279.2887813     
   47659385.3444936     
   47659491.9942280     
   47659598.8908234     
   47659705.6914763     
   47659812.0576481     
   47659917.6549730     
   47660022.1531654     
   47660125.2259283     
   47660226.5508614     
   47660325.8093696     
   47660422.6865720     
   47660516.8712110     
   47660608.0555619     
   47660695.9353425     
   47660780.2096237     
   47660860.5807395     
   47660936.7541984     
   47661008.4385945     
   47661075.3455192     
   47661137.1894734     
   47661193.6877798     
   47661244.5604961     
   47661289.5303280     
   47661328.3225428     
   47661360.6648841     
   47661386.2874858     
   47661404.9227873     
   47661416.3054486     
   47661420.1722663     
   47539121.4156541     
   47539126.0274078     
   47539139.5514176     
   47539161.5260216     
   47539191.4964641     
   47539229.0147957     
   47539273.6397715     
   47539324.9367494     
   47539382.4775871     
   47539445.8405393     
   47539514.6101542     
   47539588.3771692     
   47539666.7384067     
   47539749.2966694     
   47539835.6606361     
   47539925.4447556     
   47540018.2691427     
   47540113.7594721     
   47540211.5468737     
   47540311.2678272     
   47540412.5640569     
   47540515.0824266     
   47540618.4748345     
   47540722.3981084     
   47540826.5139013     
   47540930.4885866     
   47541033.9931541     
   47541136.7031060     
   47541238.2983533     
   47541338.4631123     
   47541436.8858019     
   47541533.2589406     
   47541627.2790445     
   47541718.6465256     
   47541807.0655895     
   47541892.2441354     
   47541973.8936545     
   47542051.7291306     
   47542125.4689397     
   47542194.8347514     
   47542259.5514289     
   47542319.3469321     
   47542373.9522184     
   47542423.1011461     
   47542466.5303771     
   47542503.9792804     
   47542535.1898362     
   47542559.9065403     
   47542577.8763090     
   47542588.8483849     
   47542592.5742421     
   47414976.3211050     
   47414980.8325623     
   47414994.0558266     
   47415015.5299367     
   47415044.8014790     
   47415081.4244716     
   47415124.9602488     
   47415174.9773445     
   47415231.0513755     
   47415292.7649245     
   47415359.7074217     
   47415431.4750279     
   47415507.6705157     
   47415587.9031514     
   47415671.7885766     
   47415758.9486900     
   47415849.0115285     
   47415941.6111492     
   47416036.3875108     
   47416132.9863556     
   47416231.0590911     
   47416330.2626726     
   47416430.2594852     
   47416530.7172268     
   47416631.3087906     
   47416731.7121486     
   47416831.6102355     
   47416930.6908324     
   47417028.6464510     
   47417125.1742191     
   47417219.9757651     
   47417312.7571044     
   47417403.2285252     
   47417491.1044752     
   47417576.1034492     
   47417657.9478764     
   47417736.3640090     
   47417811.0818107     
   47417881.8348461     
   47417948.3601708     
   47418010.3982217     
   47418067.6927078     
   47418119.9905021     
   47418167.0415336     
   47418208.5986797     
   47418244.4176600     
   47418274.2569296     
   47418297.8775739     
   47418315.0432031     
   47418325.5198479     
   47418329.0758557     
   47285173.6108685     
   47285177.9896777     
   47285190.8168593     
   47285211.6347431     
   47285239.9938615     
   47285275.4528185     
   47285317.5781577     
   47285365.9442302     
   47285420.1330618     
   47285479.7342206     
   47285544.3446836     
   47285613.5687040     
   47285687.0176781     
   47285764.3100120     
   47285845.0709889     
   47285928.9326355     
   47286015.5335902     
   47286104.5189699     
   47286195.5402375     
   47286288.2550706     
   47286382.3272291     
   47286477.4264242     
   47286573.2281877     
   47286669.4137405     
   47286765.6698639     
   47286861.6887687     
   47286957.1679672     
   47287051.8101439     
   47287145.3230277     
   47287237.4192646     
   47287327.8162908     
   47287416.2362063     
   47287502.4056494     
   47287586.0556715     
   47287666.9216131     
   47287744.7429798     
   47287819.2633189     
   47287890.2300976     
   47287957.3945812     
   47288020.5117115     
   47288079.3399867     
   47288133.6413419     
   47288183.1810295     
   47288227.7275015     
   47288267.0522909     
   47288300.9298954     
   47288329.1376608     
   47288351.4556651     
   47288367.6666034     
   47288377.5556738     
   47288380.9104631     
   47149458.3797074     
   47149462.5904514     
   47149474.9172184     
   47149494.9085171     
   47149522.1217264     
   47149556.1229464     
   47149596.4868487     
   47149642.7965269     
   47149694.6433472     
   47149751.6267985     
   47149813.3543430     
   47149879.4412667     
   47149949.5105301     
   47150023.1926195     
   47150100.1253975     
   47150179.9539556     
   47150262.3304653     
   47150346.9140308     
   47150433.3705423     
   47150521.3725286     
   47150610.5990113     
   47150700.7353597     
   47150791.4731451     
   47150882.5099970     
   47150973.5494594     
   47151064.3008475     
   47151154.4791057     
   47151243.8046660     
   47151332.0033071     
   47151418.8060141     
   47151503.9488395     
   47151587.1727645     
   47151668.2235614     
   47151746.8516559     
   47151822.8119920     
   47151895.8638958     
   47151965.7709410     
   47152032.3008158     
   47152095.2251889     
   47152154.3195784     
   47152209.3632196     
   47152260.1389352     
   47152306.4330050     
   47152348.0350373     
   47152384.7378407     
   47152416.3372968     
   47152442.6322336     
   47152463.4242995     
   47152478.5178388     
   47152487.7197670     
   47152490.8394475     
   47007567.1605715     
   47007571.1646220     
   47007582.8772277     
   47007601.8562897     
   47007627.6692534     
   47007659.8929402     
   47007698.1133791     
   47007741.9256378     
   47007790.9336552     
   47007844.7500733     
   47007902.9960696     
   47007965.3011906     
   47008031.3031847     
   47008100.6478365     
   47008172.9888010     
   47008247.9874395     
   47008325.3126545     
   47008404.6407268     
   47008485.6551525     
   47008568.0464813     
   47008651.5121549     
   47008735.7563471     
   47008820.4898040     
   47008905.4296852     
   47008990.2994066     
   47009074.8284831     
   47009158.7523728     
   47009241.8123220     
   47009323.7552114     
   47009404.3334028     
   47009483.3045872     
   47009560.4316337     
   47009635.4824390     
   47009708.2297789     
   47009778.4511599     
   47009845.9286716     
   47009910.4488414     
   47009971.8024887     
   47010029.7845807     
   47010084.1940896     
   47010134.8338501     
   47010181.5104181     
   47010224.0339303     
   47010262.2179651     
   47010295.8794038     
   47010324.8382935     
   47010348.9177103     
   47010367.9436233     
   47010381.7447604     
   47010390.1524737     
   47010393.0006070     
   46859227.7953542     
   46859231.5507430     
   46859242.5256576     
   46859260.2909547     
   46859284.4277109     
   46859314.5270325     
   46859350.1898667     
   46859391.0268133     
   46859436.6579364     
   46859486.7125774     
   46859540.8291683     
   46859598.6550463     
   46859659.8462684     
   46859724.0674278     
   46859790.9914710     
   46859860.2995151     
   46859931.6806671     
   46860004.8318436     
   46860079.4575920     
   46860155.2699124     
   46860231.9880808     
   46860309.3384732     
   46860387.0543916     
   46860464.8758901     
   46860542.5496028     
   46860619.8285728     
   46860696.4720825     
   46860772.2454850     
   46860846.9200366     
   46860920.2727305     
   46860992.0861321     
   46861062.1482152     
   46861130.2521994     
   46861196.1963887     
   46861259.7840116     
   46861320.8230620     
   46861379.1261417     
   46861434.5103035     
   46861486.7968964     
   46861535.8114109     
   46861581.3833262     
   46861623.3459582     
   46861661.5363090     
   46861695.7949166     
   46861725.9657072     
   46861751.8958469     
   46861773.4355956     
   46861790.4381620     
   46861802.7595584     
   46861810.2584580     
   46861812.7960521     
   46704159.3457794     
   46704162.8070932     
   46704172.9107053     
   46704189.2443668     
   46704211.4067164     
   46704239.0070687     
   46704271.6652030     
   46704309.0111532     
   46704350.6849989     
   46704396.3366577     
   46704445.6256784     
   46704498.2210357     
   46704553.8009258     
   46704612.0525640     
   46704672.6719829     
   46704735.3638323     
   46704799.8411808     
   46704865.8253181     
   46704933.0455593     
   46705001.2390507     
   46705070.1505767     
   46705139.5323687     
   46705209.1439147     
   46705278.7517710     
   46705348.1293760     
   46705417.0568640     
   46705485.3208816     
   46705552.7144056     
   46705619.0365619     
   46705684.0924460     
   46705747.6929459     
   46705809.6545646     
   46705869.7992465     
   46705927.9542031     
   46705983.9517411     
   46706037.6290923     
   46706088.8282445     
   46706137.3957733     
   46706183.1826760     
   46706226.0442072     
   46706265.8397142     
   46706302.4324758     
   46706335.6895404     
   46706365.4815672     
   46706391.6826671     
   46706414.1702459     
   46706432.8248483     
   46706447.5300031     
   46706458.1720697     
   46706464.6400855     
   46706466.8256148     
   46542072.0504891     
   46542075.1687961     
   46542084.2572090     
   46542098.9247092     
   46542118.7918178     
   46542143.4903600     
   46542172.6632308     
   46542205.9641626     
   46542243.0574932     
   46542283.6179374     
   46542327.3303587     
   46542373.8895438     
   46542422.9999782     
   46542474.3756238     
   46542527.7396987     
   46542582.8244584     
   46542639.3709789     
   46542697.1289423     
   46542755.8564231     
   46542815.3196779     
   46542875.2929355     
   46542935.5581900     
   46542995.9049957     
   46543056.1302629     
   46543116.0380567     
   46543175.4393976     
   46543234.1520631     
   46543292.0003920     
   46543348.8150903     
   46543404.4330385     
   46543458.6971017     
   46543511.4559404     
   46543562.5638235     
   46543611.8804435     
   46543659.2707327     
   46543704.6046813     
   46543747.7571574     
   46543788.6077287     
   46543827.0404851     
   46543862.9438639     
   46543896.2104758     
   46543926.7369328     
   46543954.4236777     
   46543979.1748142     
   46544000.8979399     
   46544019.5039795     
   46544034.9070199     
   46544047.0241465     
   46544055.7752810     
   46544061.0830202     
   46544062.8724765     
   46372667.3350466     
   46372670.0578638     
   46372677.9768116     
   46372690.7268559     
   46372707.9551276     
   46372729.3206614     
   46372754.4941375     
   46372783.1576252     
   46372815.0043287     
   46372849.7383355     
   46372887.0743670     
   46372926.7375313     
   46372968.4630788     
   46373011.9961599     
   46373057.0915848     
   46373103.5135867     
   46373151.0355860     
   46373199.4399584     
   46373248.5178042     
   46373298.0687208     
   46373347.9005771     
   46373397.8292903     
   46373447.6786053     
   46373497.2798766     
   46373546.4718516     
   46373595.1004576     
   46373643.0185894     
   46373690.0859009     
   46373736.1685971     
   46373781.1392301     
   46373824.8764956     
   46373867.2650325     
   46373908.1952247     
   46373947.5630039     
   46373985.2696554     
   46374021.2216256     
   46374055.3303313     
   46374087.5119709     
   46374117.6873376     
   46374145.7816343     
   46374171.7242903     
   46374195.4487795     
   46374216.8924412     
   46374235.9963013     
   46374252.7048961     
   46374266.9660969     
   46374278.7309373     
   46374287.9534405     
   46374294.5904492     
   46374298.6014568     
   46374299.9484392     
   46195637.8822011     
   46195640.1535126     
   46195646.7384270     
   46195657.3030847     
   46195671.5263761     
   46195689.0996540     
   46195709.7264500     
   46195733.1221945     
   46195759.0139384     
   46195787.1400786     
   46195817.2500871     
   46195849.1042416     
   46195882.4733611     
   46195917.1385426     
   46195952.8909030     
   46195989.5313217     
   46196026.8701883     
   46196064.7271519     
   46196102.9308740     
   46196141.3187844     
   46196179.7368396     
   46196218.0392845     
   46196256.0884166     
   46196293.7543535     
   46196330.9148025     
   46196367.4548339     
   46196403.2666554     
   46196438.2493913     
   46196472.3088621     
   46196505.3573685     
   46196537.3134766     
   46196568.1018063     
   46196597.6528217     
   46196625.9026239     
   46196652.7927467     
   46196678.2699535     
   46196702.2860374     
   46196724.7976226     
   46196745.7659689     
   46196765.1567768     
   46196782.9399963     
   46196799.0896366     
   46196813.5835775     
   46196826.4033836     
   46196837.5341193     
   46196846.9641665     
   46196854.6850430     
   46196860.6912234     
   46196864.9799613     
   46196867.5511127     
   46196868.4069617     
   46010667.7703737     
   46010669.5307111     
   46010674.6069730     
   46010682.7021131     
   46010693.5323636     
   46010706.8269219     
   46010722.3276415     
   46010739.7887269     
   46010758.9764318     
   46010779.6687619     
   46010801.6551810     
   46010824.7363214     
   46010848.7236979     
   46010873.4394260     
   46010898.7159428     
   46010924.3957334     
   46010950.3310592     
   46010976.3836911     
   46011002.4246458     
   46011028.3339259     
   46011054.0002630     
   46011079.3208651     
   46011104.2011665     
   46011128.5545816     
   46011152.3022618     
   46011175.3728558     
   46011197.7022727     
   46011219.2334482     
   46011239.9161145     
   46011259.7065720     
   46011278.5674650     
   46011296.4675593     
   46011313.3815235     
   46011329.2897117     
   46011344.1779502     
   46011358.0373256     
   46011370.8639763     
   46011382.6588855     
   46011393.4276773     
   46011403.1804146     
   46011411.9313994     
   46011419.6989753     
   46011426.5053320     
   46011432.3763115     
   46011437.3412172     
   46011441.4326236     
   46011444.6861891     
   46011447.1404697     
   46011448.8367347     
   46011449.8187843     
   46011450.1327686     
   45817432.6889012     
   45817433.8755002     
   45817437.2589163     
   45817442.5850093     
   45817449.6133740     
   45817458.1169996     
   45817467.8819355     
   45817478.7069613     
   45817490.4032618     
   45817502.7941069     
   45817515.7145361     
   45817529.0110484     
   45817542.5412959     
   45817556.1737833     
   45817569.7875707     
   45817583.2719820     
   45817596.5263169     
   45817609.4595681     
   45817621.9901425     
   45817634.0455857     
   45817645.5623126     
   45817656.4853400     
   45817666.7680248     
   45817676.3718049     
   45817685.2659449     
   45817693.4272846     
   45817700.8399921     
   45817707.4953191     
   45817713.3913613     
   45817718.5328208     
   45817722.9307722     
   45817726.6024322     
   45817729.5709318     
   45817731.8650918     
   45817733.5192010     
   45817734.5727975     
   45817735.0704520     
   45817735.0615552     
   45817734.6001059     
   45817733.7445031     
   45817732.5573395     
   45817731.1051982     
   45817729.4584508     
   45817727.6910582     
   45817725.8803732     
   45817724.1069454     
   45817722.4543279     
   45817721.0088859     
   45817719.8596069     
   45817719.0979134     
   45817718.8174763     
   45615600.2390960     
   45615600.7861447     
   45615602.2836911     
   45615604.5270502     
   45615607.3256342     
   45615610.5025871     
   45615613.8944246     
   45615617.3506807     
   45615620.7335594     
   45615623.9175937     
   45615626.7893090     
   45615629.2468934     
   45615631.1998729     
   45615632.5687927     
   45615633.2849037     
   45615633.2898548     
   45615632.5353896     
   45615630.9830491     
   45615628.6038795     
   45615625.3781442     
   45615621.2950410     
   45615616.3524247     
   45615610.5565331     
   45615603.9217184     
   45615596.4701822     
   45615588.2317157     
   45615579.2434428     
   45615569.5495687     
   45615559.2011305     
   45615548.2557535     
   45615536.7774096     
   45615524.8361802     
   45615512.5080217     
   45615499.8745353     
   45615487.0227386     
   45615474.0448420     
   45615461.0380260     
   45615448.1042237     
   45615435.3499035     
   45615422.8858569     
   45615410.8269870     
   45615399.2921000     
   45615388.4037001     
   45615378.2877848     
   45615369.0736439     
   45615360.8936601     
   45615353.8831112     
   45615348.1799749     
   45615343.9247354     
   45615341.2601915     
   45615340.3312661     
   45404830.3306205     
   45404830.1696149     
   45404829.5805006     
   45404828.4150416     
   45404826.5393462     
   45404823.8334764     
   45404820.1910643     
   45404815.5189357     
   45404809.7367417     
   45404802.7765963     
   45404794.5827220     
   45404785.1111021     
   45404774.3291391     
   45404762.2153201     
   45404748.7588895     
   45404733.9595260     
   45404717.8270281     
   45404700.3810038     
   45404681.6505674     
   45404661.6740406     
   45404640.4986610     
   45404618.1802946     
   45404594.7831536     
   45404570.3795202     
   45404545.0494741     
   45404518.8806261     
   45404491.9678548     
   45404464.4130489     
   45404436.3248536     
   45404407.8184204     
   45404379.0151618     
   45404350.0425092     
   45404321.0336749     
   45404292.1274175     
   45404263.4678104     
   45404235.2040142     
   45404207.4900515     
   45404180.4845855     
   45404154.3507006     
   45404129.2556867     
   45404105.3708253     
   45404082.8711786     
   45404061.9353811     
   45404042.7454329     
   45404025.4864962     
   45404010.3466929     
   45403997.5169050     
   45403987.1905763     
   45403979.5635168     
   45403974.8337077     
   45403973.2011094     
   45184775.6829997     
   45184774.7432270     
   45184771.8603313     
   45184766.9499447     
   45184759.9421493     
   45184750.7810631     
   45184739.4244350     
   45184725.8432486     
   45184710.0213342     
   45184691.9549897     
   45184671.6526100     
   45184649.1343234     
   45184624.4316372     
   45184597.5870904     
   45184568.6539132     
   45184537.6956957     
   45184504.7860615     
   45184470.0083497     
   45184433.4553031     
   45184395.2287629     
   45184355.4393698     
   45184314.2062709     
   45184271.6568328     
   45184227.9263603     
   45184183.1578201     
   45184137.5015706     
   45184091.1150960     
   45184044.1627459     
   45183996.8154786     
   45183949.2506099     
   45183901.6515660     
   45183854.2076396     
   45183807.1137512     
   45183760.5702132     
   45183714.7824980     
   45183669.9610092     
   45183626.3208565     
   45183584.0816335     
   45183543.4671978     
   45183504.7054553     
   45183468.0281453     
   45183433.6706300     
   45183401.8716852     
   45183372.8732935     
   45183346.9204397     
   45183324.2609084     
   45183305.1450836     
   45183289.8257497     
   45183278.5578945     
   45183271.5985143     
   45183269.2064197     
   44955082.4422958     
   44955080.6514670     
   44955075.2632151     
   44955066.2648506     
   44955053.6580691     
   44955037.4585171     
   44955017.6953691     
   44954994.4109139     
   44954967.6601522     
   44954937.5104029     
   44954904.0409203     
   44954867.3425194     
   44954827.5172117     
   44954784.6778486     
   44954738.9477742     
   44954690.4604864     
   44954639.3593057     
   44954585.7970521     
   44954529.9357297     
   44954471.9462182     
   44954412.0079717     
   44954350.3087242     
   44954287.0442014     
   44954222.4178394     
   44954156.6405082     
   44954089.9302419     
   44954022.5119744     
   44953954.6172794     
   44953886.4841162     
   44953818.3565802     
   44953750.4846573     
   44953683.1239832     
   44953616.5356067     
   44953550.9857563     
   44953486.7456110     
   44953424.0910748     
   44953363.3025532     
   44953304.6647341     
   44953248.4663711     
   44953195.0000692     
   44953144.5620735     
   44953097.4520599     
   44953053.9729285     
   44953014.4305989     
   44952979.1338070     
   44952948.3939048     
   44952922.5246605     
   44952901.8420616     
   44952886.6641185     
   44952877.3106702     
   44952874.1031912     
   44715390.9229746     
   44715388.2080294     
   44715380.1007763     
   44715366.6683544     
   44715347.9920206     
   44715324.1667004     
   44715295.3005506     
   44715261.5145335     
   44715222.9420043     
   44715179.7283082     
   44715132.0303901     
   44715080.0164146     
   44715023.8653959     
   44714963.7668387     
   44714899.9203881     
   44714832.5354895     
   44714761.8310577     
   44714688.0351539     
   44714611.3846717     
   44714532.1250318     
   44714450.5098829     
   44714366.8008116     
   44714281.2670581     
   44714194.1852395     
   44714105.8390790     
   44714016.5191416     
   44713926.5225754     
   44713836.1528581     
   44713745.7195493     
   44713655.5380474     
   44713565.9293508     
   44713477.2198241     
   44713389.7409679     
   44713303.8291926     
   44713219.8255956     
   44713138.0757422     
   44713058.9294493     
   44712982.7405721     
   44712909.8667935     
   44712840.6694156     
   44712775.5131545     
   44712714.7659360     
   44712658.7986941     
   44712607.9851707     
   44712562.7017177     
   44712523.3270996     
   44712490.2422985     
   44712463.8303197     
   44712444.4759986     
   44712432.5658091     
   44712428.4876721     
   44465336.4847922     
   44465332.7729044     
   44465321.7339051     
   44465303.5231817     
   44465278.3097351     
   44465246.2757205     
   44465207.6160021     
   44465162.5377223     
   44465111.2598838     
   44465054.0129455     
   44464991.0384304     
   44464922.5885463     
   44464848.9258182     
   44464770.3227319     
   44464687.0613887     
   44464599.4331709     
   44464507.7384170     
   44464412.2861064     
   44464313.3935542     
   44464211.3861139     
   44464106.5968890     
   44463999.3664521     
   44463890.0425724     
   44463778.9799495     
   44463666.5399547     
   44463553.0903776     
   44463439.0051800     
   44463324.6642549     
   44463210.4531903     
   44463096.7630386     
   44462983.9900904     
   44462872.5356520     
   44462762.8058279     
   44462655.2113061     
   44462550.1671469     
   44462448.0925748     
   44462349.4107734     
   44462254.5486826     
   44462163.9367979     
   44462078.0089725     
   44461997.2022201     
   44461921.9565207     
   44461852.7146262     
   44461789.9218692     
   44461734.0259711     
   44461685.4768527     
   44461644.7264441     
   44461612.2284968     
   44461588.4383953     
   44461573.8129700     
   44461568.8103097     
   44204550.5540754     
   44204545.7738873     
   44204531.5949394     
   44204508.2694622     
   44204476.0625198     
   44204435.2515475     
   44204386.1259080     
   44204328.9864616     
   44204264.1451536     
   44204191.9246151     
   44204112.6577794     
   44204026.6875109     
   44203934.3662485     
   44203836.0556609     
   44203732.1263143     
   44203622.9573518     
   44203508.9361834     
   44203390.4581873     
   44203267.9264204     
   44203141.7513390     
   44203012.3505278     
   44202880.1484375     
   44202745.5761308     
   44202609.0710353     
   44202471.0767035     
   44202332.0425797     
   44202192.4237719     
   44202052.6808310     
   44201913.2795333     
   44201774.6906688     
   44201637.3898340     
   44201501.8572277     
   44201368.5774516     
   44201238.0393130     
   44201110.7356310     
   44200987.1630449     
   44200867.8218253     
   44200753.2156863     
   44200643.8516007     
   44200540.2396147     
   44200442.8926657     
   44200352.3263997     
   44200269.0589897     
   44200193.6109549     
   44200126.5049799     
   44200068.2657343     
   44200019.4196920     
   44199980.4949510     
   44199952.0210522     
   44199934.5287987     
   44199928.5500740     
   43932661.7979905     
   43932655.8811093     
   43932638.3629612     
   43932609.6012680     
   43932569.9654859     
   43932519.8363526     
   43932459.6054527     
   43932389.6748019     
   43932310.4564476     
   43932222.3720877     
   43932125.8527038     
   43932021.3382108     
   43931909.2771210     
   43931790.1262216     
   43931664.3502664     
   43931532.4216792     
   43931394.8202696     
   43931252.0329605     
   43931104.5535248     
   43930952.8823340     
   43930797.5261147     
   43930638.9977142     
   43930477.8158746     
   43930314.5050141     
   43930149.5950153     
   43929983.6210198     
   43929817.1232291     
   43929650.6467100     
   43929484.7412057     
   43929319.9609504     
   43929156.8644885     
   43928996.0144962     
   43928837.9776072     
   43928683.3242398     
   43928532.6284270     
   43928386.4676474     
   43928245.4226584     
   43928110.0773297     
   43927981.0184779     
   43927858.8357013     
   43927744.1212150     
   43927637.4696857     
   43927539.4780660     
   43927450.7454286     
   43927371.8727992     
   43927303.4629889     
   43927246.1204251     
   43927200.4509814     
   43927167.0618063     
   43927146.5611500     
   43927139.5581904     
   43649297.4592672     
   43649290.3420575     
   43649269.2996841     
   43649234.8039038     
   43649187.3367458     
   43649127.3900800     
   43649055.4652064     
   43648972.0724646     
   43648877.7308627     
   43648772.9677252     
   43648658.3183583     
   43648534.3257318     
   43648401.5401775     
   43648260.5191027     
   43648111.8267175     
   43647956.0337758     
   43647793.7173297     
   43647625.4604945     
   43647451.8522258     
   43647273.4871063     
   43647090.9651424     
   43646904.8915695     
   43646715.8766653     
   43646524.5355707     
   43646331.4881172     
   43646137.3586599     
   43645942.7759166     
   43645748.3728112     
   43645554.7863210     
   43645362.6573281     
   43645172.6304730     
   43644985.3540117     
   43644801.4796733     
   43644621.6625206     
   43644446.5608102     
   43644276.8358545     
   43644113.1518822     
   43643956.1759005     
   43643806.5775547     
   43643665.0289884     
   43643532.2047012     
   43643408.7814057     
   43643295.4378825     
   43643192.8548327     
   43643101.7147283     
   43643022.7016608     
   43642956.5011862     
   43642903.8001682     
   43642865.2866178     
   43642841.6495306     
   43642833.5787207     
   43354084.8572992     
   43354076.4830087     
   43354051.7518593     
   43354011.2578859     
   43353955.6035231     
   43353885.3992108     
   43353801.2630231     
   43353703.8203204     
   43353593.7034226     
   43353471.5513027     
   43353338.0092995     
   43353193.7288495     
   43353039.3672343     
   43352875.5873460     
   43352703.0574663     
   43352522.4510610     
   43352334.4465863     
   43352139.7273086     
   43351938.9811345     
   43351732.9004519     
   43351522.1819797     
   43351307.5266270     
   43351089.6393588     
   43350869.2290696     
   43350647.0084623     
   43350423.6939327     
   43350200.0054578     
   43349976.6664888     
   43349754.4038466     
   43349533.9476190     
   43349316.0310611     
   43349101.3904951     
   43348890.7652118     
   43348684.8973716     
   43348484.5319043     
   43348290.4164090     
   43348103.3010513     
   43347923.9384588     
   43347753.0836148     
   43347591.4937478     
   43347439.9282195     
   43347299.1484079     
   43347169.9175876     
   43347053.0008056     
   43346949.1647530     
   43346859.1776323     
   43346783.8090202     
   43346723.8297257     
   43346680.0116433     
   43346653.1276014     
   43346643.9512062     
   43046653.0595170     
   43046643.3807736     
   43046614.8241004     
   43046568.1135102     
   43046503.9790811     
   43046423.1566204     
   43046326.3873537     
   43046214.4176389     
   43046087.9987043     
   43045947.8864077     
   43045794.8410169     
   43045629.6270094     
   43045453.0128901     
   43045265.7710265     
   43045068.6774991     
   43044862.5119660     
   43044648.0575419     
   43044426.1006881     
   43044197.4311141     
   43043962.8416890     
   43043723.1283616     
   43043479.0900888     
   43043231.5287702     
   43042981.2491886     
   43042729.0589562     
   43042475.7684630     
   43042222.1908304     
   43041969.1418656     
   43041717.4400174     
   43041467.9063333     
   43041221.3644163     
   43040978.6403805     
   43040740.5628055     
   43040507.9626885     
   43040281.6733936     
   43040062.5305983     
   43039851.3722352     
   43039649.0384303     
   43039456.3714359     
   43039274.2155583     
   43039103.4170805     
   43038944.8241782     
   43038799.2868299     
   43038667.6567206     
   43038550.7871384     
   43038449.5328646     
   43038364.7500564     
   43038297.2961223     
   43038248.0295909     
   43038217.8099713     
   43038207.4976071     
   42726634.7243758     
   42726623.7060917     
   42726591.2234647     
   42726538.1373408     
   42726465.3117857     
   42726373.6138315     
   42726263.9132508     
   42726137.0823582     
   42725993.9958366     
   42725835.5305863     
   42725662.5655968     
   42725475.9818387     
   42725276.6621737     
   42725065.4912826     
   42724843.3556086     
   42724611.1433155     
   42724369.7442584     
   42724120.0499660     
   42723862.9536336     
   42723599.3501245     
   42723330.1359798     
   42723056.2094344     
   42722778.4704383     
   42722497.8206822     
   42722215.1636264     
   42721931.4045318     
   42721647.4504917     
   42721364.2104636     
   42721082.5953013     
   42720803.5177836     
   42720527.8926417     
   42720256.6365827     
   42719990.6683089     
   42719730.9085331     
   42719478.2799869     
   42719233.7074240     
   42718998.1176167     
   42718772.4393439     
   42718557.6033731     
   42718354.5424324     
   42718164.1911747     
   42717987.4861332     
   42717825.3656663     
   42717678.7698935     
   42717548.6406218     
   42717435.9212611     
   42717341.5567296     
   42717266.4933495     
   42717211.6787309     
   42717178.0616468     
   42717166.5918960     
   42393668.1141452     
   42393655.7368625     
   42393619.2739617     
   42393559.7287682     
   42393478.1044213     
   42393375.4037337     
   42393252.6290816     
   42393110.7823225     
   42392950.8647392     
   42392773.8770088     
   42392580.8191931     
   42392372.6907500     
   42392150.4905643     
   42391915.2169943     
   42391667.8679341     
   42391409.4408903     
   42391140.9330692     
   42390863.3414759     
   42390577.6630209     
   42390284.8946354     
   42389986.0333915     
   42389682.0766274     
   42389374.0220762     
   42389062.8679957     
   42388749.6133001     
   42388435.2576906     
   42388120.8017839     
   42387807.2472391     
   42387495.5968798     
   42387186.8548122     
   42386882.0265370     
   42386582.1190547     
   42386288.1409638     
   42386001.1025500     
   42385722.0158675     
   42385451.8948091     
   42385191.7551669     
   42384942.6146816     
   42384705.4930801     
   42384481.4121012     
   42384271.3955088     
   42384076.4690917     
   42383897.6606502     
   42383735.9999693     
   42383592.5187778     
   42383468.2506933     
   42383364.2311529     
   42383281.4973295     
   42383221.0880340     
   42383184.0436026     
   42383171.4057704     
   42047399.2718722     
   42047385.5355735     
   42047345.0953237     
   42047279.1009237     
   42047188.6979776     
   42047075.0279028     
   42046939.2279714     
   42046782.4313804     
   42046605.7673489     
   42046410.3612396     
   42046197.3347022     
   42045967.8058369     
   42045722.8893760     
   42045463.6968812     
   42045191.3369546     
   42044906.9154617     
   42044611.5357649     
   42044306.2989648     
   42043992.3041485     
   42043670.6486422     
   42043342.4282681     
   42043008.7376021     
   42042670.6702325     
   42042329.3190168     
   42041985.7763369     
   42041641.1343495     
   42041296.4852319     
   42040952.9214213     
   42040611.5358468     
   42040273.4221520     
   42039939.6749087     
   42039611.3898198     
   42039289.6639099     
   42038975.5957042     
   42038670.2853930     
   42038374.8349833     
   42038090.3484339     
   42037817.9317759     
   42037558.6932170     
   42037313.7432284     
   42037084.1946143     
   42036871.1625645     
   42036675.7646879     
   42036499.1210276     
   42036342.3540578     
   42036206.5886612     
   42036092.9520870     
   42036002.5738904     
   42035936.5858520     
   42035896.1218788     
   42035882.3178854     
   41687484.3523689     
   41687469.2807598     
   41687424.9358214     
   41687352.6156465     
   41687253.6094820     
   41687129.1979339     
   41686980.6532029     
   41686809.2393490     
   41686616.2125830     
   41686402.8215793     
   41686170.3078115     
   41685919.9059044     
   41685652.8440031     
   41685370.3441548     
   41685073.6227026     
   41684763.8906873     
   41684442.3542582     
   41684110.2150868     
   41683768.6707856     
   41683418.9153272     
   41683062.1394635     
   41682699.5311428     
   41682332.2759233     
   41681961.5573809     
   41681588.5575112     
   41681214.4571222     
   41680840.4362185     
   41680467.6743739     
   41680097.3510918     
   41679730.6461529     
   41679368.7399475     
   41679012.8137927     
   41678664.0502323     
   41678323.6333199     
   41677992.7488820     
   41677672.5847630     
   41677364.3310485     
   41677069.1802683     
   41676788.3275768     
   41676522.9709117     
   41676274.3111290     
   41676043.5521145     
   41675831.9008713     
   41675640.5675829     
   41675470.7656514     
   41675323.7117108     
   41675200.6256153     
   41675102.7304020     
   41675031.2522287     
   41674987.4202864     
   41674972.4666867     
   41313592.0917824     
   41313575.7370241     
   41313527.6435627     
   41313449.2567926     
   41313342.0079593     
   41313207.3146106     
   41313046.5810782     
   41312861.1989847     
   41312652.5477748     
   41312421.9952666     
   41312170.8982206     
   41311900.6029226     
   41311612.4457798     
   41311307.7539254     
   41310987.8458313     
   41310654.0319251     
   41310307.6152099     
   41309949.8918853     
   41309582.1519658     
   41309205.6798975     
   41308821.7551681     
   41308431.6529110     
   41308036.6445006     
   41307637.9981367     
   41307236.9794177     
   41306834.8519005     
   41306432.8776447     
   41306032.3177412     
   41305634.4328231     
   41305240.4835571     
   41304851.7311153     
   41304469.4376245     
   41304094.8665943     
   41303729.2833195     
   41303373.9552598     
   41303030.1523913     
   41302699.1475331     
   41302382.2166450     
   41302080.6390975     
   41301795.6979113     
   41301528.6799682     
   41301280.8761906     
   41301053.5816898     
   41300848.0958829     
   41300665.7225782     
   41300507.7700275     
   41300375.5509466     
   41300270.3825033     
   41300193.5862720     
   41300146.4881572     
   41300130.4182835     
   40925406.3942433     
   40925388.8420615     
   40925337.2545706     
   40925253.2199349     
   40925138.3062279     
   40924994.0621911     
   40924822.0180164     
   40924623.6861522     
   40924400.5621258     
   40924154.1253815     
   40923885.8401305     
   40923597.1562090     
   40923289.5099433     
   40922964.3250174     
   40922623.0133431     
   40922266.9759277     
   40921897.6037389     
   40921516.2785644     
   40921124.3738641     
   40920723.2556123     
   40920314.2831302     
   40919898.8099038     
   40919478.1843887     
   40919053.7507977     
   40918626.8498715     
   40918198.8196286     
   40917770.9960958     
   40917344.7140155     
   40916921.3075288     
   40916502.1108342     
   40916088.4588188     
   40915681.6876618     
   40915283.1354084     
   40914894.1425133     
   40914516.0523520     
   40914150.2116992     
   40913797.9711725     
   40913460.6856415     
   40913139.7146002     
   40912836.4225016     
   40912552.1790553     
   40912288.3594851     
   40912046.3447477     
   40911827.5217111     
   40911633.2832918     
   40911465.0285521     
   40911324.1627545     
   40911212.0973766     
   40911130.2500823     
   40911080.0446533     
   40911062.9108788     
   40522629.0072695     
   40522610.3822849     
   40522555.6689902     
   40522466.5894055     
   40522344.8389443     
   40522192.0875461     
   40522009.9808244     
   40521800.1412285     
   40521564.1692128     
   40521303.6444128     
   40521020.1268230     
   40520715.1579754     
   40520390.2621147     
   40520046.9473688     
   40519686.7069122     
   40519311.0201193     
   40518921.3537077     
   40518519.1628677     
   40518105.8923770     
   40517682.9776994     
   40517251.8460648     
   40516813.9175306     
   40516370.6060205     
   40515923.3203423     
   40515473.4651796     
   40515022.4420597     
   40514571.6502924     
   40514122.4878812     
   40513676.3524039     
   40513234.6418609     
   40512798.7554905     
   40512370.0945488     
   40511950.0630535     
   40511540.0684893     
   40511141.5224735     
   40510755.8413810     
   40510384.4469266     
   40510028.7667029     
   40509690.2346737     
   40509370.2916200     
   40509070.3855394     
   40508791.9719954     
   40508536.5144186     
   40508305.4843554     
   40508100.3616672     
   40507922.6346767     
   40507773.8002623     
   40507655.3638996     
   40507568.8396512     
   40507515.7501026     
   40507497.6262463     
   40104982.2501700     
   40104962.7211619     
   40104905.3791514     
   40104812.0657833     
   40104684.5891479     
   40104524.7253583     
   40104334.2201279     
   40104114.7903453     
   40103868.1256445     
   40103595.8899659     
   40103299.7231064     
   40102981.2422567     
   40102642.0435233     
   40102283.7034343     
   40101907.7804261     
   40101515.8163116     
   40101109.3377270     
   40100689.8575561     
   40100258.8763326     
   40099817.8836171     
   40099368.3593490     
   40098911.7751724     
   40098449.5957336     
   40097983.2799501     
   40097514.2822493     
   40097044.0537756     
   40096574.0435646     
   40096105.6996826     
   40095640.4703298     
   40095179.8049058     
   40094725.1550352     
   40094277.9755518     
   40093839.7254391     
   40093411.8687255     
   40092995.8753319     
   40092593.2218702     
   40092205.3923896     
   40091833.8790704     
   40091480.1828617     
   40091145.8140623     
   40090832.2928430     
   40090541.1497073     
   40090273.9258917     
   40090032.1737011     
   40089817.4567806     
   40089631.3503217     
   40089475.4412031     
   40089351.3280631     
   40089260.6213067     
   40089204.9430450     
   40089185.9269699     
   39672211.7519481     
   39672191.5365595     
   39672132.2051847     
   39672035.6985653     
   39671903.9167667     
   39671738.7212654     
   39671541.9370129     
   39671315.3544749     
   39671060.7316428     
   39670779.7960156     
   39670474.2465530     
   39670145.7555963     
   39669795.9707588     
   39669426.5167845     
   39669038.9973747     
   39668634.9969830     
   39668216.0825792     
   39667783.8053801     
   39667339.7025499     
   39666885.2988688     
   39666422.1083688     
   39665951.6359381     
   39665475.3788928     
   39664994.8285151     
   39664511.4715572     
   39664026.7917102     
   39663542.2710368     
   39663059.3913649     
   39662579.6356426     
   39662104.4892505     
   39661635.4412707     
   39661173.9857083     
   39660721.6226656     
   39660279.8594630     
   39659850.2117065     
   39659434.2042969     
   39659033.3723797     
   39658649.2622302     
   39658283.4320733     
   39657937.4528336     
   39657612.9088128     
   39657311.3982941     
   39657034.5340670     
   39656783.9438750     
   39656561.2707802     
   39656368.1734458     
   39656206.3263337     
   39656077.4198181     
   39655983.1602122     
   39655925.2697099     
   39655905.4862345     
   39224089.1478198     
   39224068.5159039     
   39224007.9861144     
   39223909.5705411     
   39223775.2337250     
   39223606.8953039     
   39223406.4325994     
   39223175.6831444     
   39222916.4471531     
   39222630.4899337     
   39222319.5442451     
   39221985.3126002     
   39221629.4695172     
   39221253.6637219     
   39220859.5203020     
   39220448.6428172     
   39220022.6153663     
   39219583.0046136     
   39219131.3617777     
   39218669.2245817     
   39218198.1191697     
   39217719.5619877     
   39217235.0616318     
   39216746.1206621     
   39216254.2373842     
   39215760.9075960     
   39215267.6263000     
   39214775.8893790     
   39214287.1952333     
   39213803.0463776     
   39213324.9509937     
   39212854.4244367     
   39212392.9906899     
   39211942.1837666     
   39211503.5490508     
   39211078.6445767     
   39210669.0422378     
   39210276.3289243     
   39209902.1075818     
   39209547.9981876     
   39209215.6386384     
   39208906.6855463     
   39208622.8149381     
   39208365.7228545     
   39208137.1258435     
   39207938.7613513     
   39207772.3879997     
   39207639.7857497     
   39207542.7559573     
   39207483.1213126     
   39207462.7256904     
   38760414.6776937     
   38760393.9520682     
   38760333.1681030     
   38760234.3735871     
   38760099.5627896     
   38759930.6796677     
   38759729.6209659     
   38759498.2392121     
   38759238.3456138     
   38758951.7128614     
   38758640.0778440     
   38758305.1442836     
   38757948.5852941     
   38757572.0458708     
   38757177.1453173     
   38756765.4796156     
   38756338.6237432     
   38755898.1339459     
   38755445.5499677     
   38754982.3972450     
   38754510.1890671     
   38754030.4287077     
   38753544.6115290     
   38753054.2270609     
   38752560.7610568     
   38752065.6975258     
   38751570.5207412     
   38751076.7172239     
   38750585.7776991     
   38750099.1990224     
   38749618.4860724     
   38749145.1536050     
   38748680.7280621     
   38748226.7493323     
   38747784.7724532     
   38747356.3692488     
   38746943.1298954     
   38746546.6644064     
   38746168.6040285     
   38745810.6025378     
   38745474.3374337     
   38745161.5110169     
   38744873.8513443     
   38744613.1130532     
   38744381.0780559     
   38744179.5560780     
   38744010.3850636     
   38743875.4314408     
   38743776.5902124     
   38743715.7849038     
   38743694.9672821     
   38281019.6280981     
   38280999.1809174     
   38280939.2291978     
   38280841.8127750     
   38280708.9138258     
   38280542.4605634     
   38280344.3307595     
   38280116.3551065     
   38279860.3204311     
   38279577.9727725     
   38279271.0203359     
   38278941.1363346     
   38278589.9617334     
   38278219.1079019     
   38277830.1591934     
   38277424.6754555     
   38277004.1944876     
   38276570.2344505     
   38276124.2962410     
   38275667.8658378     
   38275202.4166269     
   38274729.4117134     
   38274250.3062255     
   38273766.5496158     
   38273279.5879624     
   38272790.8662727     
   38272301.8307926     
   38271813.9313177     
   38271328.6235063     
   38270847.3711920     
   38270371.6486879     
   38269902.9430792     
   38269442.7564948     
   38268992.6083461     
   38268554.0375267     
   38268128.6045583     
   38267717.8936689     
   38267323.5147896     
   38266947.1054542     
   38266590.3325955     
   38266254.8942008     
   38265942.5208310     
   38265654.9769872     
   38265394.0623109     
   38265161.6125804     
   38264959.5005564     
   38264789.6365731     
   38264653.9688832     
   38264554.4838776     
   38264493.2060441     
   38264472.1979314     
   37785768.5649559     
   37785748.8073100     
   37785690.8857173     
   37785596.7813625     
   37785468.4166935     
   37785307.6593960     
   37785116.3261264     
   37784896.1860221     
   37784648.9640115     
   37784376.3439437     
   37784079.9715602     
   37783761.4573253     
   37783422.3791365     
   37783064.2849315     
   37782688.6952109     
   37782297.1054917     
   37781890.9887088     
   37781471.7975802     
   37781040.9669493     
   37780599.9161199     
   37780150.0511953     
   37779692.7674347     
   37779229.4516369     
   37778761.4845615     
   37778290.2433953     
   37777817.1042721     
   37777343.4448463     
   37776870.6469280     
   37776400.0991782     
   37775933.1998589     
   37775471.3596386     
   37775016.0044401     
   37774568.5783209     
   37774130.5463823     
   37773703.3976744     
   37773288.6480840     
   37772887.8431897     
   37772502.5610548     
   37772134.4149365     
   37771785.0558526     
   37771456.1750510     
   37771149.5062794     
   37770866.8278357     
   37770609.9643742     
   37770380.7885206     
   37770181.2220666     
   37770013.2370584     
   37769878.8566398     
   37769780.1552177     
   37769719.2584275     
   37769698.3421026     
   37274561.3243237     
   37274542.6862832     
   37274488.0459500     
   37274399.2707849     
   37274278.1729173     
   37274126.5130218     
   37273946.0038855     
   37273738.3137012     
   37273505.0691189     
   37273247.8580837     
   37272968.2324892     
   37272667.7106725     
   37272347.7797755     
   37272009.8979970     
   37271655.4967594     
   37271285.9828110     
   37270902.7402872     
   37270507.1327505     
   37270100.5052304     
   37269684.1862849     
   37269259.4901009     
   37268827.7186545     
   37268390.1639504     
   37267948.1103566     
   37267502.8370527     
   37267055.6206024     
   37266607.7376759     
   37266160.4679195     
   37265715.0969835     
   37265272.9197219     
   37264835.2435516     
   37264403.3919779     
   37263978.7082788     
   37263562.5592929     
   37263156.3393541     
   37262761.4743109     
   37262379.4255820     
   37262011.6942192     
   37261659.8249187     
   37261325.4100280     
   37261010.0932467     
   37260715.5732349     
   37260443.6070157     
   37260196.0130899     
   37259974.6739545     
   37259781.5386207     
   37259618.6239551     
   37259488.0154073     
   37259391.8684802     
   37259332.4090993     
   37259311.9352209     
   36747334.7698676     
   36747317.6685094     
   36747267.5212707     
   36747186.0274223     
   36747074.8401455     
   36746935.5697181     
   36746769.7863770     
   36746579.0228905     
   36746364.7768754     
   36746128.5128971     
   36745871.6643814     
   36745595.6353698     
   36745301.8021432     
   36744991.5147421     
   36744666.0984065     
   36744326.8549619     
   36743975.0641728     
   36743611.9850930     
   36743238.8574347     
   36742856.9029784     
   36742467.3270593     
   36742071.3201503     
   36741670.0595712     
   36741264.7113570     
   36740856.4323143     
   36740446.3723054     
   36740035.6767577     
   36739625.4894723     
   36739216.9557518     
   36738811.2258413     
   36738409.4587476     
   36738012.8264168     
   36737622.5182655     
   36737239.7461980     
   36736865.7498573     
   36736501.8022188     
   36736149.2155142     
   36735809.3473786     
   36735483.6071947     
   36735173.4622239     
   36734880.4442210     
   36734606.1554431     
   36734352.2742272     
   36734120.5600985     
   36733912.8591059     
   36733731.1071957     
   36733577.3352162     
   36733453.6729180     
   36733362.3474452     
   36733305.6830474     
   36733286.0949337     
   36204064.3978374     
   36204049.1926170     
   36204004.5824776     
   36203932.0522098     
   36203833.0562479     
   36203709.0204877     
   36203561.3437993     
   36203391.3993020     
   36203200.5354411     
   36202990.0768870     
   36202761.3252834     
   36202515.5598666     
   36202254.0379784     
   36201977.9954906     
   36201688.6471603     
   36201387.1869367     
   36201074.7882407     
   36200752.6042277     
   36200421.7680662     
   36200083.3932665     
   36199738.5740624     
   36199388.3858987     
   36199033.8860594     
   36198676.1144656     
   36198316.0946943     
   36197954.8352423     
   36197593.3312083     
   36197232.5662914     
   36196873.5152204     
   36196517.1467901     
   36196164.4274273     
   36195816.3254868     
   36195473.8163839     
   36195137.8881842     
   36194809.5485030     
   36194489.8322076     
   36194179.8098229     
   36193880.5967615     
   36193593.3630563     
   36193319.3444800     
   36193059.8523041     
   36192816.2848508     
   36192590.1392213     
   36192383.0226248     
   36192196.6603392     
   36192032.9066407     
   36191893.7465579     
   36191781.2976175     
   36191697.8252736     
   36191645.7474571     
   36191627.6496390     
   35644765.9756337     
   35644752.9145614     
   35644714.5632100     
   35644652.1629339     
   35644566.9463387     
   35644460.1369328     
   35644332.9487699     
   35644186.5860032     
   35644022.2423371     
   35643841.1004098     
   35643644.3311113     
   35643433.0928400     
   35643208.5306947     
   35642971.7756066     
   35642723.9434114     
   35642466.1338634     
   35642199.4295853     
   35641924.8950043     
   35641643.5752447     
   35641356.4949628     
   35641064.6572303     
   35640769.0424149     
   35640470.6070905     
   35640170.2830575     
   35639868.9764989     
   35639567.5674067     
   35639266.9089700     
   35638967.8275797     
   35638671.1233623     
   35638377.5710016     
   35638087.9215382     
   35637802.9048596     
   35637523.2329427     
   35637249.6055341     
   35636982.7158251     
   35636723.2583521     
   35636471.9395578     
   35636229.4905517     
   35635996.6831234     
   35635774.3454410     
   35635563.3851623     
   35635364.8080000     
   35635179.7365491     
   35635009.4293097     
   35634855.3081913     
   35634718.9721660     
   35634602.2334011     
   35634507.1440571     
   35634435.9673658     
   35634391.1755653     
   35634375.4086527     
   35069497.5265292     
   35069486.6929628     
   35069454.8468813     
   35069402.9832747     
   35069332.1125552     
   35069243.2582631     
   35069137.4545943     
   35069015.7440604     
   35068879.1753474     
   35068728.8012600     
   35068565.6767017     
   35068390.8566685     
   35068205.3942340     
   35068010.3385026     
   35067806.7325080     
   35067595.6110420     
   35067377.9984308     
   35067154.9060919     
   35066927.3300090     
   35066696.2481934     
   35066462.6178288     
   35066227.3723658     
   35065991.4185545     
   35065755.6332589     
   35065520.8601492     
   35065287.9060478     
   35065057.5381949     
   35064830.4805263     
   35064607.4097993     
   35064388.9528578     
   35064175.6832297     
   35063968.1188580     
   35063766.7217522     
   35063571.8948969     
   35063383.9855720     
   35063203.2885509     
   35063030.0497591     
   35062864.4739175     
   35062706.7336910     
   35062556.9944912     
   35062415.4315275     
   35062282.2775408     
   35062157.8811371     
   35062042.7717917     
   35061937.6932987     
   35061843.6725208     
   35061762.0066947     
   35061694.2547250     
   35061642.3989093     
   35061608.9088815     
   35061596.8896319     
   34478362.0823752     
   34478353.3591096     
   34478327.6848043     
   34478285.8333502     
   34478228.6172366     
   34478156.8820829     
   34478071.5029871     
   34477973.3813547     
   34477863.4417138     
   34477742.6286943     
   34477611.9041881     
   34477472.2446235     
   34477324.6382738     
   34477170.0825385     
   34477009.5811481     
   34476844.1412283     
   34476674.7700742     
   34476502.4721047     
   34476328.2454444     
   34476153.0778837     
   34475977.9431962     
   34475803.7968091     
   34475631.5708734     
   34475462.1693422     
   34475296.4627125     
   34475135.2832641     
   34474979.4166606     
   34474829.5964470     
   34474686.4984486     
   34474550.7311821     
   34474422.8291319     
   34474303.2430253     
   34474192.3247636     
   34474090.3244169     
   34473997.3711980     
   34473913.4625820     
   34473838.4606007     
   34473772.0860702     
   34473713.9247875     
   34473663.3994474     
   34473619.7910466     
   34473582.2015051     
   34473549.5324749     
   34473520.5075791     
   34473493.8988954     
   34473468.7051766     
   34473444.5799212     
   34473422.2795511     
   34473403.3791575     
   34473390.0530173     
   34473384.5752820     
   33871511.6604964     
   33871504.7276994     
   33871484.3042828     
   33871450.9916412     
   33871405.4404006     
   33871348.3505007     
   33871280.4668439     
   33871202.5748511     
   33871115.4974616     
   33871020.0926909     
   33870917.2512696     
   33870807.8941809     
   33870692.9700325     
   33870573.4522266     
   33870450.3358981     
   33870324.6346744     
   33870197.3776733     
   33870069.6050404     
   33869942.3637846     
   33869816.7045289     
   33869693.6757840     
   33869574.3192689     
   33869459.6658818     
   33869350.7298693     
   33869248.5021624     
   33869153.9397531     
   33869067.9651387     
   33868991.4540956     
   33868925.2222318     
   33868870.0223204     
   33868826.5278264     
   33868795.3233668     
   33868776.9112844     
   33868771.6713690     
   33868779.8646248     
   33868801.6048657     
   33868836.8034658     
   33868885.1202177     
   33868945.8774271     
   33869018.1197478     
   33869100.5294150     
   33869191.5099167     
   33869289.2723010     
   33869391.8273007     
   33869496.2493687     
   33869598.3555230     
   33869692.2398637     
   33869769.9064947     
   33869824.2766005     
   33869852.6818426     
   33869859.7385026     
   33249152.8146210     
   33249147.2048599     
   33249130.6495469     
   33249103.6163426     
   33249066.6399359     
   33249020.3023432     
   33248965.2331709     
   33248902.1136254     
   33248831.6771748     
   33248754.7085296     
   33248672.0419418     
   33248584.5592338     
   33248493.1876573     
   33248398.8975667     
   33248302.6998254     
   33248205.6425461     
   33248108.8054443     
   33248013.2976026     
   33247920.2528902     
   33247830.8212715     
   33247746.1672769     
   33247667.4629884     
   33247595.8771314     
   33247532.5693147     
   33247478.6865704     
   33247435.3728955     
   33247403.7408148     
   33247384.8759780     
   33247379.8407587     
   33247389.6379347     
   33247415.2186620     
   33247457.4602470     
   33247517.0782888     
   33247594.7048803     
   33247690.8239328     
   33247805.7773068     
   33247939.8487099     
   33248093.3195188     
   33248266.5869265     
   33248459.6171585     
   33248671.8867577     
   33248902.0238933     
   33249147.1514863     
   33249402.4791591     
   33249663.9724839     
   33249928.8544353     
   33250194.5599339     
   33250459.4737300     
   33250712.0398805     
   33250919.1123849     
   33251005.4986688     
   32611553.9127287     
   32611549.0433751     
   32611534.7120564     
   32611511.2847394     
   32611479.1162348     
   32611438.6324385     
   32611390.3402396     
   32611334.8183309     
   32611272.7146380     
   32611204.7468389     
   32611131.7035453     
   32611054.4446347     
   32610973.8999039     
   32610891.0657062     
   32610806.9998066     
   32610722.8162058     
   32610639.6865327     
   32610558.8270914     
   32610481.4904779     
   32610408.9682585     
   32610342.5679617     
   32610283.6093541     
   32610233.4346884     
   32610193.4002650     
   32610164.8549766     
   32610149.0690766     
   32610147.3049512     
   32610160.7882693     
   32610190.6693447     
   32610238.1124138     
   32610304.2361489     
   32610390.1573958     
   32610497.2441563     
   32610626.6984941     
   32610779.6033097     
   32610956.9335064     
   32611159.1949262     
   32611385.9597429     
   32611635.3957368     
   32611906.6843459     
   32612200.1127304     
   32612516.4211230     
   32612858.8531383     
   32613234.7001394     
   32613643.3366884     
   32614071.2876068     
   32614485.9228376     
   32614840.6076801     
   32615098.4811512     
   32615244.6416241     
   32615290.2135187     
   31959053.9836643     
   31959049.5507062     
   31959035.9539896     
   31959013.1372909     
   31958981.3568521     
   31958940.9173196     
   31958892.1484673     
   31958835.4532717     
   31958771.3391465     
   31958700.4375043     
   31958623.5129631     
   31958541.4635160     
   31958455.3137507     
   31958366.2035982     
   31958275.3740124     
   31958184.1457470     
   31958093.8713077     
   31958005.9431054     
   31957921.7941164     
   31957842.8603070     
   31957770.6277810     
   31957706.6128774     
   31957652.2904614     
   31957609.0840391     
   31957578.4188877     
   31957561.9591304     
   31957561.2848491     
   31957577.8948007     
   31957613.3813917     
   31957669.1544585     
   31957746.5205681     
   31957846.3553829     
   31957968.2282950     
   31958112.3508357     
   31958279.6532963     
   31958470.6322354     
   31958686.3774470     
   31958931.3802733     
   31959215.1008804     
   31959540.6586145     
   31959904.9537921     
   31960292.8512062     
   31960672.6483453     
   31961018.2700579     
   31961307.9164234     
   31961532.1254845     
   31961695.9880254     
   31961804.0209077     
   31961865.5261819     
   31961894.3423316     
   31961902.8111834     
   31292073.7494641     
   31292068.1480768     
   31292052.4375682     
   31292026.9462745     
   31291991.0440623     
   31291944.1524259     
   31291885.9952664     
   31291816.6055945     
   31291736.3467884     
   31291645.9120738     
   31291546.2998817     
   31291438.7714270     
   31291324.7966989     
   31291205.9939744     
   31291084.0717271     
   31290960.7988143     
   31290838.0753930     
   31290717.7848061     
   31290601.6879855     
   31290491.5358734     
   31290388.9376528     
   31290295.4219482     
   31290212.6494746     
   31290142.4201729     
   31290086.4068271     
   31290045.2642231     
   31290020.0389349     
   31290012.2629344     
   31290022.5446405     
   31290051.1811399     
   31290098.9713769     
   31290169.7421929     
   31290273.1466645     
   31290414.7618780     
   31290595.2454151     
   31290811.9554540     
   31291051.6944667     
   31291294.3893536     
   31291524.2013237     
   31291727.1896720     
   31291893.9938660     
   31292026.0450340     
   31292123.7095820     
   31292185.7549731     
   31292216.5447354     
   31292222.2583769     
   31292208.4058468     
   31292182.9565685     
   31292154.3454835     
   31292130.7666324     
   31292121.4584354     
   30611118.8688434     
   30611116.1956700     
   30611102.2052827     
   30611071.8490278     
   30611023.4079658     
   30610955.9502868     
   30610869.0906028     
   30610763.2451363     
   30610639.5567268     
   30610499.7321906     
   30610345.8887246     
   30610180.4402682     
   30610006.0246103     
   30609825.4532034     
   30609641.6405184     
   30609457.4182993     
   30609275.0318232     
   30609096.6028656     
   30608924.3561961     
   30608759.7128674     
   30608603.4112592     
   30608455.8374561     
   30608317.4312169     
   30608189.6328689     
   30608076.2972451     
   30607986.1482238     
   30607924.9765963     
   30607894.3824525     
   30607897.2166936     
   30607930.0664412     
   30607984.8258495     
   30608052.4446513     
   30608123.3208498     
   30608190.1388436     
   30608244.1821032     
   30608282.9782643     
   30608308.9009742     
   30608317.7574322     
   30608304.6708456     
   30608269.4991201     
   30608213.9496069     
   30608138.9505151     
   30608047.3915506     
   30607943.9799675     
   30607833.4095398     
   30607720.9865276     
   30607613.1854247     
   30607516.6778244     
   30607438.5666468     
   30607386.4331475     
   30607367.9403276     
   29916928.3819575     
   29916906.5138846     
   29916847.7252616     
   29916763.3679210     
   29916650.5892049     
   29916506.7205335     
   29916333.2165160     
   29916133.3241987     
   29915910.9432810     
   29915670.0804245     
   29915414.5999026     
   29915148.1302733     
   29914874.0728994     
   29914595.7151982     
   29914316.5113693     
   29914040.6878161     
   29913774.4977650     
   29913523.0306049     
   29913288.8646623     
   29913075.0782944     
   29912881.8571793     
   29912707.7664332     
   29912553.4423628     
   29912419.5106224     
   29912304.4424455     
   29912202.4367049     
   29912109.4644356     
   29912020.5842816     
   29911932.6140600     
   29911849.0798767     
   29911769.5573154     
   29911688.2355929     
   29911598.2140860     
   29911495.6866589     
   29911379.8300676     
   29911249.0461384     
   29911101.5510225     
   29910938.0252727     
   29910760.2110443     
   29910569.9589078     
   29910369.8651876     
   29910163.8313740     
   29909956.2771456     
   29909751.9282558     
   29909555.9994993     
   29909373.9416242     
   29909211.2578904     
   29909073.7955228     
   29908967.7144591     
   29908899.4264195     
   29908875.6121641     
   29210178.3791226     
   29210111.9221900     
   29209937.1757519     
   29209691.0397282     
   29209397.1141220     
   29209070.3282218     
   29208720.5322290     
   29208355.0283957     
   29207979.8116619     
   29207600.1703720     
   29207220.9746679     
   29206846.8098078     
   29206482.0193511     
   29206130.6651112     
   29205796.3537683     
   29205481.7933433     
   29205187.7749138     
   29204910.5834385     
   29204646.6517543     
   29204393.2545434     
   29204151.4086427     
   29203926.3273899     
   29203719.1610839     
   29203527.5499352     
   29203346.5690305     
   29203169.9200183     
   29202992.9565037     
   29202813.9698122     
   29202630.7861420     
   29202439.7458731     
   29202238.1740728     
   29202024.6266948     
   29201798.2190866     
   29201558.2406449     
   29201304.3849015     
   29201037.5639821     
   29200759.7647216     
   29200473.3255768     
   29200181.0874553     
   29199886.3755857     
   29199592.7852715     
   29199304.0303419     
   29199024.1391759     
   29198757.5184051     
   29198508.8927171     
   29198283.3048809     
   29198086.1017377     
   29197922.7997938     
   29197799.0594109     
   29197720.6896511     
   29197693.6273911     
   28490298.8999699     
   28490230.1477499     
   28490042.3404925     
   28489758.6364783     
   28489402.4170353     
   28488994.8511094     
   28488553.8895772     
   28488094.1610271     
   28487627.3741559     
   28487162.8164487     
   28486707.7852114     
   28486267.8941612     
   28485847.2440264     
   28485448.4623097     
   28485072.6337038     
   28484719.1836586     
   28484385.8907023     
   28484069.4304154     
   28483767.1875907     
   28483478.2331860     
   28483200.7538364     
   28482931.5793550     
   28482667.8273186     
   28482406.5709255     
   28482144.8834897     
   28481880.0444165     
   28481609.3895740     
   28481330.2693541     
   28481040.8043347     
   28480740.1552900     
   28480428.0046479     
   28480104.5271681     
   28479770.4177420     
   28479426.8112294     
   28479075.2143845     
   28478717.3687444     
   28478355.2894649     
   28477991.4263063     
   28477628.6047658     
   28477270.0045336     
   28476919.1388332     
   28476579.8346728     
   28476256.1507683     
   28475952.3443799     
   28475672.8791052     
   28475422.4215997     
   28475205.8292875     
   28475028.1607527     
   28474894.6540890     
   28474810.7012538     
   28474781.8405766     
   27757606.8420203     
   27757553.0831262     
   27757404.0892863     
   27757174.0843025     
   27756877.3754778     
   27756528.2668433     
   27756140.5378473     
   27755726.8714548     
   27755298.4040812     
   27754864.4665712     
   27754432.4859830     
   27754008.0026653     
   27753594.7662532     
   27753194.8944791     
   27752809.1030213     
   27752437.0218677     
   27752077.5671182     
   27751729.2211590     
   27751389.9763275     
   27751057.2618184     
   27750728.5532282     
   27750401.5829931     
   27750074.1136533     
   27749744.1767044     
   27749410.0996042     
   27749070.4407916     
   27748723.9972202     
   27748369.8824315     
   27748007.4834267     
   27747636.4752634     
   27747256.9657222     
   27746869.4829808     
   27746474.9572879     
   27746074.7178405     
   27745670.4461509     
   27745264.1479050     
   27744858.1164589     
   27744454.8855909     
   27744057.2426554     
   27743668.2280464     
   27743291.1374091     
   27742929.5107193     
   27742587.1274085     
   27742267.9875185     
   27741976.2884199     
   27741716.4085236     
   27741492.8979116     
   27741310.4692367     
   27741173.9980170     
   27741088.5185563     
   27741059.2145792     
   27012832.3201474     
   27012799.5910366     
   27012707.4303361     
   27012562.6429863     
   27012372.0725530     
   27012142.5083419     
   27011880.6357348     
   27011592.9229290     
   27011285.4486823     
   27010963.7126501     
   27010632.4763135     
   27010295.6632162     
   27009956.3294913     
   27009616.6984862     
   27009278.2362282     
   27008941.7331589     
   27008607.3641264     
   27008274.7461442     
   27007943.0638174     
   27007611.2480073     
   27007278.0295865     
   27006942.0543250     
   27006602.0577165     
   27006256.8843209     
   27005905.5477028     
   27005547.2929256     
   27005181.6293698     
   27004808.3191888     
   27004427.3806656     
   27004039.0909535     
   27003643.9662908     
   27003242.7841968     
   27002836.5980314     
   27002426.7400549     
   27002014.8320355     
   27001602.7815841     
   27001192.7703304     
   27000787.2424154     
   27000388.8809975     
   27000000.5954021     
   26999625.5099205     
   26999266.9574362     
   26998928.4718384     
   26998613.7847207     
   26998326.8190313     
   26998071.6804350     
   26997852.6503759     
   26997674.1767966     
   26997540.8661072     
   26997457.4805721     
   26997428.9287483     
   26257021.0743347     
   26257006.3579098     
   26256964.6746266     
   26256898.4910845     
   26256810.0773108     
   26256701.5440717     
   26256574.8539132     
   26256431.8339559     
   26256274.1891359     
   26256103.5031949     
   26255921.2257696     
   26255728.6496537     
   26255526.8830193     
   26255316.8212255     
   26255099.1231651     
   26254874.1985411     
   26254642.2186898     
   26254403.1533153     
   26254156.8110038     
   26253902.8648113     
   26253640.9038979     
   26253370.4742121     
   26253091.1047018     
   26252802.3701082     
   26252503.9330280     
   26252195.5784438     
   26251877.2431878     
   26251549.0470535     
   26251211.3109343     
   26250864.5655732     
   26250509.5631534     
   26250147.2760166     
   26249778.8967632     
   26249405.8414156     
   26249029.7505865     
   26248652.4935468     
   26248276.1708533     
   26247903.1121079     
   26247535.8732619     
   26247177.2289029     
   26246830.1625940     
   26246497.8566226     
   26246183.6844629     
   26245891.2022285     
   26245624.1449921     
   26245386.4234735     
   26245182.1154595     
   26245015.4618636     
   26244890.8600428     
   26244812.8546598     
   26244786.1436918     
   25491456.3385210     
   25491457.5394065     
   25491461.1067563     
   25491466.2393709     
   25491472.0493043     
   25491477.5612556     
   25491481.7227025     
   25491483.4298869     
   25491481.5501830     
   25491474.9453899     
   25491462.4939952     
   25491443.1128665     
   25491415.7725831     
   25491379.5029199     
   25491333.3951041     
   25491276.6068147     
   25491208.3641140     
   25491127.9603151     
   25491034.7524756     
   25490928.1639181     
   25490807.6882220     
   25490672.8986115     
   25490523.4612171     
   25490359.1406731     
   25490179.8144643     
   25489985.4887179     
   25489776.3140521     
   25489552.5980850     
   25489314.8184265     
   25489063.6371226     
   25488799.9101200     
   25488524.6946490     
   25488239.2543422     
   25487945.0622328     
   25487643.8020511     
   25487337.3670031     
   25487027.8572534     
   25486717.5777090     
   25486409.0358156     
   25486104.9395331     
   25485808.1952526     
   25485521.9054962     
   25485249.3630840     
   25484994.0442744     
   25484759.5969831     
   25484549.8298524     
   25484368.7085405     
   25484220.3476318     
   25484109.0043404     
   25484039.0786841     
   25484015.1078156     
   24717580.5603039     
   24717596.6353781     
   24717642.8049063     
   24717715.6138436     
   24717811.5903587     
   24717927.2721757     
   24718059.2519103     
   24718204.1710814     
   24718358.7357452     
   24718519.7399184     
   24718684.0925294     
   24718848.8400549     
   24719011.1863632     
   24719168.5064114     
   24719318.3595902     
   24719458.5028509     
   24719586.8976043     
   24719701.7089418     
   24719801.3069769     
   24719884.2712241     
   24719949.3912456     
   24719995.6656710     
   24720022.2973996     
   24720028.6912327     
   24720014.4543530     
   24719979.3978176     
   24719923.5346670     
   24719847.0783391     
   24719750.4460053     
   24719634.2614667     
   24719499.3570058     
   24719346.7758388     
   24719177.7734395     
   24718993.8169633     
   24718796.5841475     
   24718587.9624595     
   24718370.0480878     
   24718145.1450176     
   24717915.7629965     
   24717684.6142561     
   24717454.6074394     
   24717228.8387759     
   24717010.5858931     
   24716803.3008074     
   24716610.6036225     
   24716436.2764916     
   24716284.2529756     
   24716158.6118221     
   24716063.5733685     
   24716003.4884530     
   24715982.8252333     
   23936968.4338003     
   23936998.8668050     
   23937086.4135069     
   23937224.9275960     
   23937408.4582864     
   23937631.2492916     
   23937887.6351234     
   23938172.1289543     
   23938479.4594629     
   23938804.5917340     
   23939142.7369200     
   23939489.3468592     
   23939840.1146836     
   23940190.9890423     
   23940538.1840924     
   23940878.1909516     
   23941207.7858264     
   23941524.0348115     
   23941824.3026936     
   23942106.2594712     
   23942367.8814615     
   23942607.4452564     
   23942823.5195238     
   23943014.9615157     
   23943180.9120523     
   23943320.7853131     
   23943434.2604258     
   23943521.2746957     
   23943582.0155022     
   23943616.9129212     
   23943626.6343382     
   23943612.0793885     
   23943574.3762742     
   23943514.8798956     
   23943435.1711072     
   23943337.0567856     
   23943222.5686301     
   23943093.9603546     
   23942953.7034106     
   23942804.4810838     
   23942649.1825306     
   23942490.8973171     
   23942332.9073983     
   23942178.6785355     
   23942031.8521350     
   23941896.2380422     
   23941775.8110480     
   23941674.7013510     
   23941597.1733094     
   23941547.6053545     
   23941530.4768421     
   23151324.2586600     
   23151368.6172126     
   23151495.7340288     
   23151696.8198669     
   23151963.1590872     
   23152286.1091597     
   23152657.6658868     
   23153070.3279897     
   23153516.9923218     
   23153990.9053487     
   23154485.6501257     
   23154995.1520236     
   23155513.6997553     
   23156035.9669096     
   23156557.0269515     
   23157072.3531660     
   23157577.8202186     
   23158069.7109733     
   23158544.7118891     
   23158999.9016290     
   23159432.7380333     
   23159841.0451736     
   23160222.9979840     
   23160577.1055573     
   23160902.1958434     
   23161197.4016101     
   23161462.1453301     
   23161696.1248202     
   23161899.3004933     
   23162071.8857544     
   23162214.3359103     
   23162327.3397450     
   23162411.8173772     
   23162468.9176821     
   23162500.0150537     
   23162506.7096679     
   23162490.8307481     
   23162454.4370704     
   23162399.8179874     
   23162329.4969060     
   23162246.2320857     
   23162153.0144404     
   23162053.0640835     
   23161949.8256293     
   23161846.9622768     
   23161748.3407069     
   23161658.0054289     
   23161580.1564100     
   23161519.1361624     
   23161479.4202816     
   23161465.5828081     
   22362505.2207016     
   22362562.4572365     
   22362725.5060933     
   22362980.4737714     
   22363315.0643636     
   22363719.3130590     
   22364183.3138168     
   22364697.2843692     
   22365251.8409648     
   22365838.1685834     
   22366448.0983224     
   22367074.1453778     
   22367709.5194996     
   22368348.1025321     
   22368984.4102549     
   22369613.5533161     
   22370231.2021565     
   22370833.5476967     
   22371417.2611579     
   22371979.4570584     
   22372517.6592265     
   22373029.7694851     
   22373514.0386317     
   22373969.0406867     
   22374393.6504442     
   22374787.0226856     
   22375148.5721764     
   22375477.9559099     
   22375775.0605803     
   22376039.9913837     
   22376273.0609824     
   22376474.7824999     
   22376645.8629844     
   22376787.2006465     
   22376899.8864567     
   22376985.2057459     
   22377044.6415696     
   22377079.8813608     
   22377092.8302130     
   22377085.6271309     
   22377060.6612343     
   22377020.5883085     
   22376968.3450552     
   22376907.1580118     
   22376840.5457586     
   22376772.3116760     
   22376706.5243436     
   22376647.4841217     
   22376599.6839169     
   22376567.7714907     
   22376556.5811499     
   21572563.3299428     
   21572626.4918169     
   21572806.1558793     
   21573091.1070736     
   21573469.9764293     
   21573924.6269072     
   21574438.7379953     
   21574998.7809961     
   21575593.3312283     
   21576212.6334418     
   21576848.3433734     
   21577493.3050441     
   21578141.3426320     
   21578787.1229049     
   21579426.0437026     
   21580054.1425705     
   21580668.0145172     
   21581264.7406165     
   21581841.8300839     
   21582397.1704396     
   21582928.9854001     
   21583435.7988364     
   21583916.4042518     
   21584369.8389243     
   21584795.3615259     
   21585192.4327583     
   21585560.6973251     
   21585899.9696119     
   21586210.2235081     
   21586491.5831029     
   21586744.3131814     
   21586968.8125037     
   21587165.6103604     
   21587335.3636038     
   21587478.8566250     
   21587597.0041780     
   21587690.8542572     
   21587761.5947287     
   21587810.5699532     
   21587839.3025210     
   21587849.5171576     
   21587843.1713976     
   21587822.4936379     
   21587790.0269530     
   21587748.6700487     
   21587701.7194985     
   21587652.9310604     
   21587606.5694176     
   21587567.3758505     
   21587540.4359453     
   21587530.8368637     
   20783732.1336382     
   20783817.3878611     
   20784057.3134573     
   20784398.1627306     
   20784783.7657558     
   20785199.2857090     
   20785638.2557218     
   20786094.2818159     
   20786561.6867514     
   20787035.6796986     
   20787512.0588430     
   20787987.0761528     
   20788457.5292650     
   20788920.7211930     
   20789374.3940504     
   20789816.6429810     
   20790245.8606014     
   20790660.7039990     
   20791060.0559630     
   20791442.9940100     
   20791808.7637679     
   20792156.7593956     
   20792486.5075107     
   20792797.6521379     
   20793089.9422625     
   20793363.2214718     
   20793617.4195444     
   20793852.5453397     
   20794068.6805306     
   20794265.9747856     
   20794444.6407453     
   20794604.9496807     
   20794747.2308494     
   20794871.8709093     
   20794979.3122052     
   20795070.0544308     
   20795144.6579959     
   20795203.7457435     
   20795248.0064489     
   20795278.2060618     
   20795295.2066806     
   20795299.9897959     
   20795293.6863122     
   20795277.6204287     
   20795253.3744423     
   20795222.8745081     
   20795188.5002247     
   20795153.2439044     
   20795121.0146140     
   20795097.0638574     
   20795088.5703283     
   20000000.0000000     
   20000000.0000000     
   20000000.0000000     
   20000000.0000000     
   20000000.0000000     
   20000000.0000000     
   20000000.0000000     
   20000000.0000000     
   20000000.0000000     
   20000000.0000000     
   20000000.0000000     
   20000000.0000000     
   20000000.0000000     
   20000000.0000000     
   20000000.0000000     
   20000000.0000000     
   20000000.0000000     
   20000000.0000000     
   20000000.0000000     
   20000000.0000000     
   20000000.0000000     
   20000000.0000000     
   20000000.0000000     
   20000000.0000000     
   20000000.0000000     
   20000000.0000000     
   20000000.0000000     
   20000000.0000000     
   20000000.0000000     
   20000000.0000000     
   20000000.0000000     
   20000000.0000000     
   20000000.0000000     
   20000000.0000000     
   20000000.0000000     
   20000000.0000000     
   20000000.0000000     
   20000000.0000000     
   20000000.0000000     
   20000000.0000000     
   20000000.0000000     
   20000000.0000000     
   20000000.0000000     
   20000000.0000000     
   20000000.0000000     
   20000000.0000000     
   20000000.0000000     
   20000000.0000000     
   20000000.0000000     
   20000000.0000000     
   20000000.0000000     
VECTORS u double 
    0.00000E+00        -0.86343E-04         0.00000E+00
    0.00000E+00        -0.86109E-04         0.00000E+00
    0.00000E+00        -0.85444E-04         0.00000E+00
    0.00000E+00        -0.84342E-04         0.00000E+00
    0.00000E+00        -0.82819E-04         0.00000E+00
    0.00000E+00        -0.80901E-04         0.00000E+00
    0.00000E+00        -0.78615E-04         0.00000E+00
    0.00000E+00        -0.75990E-04         0.00000E+00
    0.00000E+00        -0.73054E-04         0.00000E+00
    0.00000E+00        -0.69835E-04         0.00000E+00
    0.00000E+00        -0.66360E-04         0.00000E+00
    0.00000E+00        -0.62654E-04         0.00000E+00
    0.00000E+00        -0.58744E-04         0.00000E+00
    0.00000E+00        -0.54654E-04         0.00000E+00
    0.00000E+00        -0.50410E-04         0.00000E+00
    0.00000E+00        -0.46035E-04         0.00000E+00
    0.00000E+00        -0.41553E-04         0.00000E+00
    0.00000E+00        -0.36988E-04         0.00000E+00
    0.00000E+00        -0.32364E-04         0.00000E+00
    0.00000E+00        -0.27704E-04         0.00000E+00
    0.00000E+00        -0.23030E-04         0.00000E+00
    0.00000E+00        -0.18367E-04         0.00000E+00
    0.00000E+00        -0.13736E-04         0.00000E+00
    0.00000E+00        -0.91616E-05         0.00000E+00
    0.00000E+00        -0.46655E-05         0.00000E+00
    0.00000E+00        -0.27090E-06         0.00000E+00
    0.00000E+00         0.39993E-05         0.00000E+00
    0.00000E+00         0.81220E-05         0.00000E+00
    0.00000E+00         0.12074E-04         0.00000E+00
    0.00000E+00         0.15832E-04         0.00000E+00
    0.00000E+00         0.19373E-04         0.00000E+00
    0.00000E+00         0.22672E-04         0.00000E+00
    0.00000E+00         0.25706E-04         0.00000E+00
    0.00000E+00         0.28449E-04         0.00000E+00
    0.00000E+00         0.30876E-04         0.00000E+00
    0.00000E+00         0.32961E-04         0.00000E+00
    0.00000E+00         0.34677E-04         0.00000E+00
    0.00000E+00         0.35997E-04         0.00000E+00
    0.00000E+00         0.36892E-04         0.00000E+00
    0.00000E+00         0.37331E-04         0.00000E+00
    0.00000E+00         0.37282E-04         0.00000E+00
    0.00000E+00         0.36711E-04         0.00000E+00
    0.00000E+00         0.35580E-04         0.00000E+00
    0.00000E+00         0.33850E-04         0.00000E+00
    0.00000E+00         0.31475E-04         0.00000E+00
    0.00000E+00         0.28404E-04         0.00000E+00
    0.00000E+00         0.24579E-04         0.00000E+00
    0.00000E+00         0.19929E-04         0.00000E+00
    0.00000E+00         0.14366E-04         0.00000E+00
    0.00000E+00         0.77749E-05         0.00000E+00
    0.00000E+00         0.00000E+00         0.00000E+00
    0.34662E-03        -0.12712E-03         0.00000E+00
    0.33335E-03        -0.12329E-03         0.00000E+00
    0.32189E-03        -0.11956E-03         0.00000E+00
    0.31177E-03        -0.11584E-03         0.00000E+00
    0.30265E-03        -0.11207E-03         0.00000E+00
    0.29431E-03        -0.10820E-03         0.00000E+00
    0.28658E-03        -0.10419E-03         0.00000E+00
    0.27934E-03        -0.10004E-03         0.00000E+00
    0.27251E-03        -0.95736E-04         0.00000E+00
    0.26600E-03        -0.91281E-04         0.00000E+00
    0.25976E-03        -0.86680E-04         0.00000E+00
    0.25375E-03        -0.81943E-04         0.00000E+00
    0.24792E-03        -0.77080E-04         0.00000E+00
    0.24224E-03        -0.72108E-04         0.00000E+00
    0.23669E-03        -0.67040E-04         0.00000E+00
    0.23123E-03        -0.61895E-04         0.00000E+00
    0.22586E-03        -0.56690E-04         0.00000E+00
    0.22054E-03        -0.51443E-04         0.00000E+00
    0.21527E-03        -0.46174E-04         0.00000E+00
    0.21003E-03        -0.40901E-04         0.00000E+00
    0.20481E-03        -0.35646E-04         0.00000E+00
    0.19960E-03        -0.30428E-04         0.00000E+00
    0.19438E-03        -0.25267E-04         0.00000E+00
    0.18915E-03        -0.20184E-04         0.00000E+00
    0.18390E-03        -0.15201E-04         0.00000E+00
    0.17861E-03        -0.10338E-04         0.00000E+00
    0.17328E-03        -0.56166E-05         0.00000E+00
    0.16790E-03        -0.10586E-05         0.00000E+00
    0.16246E-03         0.33143E-05         0.00000E+00
    0.15696E-03         0.74797E-05         0.00000E+00
    0.15139E-03         0.11415E-04         0.00000E+00
    0.14573E-03         0.15098E-04         0.00000E+00
    0.13998E-03         0.18504E-04         0.00000E+00
    0.13413E-03         0.21610E-04         0.00000E+00
    0.12817E-03         0.24392E-04         0.00000E+00
    0.12209E-03         0.26823E-04         0.00000E+00
    0.11587E-03         0.28879E-04         0.00000E+00
    0.10951E-03         0.30532E-04         0.00000E+00
    0.10299E-03         0.31755E-04         0.00000E+00
    0.96289E-04         0.32517E-04         0.00000E+00
    0.89391E-04         0.32790E-04         0.00000E+00
    0.82273E-04         0.32538E-04         0.00000E+00
    0.74906E-04         0.31730E-04         0.00000E+00
    0.67256E-04         0.30326E-04         0.00000E+00
    0.59283E-04         0.28287E-04         0.00000E+00
    0.50932E-04         0.25570E-04         0.00000E+00
    0.42136E-04         0.22127E-04         0.00000E+00
    0.32802E-04         0.17906E-04         0.00000E+00
    0.22805E-04         0.12851E-04         0.00000E+00
    0.11961E-04         0.69021E-05         0.00000E+00
    0.00000E+00         0.00000E+00         0.00000E+00
    0.65929E-03        -0.21839E-03         0.00000E+00
    0.63847E-03        -0.21069E-03         0.00000E+00
    0.61920E-03        -0.20303E-03         0.00000E+00
    0.60134E-03        -0.19542E-03         0.00000E+00
    0.58471E-03        -0.18789E-03         0.00000E+00
    0.56914E-03        -0.18042E-03         0.00000E+00
    0.55447E-03        -0.17301E-03         0.00000E+00
    0.54057E-03        -0.16564E-03         0.00000E+00
    0.52732E-03        -0.15830E-03         0.00000E+00
    0.51462E-03        -0.15099E-03         0.00000E+00
    0.50238E-03        -0.14369E-03         0.00000E+00
    0.49054E-03        -0.13641E-03         0.00000E+00
    0.47903E-03        -0.12915E-03         0.00000E+00
    0.46779E-03        -0.12190E-03         0.00000E+00
    0.45677E-03        -0.11468E-03         0.00000E+00
    0.44594E-03        -0.10749E-03         0.00000E+00
    0.43526E-03        -0.10034E-03         0.00000E+00
    0.42469E-03        -0.93237E-04         0.00000E+00
    0.41421E-03        -0.86196E-04         0.00000E+00
    0.40378E-03        -0.79229E-04         0.00000E+00
    0.39339E-03        -0.72350E-04         0.00000E+00
    0.38302E-03        -0.65573E-04         0.00000E+00
    0.37263E-03        -0.58914E-04         0.00000E+00
    0.36221E-03        -0.52388E-04         0.00000E+00
    0.35175E-03        -0.46013E-04         0.00000E+00
    0.34123E-03        -0.39805E-04         0.00000E+00
    0.33062E-03        -0.33782E-04         0.00000E+00
    0.31993E-03        -0.27963E-04         0.00000E+00
    0.30912E-03        -0.22366E-04         0.00000E+00
    0.29818E-03        -0.17011E-04         0.00000E+00
    0.28711E-03        -0.11917E-04         0.00000E+00
    0.27588E-03        -0.71045E-05         0.00000E+00
    0.26447E-03        -0.25944E-05         0.00000E+00
    0.25287E-03         0.15922E-05         0.00000E+00
    0.24107E-03         0.54333E-05         0.00000E+00
    0.22904E-03         0.89066E-05         0.00000E+00
    0.21676E-03         0.11989E-04         0.00000E+00
    0.20421E-03         0.14657E-04         0.00000E+00
    0.19137E-03         0.16886E-04         0.00000E+00
    0.17821E-03         0.18650E-04         0.00000E+00
    0.16469E-03         0.19925E-04         0.00000E+00
    0.15079E-03         0.20683E-04         0.00000E+00
    0.13647E-03         0.20898E-04         0.00000E+00
    0.12168E-03         0.20541E-04         0.00000E+00
    0.10637E-03         0.19586E-04         0.00000E+00
    0.90488E-04         0.18005E-04         0.00000E+00
    0.73961E-04         0.15772E-04         0.00000E+00
    0.56720E-04         0.12866E-04         0.00000E+00
    0.38689E-04         0.92703E-05         0.00000E+00
    0.19796E-04         0.49780E-05         0.00000E+00
    0.00000E+00         0.00000E+00         0.00000E+00
    0.94074E-03        -0.33954E-03         0.00000E+00
    0.91490E-03        -0.32818E-03         0.00000E+00
    0.89039E-03        -0.31685E-03         0.00000E+00
    0.86708E-03        -0.30557E-03         0.00000E+00
    0.84487E-03        -0.29436E-03         0.00000E+00
    0.82366E-03        -0.28323E-03         0.00000E+00
    0.80333E-03        -0.27219E-03         0.00000E+00
    0.78380E-03        -0.26126E-03         0.00000E+00
    0.76497E-03        -0.25044E-03         0.00000E+00
    0.74676E-03        -0.23972E-03         0.00000E+00
    0.72907E-03        -0.22912E-03         0.00000E+00
    0.71184E-03        -0.21864E-03         0.00000E+00
    0.69501E-03        -0.20826E-03         0.00000E+00
    0.67851E-03        -0.19801E-03         0.00000E+00
    0.66229E-03        -0.18788E-03         0.00000E+00
    0.64630E-03        -0.17787E-03         0.00000E+00
    0.63049E-03        -0.16800E-03         0.00000E+00
    0.61482E-03        -0.15827E-03         0.00000E+00
    0.59925E-03        -0.14868E-03         0.00000E+00
    0.58376E-03        -0.13924E-03         0.00000E+00
    0.56831E-03        -0.12998E-03         0.00000E+00
    0.55286E-03        -0.12088E-03         0.00000E+00
    0.53740E-03        -0.11197E-03         0.00000E+00
    0.52189E-03        -0.10326E-03         0.00000E+00
    0.50632E-03        -0.94761E-04         0.00000E+00
    0.49065E-03        -0.86484E-04         0.00000E+00
    0.47487E-03        -0.78445E-04         0.00000E+00
    0.45895E-03        -0.70658E-04         0.00000E+00
    0.44288E-03        -0.63138E-04         0.00000E+00
    0.42663E-03        -0.55901E-04         0.00000E+00
    0.41018E-03        -0.48964E-04         0.00000E+00
    0.39351E-03        -0.42341E-04         0.00000E+00
    0.37660E-03        -0.36051E-04         0.00000E+00
    0.35943E-03        -0.30112E-04         0.00000E+00
    0.34197E-03        -0.24540E-04         0.00000E+00
    0.32421E-03        -0.19354E-04         0.00000E+00
    0.30611E-03        -0.14572E-04         0.00000E+00
    0.28766E-03        -0.10214E-04         0.00000E+00
    0.26882E-03        -0.62974E-05         0.00000E+00
    0.24957E-03        -0.28417E-05         0.00000E+00
    0.22987E-03         0.13429E-06         0.00000E+00
    0.20970E-03         0.26123E-05         0.00000E+00
    0.18901E-03         0.45742E-05         0.00000E+00
    0.16777E-03         0.60030E-05         0.00000E+00
    0.14594E-03         0.68830E-05         0.00000E+00
    0.12346E-03         0.71999E-05         0.00000E+00
    0.10031E-03         0.69418E-05         0.00000E+00
    0.76439E-04         0.60993E-05         0.00000E+00
    0.51794E-04         0.46655E-05         0.00000E+00
    0.26333E-04         0.26349E-05         0.00000E+00
    0.00000E+00         0.00000E+00         0.00000E+00
    0.11951E-02        -0.48130E-03         0.00000E+00
    0.11657E-02        -0.46633E-03         0.00000E+00
    0.11374E-02        -0.45139E-03         0.00000E+00
    0.11101E-02        -0.43650E-03         0.00000E+00
    0.10837E-02        -0.42168E-03         0.00000E+00
    0.10581E-02        -0.40696E-03         0.00000E+00
    0.10333E-02        -0.39234E-03         0.00000E+00
    0.10092E-02        -0.37784E-03         0.00000E+00
    0.98573E-03        -0.36347E-03         0.00000E+00
    0.96282E-03        -0.34925E-03         0.00000E+00
    0.94040E-03        -0.33518E-03         0.00000E+00
    0.91841E-03        -0.32128E-03         0.00000E+00
    0.89680E-03        -0.30754E-03         0.00000E+00
    0.87551E-03        -0.29397E-03         0.00000E+00
    0.85449E-03        -0.28059E-03         0.00000E+00
    0.83368E-03        -0.26739E-03         0.00000E+00
    0.81306E-03        -0.25439E-03         0.00000E+00
    0.79256E-03        -0.24158E-03         0.00000E+00
    0.77217E-03        -0.22899E-03         0.00000E+00
    0.75183E-03        -0.21662E-03         0.00000E+00
    0.73151E-03        -0.20446E-03         0.00000E+00
    0.71118E-03        -0.19254E-03         0.00000E+00
    0.69082E-03        -0.18087E-03         0.00000E+00
    0.67038E-03        -0.16944E-03         0.00000E+00
    0.64985E-03        -0.15828E-03         0.00000E+00
    0.62919E-03        -0.14739E-03         0.00000E+00
    0.60839E-03        -0.13679E-03         0.00000E+00
    0.58741E-03        -0.12647E-03         0.00000E+00
    0.56623E-03        -0.11647E-03         0.00000E+00
    0.54483E-03        -0.10679E-03         0.00000E+00
    0.52318E-03        -0.97435E-04         0.00000E+00
    0.50127E-03        -0.88429E-04         0.00000E+00
    0.47906E-03        -0.79781E-04         0.00000E+00
    0.45654E-03        -0.71504E-04         0.00000E+00
    0.43368E-03        -0.63614E-04         0.00000E+00
    0.41045E-03        -0.56122E-04         0.00000E+00
    0.38684E-03        -0.49044E-04         0.00000E+00
    0.36281E-03        -0.42391E-04         0.00000E+00
    0.33835E-03        -0.36179E-04         0.00000E+00
    0.31342E-03        -0.30420E-04         0.00000E+00
    0.28799E-03        -0.25126E-04         0.00000E+00
    0.26204E-03        -0.20311E-04         0.00000E+00
    0.23554E-03        -0.15984E-04         0.00000E+00
    0.20846E-03        -0.12158E-04         0.00000E+00
    0.18077E-03        -0.88406E-05         0.00000E+00
    0.15243E-03        -0.60409E-05         0.00000E+00
    0.12342E-03        -0.37657E-05         0.00000E+00
    0.93706E-04        -0.20208E-05         0.00000E+00
    0.63250E-04        -0.81046E-06         0.00000E+00
    0.32024E-04        -0.13716E-06         0.00000E+00
    0.00000E+00         0.00000E+00         0.00000E+00
    0.14261E-02        -0.63759E-03         0.00000E+00
    0.13942E-02        -0.61906E-03         0.00000E+00
    0.13630E-02        -0.60056E-03         0.00000E+00
    0.13327E-02        -0.58211E-03         0.00000E+00
    0.13030E-02        -0.56374E-03         0.00000E+00
    0.12740E-02        -0.54545E-03         0.00000E+00
    0.12457E-02        -0.52728E-03         0.00000E+00
    0.12178E-02        -0.50924E-03         0.00000E+00
    0.11905E-02        -0.49134E-03         0.00000E+00
    0.11637E-02        -0.47359E-03         0.00000E+00
    0.11372E-02        -0.45602E-03         0.00000E+00
    0.11111E-02        -0.43862E-03         0.00000E+00
    0.10853E-02        -0.42142E-03         0.00000E+00
    0.10597E-02        -0.40442E-03         0.00000E+00
    0.10344E-02        -0.38763E-03         0.00000E+00
    0.10092E-02        -0.37107E-03         0.00000E+00
    0.98415E-03        -0.35473E-03         0.00000E+00
    0.95919E-03        -0.33863E-03         0.00000E+00
    0.93428E-03        -0.32277E-03         0.00000E+00
    0.90940E-03        -0.30718E-03         0.00000E+00
    0.88450E-03        -0.29184E-03         0.00000E+00
    0.85955E-03        -0.27678E-03         0.00000E+00
    0.83452E-03        -0.26199E-03         0.00000E+00
    0.80939E-03        -0.24750E-03         0.00000E+00
    0.78412E-03        -0.23330E-03         0.00000E+00
    0.75870E-03        -0.21942E-03         0.00000E+00
    0.73308E-03        -0.20584E-03         0.00000E+00
    0.70725E-03        -0.19260E-03         0.00000E+00
    0.68118E-03        -0.17969E-03         0.00000E+00
    0.65485E-03        -0.16713E-03         0.00000E+00
    0.62823E-03        -0.15492E-03         0.00000E+00
    0.60130E-03        -0.14308E-03         0.00000E+00
    0.57404E-03        -0.13161E-03         0.00000E+00
    0.54642E-03        -0.12053E-03         0.00000E+00
    0.51842E-03        -0.10985E-03         0.00000E+00
    0.49002E-03        -0.99575E-04         0.00000E+00
    0.46119E-03        -0.89716E-04         0.00000E+00
    0.43192E-03        -0.80283E-04         0.00000E+00
    0.40217E-03        -0.71286E-04         0.00000E+00
    0.37193E-03        -0.62734E-04         0.00000E+00
    0.34118E-03        -0.54636E-04         0.00000E+00
    0.30988E-03        -0.46999E-04         0.00000E+00
    0.27801E-03        -0.39831E-04         0.00000E+00
    0.24556E-03        -0.33139E-04         0.00000E+00
    0.21250E-03        -0.26928E-04         0.00000E+00
    0.17880E-03        -0.21204E-04         0.00000E+00
    0.14444E-03        -0.15972E-04         0.00000E+00
    0.10941E-03        -0.11233E-04         0.00000E+00
    0.73667E-04        -0.69915E-05         0.00000E+00
    0.37205E-04        -0.32469E-05         0.00000E+00
    0.00000E+00         0.00000E+00         0.00000E+00
    0.16372E-02        -0.80423E-03         0.00000E+00
    0.16033E-02        -0.78218E-03         0.00000E+00
    0.15701E-02        -0.76015E-03         0.00000E+00
    0.15374E-02        -0.73818E-03         0.00000E+00
    0.15052E-02        -0.71627E-03         0.00000E+00
    0.14735E-02        -0.69446E-03         0.00000E+00
    0.14423E-02        -0.67275E-03         0.00000E+00
    0.14114E-02        -0.65118E-03         0.00000E+00
    0.13809E-02        -0.62975E-03         0.00000E+00
    0.13507E-02        -0.60848E-03         0.00000E+00
    0.13208E-02        -0.58738E-03         0.00000E+00
    0.12911E-02        -0.56648E-03         0.00000E+00
    0.12616E-02        -0.54577E-03         0.00000E+00
    0.12323E-02        -0.52528E-03         0.00000E+00
    0.12031E-02        -0.50501E-03         0.00000E+00
    0.11740E-02        -0.48498E-03         0.00000E+00
    0.11449E-02        -0.46520E-03         0.00000E+00
    0.11158E-02        -0.44567E-03         0.00000E+00
    0.10868E-02        -0.42641E-03         0.00000E+00
    0.10577E-02        -0.40742E-03         0.00000E+00
    0.10285E-02        -0.38871E-03         0.00000E+00
    0.99927E-03        -0.37030E-03         0.00000E+00
    0.96987E-03        -0.35219E-03         0.00000E+00
    0.94032E-03        -0.33439E-03         0.00000E+00
    0.91058E-03        -0.31692E-03         0.00000E+00
    0.88063E-03        -0.29976E-03         0.00000E+00
    0.85046E-03        -0.28295E-03         0.00000E+00
    0.82002E-03        -0.26647E-03         0.00000E+00
    0.78931E-03        -0.25035E-03         0.00000E+00
    0.75829E-03        -0.23460E-03         0.00000E+00
    0.72694E-03        -0.21921E-03         0.00000E+00
    0.69525E-03        -0.20420E-03         0.00000E+00
    0.66318E-03        -0.18957E-03         0.00000E+00
    0.63073E-03        -0.17534E-03         0.00000E+00
    0.59786E-03        -0.16151E-03         0.00000E+00
    0.56456E-03        -0.14809E-03         0.00000E+00
    0.53081E-03        -0.13508E-03         0.00000E+00
    0.49659E-03        -0.12250E-03         0.00000E+00
    0.46187E-03        -0.11035E-03         0.00000E+00
    0.42664E-03        -0.98642E-04         0.00000E+00
    0.39087E-03        -0.87372E-04         0.00000E+00
    0.35456E-03        -0.76551E-04         0.00000E+00
    0.31768E-03        -0.66184E-04         0.00000E+00
    0.28020E-03        -0.56276E-04         0.00000E+00
    0.24213E-03        -0.46830E-04         0.00000E+00
    0.20342E-03        -0.37849E-04         0.00000E+00
    0.16408E-03        -0.29337E-04         0.00000E+00
    0.12408E-03        -0.21295E-04         0.00000E+00
    0.83414E-04        -0.13725E-04         0.00000E+00
    0.42057E-04        -0.66264E-05         0.00000E+00
    0.00000E+00         0.00000E+00         0.00000E+00
    0.18314E-02        -0.97828E-03         0.00000E+00
    0.17962E-02        -0.95272E-03         0.00000E+00
    0.17614E-02        -0.92718E-03         0.00000E+00
    0.17269E-02        -0.90169E-03         0.00000E+00
    0.16927E-02        -0.87627E-03         0.00000E+00
    0.16588E-02        -0.85094E-03         0.00000E+00
    0.16252E-02        -0.82572E-03         0.00000E+00
    0.15918E-02        -0.80061E-03         0.00000E+00
    0.15586E-02        -0.77566E-03         0.00000E+00
    0.15256E-02        -0.75085E-03         0.00000E+00
    0.14927E-02        -0.72623E-03         0.00000E+00
    0.14599E-02        -0.70179E-03         0.00000E+00
    0.14271E-02        -0.67755E-03         0.00000E+00
    0.13945E-02        -0.65353E-03         0.00000E+00
    0.13618E-02        -0.62974E-03         0.00000E+00
    0.13292E-02        -0.60619E-03         0.00000E+00
    0.12965E-02        -0.58289E-03         0.00000E+00
    0.12637E-02        -0.55985E-03         0.00000E+00
    0.12309E-02        -0.53708E-03         0.00000E+00
    0.11979E-02        -0.51459E-03         0.00000E+00
    0.11648E-02        -0.49240E-03         0.00000E+00
    0.11315E-02        -0.47051E-03         0.00000E+00
    0.10980E-02        -0.44893E-03         0.00000E+00
    0.10644E-02        -0.42767E-03         0.00000E+00
    0.10304E-02        -0.40673E-03         0.00000E+00
    0.99623E-03        -0.38614E-03         0.00000E+00
    0.96176E-03        -0.36588E-03         0.00000E+00
    0.92698E-03        -0.34598E-03         0.00000E+00
    0.89187E-03        -0.32644E-03         0.00000E+00
    0.85641E-03        -0.30726E-03         0.00000E+00
    0.82059E-03        -0.28846E-03         0.00000E+00
    0.78438E-03        -0.27004E-03         0.00000E+00
    0.74777E-03        -0.25201E-03         0.00000E+00
    0.71073E-03        -0.23437E-03         0.00000E+00
    0.67325E-03        -0.21714E-03         0.00000E+00
    0.63530E-03        -0.20031E-03         0.00000E+00
    0.59688E-03        -0.18390E-03         0.00000E+00
    0.55796E-03        -0.16790E-03         0.00000E+00
    0.51853E-03        -0.15233E-03         0.00000E+00
    0.47857E-03        -0.13719E-03         0.00000E+00
    0.43807E-03        -0.12249E-03         0.00000E+00
    0.39701E-03        -0.10822E-03         0.00000E+00
    0.35537E-03        -0.94392E-04         0.00000E+00
    0.31314E-03        -0.81011E-04         0.00000E+00
    0.27031E-03        -0.68079E-04         0.00000E+00
    0.22687E-03        -0.55598E-04         0.00000E+00
    0.18280E-03        -0.43569E-04         0.00000E+00
    0.13808E-03        -0.31994E-04         0.00000E+00
    0.92720E-04        -0.20874E-04         0.00000E+00
    0.46695E-04        -0.10209E-04         0.00000E+00
    0.00000E+00         0.00000E+00         0.00000E+00
    0.20119E-02        -0.11577E-02         0.00000E+00
    0.19756E-02        -0.11286E-02         0.00000E+00
    0.19396E-02        -0.10996E-02         0.00000E+00
    0.19036E-02        -0.10706E-02         0.00000E+00
    0.18678E-02        -0.10416E-02         0.00000E+00
    0.18321E-02        -0.10128E-02         0.00000E+00
    0.17965E-02        -0.98403E-03         0.00000E+00
    0.17610E-02        -0.95539E-03         0.00000E+00
    0.17255E-02        -0.92690E-03         0.00000E+00
    0.16900E-02        -0.89855E-03         0.00000E+00
    0.16545E-02        -0.87038E-03         0.00000E+00
    0.16190E-02        -0.84239E-03         0.00000E+00
    0.15834E-02        -0.81459E-03         0.00000E+00
    0.15477E-02        -0.78701E-03         0.00000E+00
    0.15120E-02        -0.75966E-03         0.00000E+00
    0.14762E-02        -0.73254E-03         0.00000E+00
    0.14402E-02        -0.70567E-03         0.00000E+00
    0.14040E-02        -0.67906E-03         0.00000E+00
    0.13677E-02        -0.65272E-03         0.00000E+00
    0.13311E-02        -0.62666E-03         0.00000E+00
    0.12944E-02        -0.60090E-03         0.00000E+00
    0.12574E-02        -0.57543E-03         0.00000E+00
    0.12201E-02        -0.55028E-03         0.00000E+00
    0.11826E-02        -0.52544E-03         0.00000E+00
    0.11447E-02        -0.50094E-03         0.00000E+00
    0.11065E-02        -0.47676E-03         0.00000E+00
    0.10680E-02        -0.45294E-03         0.00000E+00
    0.10291E-02        -0.42946E-03         0.00000E+00
    0.98989E-03        -0.40635E-03         0.00000E+00
    0.95024E-03        -0.38360E-03         0.00000E+00
    0.91018E-03        -0.36122E-03         0.00000E+00
    0.86969E-03        -0.33923E-03         0.00000E+00
    0.82875E-03        -0.31762E-03         0.00000E+00
    0.78736E-03        -0.29640E-03         0.00000E+00
    0.74549E-03        -0.27558E-03         0.00000E+00
    0.70312E-03        -0.25516E-03         0.00000E+00
    0.66025E-03        -0.23515E-03         0.00000E+00
    0.61686E-03        -0.21556E-03         0.00000E+00
    0.57294E-03        -0.19638E-03         0.00000E+00
    0.52847E-03        -0.17763E-03         0.00000E+00
    0.48344E-03        -0.15929E-03         0.00000E+00
    0.43784E-03        -0.14139E-03         0.00000E+00
    0.39166E-03        -0.12393E-03         0.00000E+00
    0.34488E-03        -0.10689E-03         0.00000E+00
    0.29750E-03        -0.90296E-04         0.00000E+00
    0.24950E-03        -0.74140E-04         0.00000E+00
    0.20088E-03        -0.58425E-04         0.00000E+00
    0.15163E-03        -0.43153E-04         0.00000E+00
    0.10174E-03        -0.28325E-04         0.00000E+00
    0.51195E-04        -0.13940E-04         0.00000E+00
    0.00000E+00         0.00000E+00         0.00000E+00
    0.21813E-02        -0.13411E-02         0.00000E+00
    0.21442E-02        -0.13085E-02         0.00000E+00
    0.21072E-02        -0.12759E-02         0.00000E+00
    0.20700E-02        -0.12434E-02         0.00000E+00
    0.20329E-02        -0.12109E-02         0.00000E+00
    0.19956E-02        -0.11785E-02         0.00000E+00
    0.19583E-02        -0.11462E-02         0.00000E+00
    0.19209E-02        -0.11140E-02         0.00000E+00
    0.18834E-02        -0.10820E-02         0.00000E+00
    0.18457E-02        -0.10501E-02         0.00000E+00
    0.18079E-02        -0.10183E-02         0.00000E+00
    0.17700E-02        -0.98676E-03         0.00000E+00
    0.17318E-02        -0.95538E-03         0.00000E+00
    0.16935E-02        -0.92421E-03         0.00000E+00
    0.16550E-02        -0.89325E-03         0.00000E+00
    0.16162E-02        -0.86252E-03         0.00000E+00
    0.15772E-02        -0.83204E-03         0.00000E+00
    0.15379E-02        -0.80181E-03         0.00000E+00
    0.14984E-02        -0.77184E-03         0.00000E+00
    0.14586E-02        -0.74215E-03         0.00000E+00
    0.14184E-02        -0.71275E-03         0.00000E+00
    0.13780E-02        -0.68364E-03         0.00000E+00
    0.13371E-02        -0.65484E-03         0.00000E+00
    0.12960E-02        -0.62635E-03         0.00000E+00
    0.12544E-02        -0.59819E-03         0.00000E+00
    0.12125E-02        -0.57036E-03         0.00000E+00
    0.11702E-02        -0.54286E-03         0.00000E+00
    0.11274E-02        -0.51572E-03         0.00000E+00
    0.10842E-02        -0.48892E-03         0.00000E+00
    0.10406E-02        -0.46249E-03         0.00000E+00
    0.99653E-03        -0.43643E-03         0.00000E+00
    0.95197E-03        -0.41074E-03         0.00000E+00
    0.90691E-03        -0.38543E-03         0.00000E+00
    0.86136E-03        -0.36051E-03         0.00000E+00
    0.81530E-03        -0.33598E-03         0.00000E+00
    0.76871E-03        -0.31184E-03         0.00000E+00
    0.72158E-03        -0.28811E-03         0.00000E+00
    0.67391E-03        -0.26478E-03         0.00000E+00
    0.62567E-03        -0.24187E-03         0.00000E+00
    0.57687E-03        -0.21936E-03         0.00000E+00
    0.52749E-03        -0.19728E-03         0.00000E+00
    0.47752E-03        -0.17562E-03         0.00000E+00
    0.42695E-03        -0.15438E-03         0.00000E+00
    0.37578E-03        -0.13357E-03         0.00000E+00
    0.32399E-03        -0.11318E-03         0.00000E+00
    0.27158E-03        -0.93234E-04         0.00000E+00
    0.21854E-03        -0.73716E-04         0.00000E+00
    0.16487E-03        -0.54633E-04         0.00000E+00
    0.11056E-03        -0.35985E-04         0.00000E+00
    0.55604E-04        -0.17774E-04         0.00000E+00
    0.00000E+00         0.00000E+00         0.00000E+00
    0.23420E-02        -0.15277E-02         0.00000E+00
    0.23043E-02        -0.14915E-02         0.00000E+00
    0.22664E-02        -0.14554E-02         0.00000E+00
    0.22283E-02        -0.14193E-02         0.00000E+00
    0.21899E-02        -0.13832E-02         0.00000E+00
    0.21513E-02        -0.13473E-02         0.00000E+00
    0.21125E-02        -0.13114E-02         0.00000E+00
    0.20734E-02        -0.12756E-02         0.00000E+00
    0.20341E-02        -0.12400E-02         0.00000E+00
    0.19945E-02        -0.12045E-02         0.00000E+00
    0.19546E-02        -0.11691E-02         0.00000E+00
    0.19144E-02        -0.11339E-02         0.00000E+00
    0.18740E-02        -0.10989E-02         0.00000E+00
    0.18332E-02        -0.10641E-02         0.00000E+00
    0.17921E-02        -0.10295E-02         0.00000E+00
    0.17506E-02        -0.99514E-03         0.00000E+00
    0.17088E-02        -0.96100E-03         0.00000E+00
    0.16667E-02        -0.92710E-03         0.00000E+00
    0.16241E-02        -0.89346E-03         0.00000E+00
    0.15812E-02        -0.86009E-03         0.00000E+00
    0.15379E-02        -0.82699E-03         0.00000E+00
    0.14942E-02        -0.79419E-03         0.00000E+00
    0.14501E-02        -0.76168E-03         0.00000E+00
    0.14055E-02        -0.72947E-03         0.00000E+00
    0.13605E-02        -0.69758E-03         0.00000E+00
    0.13150E-02        -0.66602E-03         0.00000E+00
    0.12690E-02        -0.63478E-03         0.00000E+00
    0.12226E-02        -0.60389E-03         0.00000E+00
    0.11757E-02        -0.57334E-03         0.00000E+00
    0.11283E-02        -0.54315E-03         0.00000E+00
    0.10803E-02        -0.51332E-03         0.00000E+00
    0.10319E-02        -0.48385E-03         0.00000E+00
    0.98289E-03        -0.45476E-03         0.00000E+00
    0.93335E-03        -0.42604E-03         0.00000E+00
    0.88325E-03        -0.39771E-03         0.00000E+00
    0.83260E-03        -0.36977E-03         0.00000E+00
    0.78137E-03        -0.34222E-03         0.00000E+00
    0.72956E-03        -0.31507E-03         0.00000E+00
    0.67716E-03        -0.28833E-03         0.00000E+00
    0.62417E-03        -0.26199E-03         0.00000E+00
    0.57057E-03        -0.23606E-03         0.00000E+00
    0.51636E-03        -0.21055E-03         0.00000E+00
    0.46153E-03        -0.18546E-03         0.00000E+00
    0.40607E-03        -0.16078E-03         0.00000E+00
    0.34999E-03        -0.13653E-03         0.00000E+00
    0.29327E-03        -0.11270E-03         0.00000E+00
    0.23591E-03        -0.89300E-04         0.00000E+00
    0.17791E-03        -0.66328E-04         0.00000E+00
    0.11926E-03        -0.43787E-04         0.00000E+00
    0.59956E-04        -0.21677E-04         0.00000E+00
    0.00000E+00         0.00000E+00         0.00000E+00
    0.24964E-02        -0.17169E-02         0.00000E+00
    0.24581E-02        -0.16772E-02         0.00000E+00
    0.24194E-02        -0.16374E-02         0.00000E+00
    0.23804E-02        -0.15977E-02         0.00000E+00
    0.23409E-02        -0.15581E-02         0.00000E+00
    0.23011E-02        -0.15185E-02         0.00000E+00
    0.22609E-02        -0.14790E-02         0.00000E+00
    0.22203E-02        -0.14396E-02         0.00000E+00
    0.21793E-02        -0.14003E-02         0.00000E+00
    0.21379E-02        -0.13611E-02         0.00000E+00
    0.20961E-02        -0.13221E-02         0.00000E+00
    0.20539E-02        -0.12833E-02         0.00000E+00
    0.20112E-02        -0.12446E-02         0.00000E+00
    0.19681E-02        -0.12061E-02         0.00000E+00
    0.19246E-02        -0.11679E-02         0.00000E+00
    0.18806E-02        -0.11298E-02         0.00000E+00
    0.18362E-02        -0.10919E-02         0.00000E+00
    0.17914E-02        -0.10543E-02         0.00000E+00
    0.17460E-02        -0.10170E-02         0.00000E+00
    0.17002E-02        -0.97985E-03         0.00000E+00
    0.16539E-02        -0.94301E-03         0.00000E+00
    0.16071E-02        -0.90645E-03         0.00000E+00
    0.15598E-02        -0.87018E-03         0.00000E+00
    0.15120E-02        -0.83421E-03         0.00000E+00
    0.14636E-02        -0.79854E-03         0.00000E+00
    0.14148E-02        -0.76318E-03         0.00000E+00
    0.13654E-02        -0.72815E-03         0.00000E+00
    0.13154E-02        -0.69345E-03         0.00000E+00
    0.12649E-02        -0.65908E-03         0.00000E+00
    0.12139E-02        -0.62506E-03         0.00000E+00
    0.11622E-02        -0.59140E-03         0.00000E+00
    0.11100E-02        -0.55809E-03         0.00000E+00
    0.10572E-02        -0.52515E-03         0.00000E+00
    0.10038E-02        -0.49257E-03         0.00000E+00
    0.94985E-03        -0.46038E-03         0.00000E+00
    0.89525E-03        -0.42857E-03         0.00000E+00
    0.84005E-03        -0.39714E-03         0.00000E+00
    0.78422E-03        -0.36611E-03         0.00000E+00
    0.72778E-03        -0.33547E-03         0.00000E+00
    0.67070E-03        -0.30523E-03         0.00000E+00
    0.61298E-03        -0.27540E-03         0.00000E+00
    0.55463E-03        -0.24597E-03         0.00000E+00
    0.49563E-03        -0.21696E-03         0.00000E+00
    0.43598E-03        -0.18836E-03         0.00000E+00
    0.37568E-03        -0.16018E-03         0.00000E+00
    0.31472E-03        -0.13242E-03         0.00000E+00
    0.25310E-03        -0.10508E-03         0.00000E+00
    0.19083E-03        -0.78169E-04         0.00000E+00
    0.12788E-03        -0.51684E-04         0.00000E+00
    0.64275E-04        -0.25627E-04         0.00000E+00
    0.00000E+00         0.00000E+00         0.00000E+00
    0.26464E-02        -0.19088E-02         0.00000E+00
    0.26075E-02        -0.18653E-02         0.00000E+00
    0.25681E-02        -0.18219E-02         0.00000E+00
    0.25281E-02        -0.17785E-02         0.00000E+00
    0.24877E-02        -0.17352E-02         0.00000E+00
    0.24467E-02        -0.16920E-02         0.00000E+00
    0.24051E-02        -0.16488E-02         0.00000E+00
    0.23631E-02        -0.16057E-02         0.00000E+00
    0.23205E-02        -0.15627E-02         0.00000E+00
    0.22774E-02        -0.15199E-02         0.00000E+00
    0.22337E-02        -0.14772E-02         0.00000E+00
    0.21896E-02        -0.14346E-02         0.00000E+00
    0.21449E-02        -0.13922E-02         0.00000E+00
    0.20996E-02        -0.13500E-02         0.00000E+00
    0.20538E-02        -0.13080E-02         0.00000E+00
    0.20074E-02        -0.12661E-02         0.00000E+00
    0.19605E-02        -0.12245E-02         0.00000E+00
    0.19131E-02        -0.11832E-02         0.00000E+00
    0.18651E-02        -0.11420E-02         0.00000E+00
    0.18165E-02        -0.11011E-02         0.00000E+00
    0.17673E-02        -0.10605E-02         0.00000E+00
    0.17175E-02        -0.10201E-02         0.00000E+00
    0.16672E-02        -0.98003E-03         0.00000E+00
    0.16163E-02        -0.94023E-03         0.00000E+00
    0.15647E-02        -0.90073E-03         0.00000E+00
    0.15126E-02        -0.86153E-03         0.00000E+00
    0.14599E-02        -0.82264E-03         0.00000E+00
    0.14065E-02        -0.78408E-03         0.00000E+00
    0.13526E-02        -0.74584E-03         0.00000E+00
    0.12980E-02        -0.70794E-03         0.00000E+00
    0.12428E-02        -0.67039E-03         0.00000E+00
    0.11869E-02        -0.63319E-03         0.00000E+00
    0.11304E-02        -0.59634E-03         0.00000E+00
    0.10733E-02        -0.55986E-03         0.00000E+00
    0.10155E-02        -0.52375E-03         0.00000E+00
    0.95708E-03        -0.48801E-03         0.00000E+00
    0.89798E-03        -0.45265E-03         0.00000E+00
    0.83823E-03        -0.41768E-03         0.00000E+00
    0.77782E-03        -0.38310E-03         0.00000E+00
    0.71673E-03        -0.34891E-03         0.00000E+00
    0.65498E-03        -0.31513E-03         0.00000E+00
    0.59255E-03        -0.28174E-03         0.00000E+00
    0.52944E-03        -0.24877E-03         0.00000E+00
    0.46566E-03        -0.21620E-03         0.00000E+00
    0.40119E-03        -0.18405E-03         0.00000E+00
    0.33604E-03        -0.15232E-03         0.00000E+00
    0.27020E-03        -0.12100E-03         0.00000E+00
    0.20368E-03        -0.90113E-04         0.00000E+00
    0.13648E-03        -0.59647E-04         0.00000E+00
    0.68581E-04        -0.29609E-04         0.00000E+00
    0.00000E+00         0.00000E+00         0.00000E+00
    0.27938E-02        -0.21032E-02         0.00000E+00
    0.27542E-02        -0.20561E-02         0.00000E+00
    0.27141E-02        -0.20089E-02         0.00000E+00
    0.26732E-02        -0.19618E-02         0.00000E+00
    0.26317E-02        -0.19148E-02         0.00000E+00
    0.25895E-02        -0.18678E-02         0.00000E+00
    0.25467E-02        -0.18208E-02         0.00000E+00
    0.25032E-02        -0.17740E-02         0.00000E+00
    0.24591E-02        -0.17273E-02         0.00000E+00
    0.24144E-02        -0.16806E-02         0.00000E+00
    0.23689E-02        -0.16342E-02         0.00000E+00
    0.23229E-02        -0.15878E-02         0.00000E+00
    0.22762E-02        -0.15416E-02         0.00000E+00
    0.22288E-02        -0.14956E-02         0.00000E+00
    0.21808E-02        -0.14498E-02         0.00000E+00
    0.21321E-02        -0.14042E-02         0.00000E+00
    0.20828E-02        -0.13587E-02         0.00000E+00
    0.20328E-02        -0.13135E-02         0.00000E+00
    0.19822E-02        -0.12685E-02         0.00000E+00
    0.19309E-02        -0.12238E-02         0.00000E+00
    0.18790E-02        -0.11793E-02         0.00000E+00
    0.18264E-02        -0.11351E-02         0.00000E+00
    0.17731E-02        -0.10911E-02         0.00000E+00
    0.17191E-02        -0.10474E-02         0.00000E+00
    0.16645E-02        -0.10040E-02         0.00000E+00
    0.16092E-02        -0.96094E-03         0.00000E+00
    0.15532E-02        -0.91814E-03         0.00000E+00
    0.14966E-02        -0.87566E-03         0.00000E+00
    0.14392E-02        -0.83350E-03         0.00000E+00
    0.13812E-02        -0.79167E-03         0.00000E+00
    0.13225E-02        -0.75018E-03         0.00000E+00
    0.12631E-02        -0.70903E-03         0.00000E+00
    0.12029E-02        -0.66823E-03         0.00000E+00
    0.11421E-02        -0.62779E-03         0.00000E+00
    0.10806E-02        -0.58771E-03         0.00000E+00
    0.10184E-02        -0.54800E-03         0.00000E+00
    0.95551E-03        -0.50867E-03         0.00000E+00
    0.89189E-03        -0.46972E-03         0.00000E+00
    0.82757E-03        -0.43115E-03         0.00000E+00
    0.76253E-03        -0.39297E-03         0.00000E+00
    0.69678E-03        -0.35519E-03         0.00000E+00
    0.63031E-03        -0.31781E-03         0.00000E+00
    0.56314E-03        -0.28083E-03         0.00000E+00
    0.49525E-03        -0.24426E-03         0.00000E+00
    0.42664E-03        -0.20810E-03         0.00000E+00
    0.35732E-03        -0.17236E-03         0.00000E+00
    0.28729E-03        -0.13704E-03         0.00000E+00
    0.21654E-03        -0.10214E-03         0.00000E+00
    0.14507E-03        -0.67664E-04         0.00000E+00
    0.72892E-04        -0.33616E-04         0.00000E+00
    0.00000E+00         0.00000E+00         0.00000E+00
    0.29401E-02        -0.23007E-02         0.00000E+00
    0.28999E-02        -0.22497E-02         0.00000E+00
    0.28589E-02        -0.21987E-02         0.00000E+00
    0.28171E-02        -0.21478E-02         0.00000E+00
    0.27745E-02        -0.20969E-02         0.00000E+00
    0.27312E-02        -0.20461E-02         0.00000E+00
    0.26870E-02        -0.19953E-02         0.00000E+00
    0.26421E-02        -0.19447E-02         0.00000E+00
    0.25965E-02        -0.18941E-02         0.00000E+00
    0.25501E-02        -0.18436E-02         0.00000E+00
    0.25029E-02        -0.17933E-02         0.00000E+00
    0.24549E-02        -0.17431E-02         0.00000E+00
    0.24063E-02        -0.16931E-02         0.00000E+00
    0.23568E-02        -0.16432E-02         0.00000E+00
    0.23066E-02        -0.15935E-02         0.00000E+00
    0.22557E-02        -0.15439E-02         0.00000E+00
    0.22040E-02        -0.14946E-02         0.00000E+00
    0.21516E-02        -0.14455E-02         0.00000E+00
    0.20984E-02        -0.13966E-02         0.00000E+00
    0.20445E-02        -0.13480E-02         0.00000E+00
    0.19898E-02        -0.12995E-02         0.00000E+00
    0.19344E-02        -0.12514E-02         0.00000E+00
    0.18782E-02        -0.12035E-02         0.00000E+00
    0.18213E-02        -0.11559E-02         0.00000E+00
    0.17636E-02        -0.11085E-02         0.00000E+00
    0.17052E-02        -0.10614E-02         0.00000E+00
    0.16460E-02        -0.10147E-02         0.00000E+00
    0.15861E-02        -0.96822E-03         0.00000E+00
    0.15254E-02        -0.92208E-03         0.00000E+00
    0.14640E-02        -0.87626E-03         0.00000E+00
    0.14018E-02        -0.83078E-03         0.00000E+00
    0.13389E-02        -0.78563E-03         0.00000E+00
    0.12752E-02        -0.74082E-03         0.00000E+00
    0.12108E-02        -0.69637E-03         0.00000E+00
    0.11456E-02        -0.65228E-03         0.00000E+00
    0.10797E-02        -0.60855E-03         0.00000E+00
    0.10130E-02        -0.56519E-03         0.00000E+00
    0.94549E-03        -0.52221E-03         0.00000E+00
    0.87728E-03        -0.47961E-03         0.00000E+00
    0.80831E-03        -0.43740E-03         0.00000E+00
    0.73859E-03        -0.39558E-03         0.00000E+00
    0.66811E-03        -0.35416E-03         0.00000E+00
    0.59688E-03        -0.31314E-03         0.00000E+00
    0.52490E-03        -0.27253E-03         0.00000E+00
    0.45216E-03        -0.23233E-03         0.00000E+00
    0.37867E-03        -0.19255E-03         0.00000E+00
    0.30443E-03        -0.15319E-03         0.00000E+00
    0.22944E-03        -0.11425E-03         0.00000E+00
    0.15370E-03        -0.75733E-04         0.00000E+00
    0.77224E-04        -0.37650E-04         0.00000E+00
    0.00000E+00         0.00000E+00         0.00000E+00
    0.30868E-02        -0.25015E-02         0.00000E+00
    0.30458E-02        -0.24466E-02         0.00000E+00
    0.30039E-02        -0.23917E-02         0.00000E+00
    0.29611E-02        -0.23369E-02         0.00000E+00
    0.29174E-02        -0.22821E-02         0.00000E+00
    0.28728E-02        -0.22273E-02         0.00000E+00
    0.28273E-02        -0.21726E-02         0.00000E+00
    0.27809E-02        -0.21180E-02         0.00000E+00
    0.27337E-02        -0.20635E-02         0.00000E+00
    0.26856E-02        -0.20091E-02         0.00000E+00
    0.26367E-02        -0.19549E-02         0.00000E+00
    0.25868E-02        -0.19007E-02         0.00000E+00
    0.25362E-02        -0.18467E-02         0.00000E+00
    0.24847E-02        -0.17929E-02         0.00000E+00
    0.24323E-02        -0.17392E-02         0.00000E+00
    0.23791E-02        -0.16857E-02         0.00000E+00
    0.23251E-02        -0.16324E-02         0.00000E+00
    0.22702E-02        -0.15793E-02         0.00000E+00
    0.22145E-02        -0.15265E-02         0.00000E+00
    0.21579E-02        -0.14738E-02         0.00000E+00
    0.21005E-02        -0.14214E-02         0.00000E+00
    0.20423E-02        -0.13692E-02         0.00000E+00
    0.19833E-02        -0.13173E-02         0.00000E+00
    0.19234E-02        -0.12656E-02         0.00000E+00
    0.18627E-02        -0.12143E-02         0.00000E+00
    0.18012E-02        -0.11632E-02         0.00000E+00
    0.17389E-02        -0.11124E-02         0.00000E+00
    0.16757E-02        -0.10619E-02         0.00000E+00
    0.16117E-02        -0.10117E-02         0.00000E+00
    0.15469E-02        -0.96183E-03         0.00000E+00
    0.14813E-02        -0.91228E-03         0.00000E+00
    0.14149E-02        -0.86307E-03         0.00000E+00
    0.13477E-02        -0.81420E-03         0.00000E+00
    0.12796E-02        -0.76568E-03         0.00000E+00
    0.12108E-02        -0.71752E-03         0.00000E+00
    0.11411E-02        -0.66971E-03         0.00000E+00
    0.10706E-02        -0.62228E-03         0.00000E+00
    0.99931E-03        -0.57522E-03         0.00000E+00
    0.92722E-03        -0.52854E-03         0.00000E+00
    0.85432E-03        -0.48224E-03         0.00000E+00
    0.78062E-03        -0.43634E-03         0.00000E+00
    0.70612E-03        -0.39084E-03         0.00000E+00
    0.63082E-03        -0.34574E-03         0.00000E+00
    0.55473E-03        -0.30105E-03         0.00000E+00
    0.47784E-03        -0.25677E-03         0.00000E+00
    0.40016E-03        -0.21290E-03         0.00000E+00
    0.32170E-03        -0.16946E-03         0.00000E+00
    0.24245E-03        -0.12645E-03         0.00000E+00
    0.16241E-03        -0.83864E-04         0.00000E+00
    0.81593E-04        -0.41713E-04         0.00000E+00
    0.00000E+00         0.00000E+00         0.00000E+00
    0.32350E-02        -0.27062E-02         0.00000E+00
    0.31931E-02        -0.26473E-02         0.00000E+00
    0.31502E-02        -0.25884E-02         0.00000E+00
    0.31063E-02        -0.25295E-02         0.00000E+00
    0.30614E-02        -0.24706E-02         0.00000E+00
    0.30155E-02        -0.24119E-02         0.00000E+00
    0.29686E-02        -0.23532E-02         0.00000E+00
    0.29207E-02        -0.22945E-02         0.00000E+00
    0.28719E-02        -0.22360E-02         0.00000E+00
    0.28221E-02        -0.21775E-02         0.00000E+00
    0.27713E-02        -0.21192E-02         0.00000E+00
    0.27196E-02        -0.20610E-02         0.00000E+00
    0.26669E-02        -0.20030E-02         0.00000E+00
    0.26133E-02        -0.19451E-02         0.00000E+00
    0.25587E-02        -0.18874E-02         0.00000E+00
    0.25032E-02        -0.18298E-02         0.00000E+00
    0.24468E-02        -0.17725E-02         0.00000E+00
    0.23894E-02        -0.17153E-02         0.00000E+00
    0.23312E-02        -0.16583E-02         0.00000E+00
    0.22720E-02        -0.16016E-02         0.00000E+00
    0.22119E-02        -0.15451E-02         0.00000E+00
    0.21509E-02        -0.14888E-02         0.00000E+00
    0.20889E-02        -0.14328E-02         0.00000E+00
    0.20261E-02        -0.13771E-02         0.00000E+00
    0.19624E-02        -0.13216E-02         0.00000E+00
    0.18978E-02        -0.12664E-02         0.00000E+00
    0.18323E-02        -0.12115E-02         0.00000E+00
    0.17659E-02        -0.11568E-02         0.00000E+00
    0.16986E-02        -0.11025E-02         0.00000E+00
    0.16304E-02        -0.10485E-02         0.00000E+00
    0.15614E-02        -0.99487E-03         0.00000E+00
    0.14915E-02        -0.94152E-03         0.00000E+00
    0.14206E-02        -0.88852E-03         0.00000E+00
    0.13490E-02        -0.83587E-03         0.00000E+00
    0.12764E-02        -0.78356E-03         0.00000E+00
    0.12030E-02        -0.73162E-03         0.00000E+00
    0.11287E-02        -0.68005E-03         0.00000E+00
    0.10536E-02        -0.62885E-03         0.00000E+00
    0.97760E-03        -0.57803E-03         0.00000E+00
    0.90075E-03        -0.52760E-03         0.00000E+00
    0.82305E-03        -0.47756E-03         0.00000E+00
    0.74451E-03        -0.42792E-03         0.00000E+00
    0.66511E-03        -0.37869E-03         0.00000E+00
    0.58488E-03        -0.32986E-03         0.00000E+00
    0.50381E-03        -0.28145E-03         0.00000E+00
    0.42190E-03        -0.23347E-03         0.00000E+00
    0.33917E-03        -0.18590E-03         0.00000E+00
    0.25560E-03        -0.13877E-03         0.00000E+00
    0.17122E-03        -0.92073E-04         0.00000E+00
    0.86017E-04        -0.45815E-04         0.00000E+00
    0.00000E+00         0.00000E+00         0.00000E+00
    0.33859E-02        -0.29153E-02         0.00000E+00
    0.33430E-02        -0.28522E-02         0.00000E+00
    0.32990E-02        -0.27892E-02         0.00000E+00
    0.32539E-02        -0.27262E-02         0.00000E+00
    0.32077E-02        -0.26632E-02         0.00000E+00
    0.31604E-02        -0.26003E-02         0.00000E+00
    0.31120E-02        -0.25374E-02         0.00000E+00
    0.30625E-02        -0.24746E-02         0.00000E+00
    0.30120E-02        -0.24119E-02         0.00000E+00
    0.29604E-02        -0.23494E-02         0.00000E+00
    0.29077E-02        -0.22869E-02         0.00000E+00
    0.28540E-02        -0.22245E-02         0.00000E+00
    0.27993E-02        -0.21623E-02         0.00000E+00
    0.27435E-02        -0.21003E-02         0.00000E+00
    0.26867E-02        -0.20384E-02         0.00000E+00
    0.26288E-02        -0.19766E-02         0.00000E+00
    0.25700E-02        -0.19151E-02         0.00000E+00
    0.25101E-02        -0.18538E-02         0.00000E+00
    0.24493E-02        -0.17926E-02         0.00000E+00
    0.23874E-02        -0.17317E-02         0.00000E+00
    0.23245E-02        -0.16710E-02         0.00000E+00
    0.22607E-02        -0.16105E-02         0.00000E+00
    0.21959E-02        -0.15503E-02         0.00000E+00
    0.21301E-02        -0.14904E-02         0.00000E+00
    0.20633E-02        -0.14307E-02         0.00000E+00
    0.19955E-02        -0.13713E-02         0.00000E+00
    0.19268E-02        -0.13122E-02         0.00000E+00
    0.18572E-02        -0.12534E-02         0.00000E+00
    0.17865E-02        -0.11948E-02         0.00000E+00
    0.17149E-02        -0.11366E-02         0.00000E+00
    0.16424E-02        -0.10787E-02         0.00000E+00
    0.15690E-02        -0.10212E-02         0.00000E+00
    0.14946E-02        -0.96398E-03         0.00000E+00
    0.14192E-02        -0.90711E-03         0.00000E+00
    0.13429E-02        -0.85059E-03         0.00000E+00
    0.12658E-02        -0.79444E-03         0.00000E+00
    0.11876E-02        -0.73865E-03         0.00000E+00
    0.11086E-02        -0.68325E-03         0.00000E+00
    0.10287E-02        -0.62822E-03         0.00000E+00
    0.94783E-03        -0.57358E-03         0.00000E+00
    0.86608E-03        -0.51934E-03         0.00000E+00
    0.78344E-03        -0.46550E-03         0.00000E+00
    0.69990E-03        -0.41207E-03         0.00000E+00
    0.61547E-03        -0.35905E-03         0.00000E+00
    0.53016E-03        -0.30646E-03         0.00000E+00
    0.44397E-03        -0.25429E-03         0.00000E+00
    0.35690E-03        -0.20255E-03         0.00000E+00
    0.26897E-03        -0.15124E-03         0.00000E+00
    0.18017E-03        -0.10038E-03         0.00000E+00
    0.90511E-04        -0.49965E-04         0.00000E+00
    0.00000E+00         0.00000E+00         0.00000E+00
    0.35405E-02        -0.31295E-02         0.00000E+00
    0.34965E-02        -0.30622E-02         0.00000E+00
    0.34512E-02        -0.29948E-02         0.00000E+00
    0.34048E-02        -0.29276E-02         0.00000E+00
    0.33572E-02        -0.28603E-02         0.00000E+00
    0.33083E-02        -0.27931E-02         0.00000E+00
    0.32583E-02        -0.27260E-02         0.00000E+00
    0.32072E-02        -0.26589E-02         0.00000E+00
    0.31548E-02        -0.25919E-02         0.00000E+00
    0.31014E-02        -0.25251E-02         0.00000E+00
    0.30467E-02        -0.24583E-02         0.00000E+00
    0.29910E-02        -0.23917E-02         0.00000E+00
    0.29341E-02        -0.23252E-02         0.00000E+00
    0.28760E-02        -0.22588E-02         0.00000E+00
    0.28169E-02        -0.21926E-02         0.00000E+00
    0.27567E-02        -0.21266E-02         0.00000E+00
    0.26953E-02        -0.20608E-02         0.00000E+00
    0.26329E-02        -0.19951E-02         0.00000E+00
    0.25694E-02        -0.19297E-02         0.00000E+00
    0.25048E-02        -0.18645E-02         0.00000E+00
    0.24391E-02        -0.17995E-02         0.00000E+00
    0.23724E-02        -0.17347E-02         0.00000E+00
    0.23046E-02        -0.16702E-02         0.00000E+00
    0.22358E-02        -0.16060E-02         0.00000E+00
    0.21659E-02        -0.15420E-02         0.00000E+00
    0.20949E-02        -0.14783E-02         0.00000E+00
    0.20230E-02        -0.14148E-02         0.00000E+00
    0.19500E-02        -0.13517E-02         0.00000E+00
    0.18759E-02        -0.12889E-02         0.00000E+00
    0.18009E-02        -0.12264E-02         0.00000E+00
    0.17248E-02        -0.11642E-02         0.00000E+00
    0.16478E-02        -0.11023E-02         0.00000E+00
    0.15697E-02        -0.10408E-02         0.00000E+00
    0.14907E-02        -0.97962E-03         0.00000E+00
    0.14106E-02        -0.91881E-03         0.00000E+00
    0.13296E-02        -0.85835E-03         0.00000E+00
    0.12476E-02        -0.79827E-03         0.00000E+00
    0.11646E-02        -0.73857E-03         0.00000E+00
    0.10807E-02        -0.67925E-03         0.00000E+00
    0.99576E-03        -0.62033E-03         0.00000E+00
    0.90990E-03        -0.56181E-03         0.00000E+00
    0.82308E-03        -0.50369E-03         0.00000E+00
    0.73532E-03        -0.44599E-03         0.00000E+00
    0.64663E-03        -0.38871E-03         0.00000E+00
    0.55700E-03        -0.33185E-03         0.00000E+00
    0.46645E-03        -0.27543E-03         0.00000E+00
    0.37498E-03        -0.21944E-03         0.00000E+00
    0.28259E-03        -0.16390E-03         0.00000E+00
    0.18929E-03        -0.10881E-03         0.00000E+00
    0.95093E-04        -0.54176E-04         0.00000E+00
    0.00000E+00         0.00000E+00         0.00000E+00
    0.36995E-02        -0.33494E-02         0.00000E+00
    0.36542E-02        -0.32777E-02         0.00000E+00
    0.36077E-02        -0.32059E-02         0.00000E+00
    0.35598E-02        -0.31342E-02         0.00000E+00
    0.35106E-02        -0.30626E-02         0.00000E+00
    0.34602E-02        -0.29910E-02         0.00000E+00
    0.34085E-02        -0.29194E-02         0.00000E+00
    0.33555E-02        -0.28479E-02         0.00000E+00
    0.33013E-02        -0.27765E-02         0.00000E+00
    0.32458E-02        -0.27052E-02         0.00000E+00
    0.31891E-02        -0.26341E-02         0.00000E+00
    0.31312E-02        -0.25630E-02         0.00000E+00
    0.30720E-02        -0.24921E-02         0.00000E+00
    0.30117E-02        -0.24213E-02         0.00000E+00
    0.29502E-02        -0.23507E-02         0.00000E+00
    0.28874E-02        -0.22803E-02         0.00000E+00
    0.28235E-02        -0.22100E-02         0.00000E+00
    0.27584E-02        -0.21399E-02         0.00000E+00
    0.26922E-02        -0.20701E-02         0.00000E+00
    0.26248E-02        -0.20004E-02         0.00000E+00
    0.25562E-02        -0.19310E-02         0.00000E+00
    0.24865E-02        -0.18618E-02         0.00000E+00
    0.24157E-02        -0.17929E-02         0.00000E+00
    0.23437E-02        -0.17242E-02         0.00000E+00
    0.22707E-02        -0.16558E-02         0.00000E+00
    0.21965E-02        -0.15876E-02         0.00000E+00
    0.21212E-02        -0.15198E-02         0.00000E+00
    0.20448E-02        -0.14522E-02         0.00000E+00
    0.19673E-02        -0.13850E-02         0.00000E+00
    0.18887E-02        -0.13180E-02         0.00000E+00
    0.18090E-02        -0.12514E-02         0.00000E+00
    0.17283E-02        -0.11852E-02         0.00000E+00
    0.16465E-02        -0.11192E-02         0.00000E+00
    0.15637E-02        -0.10536E-02         0.00000E+00
    0.14798E-02        -0.98843E-03         0.00000E+00
    0.13948E-02        -0.92357E-03         0.00000E+00
    0.13088E-02        -0.85910E-03         0.00000E+00
    0.12218E-02        -0.79500E-03         0.00000E+00
    0.11338E-02        -0.73130E-03         0.00000E+00
    0.10447E-02        -0.66800E-03         0.00000E+00
    0.95466E-03        -0.60510E-03         0.00000E+00
    0.86360E-03        -0.54262E-03         0.00000E+00
    0.77153E-03        -0.48056E-03         0.00000E+00
    0.67848E-03        -0.41892E-03         0.00000E+00
    0.58444E-03        -0.35772E-03         0.00000E+00
    0.48943E-03        -0.29697E-03         0.00000E+00
    0.39345E-03        -0.23665E-03         0.00000E+00
    0.29651E-03        -0.17679E-03         0.00000E+00
    0.19862E-03        -0.11740E-03         0.00000E+00
    0.99780E-04        -0.58462E-04         0.00000E+00
    0.00000E+00         0.00000E+00         0.00000E+00
    0.38638E-02        -0.35758E-02         0.00000E+00
    0.38172E-02        -0.34994E-02         0.00000E+00
    0.37691E-02        -0.34231E-02         0.00000E+00
    0.37197E-02        -0.33469E-02         0.00000E+00
    0.36688E-02        -0.32706E-02         0.00000E+00
    0.36166E-02        -0.31944E-02         0.00000E+00
    0.35631E-02        -0.31183E-02         0.00000E+00
    0.35082E-02        -0.30423E-02         0.00000E+00
    0.34520E-02        -0.29663E-02         0.00000E+00
    0.33944E-02        -0.28904E-02         0.00000E+00
    0.33355E-02        -0.28147E-02         0.00000E+00
    0.32753E-02        -0.27391E-02         0.00000E+00
    0.32139E-02        -0.26636E-02         0.00000E+00
    0.31511E-02        -0.25882E-02         0.00000E+00
    0.30870E-02        -0.25130E-02         0.00000E+00
    0.30217E-02        -0.24380E-02         0.00000E+00
    0.29551E-02        -0.23632E-02         0.00000E+00
    0.28873E-02        -0.22885E-02         0.00000E+00
    0.28182E-02        -0.22141E-02         0.00000E+00
    0.27479E-02        -0.21399E-02         0.00000E+00
    0.26764E-02        -0.20659E-02         0.00000E+00
    0.26036E-02        -0.19922E-02         0.00000E+00
    0.25297E-02        -0.19187E-02         0.00000E+00
    0.24545E-02        -0.18454E-02         0.00000E+00
    0.23781E-02        -0.17724E-02         0.00000E+00
    0.23006E-02        -0.16997E-02         0.00000E+00
    0.22219E-02        -0.16273E-02         0.00000E+00
    0.21420E-02        -0.15552E-02         0.00000E+00
    0.20609E-02        -0.14834E-02         0.00000E+00
    0.19787E-02        -0.14120E-02         0.00000E+00
    0.18953E-02        -0.13408E-02         0.00000E+00
    0.18108E-02        -0.12700E-02         0.00000E+00
    0.17252E-02        -0.11995E-02         0.00000E+00
    0.16385E-02        -0.11294E-02         0.00000E+00
    0.15506E-02        -0.10597E-02         0.00000E+00
    0.14617E-02        -0.99032E-03         0.00000E+00
    0.13716E-02        -0.92133E-03         0.00000E+00
    0.12805E-02        -0.85274E-03         0.00000E+00
    0.11882E-02        -0.78454E-03         0.00000E+00
    0.10949E-02        -0.71675E-03         0.00000E+00
    0.10006E-02        -0.64937E-03         0.00000E+00
    0.90514E-03        -0.58242E-03         0.00000E+00
    0.80866E-03        -0.51589E-03         0.00000E+00
    0.71114E-03        -0.44981E-03         0.00000E+00
    0.61259E-03        -0.38416E-03         0.00000E+00
    0.51301E-03        -0.31897E-03         0.00000E+00
    0.41241E-03        -0.25423E-03         0.00000E+00
    0.31080E-03        -0.18996E-03         0.00000E+00
    0.20819E-03        -0.12616E-03         0.00000E+00
    0.10459E-03        -0.62839E-04         0.00000E+00
    0.00000E+00         0.00000E+00         0.00000E+00
    0.40341E-02        -0.38092E-02         0.00000E+00
    0.39859E-02        -0.37282E-02         0.00000E+00
    0.39363E-02        -0.36471E-02         0.00000E+00
    0.38851E-02        -0.35661E-02         0.00000E+00
    0.38325E-02        -0.34851E-02         0.00000E+00
    0.37784E-02        -0.34042E-02         0.00000E+00
    0.37229E-02        -0.33233E-02         0.00000E+00
    0.36660E-02        -0.32425E-02         0.00000E+00
    0.36076E-02        -0.31618E-02         0.00000E+00
    0.35478E-02        -0.30812E-02         0.00000E+00
    0.34867E-02        -0.30007E-02         0.00000E+00
    0.34241E-02        -0.29204E-02         0.00000E+00
    0.33602E-02        -0.28402E-02         0.00000E+00
    0.32948E-02        -0.27601E-02         0.00000E+00
    0.32282E-02        -0.26802E-02         0.00000E+00
    0.31601E-02        -0.26004E-02         0.00000E+00
    0.30908E-02        -0.25209E-02         0.00000E+00
    0.30201E-02        -0.24415E-02         0.00000E+00
    0.29481E-02        -0.23623E-02         0.00000E+00
    0.28747E-02        -0.22834E-02         0.00000E+00
    0.28001E-02        -0.22047E-02         0.00000E+00
    0.27242E-02        -0.21262E-02         0.00000E+00
    0.26470E-02        -0.20480E-02         0.00000E+00
    0.25685E-02        -0.19701E-02         0.00000E+00
    0.24887E-02        -0.18924E-02         0.00000E+00
    0.24077E-02        -0.18150E-02         0.00000E+00
    0.23254E-02        -0.17379E-02         0.00000E+00
    0.22419E-02        -0.16611E-02         0.00000E+00
    0.21572E-02        -0.15846E-02         0.00000E+00
    0.20713E-02        -0.15084E-02         0.00000E+00
    0.19841E-02        -0.14326E-02         0.00000E+00
    0.18957E-02        -0.13571E-02         0.00000E+00
    0.18062E-02        -0.12820E-02         0.00000E+00
    0.17154E-02        -0.12072E-02         0.00000E+00
    0.16235E-02        -0.11328E-02         0.00000E+00
    0.15304E-02        -0.10588E-02         0.00000E+00
    0.14362E-02        -0.98520E-03         0.00000E+00
    0.13408E-02        -0.91197E-03         0.00000E+00
    0.12442E-02        -0.83915E-03         0.00000E+00
    0.11466E-02        -0.76675E-03         0.00000E+00
    0.10478E-02        -0.69477E-03         0.00000E+00
    0.94786E-03        -0.62322E-03         0.00000E+00
    0.84684E-03        -0.55212E-03         0.00000E+00
    0.74473E-03        -0.48146E-03         0.00000E+00
    0.64153E-03        -0.41125E-03         0.00000E+00
    0.53725E-03        -0.34151E-03         0.00000E+00
    0.43190E-03        -0.27224E-03         0.00000E+00
    0.32549E-03        -0.20345E-03         0.00000E+00
    0.21804E-03        -0.13514E-03         0.00000E+00
    0.10953E-03        -0.67321E-04         0.00000E+00
    0.00000E+00         0.00000E+00         0.00000E+00
    0.42111E-02        -0.40505E-02         0.00000E+00
    0.41612E-02        -0.39645E-02         0.00000E+00
    0.41098E-02        -0.38785E-02         0.00000E+00
    0.40568E-02        -0.37926E-02         0.00000E+00
    0.40022E-02        -0.37067E-02         0.00000E+00
    0.39462E-02        -0.36209E-02         0.00000E+00
    0.38886E-02        -0.35351E-02         0.00000E+00
    0.38294E-02        -0.34494E-02         0.00000E+00
    0.37688E-02        -0.33638E-02         0.00000E+00
    0.37067E-02        -0.32782E-02         0.00000E+00
    0.36431E-02        -0.31928E-02         0.00000E+00
    0.35780E-02        -0.31076E-02         0.00000E+00
    0.35115E-02        -0.30224E-02         0.00000E+00
    0.34435E-02        -0.29374E-02         0.00000E+00
    0.33741E-02        -0.28526E-02         0.00000E+00
    0.33032E-02        -0.27680E-02         0.00000E+00
    0.32309E-02        -0.26835E-02         0.00000E+00
    0.31572E-02        -0.25993E-02         0.00000E+00
    0.30822E-02        -0.25152E-02         0.00000E+00
    0.30057E-02        -0.24314E-02         0.00000E+00
    0.29278E-02        -0.23478E-02         0.00000E+00
    0.28486E-02        -0.22644E-02         0.00000E+00
    0.27680E-02        -0.21813E-02         0.00000E+00
    0.26861E-02        -0.20985E-02         0.00000E+00
    0.26028E-02        -0.20160E-02         0.00000E+00
    0.25182E-02        -0.19337E-02         0.00000E+00
    0.24323E-02        -0.18518E-02         0.00000E+00
    0.23451E-02        -0.17701E-02         0.00000E+00
    0.22566E-02        -0.16888E-02         0.00000E+00
    0.21668E-02        -0.16078E-02         0.00000E+00
    0.20757E-02        -0.15271E-02         0.00000E+00
    0.19833E-02        -0.14468E-02         0.00000E+00
    0.18897E-02        -0.13669E-02         0.00000E+00
    0.17948E-02        -0.12873E-02         0.00000E+00
    0.16987E-02        -0.12081E-02         0.00000E+00
    0.16013E-02        -0.11293E-02         0.00000E+00
    0.15027E-02        -0.10509E-02         0.00000E+00
    0.14030E-02        -0.97290E-03         0.00000E+00
    0.13020E-02        -0.89533E-03         0.00000E+00
    0.11998E-02        -0.81817E-03         0.00000E+00
    0.10964E-02        -0.74145E-03         0.00000E+00
    0.99190E-03        -0.66518E-03         0.00000E+00
    0.88621E-03        -0.58936E-03         0.00000E+00
    0.77936E-03        -0.51399E-03         0.00000E+00
    0.67137E-03        -0.43910E-03         0.00000E+00
    0.56225E-03        -0.36468E-03         0.00000E+00
    0.45200E-03        -0.29075E-03         0.00000E+00
    0.34065E-03        -0.21730E-03         0.00000E+00
    0.22819E-03        -0.14436E-03         0.00000E+00
    0.11463E-03        -0.71924E-04         0.00000E+00
    0.00000E+00         0.00000E+00         0.00000E+00
    0.43953E-02        -0.43002E-02         0.00000E+00
    0.43436E-02        -0.42092E-02         0.00000E+00
    0.42902E-02        -0.41181E-02         0.00000E+00
    0.42353E-02        -0.40270E-02         0.00000E+00
    0.41786E-02        -0.39360E-02         0.00000E+00
    0.41204E-02        -0.38451E-02         0.00000E+00
    0.40606E-02        -0.37542E-02         0.00000E+00
    0.39991E-02        -0.36634E-02         0.00000E+00
    0.39361E-02        -0.35727E-02         0.00000E+00
    0.38715E-02        -0.34820E-02         0.00000E+00
    0.38053E-02        -0.33915E-02         0.00000E+00
    0.37376E-02        -0.33012E-02         0.00000E+00
    0.36684E-02        -0.32109E-02         0.00000E+00
    0.35976E-02        -0.31209E-02         0.00000E+00
    0.35253E-02        -0.30309E-02         0.00000E+00
    0.34514E-02        -0.29412E-02         0.00000E+00
    0.33761E-02        -0.28517E-02         0.00000E+00
    0.32993E-02        -0.27623E-02         0.00000E+00
    0.32210E-02        -0.26732E-02         0.00000E+00
    0.31413E-02        -0.25843E-02         0.00000E+00
    0.30601E-02        -0.24957E-02         0.00000E+00
    0.29774E-02        -0.24072E-02         0.00000E+00
    0.28933E-02        -0.23191E-02         0.00000E+00
    0.28078E-02        -0.22312E-02         0.00000E+00
    0.27209E-02        -0.21436E-02         0.00000E+00
    0.26326E-02        -0.20563E-02         0.00000E+00
    0.25429E-02        -0.19694E-02         0.00000E+00
    0.24518E-02        -0.18827E-02         0.00000E+00
    0.23593E-02        -0.17963E-02         0.00000E+00
    0.22655E-02        -0.17103E-02         0.00000E+00
    0.21703E-02        -0.16247E-02         0.00000E+00
    0.20738E-02        -0.15394E-02         0.00000E+00
    0.19760E-02        -0.14545E-02         0.00000E+00
    0.18768E-02        -0.13699E-02         0.00000E+00
    0.17763E-02        -0.12858E-02         0.00000E+00
    0.16746E-02        -0.12020E-02         0.00000E+00
    0.15715E-02        -0.11187E-02         0.00000E+00
    0.14672E-02        -0.10357E-02         0.00000E+00
    0.13616E-02        -0.95325E-03         0.00000E+00
    0.12548E-02        -0.87119E-03         0.00000E+00
    0.11467E-02        -0.78958E-03         0.00000E+00
    0.10374E-02        -0.70843E-03         0.00000E+00
    0.92689E-03        -0.62774E-03         0.00000E+00
    0.81515E-03        -0.54752E-03         0.00000E+00
    0.70221E-03        -0.46779E-03         0.00000E+00
    0.58808E-03        -0.38855E-03         0.00000E+00
    0.47277E-03        -0.30981E-03         0.00000E+00
    0.35630E-03        -0.23158E-03         0.00000E+00
    0.23868E-03        -0.15386E-03         0.00000E+00
    0.11990E-03        -0.76664E-04         0.00000E+00
    0.00000E+00         0.00000E+00         0.00000E+00
    0.45872E-02        -0.45592E-02         0.00000E+00
    0.45336E-02        -0.44628E-02         0.00000E+00
    0.44782E-02        -0.43665E-02         0.00000E+00
    0.44211E-02        -0.42701E-02         0.00000E+00
    0.43623E-02        -0.41738E-02         0.00000E+00
    0.43017E-02        -0.40775E-02         0.00000E+00
    0.42395E-02        -0.39813E-02         0.00000E+00
    0.41756E-02        -0.38852E-02         0.00000E+00
    0.41100E-02        -0.37892E-02         0.00000E+00
    0.40428E-02        -0.36932E-02         0.00000E+00
    0.39739E-02        -0.35974E-02         0.00000E+00
    0.39034E-02        -0.35018E-02         0.00000E+00
    0.38313E-02        -0.34062E-02         0.00000E+00
    0.37576E-02        -0.33109E-02         0.00000E+00
    0.36822E-02        -0.32157E-02         0.00000E+00
    0.36053E-02        -0.31206E-02         0.00000E+00
    0.35268E-02        -0.30258E-02         0.00000E+00
    0.34467E-02        -0.29312E-02         0.00000E+00
    0.33651E-02        -0.28368E-02         0.00000E+00
    0.32819E-02        -0.27427E-02         0.00000E+00
    0.31972E-02        -0.26487E-02         0.00000E+00
    0.31110E-02        -0.25551E-02         0.00000E+00
    0.30232E-02        -0.24617E-02         0.00000E+00
    0.29340E-02        -0.23686E-02         0.00000E+00
    0.28433E-02        -0.22758E-02         0.00000E+00
    0.27511E-02        -0.21832E-02         0.00000E+00
    0.26574E-02        -0.20910E-02         0.00000E+00
    0.25623E-02        -0.19992E-02         0.00000E+00
    0.24657E-02        -0.19076E-02         0.00000E+00
    0.23678E-02        -0.18164E-02         0.00000E+00
    0.22684E-02        -0.17256E-02         0.00000E+00
    0.21675E-02        -0.16351E-02         0.00000E+00
    0.20653E-02        -0.15450E-02         0.00000E+00
    0.19617E-02        -0.14553E-02         0.00000E+00
    0.18568E-02        -0.13661E-02         0.00000E+00
    0.17504E-02        -0.12772E-02         0.00000E+00
    0.16428E-02        -0.11887E-02         0.00000E+00
    0.15338E-02        -0.11007E-02         0.00000E+00
    0.14234E-02        -0.10131E-02         0.00000E+00
    0.13118E-02        -0.92598E-03         0.00000E+00
    0.11988E-02        -0.83931E-03         0.00000E+00
    0.10845E-02        -0.75311E-03         0.00000E+00
    0.96900E-03        -0.66739E-03         0.00000E+00
    0.85219E-03        -0.58216E-03         0.00000E+00
    0.73413E-03        -0.49743E-03         0.00000E+00
    0.61482E-03        -0.41320E-03         0.00000E+00
    0.49427E-03        -0.32950E-03         0.00000E+00
    0.37251E-03        -0.24631E-03         0.00000E+00
    0.24953E-03        -0.16367E-03         0.00000E+00
    0.12536E-03        -0.81558E-04         0.00000E+00
    0.00000E+00         0.00000E+00         0.00000E+00
    0.47875E-02        -0.48282E-02         0.00000E+00
    0.47318E-02        -0.47263E-02         0.00000E+00
    0.46742E-02        -0.46244E-02         0.00000E+00
    0.46148E-02        -0.45225E-02         0.00000E+00
    0.45536E-02        -0.44206E-02         0.00000E+00
    0.44906E-02        -0.43188E-02         0.00000E+00
    0.44259E-02        -0.42171E-02         0.00000E+00
    0.43594E-02        -0.41154E-02         0.00000E+00
    0.42911E-02        -0.40139E-02         0.00000E+00
    0.42211E-02        -0.39124E-02         0.00000E+00
    0.41494E-02        -0.38111E-02         0.00000E+00
    0.40759E-02        -0.37099E-02         0.00000E+00
    0.40008E-02        -0.36089E-02         0.00000E+00
    0.39239E-02        -0.35080E-02         0.00000E+00
    0.38454E-02        -0.34073E-02         0.00000E+00
    0.37652E-02        -0.33068E-02         0.00000E+00
    0.36833E-02        -0.32065E-02         0.00000E+00
    0.35998E-02        -0.31064E-02         0.00000E+00
    0.35147E-02        -0.30065E-02         0.00000E+00
    0.34280E-02        -0.29069E-02         0.00000E+00
    0.33396E-02        -0.28075E-02         0.00000E+00
    0.32496E-02        -0.27084E-02         0.00000E+00
    0.31581E-02        -0.26095E-02         0.00000E+00
    0.30650E-02        -0.25110E-02         0.00000E+00
    0.29703E-02        -0.24127E-02         0.00000E+00
    0.28741E-02        -0.23148E-02         0.00000E+00
    0.27763E-02        -0.22172E-02         0.00000E+00
    0.26770E-02        -0.21199E-02         0.00000E+00
    0.25762E-02        -0.20229E-02         0.00000E+00
    0.24739E-02        -0.19264E-02         0.00000E+00
    0.23701E-02        -0.18301E-02         0.00000E+00
    0.22648E-02        -0.17343E-02         0.00000E+00
    0.21580E-02        -0.16389E-02         0.00000E+00
    0.20498E-02        -0.15438E-02         0.00000E+00
    0.19402E-02        -0.14492E-02         0.00000E+00
    0.18291E-02        -0.13550E-02         0.00000E+00
    0.17166E-02        -0.12613E-02         0.00000E+00
    0.16028E-02        -0.11680E-02         0.00000E+00
    0.14875E-02        -0.10751E-02         0.00000E+00
    0.13708E-02        -0.98271E-03         0.00000E+00
    0.12528E-02        -0.89080E-03         0.00000E+00
    0.11334E-02        -0.79937E-03         0.00000E+00
    0.10127E-02        -0.70844E-03         0.00000E+00
    0.89060E-03        -0.61801E-03         0.00000E+00
    0.76722E-03        -0.52810E-03         0.00000E+00
    0.64254E-03        -0.43872E-03         0.00000E+00
    0.51657E-03        -0.34987E-03         0.00000E+00
    0.38931E-03        -0.26156E-03         0.00000E+00
    0.26079E-03        -0.17381E-03         0.00000E+00
    0.13102E-03        -0.86621E-04         0.00000E+00
    0.00000E+00         0.00000E+00         0.00000E+00
    0.49966E-02        -0.51079E-02         0.00000E+00
    0.49386E-02        -0.50002E-02         0.00000E+00
    0.48787E-02        -0.48925E-02         0.00000E+00
    0.48169E-02        -0.47848E-02         0.00000E+00
    0.47532E-02        -0.46772E-02         0.00000E+00
    0.46876E-02        -0.45697E-02         0.00000E+00
    0.46202E-02        -0.44622E-02         0.00000E+00
    0.45509E-02        -0.43548E-02         0.00000E+00
    0.44798E-02        -0.42475E-02         0.00000E+00
    0.44068E-02        -0.41403E-02         0.00000E+00
    0.43321E-02        -0.40332E-02         0.00000E+00
    0.42556E-02        -0.39263E-02         0.00000E+00
    0.41772E-02        -0.38195E-02         0.00000E+00
    0.40971E-02        -0.37129E-02         0.00000E+00
    0.40152E-02        -0.36065E-02         0.00000E+00
    0.39316E-02        -0.35002E-02         0.00000E+00
    0.38463E-02        -0.33942E-02         0.00000E+00
    0.37592E-02        -0.32884E-02         0.00000E+00
    0.36704E-02        -0.31828E-02         0.00000E+00
    0.35799E-02        -0.30775E-02         0.00000E+00
    0.34877E-02        -0.29724E-02         0.00000E+00
    0.33938E-02        -0.28676E-02         0.00000E+00
    0.32983E-02        -0.27631E-02         0.00000E+00
    0.32011E-02        -0.26589E-02         0.00000E+00
    0.31023E-02        -0.25550E-02         0.00000E+00
    0.30019E-02        -0.24514E-02         0.00000E+00
    0.28998E-02        -0.23481E-02         0.00000E+00
    0.27962E-02        -0.22452E-02         0.00000E+00
    0.26909E-02        -0.21427E-02         0.00000E+00
    0.25841E-02        -0.20405E-02         0.00000E+00
    0.24757E-02        -0.19387E-02         0.00000E+00
    0.23658E-02        -0.18373E-02         0.00000E+00
    0.22543E-02        -0.17363E-02         0.00000E+00
    0.21413E-02        -0.16357E-02         0.00000E+00
    0.20268E-02        -0.15355E-02         0.00000E+00
    0.19108E-02        -0.14358E-02         0.00000E+00
    0.17933E-02        -0.13366E-02         0.00000E+00
    0.16744E-02        -0.12377E-02         0.00000E+00
    0.15540E-02        -0.11394E-02         0.00000E+00
    0.14321E-02        -0.10416E-02         0.00000E+00
    0.13088E-02        -0.94421E-03         0.00000E+00
    0.11841E-02        -0.84735E-03         0.00000E+00
    0.10580E-02        -0.75101E-03         0.00000E+00
    0.93047E-03        -0.65520E-03         0.00000E+00
    0.80158E-03        -0.55992E-03         0.00000E+00
    0.67132E-03        -0.46518E-03         0.00000E+00
    0.53970E-03        -0.37100E-03         0.00000E+00
    0.40675E-03        -0.27738E-03         0.00000E+00
    0.27248E-03        -0.18433E-03         0.00000E+00
    0.13689E-03        -0.91870E-04         0.00000E+00
    0.00000E+00         0.00000E+00         0.00000E+00
    0.52150E-02        -0.53990E-02         0.00000E+00
    0.51546E-02        -0.52853E-02         0.00000E+00
    0.50922E-02        -0.51716E-02         0.00000E+00
    0.50278E-02        -0.50579E-02         0.00000E+00
    0.49614E-02        -0.49443E-02         0.00000E+00
    0.48931E-02        -0.48307E-02         0.00000E+00
    0.48228E-02        -0.47172E-02         0.00000E+00
    0.47506E-02        -0.46038E-02         0.00000E+00
    0.46765E-02        -0.44905E-02         0.00000E+00
    0.46005E-02        -0.43773E-02         0.00000E+00
    0.45226E-02        -0.42643E-02         0.00000E+00
    0.44427E-02        -0.41514E-02         0.00000E+00
    0.43611E-02        -0.40386E-02         0.00000E+00
    0.42775E-02        -0.39260E-02         0.00000E+00
    0.41921E-02        -0.38136E-02         0.00000E+00
    0.41049E-02        -0.37014E-02         0.00000E+00
    0.40159E-02        -0.35895E-02         0.00000E+00
    0.39251E-02        -0.34777E-02         0.00000E+00
    0.38324E-02        -0.33662E-02         0.00000E+00
    0.37380E-02        -0.32549E-02         0.00000E+00
    0.36418E-02        -0.31439E-02         0.00000E+00
    0.35439E-02        -0.30332E-02         0.00000E+00
    0.34442E-02        -0.29228E-02         0.00000E+00
    0.33428E-02        -0.28127E-02         0.00000E+00
    0.32396E-02        -0.27029E-02         0.00000E+00
    0.31348E-02        -0.25934E-02         0.00000E+00
    0.30283E-02        -0.24843E-02         0.00000E+00
    0.29201E-02        -0.23755E-02         0.00000E+00
    0.28102E-02        -0.22671E-02         0.00000E+00
    0.26987E-02        -0.21591E-02         0.00000E+00
    0.25856E-02        -0.20515E-02         0.00000E+00
    0.24708E-02        -0.19443E-02         0.00000E+00
    0.23544E-02        -0.18375E-02         0.00000E+00
    0.22364E-02        -0.17312E-02         0.00000E+00
    0.21169E-02        -0.16252E-02         0.00000E+00
    0.19957E-02        -0.15198E-02         0.00000E+00
    0.18731E-02        -0.14148E-02         0.00000E+00
    0.17488E-02        -0.13103E-02         0.00000E+00
    0.16231E-02        -0.12062E-02         0.00000E+00
    0.14958E-02        -0.11027E-02         0.00000E+00
    0.13671E-02        -0.99970E-03         0.00000E+00
    0.12368E-02        -0.89721E-03         0.00000E+00
    0.11051E-02        -0.79525E-03         0.00000E+00
    0.97190E-03        -0.69383E-03         0.00000E+00
    0.83727E-03        -0.59296E-03         0.00000E+00
    0.70122E-03        -0.49266E-03         0.00000E+00
    0.56375E-03        -0.39294E-03         0.00000E+00
    0.42488E-03        -0.29380E-03         0.00000E+00
    0.28462E-03        -0.19526E-03         0.00000E+00
    0.14299E-03        -0.97322E-04         0.00000E+00
    0.00000E+00         0.00000E+00         0.00000E+00
    0.54431E-02        -0.57022E-02         0.00000E+00
    0.53801E-02        -0.55823E-02         0.00000E+00
    0.53151E-02        -0.54623E-02         0.00000E+00
    0.52480E-02        -0.53424E-02         0.00000E+00
    0.51788E-02        -0.52225E-02         0.00000E+00
    0.51076E-02        -0.51027E-02         0.00000E+00
    0.50343E-02        -0.49829E-02         0.00000E+00
    0.49590E-02        -0.48633E-02         0.00000E+00
    0.48817E-02        -0.47437E-02         0.00000E+00
    0.48024E-02        -0.46243E-02         0.00000E+00
    0.47212E-02        -0.45050E-02         0.00000E+00
    0.46379E-02        -0.43858E-02         0.00000E+00
    0.45527E-02        -0.42668E-02         0.00000E+00
    0.44656E-02        -0.41480E-02         0.00000E+00
    0.43765E-02        -0.40294E-02         0.00000E+00
    0.42855E-02        -0.39110E-02         0.00000E+00
    0.41926E-02        -0.37928E-02         0.00000E+00
    0.40979E-02        -0.36748E-02         0.00000E+00
    0.40012E-02        -0.35571E-02         0.00000E+00
    0.39027E-02        -0.34397E-02         0.00000E+00
    0.38023E-02        -0.33225E-02         0.00000E+00
    0.37001E-02        -0.32056E-02         0.00000E+00
    0.35961E-02        -0.30891E-02         0.00000E+00
    0.34902E-02        -0.29728E-02         0.00000E+00
    0.33826E-02        -0.28569E-02         0.00000E+00
    0.32732E-02        -0.27413E-02         0.00000E+00
    0.31620E-02        -0.26261E-02         0.00000E+00
    0.30491E-02        -0.25112E-02         0.00000E+00
    0.29344E-02        -0.23967E-02         0.00000E+00
    0.28180E-02        -0.22826E-02         0.00000E+00
    0.26999E-02        -0.21690E-02         0.00000E+00
    0.25800E-02        -0.20557E-02         0.00000E+00
    0.24585E-02        -0.19429E-02         0.00000E+00
    0.23354E-02        -0.18305E-02         0.00000E+00
    0.22105E-02        -0.17186E-02         0.00000E+00
    0.20841E-02        -0.16072E-02         0.00000E+00
    0.19560E-02        -0.14962E-02         0.00000E+00
    0.18263E-02        -0.13857E-02         0.00000E+00
    0.16950E-02        -0.12758E-02         0.00000E+00
    0.15621E-02        -0.11664E-02         0.00000E+00
    0.14276E-02        -0.10574E-02         0.00000E+00
    0.12916E-02        -0.94908E-03         0.00000E+00
    0.11541E-02        -0.84127E-03         0.00000E+00
    0.10150E-02        -0.73402E-03         0.00000E+00
    0.87439E-03        -0.62734E-03         0.00000E+00
    0.73231E-03        -0.52126E-03         0.00000E+00
    0.58875E-03        -0.41577E-03         0.00000E+00
    0.44372E-03        -0.31089E-03         0.00000E+00
    0.29724E-03        -0.20663E-03         0.00000E+00
    0.14933E-03        -0.10299E-03         0.00000E+00
    0.00000E+00         0.00000E+00         0.00000E+00
    0.56815E-02        -0.60184E-02         0.00000E+00
    0.56158E-02        -0.58919E-02         0.00000E+00
    0.55479E-02        -0.57654E-02         0.00000E+00
    0.54779E-02        -0.56390E-02         0.00000E+00
    0.54057E-02        -0.55126E-02         0.00000E+00
    0.53314E-02        -0.53862E-02         0.00000E+00
    0.52550E-02        -0.52599E-02         0.00000E+00
    0.51765E-02        -0.51337E-02         0.00000E+00
    0.50958E-02        -0.50077E-02         0.00000E+00
    0.50131E-02        -0.48817E-02         0.00000E+00
    0.49283E-02        -0.47559E-02         0.00000E+00
    0.48415E-02        -0.46302E-02         0.00000E+00
    0.47526E-02        -0.45047E-02         0.00000E+00
    0.46617E-02        -0.43794E-02         0.00000E+00
    0.45687E-02        -0.42543E-02         0.00000E+00
    0.44738E-02        -0.41294E-02         0.00000E+00
    0.43769E-02        -0.40048E-02         0.00000E+00
    0.42780E-02        -0.38803E-02         0.00000E+00
    0.41771E-02        -0.37562E-02         0.00000E+00
    0.40743E-02        -0.36323E-02         0.00000E+00
    0.39695E-02        -0.35087E-02         0.00000E+00
    0.38629E-02        -0.33854E-02         0.00000E+00
    0.37543E-02        -0.32624E-02         0.00000E+00
    0.36438E-02        -0.31397E-02         0.00000E+00
    0.35315E-02        -0.30174E-02         0.00000E+00
    0.34173E-02        -0.28954E-02         0.00000E+00
    0.33012E-02        -0.27738E-02         0.00000E+00
    0.31834E-02        -0.26526E-02         0.00000E+00
    0.30637E-02        -0.25317E-02         0.00000E+00
    0.29421E-02        -0.24113E-02         0.00000E+00
    0.28188E-02        -0.22913E-02         0.00000E+00
    0.26938E-02        -0.21718E-02         0.00000E+00
    0.25669E-02        -0.20527E-02         0.00000E+00
    0.24384E-02        -0.19341E-02         0.00000E+00
    0.23080E-02        -0.18159E-02         0.00000E+00
    0.21760E-02        -0.16982E-02         0.00000E+00
    0.20423E-02        -0.15810E-02         0.00000E+00
    0.19069E-02        -0.14644E-02         0.00000E+00
    0.17698E-02        -0.13482E-02         0.00000E+00
    0.16310E-02        -0.12326E-02         0.00000E+00
    0.14906E-02        -0.11176E-02         0.00000E+00
    0.13486E-02        -0.10031E-02         0.00000E+00
    0.12050E-02        -0.88921E-03         0.00000E+00
    0.10598E-02        -0.77588E-03         0.00000E+00
    0.91301E-03        -0.66316E-03         0.00000E+00
    0.76466E-03        -0.55104E-03         0.00000E+00
    0.61476E-03        -0.43955E-03         0.00000E+00
    0.46332E-03        -0.32868E-03         0.00000E+00
    0.31038E-03        -0.21846E-03         0.00000E+00
    0.15593E-03        -0.10890E-03         0.00000E+00
    0.00000E+00         0.00000E+00         0.00000E+00
    0.59304E-02        -0.63484E-02         0.00000E+00
    0.58619E-02        -0.62151E-02         0.00000E+00
    0.57911E-02        -0.60817E-02         0.00000E+00
    0.57180E-02        -0.59484E-02         0.00000E+00
    0.56427E-02        -0.58152E-02         0.00000E+00
    0.55651E-02        -0.56820E-02         0.00000E+00
    0.54854E-02        -0.55489E-02         0.00000E+00
    0.54034E-02        -0.54159E-02         0.00000E+00
    0.53192E-02        -0.52831E-02         0.00000E+00
    0.52329E-02        -0.51503E-02         0.00000E+00
    0.51444E-02        -0.50177E-02         0.00000E+00
    0.50538E-02        -0.48852E-02         0.00000E+00
    0.49610E-02        -0.47529E-02         0.00000E+00
    0.48661E-02        -0.46209E-02         0.00000E+00
    0.47691E-02        -0.44890E-02         0.00000E+00
    0.46701E-02        -0.43573E-02         0.00000E+00
    0.45689E-02        -0.42259E-02         0.00000E+00
    0.44657E-02        -0.40947E-02         0.00000E+00
    0.43604E-02        -0.39638E-02         0.00000E+00
    0.42531E-02        -0.38332E-02         0.00000E+00
    0.41438E-02        -0.37028E-02         0.00000E+00
    0.40325E-02        -0.35728E-02         0.00000E+00
    0.39192E-02        -0.34431E-02         0.00000E+00
    0.38039E-02        -0.33138E-02         0.00000E+00
    0.36866E-02        -0.31848E-02         0.00000E+00
    0.35674E-02        -0.30561E-02         0.00000E+00
    0.34463E-02        -0.29279E-02         0.00000E+00
    0.33232E-02        -0.28000E-02         0.00000E+00
    0.31983E-02        -0.26726E-02         0.00000E+00
    0.30715E-02        -0.25456E-02         0.00000E+00
    0.29427E-02        -0.24190E-02         0.00000E+00
    0.28122E-02        -0.22929E-02         0.00000E+00
    0.26798E-02        -0.21672E-02         0.00000E+00
    0.25456E-02        -0.20420E-02         0.00000E+00
    0.24095E-02        -0.19173E-02         0.00000E+00
    0.22717E-02        -0.17932E-02         0.00000E+00
    0.21321E-02        -0.16695E-02         0.00000E+00
    0.19908E-02        -0.15464E-02         0.00000E+00
    0.18476E-02        -0.14238E-02         0.00000E+00
    0.17028E-02        -0.13018E-02         0.00000E+00
    0.15562E-02        -0.11803E-02         0.00000E+00
    0.14080E-02        -0.10595E-02         0.00000E+00
    0.12581E-02        -0.93920E-03         0.00000E+00
    0.11065E-02        -0.81954E-03         0.00000E+00
    0.95321E-03        -0.70050E-03         0.00000E+00
    0.79833E-03        -0.58210E-03         0.00000E+00
    0.64183E-03        -0.46434E-03         0.00000E+00
    0.48373E-03        -0.34724E-03         0.00000E+00
    0.32405E-03        -0.23081E-03         0.00000E+00
    0.16280E-03        -0.11506E-03         0.00000E+00
    0.00000E+00         0.00000E+00         0.00000E+00
    0.61905E-02        -0.66929E-02         0.00000E+00
    0.61189E-02        -0.65524E-02         0.00000E+00
    0.60449E-02        -0.64120E-02         0.00000E+00
    0.59686E-02        -0.62715E-02         0.00000E+00
    0.58900E-02        -0.61312E-02         0.00000E+00
    0.58090E-02        -0.59909E-02         0.00000E+00
    0.57258E-02        -0.58507E-02         0.00000E+00
    0.56402E-02        -0.57106E-02         0.00000E+00
    0.55524E-02        -0.55706E-02         0.00000E+00
    0.54622E-02        -0.54307E-02         0.00000E+00
    0.53699E-02        -0.52910E-02         0.00000E+00
    0.52753E-02        -0.51514E-02         0.00000E+00
    0.51784E-02        -0.50121E-02         0.00000E+00
    0.50794E-02        -0.48729E-02         0.00000E+00
    0.49781E-02        -0.47339E-02         0.00000E+00
    0.48747E-02        -0.45952E-02         0.00000E+00
    0.47691E-02        -0.44567E-02         0.00000E+00
    0.46614E-02        -0.43185E-02         0.00000E+00
    0.45515E-02        -0.41806E-02         0.00000E+00
    0.44395E-02        -0.40429E-02         0.00000E+00
    0.43254E-02        -0.39055E-02         0.00000E+00
    0.42092E-02        -0.37685E-02         0.00000E+00
    0.40909E-02        -0.36318E-02         0.00000E+00
    0.39706E-02        -0.34955E-02         0.00000E+00
    0.38482E-02        -0.33595E-02         0.00000E+00
    0.37238E-02        -0.32239E-02         0.00000E+00
    0.35974E-02        -0.30887E-02         0.00000E+00
    0.34689E-02        -0.29540E-02         0.00000E+00
    0.33385E-02        -0.28196E-02         0.00000E+00
    0.32061E-02        -0.26857E-02         0.00000E+00
    0.30718E-02        -0.25522E-02         0.00000E+00
    0.29355E-02        -0.24193E-02         0.00000E+00
    0.27973E-02        -0.22867E-02         0.00000E+00
    0.26572E-02        -0.21547E-02         0.00000E+00
    0.25152E-02        -0.20233E-02         0.00000E+00
    0.23714E-02        -0.18923E-02         0.00000E+00
    0.22257E-02        -0.17619E-02         0.00000E+00
    0.20781E-02        -0.16320E-02         0.00000E+00
    0.19287E-02        -0.15027E-02         0.00000E+00
    0.17775E-02        -0.13739E-02         0.00000E+00
    0.16245E-02        -0.12458E-02         0.00000E+00
    0.14698E-02        -0.11183E-02         0.00000E+00
    0.13133E-02        -0.99138E-03         0.00000E+00
    0.11550E-02        -0.86511E-03         0.00000E+00
    0.99506E-03        -0.73948E-03         0.00000E+00
    0.83338E-03        -0.61452E-03         0.00000E+00
    0.67001E-03        -0.49022E-03         0.00000E+00
    0.50497E-03        -0.36661E-03         0.00000E+00
    0.33828E-03        -0.24369E-03         0.00000E+00
    0.16995E-03        -0.12149E-03         0.00000E+00
    0.00000E+00         0.00000E+00         0.00000E+00
    0.64621E-02        -0.70527E-02         0.00000E+00
    0.63873E-02        -0.69048E-02         0.00000E+00
    0.63100E-02        -0.67569E-02         0.00000E+00
    0.62303E-02        -0.66090E-02         0.00000E+00
    0.61482E-02        -0.64612E-02         0.00000E+00
    0.60636E-02        -0.63135E-02         0.00000E+00
    0.59766E-02        -0.61659E-02         0.00000E+00
    0.58873E-02        -0.60183E-02         0.00000E+00
    0.57956E-02        -0.58709E-02         0.00000E+00
    0.57015E-02        -0.57236E-02         0.00000E+00
    0.56050E-02        -0.55765E-02         0.00000E+00
    0.55062E-02        -0.54295E-02         0.00000E+00
    0.54051E-02        -0.52827E-02         0.00000E+00
    0.53017E-02        -0.51362E-02         0.00000E+00
    0.51960E-02        -0.49898E-02         0.00000E+00
    0.50881E-02        -0.48437E-02         0.00000E+00
    0.49779E-02        -0.46979E-02         0.00000E+00
    0.48654E-02        -0.45523E-02         0.00000E+00
    0.47507E-02        -0.44070E-02         0.00000E+00
    0.46338E-02        -0.42620E-02         0.00000E+00
    0.45147E-02        -0.41173E-02         0.00000E+00
    0.43934E-02        -0.39729E-02         0.00000E+00
    0.42699E-02        -0.38289E-02         0.00000E+00
    0.41443E-02        -0.36853E-02         0.00000E+00
    0.40166E-02        -0.35421E-02         0.00000E+00
    0.38867E-02        -0.33992E-02         0.00000E+00
    0.37548E-02        -0.32568E-02         0.00000E+00
    0.36207E-02        -0.31148E-02         0.00000E+00
    0.34846E-02        -0.29732E-02         0.00000E+00
    0.33464E-02        -0.28321E-02         0.00000E+00
    0.32062E-02        -0.26914E-02         0.00000E+00
    0.30640E-02        -0.25513E-02         0.00000E+00
    0.29197E-02        -0.24116E-02         0.00000E+00
    0.27735E-02        -0.22725E-02         0.00000E+00
    0.26253E-02        -0.21339E-02         0.00000E+00
    0.24751E-02        -0.19958E-02         0.00000E+00
    0.23231E-02        -0.18583E-02         0.00000E+00
    0.21690E-02        -0.17214E-02         0.00000E+00
    0.20131E-02        -0.15851E-02         0.00000E+00
    0.18553E-02        -0.14493E-02         0.00000E+00
    0.16957E-02        -0.13142E-02         0.00000E+00
    0.15341E-02        -0.11797E-02         0.00000E+00
    0.13708E-02        -0.10459E-02         0.00000E+00
    0.12056E-02        -0.91272E-03         0.00000E+00
    0.10386E-02        -0.78021E-03         0.00000E+00
    0.86987E-03        -0.64838E-03         0.00000E+00
    0.69935E-03        -0.51726E-03         0.00000E+00
    0.52709E-03        -0.38684E-03         0.00000E+00
    0.35309E-03        -0.25715E-03         0.00000E+00
    0.17739E-03        -0.12820E-03         0.00000E+00
    0.00000E+00         0.00000E+00         0.00000E+00
    0.67455E-02        -0.74287E-02         0.00000E+00
    0.66674E-02        -0.72730E-02         0.00000E+00
    0.65866E-02        -0.71174E-02         0.00000E+00
    0.65034E-02        -0.69617E-02         0.00000E+00
    0.64175E-02        -0.68062E-02         0.00000E+00
    0.63292E-02        -0.66507E-02         0.00000E+00
    0.62384E-02        -0.64952E-02         0.00000E+00
    0.61450E-02        -0.63399E-02         0.00000E+00
    0.60492E-02        -0.61847E-02         0.00000E+00
    0.59510E-02        -0.60297E-02         0.00000E+00
    0.58502E-02        -0.58748E-02         0.00000E+00
    0.57471E-02        -0.57201E-02         0.00000E+00
    0.56415E-02        -0.55656E-02         0.00000E+00
    0.55336E-02        -0.54113E-02         0.00000E+00
    0.54232E-02        -0.52572E-02         0.00000E+00
    0.53105E-02        -0.51034E-02         0.00000E+00
    0.51954E-02        -0.49499E-02         0.00000E+00
    0.50780E-02        -0.47966E-02         0.00000E+00
    0.49583E-02        -0.46436E-02         0.00000E+00
    0.48362E-02        -0.44909E-02         0.00000E+00
    0.47119E-02        -0.43386E-02         0.00000E+00
    0.45853E-02        -0.41866E-02         0.00000E+00
    0.44564E-02        -0.40350E-02         0.00000E+00
    0.43253E-02        -0.38837E-02         0.00000E+00
    0.41920E-02        -0.37329E-02         0.00000E+00
    0.40564E-02        -0.35824E-02         0.00000E+00
    0.39187E-02        -0.34324E-02         0.00000E+00
    0.37788E-02        -0.32828E-02         0.00000E+00
    0.36367E-02        -0.31337E-02         0.00000E+00
    0.34925E-02        -0.29851E-02         0.00000E+00
    0.33462E-02        -0.28369E-02         0.00000E+00
    0.31977E-02        -0.26893E-02         0.00000E+00
    0.30472E-02        -0.25421E-02         0.00000E+00
    0.28946E-02        -0.23955E-02         0.00000E+00
    0.27399E-02        -0.22495E-02         0.00000E+00
    0.25832E-02        -0.21040E-02         0.00000E+00
    0.24245E-02        -0.19592E-02         0.00000E+00
    0.22637E-02        -0.18149E-02         0.00000E+00
    0.21010E-02        -0.16712E-02         0.00000E+00
    0.19363E-02        -0.15281E-02         0.00000E+00
    0.17697E-02        -0.13857E-02         0.00000E+00
    0.16011E-02        -0.12440E-02         0.00000E+00
    0.14306E-02        -0.11029E-02         0.00000E+00
    0.12582E-02        -0.96248E-03         0.00000E+00
    0.10840E-02        -0.82278E-03         0.00000E+00
    0.90786E-03        -0.68379E-03         0.00000E+00
    0.72989E-03        -0.54552E-03         0.00000E+00
    0.55011E-03        -0.40800E-03         0.00000E+00
    0.36852E-03        -0.27123E-03         0.00000E+00
    0.18514E-03        -0.13522E-03         0.00000E+00
    0.00000E+00         0.00000E+00         0.00000E+00
    0.70414E-02        -0.78218E-02         0.00000E+00
    0.69597E-02        -0.76580E-02         0.00000E+00
    0.68753E-02        -0.74942E-02         0.00000E+00
    0.67882E-02        -0.73304E-02         0.00000E+00
    0.66985E-02        -0.71667E-02         0.00000E+00
    0.66062E-02        -0.70031E-02         0.00000E+00
    0.65113E-02        -0.68396E-02         0.00000E+00
    0.64138E-02        -0.66762E-02         0.00000E+00
    0.63137E-02        -0.65129E-02         0.00000E+00
    0.62111E-02        -0.63497E-02         0.00000E+00
    0.61059E-02        -0.61867E-02         0.00000E+00
    0.59982E-02        -0.60239E-02         0.00000E+00
    0.58879E-02        -0.58613E-02         0.00000E+00
    0.57752E-02        -0.56990E-02         0.00000E+00
    0.56600E-02        -0.55368E-02         0.00000E+00
    0.55423E-02        -0.53750E-02         0.00000E+00
    0.54221E-02        -0.52133E-02         0.00000E+00
    0.52995E-02        -0.50520E-02         0.00000E+00
    0.51745E-02        -0.48910E-02         0.00000E+00
    0.50471E-02        -0.47303E-02         0.00000E+00
    0.49174E-02        -0.45700E-02         0.00000E+00
    0.47852E-02        -0.44100E-02         0.00000E+00
    0.46507E-02        -0.42504E-02         0.00000E+00
    0.45138E-02        -0.40912E-02         0.00000E+00
    0.43747E-02        -0.39324E-02         0.00000E+00
    0.42332E-02        -0.37740E-02         0.00000E+00
    0.40894E-02        -0.36160E-02         0.00000E+00
    0.39434E-02        -0.34586E-02         0.00000E+00
    0.37952E-02        -0.33016E-02         0.00000E+00
    0.36446E-02        -0.31450E-02         0.00000E+00
    0.34919E-02        -0.29890E-02         0.00000E+00
    0.33370E-02        -0.28336E-02         0.00000E+00
    0.31799E-02        -0.26786E-02         0.00000E+00
    0.30206E-02        -0.25242E-02         0.00000E+00
    0.28592E-02        -0.23704E-02         0.00000E+00
    0.26957E-02        -0.22172E-02         0.00000E+00
    0.25301E-02        -0.20646E-02         0.00000E+00
    0.23623E-02        -0.19126E-02         0.00000E+00
    0.21925E-02        -0.17613E-02         0.00000E+00
    0.20206E-02        -0.16106E-02         0.00000E+00
    0.18468E-02        -0.14605E-02         0.00000E+00
    0.16708E-02        -0.13111E-02         0.00000E+00
    0.14929E-02        -0.11625E-02         0.00000E+00
    0.13130E-02        -0.10145E-02         0.00000E+00
    0.11312E-02        -0.86730E-03         0.00000E+00
    0.94740E-03        -0.72082E-03         0.00000E+00
    0.76169E-03        -0.57508E-03         0.00000E+00
    0.57407E-03        -0.43012E-03         0.00000E+00
    0.38457E-03        -0.28595E-03         0.00000E+00
    0.19321E-03        -0.14257E-03         0.00000E+00
    0.00000E+00         0.00000E+00         0.00000E+00
    0.73500E-02        -0.82328E-02         0.00000E+00
    0.72645E-02        -0.80605E-02         0.00000E+00
    0.71763E-02        -0.78882E-02         0.00000E+00
    0.70853E-02        -0.77160E-02         0.00000E+00
    0.69916E-02        -0.75438E-02         0.00000E+00
    0.68951E-02        -0.73717E-02         0.00000E+00
    0.67959E-02        -0.71997E-02         0.00000E+00
    0.66940E-02        -0.70278E-02         0.00000E+00
    0.65895E-02        -0.68560E-02         0.00000E+00
    0.64822E-02        -0.66844E-02         0.00000E+00
    0.63723E-02        -0.65129E-02         0.00000E+00
    0.62598E-02        -0.63417E-02         0.00000E+00
    0.61447E-02        -0.61706E-02         0.00000E+00
    0.60270E-02        -0.59998E-02         0.00000E+00
    0.59066E-02        -0.58292E-02         0.00000E+00
    0.57838E-02        -0.56589E-02         0.00000E+00
    0.56583E-02        -0.54889E-02         0.00000E+00
    0.55303E-02        -0.53192E-02         0.00000E+00
    0.53998E-02        -0.51498E-02         0.00000E+00
    0.52668E-02        -0.49807E-02         0.00000E+00
    0.51313E-02        -0.48120E-02         0.00000E+00
    0.49934E-02        -0.46437E-02         0.00000E+00
    0.48530E-02        -0.44757E-02         0.00000E+00
    0.47102E-02        -0.43082E-02         0.00000E+00
    0.45649E-02        -0.41410E-02         0.00000E+00
    0.44173E-02        -0.39744E-02         0.00000E+00
    0.42672E-02        -0.38081E-02         0.00000E+00
    0.41148E-02        -0.36424E-02         0.00000E+00
    0.39601E-02        -0.34771E-02         0.00000E+00
    0.38030E-02        -0.33124E-02         0.00000E+00
    0.36437E-02        -0.31482E-02         0.00000E+00
    0.34820E-02        -0.29845E-02         0.00000E+00
    0.33180E-02        -0.28214E-02         0.00000E+00
    0.31519E-02        -0.26589E-02         0.00000E+00
    0.29834E-02        -0.24970E-02         0.00000E+00
    0.28128E-02        -0.23356E-02         0.00000E+00
    0.26399E-02        -0.21749E-02         0.00000E+00
    0.24649E-02        -0.20149E-02         0.00000E+00
    0.22877E-02        -0.18555E-02         0.00000E+00
    0.21084E-02        -0.16968E-02         0.00000E+00
    0.19270E-02        -0.15388E-02         0.00000E+00
    0.17434E-02        -0.13814E-02         0.00000E+00
    0.15578E-02        -0.12249E-02         0.00000E+00
    0.13701E-02        -0.10690E-02         0.00000E+00
    0.11803E-02        -0.91390E-03         0.00000E+00
    0.98855E-03        -0.75957E-03         0.00000E+00
    0.79477E-03        -0.60602E-03         0.00000E+00
    0.59901E-03        -0.45328E-03         0.00000E+00
    0.40128E-03        -0.30135E-03         0.00000E+00
    0.20160E-03        -0.15025E-03         0.00000E+00
    0.00000E+00         0.00000E+00         0.00000E+00
    0.76717E-02        -0.86628E-02         0.00000E+00
    0.75824E-02        -0.84816E-02         0.00000E+00
    0.74901E-02        -0.83004E-02         0.00000E+00
    0.73949E-02        -0.81193E-02         0.00000E+00
    0.72970E-02        -0.79382E-02         0.00000E+00
    0.71961E-02        -0.77572E-02         0.00000E+00
    0.70925E-02        -0.75763E-02         0.00000E+00
    0.69860E-02        -0.73956E-02         0.00000E+00
    0.68767E-02        -0.72149E-02         0.00000E+00
    0.67647E-02        -0.70345E-02         0.00000E+00
    0.66499E-02        -0.68542E-02         0.00000E+00
    0.65324E-02        -0.66741E-02         0.00000E+00
    0.64122E-02        -0.64942E-02         0.00000E+00
    0.62892E-02        -0.63145E-02         0.00000E+00
    0.61636E-02        -0.61352E-02         0.00000E+00
    0.60352E-02        -0.59560E-02         0.00000E+00
    0.59043E-02        -0.57772E-02         0.00000E+00
    0.57706E-02        -0.55987E-02         0.00000E+00
    0.56344E-02        -0.54205E-02         0.00000E+00
    0.54956E-02        -0.52427E-02         0.00000E+00
    0.53541E-02        -0.50652E-02         0.00000E+00
    0.52101E-02        -0.48881E-02         0.00000E+00
    0.50636E-02        -0.47115E-02         0.00000E+00
    0.49145E-02        -0.45352E-02         0.00000E+00
    0.47629E-02        -0.43594E-02         0.00000E+00
    0.46088E-02        -0.41840E-02         0.00000E+00
    0.44523E-02        -0.40092E-02         0.00000E+00
    0.42932E-02        -0.38348E-02         0.00000E+00
    0.41317E-02        -0.36609E-02         0.00000E+00
    0.39679E-02        -0.34875E-02         0.00000E+00
    0.38015E-02        -0.33148E-02         0.00000E+00
    0.36329E-02        -0.31425E-02         0.00000E+00
    0.34618E-02        -0.29709E-02         0.00000E+00
    0.32884E-02        -0.27998E-02         0.00000E+00
    0.31127E-02        -0.26294E-02         0.00000E+00
    0.29346E-02        -0.24596E-02         0.00000E+00
    0.27543E-02        -0.22904E-02         0.00000E+00
    0.25717E-02        -0.21220E-02         0.00000E+00
    0.23868E-02        -0.19542E-02         0.00000E+00
    0.21997E-02        -0.17871E-02         0.00000E+00
    0.20104E-02        -0.16207E-02         0.00000E+00
    0.18189E-02        -0.14550E-02         0.00000E+00
    0.16252E-02        -0.12901E-02         0.00000E+00
    0.14294E-02        -0.11260E-02         0.00000E+00
    0.12314E-02        -0.96268E-03         0.00000E+00
    0.10314E-02        -0.80014E-03         0.00000E+00
    0.82919E-03        -0.63842E-03         0.00000E+00
    0.62495E-03        -0.47753E-03         0.00000E+00
    0.41866E-03        -0.31748E-03         0.00000E+00
    0.21033E-03        -0.15830E-03         0.00000E+00
    0.00000E+00         0.00000E+00         0.00000E+00
    0.80071E-02        -0.91125E-02         0.00000E+00
    0.79136E-02        -0.89220E-02         0.00000E+00
    0.78171E-02        -0.87316E-02         0.00000E+00
    0.77176E-02        -0.85412E-02         0.00000E+00
    0.76151E-02        -0.83508E-02         0.00000E+00
    0.75097E-02        -0.81606E-02         0.00000E+00
    0.74014E-02        -0.79704E-02         0.00000E+00
    0.72901E-02        -0.77804E-02         0.00000E+00
    0.71759E-02        -0.75905E-02         0.00000E+00
    0.70589E-02        -0.74007E-02         0.00000E+00
    0.69390E-02        -0.72112E-02         0.00000E+00
    0.68162E-02        -0.70219E-02         0.00000E+00
    0.66906E-02        -0.68327E-02         0.00000E+00
    0.65622E-02        -0.66439E-02         0.00000E+00
    0.64310E-02        -0.64553E-02         0.00000E+00
    0.62970E-02        -0.62669E-02         0.00000E+00
    0.61603E-02        -0.60789E-02         0.00000E+00
    0.60208E-02        -0.58912E-02         0.00000E+00
    0.58785E-02        -0.57038E-02         0.00000E+00
    0.57336E-02        -0.55168E-02         0.00000E+00
    0.55860E-02        -0.53302E-02         0.00000E+00
    0.54357E-02        -0.51440E-02         0.00000E+00
    0.52827E-02        -0.49582E-02         0.00000E+00
    0.51272E-02        -0.47728E-02         0.00000E+00
    0.49689E-02        -0.45879E-02         0.00000E+00
    0.48081E-02        -0.44035E-02         0.00000E+00
    0.46448E-02        -0.42196E-02         0.00000E+00
    0.44788E-02        -0.40361E-02         0.00000E+00
    0.43103E-02        -0.38532E-02         0.00000E+00
    0.41393E-02        -0.36709E-02         0.00000E+00
    0.39658E-02        -0.34891E-02         0.00000E+00
    0.37898E-02        -0.33079E-02         0.00000E+00
    0.36113E-02        -0.31273E-02         0.00000E+00
    0.34304E-02        -0.29473E-02         0.00000E+00
    0.32471E-02        -0.27680E-02         0.00000E+00
    0.30613E-02        -0.25893E-02         0.00000E+00
    0.28732E-02        -0.24113E-02         0.00000E+00
    0.26827E-02        -0.22340E-02         0.00000E+00
    0.24899E-02        -0.20574E-02         0.00000E+00
    0.22947E-02        -0.18816E-02         0.00000E+00
    0.20972E-02        -0.17065E-02         0.00000E+00
    0.18974E-02        -0.15321E-02         0.00000E+00
    0.16954E-02        -0.13585E-02         0.00000E+00
    0.14911E-02        -0.11857E-02         0.00000E+00
    0.12846E-02        -0.10138E-02         0.00000E+00
    0.10759E-02        -0.84263E-03         0.00000E+00
    0.86499E-03        -0.67235E-03         0.00000E+00
    0.65193E-03        -0.50292E-03         0.00000E+00
    0.43673E-03        -0.33438E-03         0.00000E+00
    0.21942E-03        -0.16673E-03         0.00000E+00
    0.00000E+00         0.00000E+00         0.00000E+00
    0.83564E-02        -0.95831E-02         0.00000E+00
    0.82586E-02        -0.93829E-02         0.00000E+00
    0.81576E-02        -0.91828E-02         0.00000E+00
    0.80536E-02        -0.89827E-02         0.00000E+00
    0.79464E-02        -0.87826E-02         0.00000E+00
    0.78362E-02        -0.85826E-02         0.00000E+00
    0.77230E-02        -0.83828E-02         0.00000E+00
    0.76067E-02        -0.81831E-02         0.00000E+00
    0.74874E-02        -0.79835E-02         0.00000E+00
    0.73651E-02        -0.77841E-02         0.00000E+00
    0.72398E-02        -0.75848E-02         0.00000E+00
    0.71116E-02        -0.73858E-02         0.00000E+00
    0.69804E-02        -0.71871E-02         0.00000E+00
    0.68463E-02        -0.69885E-02         0.00000E+00
    0.67093E-02        -0.67903E-02         0.00000E+00
    0.65694E-02        -0.65923E-02         0.00000E+00
    0.64266E-02        -0.63947E-02         0.00000E+00
    0.62810E-02        -0.61974E-02         0.00000E+00
    0.61325E-02        -0.60004E-02         0.00000E+00
    0.59812E-02        -0.58038E-02         0.00000E+00
    0.58272E-02        -0.56076E-02         0.00000E+00
    0.56703E-02        -0.54118E-02         0.00000E+00
    0.55107E-02        -0.52165E-02         0.00000E+00
    0.53483E-02        -0.50216E-02         0.00000E+00
    0.51832E-02        -0.48272E-02         0.00000E+00
    0.50154E-02        -0.46333E-02         0.00000E+00
    0.48450E-02        -0.44398E-02         0.00000E+00
    0.46718E-02        -0.42470E-02         0.00000E+00
    0.44960E-02        -0.40546E-02         0.00000E+00
    0.43176E-02        -0.38629E-02         0.00000E+00
    0.41366E-02        -0.36717E-02         0.00000E+00
    0.39530E-02        -0.34811E-02         0.00000E+00
    0.37668E-02        -0.32911E-02         0.00000E+00
    0.35781E-02        -0.31018E-02         0.00000E+00
    0.33868E-02        -0.29132E-02         0.00000E+00
    0.31931E-02        -0.27252E-02         0.00000E+00
    0.29968E-02        -0.25380E-02         0.00000E+00
    0.27981E-02        -0.23514E-02         0.00000E+00
    0.25970E-02        -0.21656E-02         0.00000E+00
    0.23934E-02        -0.19806E-02         0.00000E+00
    0.21874E-02        -0.17963E-02         0.00000E+00
    0.19790E-02        -0.16128E-02         0.00000E+00
    0.17683E-02        -0.14301E-02         0.00000E+00
    0.15552E-02        -0.12483E-02         0.00000E+00
    0.13399E-02        -0.10673E-02         0.00000E+00
    0.11222E-02        -0.88715E-03         0.00000E+00
    0.90220E-03        -0.70789E-03         0.00000E+00
    0.67998E-03        -0.52953E-03         0.00000E+00
    0.45552E-03        -0.35208E-03         0.00000E+00
    0.22886E-03        -0.17557E-03         0.00000E+00
    0.00000E+00         0.00000E+00         0.00000E+00
    0.87201E-02        -0.10076E-01         0.00000E+00
    0.86177E-02        -0.98652E-02         0.00000E+00
    0.85121E-02        -0.96549E-02         0.00000E+00
    0.84033E-02        -0.94446E-02         0.00000E+00
    0.82913E-02        -0.92344E-02         0.00000E+00
    0.81761E-02        -0.90243E-02         0.00000E+00
    0.80577E-02        -0.88143E-02         0.00000E+00
    0.79361E-02        -0.86045E-02         0.00000E+00
    0.78115E-02        -0.83948E-02         0.00000E+00
    0.76837E-02        -0.81852E-02         0.00000E+00
    0.75528E-02        -0.79759E-02         0.00000E+00
    0.74189E-02        -0.77668E-02         0.00000E+00
    0.72819E-02        -0.75579E-02         0.00000E+00
    0.71418E-02        -0.73493E-02         0.00000E+00
    0.69988E-02        -0.71410E-02         0.00000E+00
    0.68527E-02        -0.69329E-02         0.00000E+00
    0.67036E-02        -0.67252E-02         0.00000E+00
    0.65516E-02        -0.65179E-02         0.00000E+00
    0.63966E-02        -0.63109E-02         0.00000E+00
    0.62387E-02        -0.61042E-02         0.00000E+00
    0.60779E-02        -0.58980E-02         0.00000E+00
    0.59142E-02        -0.56923E-02         0.00000E+00
    0.57476E-02        -0.54869E-02         0.00000E+00
    0.55782E-02        -0.52821E-02         0.00000E+00
    0.54060E-02        -0.50777E-02         0.00000E+00
    0.52309E-02        -0.48738E-02         0.00000E+00
    0.50530E-02        -0.46705E-02         0.00000E+00
    0.48724E-02        -0.44677E-02         0.00000E+00
    0.46890E-02        -0.42655E-02         0.00000E+00
    0.45029E-02        -0.40639E-02         0.00000E+00
    0.43141E-02        -0.38629E-02         0.00000E+00
    0.41226E-02        -0.36625E-02         0.00000E+00
    0.39284E-02        -0.34627E-02         0.00000E+00
    0.37315E-02        -0.32637E-02         0.00000E+00
    0.35321E-02        -0.30653E-02         0.00000E+00
    0.33300E-02        -0.28676E-02         0.00000E+00
    0.31253E-02        -0.26706E-02         0.00000E+00
    0.29181E-02        -0.24744E-02         0.00000E+00
    0.27083E-02        -0.22790E-02         0.00000E+00
    0.24960E-02        -0.20843E-02         0.00000E+00
    0.22812E-02        -0.18904E-02         0.00000E+00
    0.20639E-02        -0.16974E-02         0.00000E+00
    0.18441E-02        -0.15052E-02         0.00000E+00
    0.16219E-02        -0.13138E-02         0.00000E+00
    0.13973E-02        -0.11234E-02         0.00000E+00
    0.11703E-02        -0.93380E-03         0.00000E+00
    0.94086E-03        -0.74514E-03         0.00000E+00
    0.70912E-03        -0.55741E-03         0.00000E+00
    0.47505E-03        -0.37063E-03         0.00000E+00
    0.23867E-03        -0.18482E-03         0.00000E+00
    0.00000E+00         0.00000E+00         0.00000E+00
    0.90985E-02        -0.10591E-01         0.00000E+00
    0.89914E-02        -0.10370E-01         0.00000E+00
    0.88809E-02        -0.10149E-01         0.00000E+00
    0.87671E-02        -0.99282E-02         0.00000E+00
    0.86500E-02        -0.97074E-02         0.00000E+00
    0.85295E-02        -0.94866E-02         0.00000E+00
    0.84058E-02        -0.92660E-02         0.00000E+00
    0.82787E-02        -0.90456E-02         0.00000E+00
    0.81485E-02        -0.88253E-02         0.00000E+00
    0.80150E-02        -0.86052E-02         0.00000E+00
    0.78783E-02        -0.83853E-02         0.00000E+00
    0.77383E-02        -0.81656E-02         0.00000E+00
    0.75953E-02        -0.79461E-02         0.00000E+00
    0.74490E-02        -0.77270E-02         0.00000E+00
    0.72996E-02        -0.75081E-02         0.00000E+00
    0.71471E-02        -0.72895E-02         0.00000E+00
    0.69915E-02        -0.70713E-02         0.00000E+00
    0.68328E-02        -0.68534E-02         0.00000E+00
    0.66711E-02        -0.66359E-02         0.00000E+00
    0.65063E-02        -0.64188E-02         0.00000E+00
    0.63385E-02        -0.62021E-02         0.00000E+00
    0.61676E-02        -0.59859E-02         0.00000E+00
    0.59938E-02        -0.57701E-02         0.00000E+00
    0.58171E-02        -0.55548E-02         0.00000E+00
    0.56374E-02        -0.53400E-02         0.00000E+00
    0.54547E-02        -0.51258E-02         0.00000E+00
    0.52692E-02        -0.49121E-02         0.00000E+00
    0.50808E-02        -0.46989E-02         0.00000E+00
    0.48895E-02        -0.44864E-02         0.00000E+00
    0.46954E-02        -0.42744E-02         0.00000E+00
    0.44985E-02        -0.40631E-02         0.00000E+00
    0.42987E-02        -0.38525E-02         0.00000E+00
    0.40962E-02        -0.36425E-02         0.00000E+00
    0.38909E-02        -0.34332E-02         0.00000E+00
    0.36829E-02        -0.32246E-02         0.00000E+00
    0.34722E-02        -0.30167E-02         0.00000E+00
    0.32587E-02        -0.28096E-02         0.00000E+00
    0.30426E-02        -0.26033E-02         0.00000E+00
    0.28239E-02        -0.23977E-02         0.00000E+00
    0.26025E-02        -0.21930E-02         0.00000E+00
    0.23785E-02        -0.19891E-02         0.00000E+00
    0.21519E-02        -0.17860E-02         0.00000E+00
    0.19228E-02        -0.15838E-02         0.00000E+00
    0.16911E-02        -0.13825E-02         0.00000E+00
    0.14569E-02        -0.11821E-02         0.00000E+00
    0.12202E-02        -0.98269E-03         0.00000E+00
    0.98102E-03        -0.78418E-03         0.00000E+00
    0.73938E-03        -0.58664E-03         0.00000E+00
    0.49532E-03        -0.39008E-03         0.00000E+00
    0.24885E-03        -0.19453E-03         0.00000E+00
    0.00000E+00         0.00000E+00         0.00000E+00
    0.94921E-02        -0.11130E-01         0.00000E+00
    0.93800E-02        -0.10898E-01         0.00000E+00
    0.92644E-02        -0.10666E-01         0.00000E+00
    0.91453E-02        -0.10434E-01         0.00000E+00
    0.90228E-02        -0.10202E-01         0.00000E+00
    0.88969E-02        -0.99705E-02         0.00000E+00
    0.87676E-02        -0.97389E-02         0.00000E+00
    0.86348E-02        -0.95073E-02         0.00000E+00
    0.84987E-02        -0.92759E-02         0.00000E+00
    0.83592E-02        -0.90448E-02         0.00000E+00
    0.82164E-02        -0.88138E-02         0.00000E+00
    0.80703E-02        -0.85830E-02         0.00000E+00
    0.79208E-02        -0.83526E-02         0.00000E+00
    0.77681E-02        -0.81223E-02         0.00000E+00
    0.76122E-02        -0.78924E-02         0.00000E+00
    0.74530E-02        -0.76628E-02         0.00000E+00
    0.72905E-02        -0.74336E-02         0.00000E+00
    0.71249E-02        -0.72047E-02         0.00000E+00
    0.69561E-02        -0.69763E-02         0.00000E+00
    0.67842E-02        -0.67482E-02         0.00000E+00
    0.66091E-02        -0.65206E-02         0.00000E+00
    0.64308E-02        -0.62934E-02         0.00000E+00
    0.62495E-02        -0.60667E-02         0.00000E+00
    0.60651E-02        -0.58405E-02         0.00000E+00
    0.58777E-02        -0.56148E-02         0.00000E+00
    0.56872E-02        -0.53897E-02         0.00000E+00
    0.54937E-02        -0.51651E-02         0.00000E+00
    0.52971E-02        -0.49411E-02         0.00000E+00
    0.50977E-02        -0.47177E-02         0.00000E+00
    0.48952E-02        -0.44950E-02         0.00000E+00
    0.46899E-02        -0.42729E-02         0.00000E+00
    0.44816E-02        -0.40515E-02         0.00000E+00
    0.42704E-02        -0.38308E-02         0.00000E+00
    0.40564E-02        -0.36107E-02         0.00000E+00
    0.38395E-02        -0.33915E-02         0.00000E+00
    0.36198E-02        -0.31730E-02         0.00000E+00
    0.33972E-02        -0.29552E-02         0.00000E+00
    0.31719E-02        -0.27383E-02         0.00000E+00
    0.29439E-02        -0.25221E-02         0.00000E+00
    0.27131E-02        -0.23069E-02         0.00000E+00
    0.24796E-02        -0.20924E-02         0.00000E+00
    0.22434E-02        -0.18789E-02         0.00000E+00
    0.20045E-02        -0.16663E-02         0.00000E+00
    0.17629E-02        -0.14545E-02         0.00000E+00
    0.15188E-02        -0.12438E-02         0.00000E+00
    0.12720E-02        -0.10339E-02         0.00000E+00
    0.10227E-02        -0.82511E-03         0.00000E+00
    0.77079E-03        -0.61728E-03         0.00000E+00
    0.51637E-03        -0.41047E-03         0.00000E+00
    0.25943E-03        -0.20470E-03         0.00000E+00
    0.00000E+00         0.00000E+00         0.00000E+00
    0.99011E-02        -0.11695E-01         0.00000E+00
    0.97838E-02        -0.11451E-01         0.00000E+00
    0.96629E-02        -0.11207E-01         0.00000E+00
    0.95384E-02        -0.10964E-01         0.00000E+00
    0.94103E-02        -0.10720E-01         0.00000E+00
    0.92786E-02        -0.10477E-01         0.00000E+00
    0.91434E-02        -0.10234E-01         0.00000E+00
    0.90047E-02        -0.99906E-02         0.00000E+00
    0.88624E-02        -0.97477E-02         0.00000E+00
    0.87167E-02        -0.95049E-02         0.00000E+00
    0.85676E-02        -0.92624E-02         0.00000E+00
    0.84150E-02        -0.90201E-02         0.00000E+00
    0.82589E-02        -0.87781E-02         0.00000E+00
    0.80995E-02        -0.85363E-02         0.00000E+00
    0.79367E-02        -0.82949E-02         0.00000E+00
    0.77705E-02        -0.80537E-02         0.00000E+00
    0.76010E-02        -0.78130E-02         0.00000E+00
    0.74281E-02        -0.75726E-02         0.00000E+00
    0.72520E-02        -0.73327E-02         0.00000E+00
    0.70726E-02        -0.70931E-02         0.00000E+00
    0.68899E-02        -0.68540E-02         0.00000E+00
    0.67040E-02        -0.66154E-02         0.00000E+00
    0.65148E-02        -0.63773E-02         0.00000E+00
    0.63225E-02        -0.61396E-02         0.00000E+00
    0.61270E-02        -0.59026E-02         0.00000E+00
    0.59283E-02        -0.56660E-02         0.00000E+00
    0.57265E-02        -0.54301E-02         0.00000E+00
    0.55216E-02        -0.51948E-02         0.00000E+00
    0.53136E-02        -0.49601E-02         0.00000E+00
    0.51025E-02        -0.47261E-02         0.00000E+00
    0.48884E-02        -0.44927E-02         0.00000E+00
    0.46713E-02        -0.42600E-02         0.00000E+00
    0.44511E-02        -0.40280E-02         0.00000E+00
    0.42280E-02        -0.37968E-02         0.00000E+00
    0.40019E-02        -0.35664E-02         0.00000E+00
    0.37729E-02        -0.33367E-02         0.00000E+00
    0.35409E-02        -0.31078E-02         0.00000E+00
    0.33061E-02        -0.28798E-02         0.00000E+00
    0.30683E-02        -0.26526E-02         0.00000E+00
    0.28278E-02        -0.24262E-02         0.00000E+00
    0.25844E-02        -0.22008E-02         0.00000E+00
    0.23382E-02        -0.19762E-02         0.00000E+00
    0.20892E-02        -0.17526E-02         0.00000E+00
    0.18375E-02        -0.15300E-02         0.00000E+00
    0.15830E-02        -0.13083E-02         0.00000E+00
    0.13258E-02        -0.10877E-02         0.00000E+00
    0.10659E-02        -0.86802E-03         0.00000E+00
    0.80337E-03        -0.64940E-03         0.00000E+00
    0.53819E-03        -0.43185E-03         0.00000E+00
    0.27039E-03        -0.21537E-03         0.00000E+00
    0.00000E+00         0.00000E+00         0.00000E+00
    0.10326E-01        -0.12286E-01         0.00000E+00
    0.10203E-01        -0.12030E-01         0.00000E+00
    0.10077E-01        -0.11774E-01         0.00000E+00
    0.99465E-02        -0.11518E-01         0.00000E+00
    0.98125E-02        -0.11263E-01         0.00000E+00
    0.96749E-02        -0.11007E-01         0.00000E+00
    0.95336E-02        -0.10752E-01         0.00000E+00
    0.93886E-02        -0.10497E-01         0.00000E+00
    0.92400E-02        -0.10242E-01         0.00000E+00
    0.90878E-02        -0.99867E-02         0.00000E+00
    0.89320E-02        -0.97320E-02         0.00000E+00
    0.87726E-02        -0.94777E-02         0.00000E+00
    0.86097E-02        -0.92235E-02         0.00000E+00
    0.84433E-02        -0.89697E-02         0.00000E+00
    0.82733E-02        -0.87162E-02         0.00000E+00
    0.80999E-02        -0.84630E-02         0.00000E+00
    0.79230E-02        -0.82103E-02         0.00000E+00
    0.77427E-02        -0.79579E-02         0.00000E+00
    0.75589E-02        -0.77059E-02         0.00000E+00
    0.73717E-02        -0.74543E-02         0.00000E+00
    0.71812E-02        -0.72032E-02         0.00000E+00
    0.69873E-02        -0.69526E-02         0.00000E+00
    0.67900E-02        -0.67025E-02         0.00000E+00
    0.65894E-02        -0.64530E-02         0.00000E+00
    0.63856E-02        -0.62040E-02         0.00000E+00
    0.61784E-02        -0.59556E-02         0.00000E+00
    0.59680E-02        -0.57077E-02         0.00000E+00
    0.57544E-02        -0.54605E-02         0.00000E+00
    0.55375E-02        -0.52140E-02         0.00000E+00
    0.53175E-02        -0.49681E-02         0.00000E+00
    0.50943E-02        -0.47229E-02         0.00000E+00
    0.48680E-02        -0.44785E-02         0.00000E+00
    0.46385E-02        -0.42348E-02         0.00000E+00
    0.44059E-02        -0.39918E-02         0.00000E+00
    0.41703E-02        -0.37496E-02         0.00000E+00
    0.39316E-02        -0.35083E-02         0.00000E+00
    0.36898E-02        -0.32677E-02         0.00000E+00
    0.34451E-02        -0.30280E-02         0.00000E+00
    0.31974E-02        -0.27892E-02         0.00000E+00
    0.29467E-02        -0.25513E-02         0.00000E+00
    0.26930E-02        -0.23143E-02         0.00000E+00
    0.24365E-02        -0.20783E-02         0.00000E+00
    0.21770E-02        -0.18432E-02         0.00000E+00
    0.19147E-02        -0.16091E-02         0.00000E+00
    0.16495E-02        -0.13761E-02         0.00000E+00
    0.13815E-02        -0.11440E-02         0.00000E+00
    0.11107E-02        -0.91301E-03         0.00000E+00
    0.83715E-03        -0.68309E-03         0.00000E+00
    0.56082E-03        -0.45426E-03         0.00000E+00
    0.28176E-03        -0.22656E-03         0.00000E+00
    0.00000E+00         0.00000E+00         0.00000E+00
    0.10767E-01        -0.12904E-01         0.00000E+00
    0.10638E-01        -0.12635E-01         0.00000E+00
    0.10506E-01        -0.12367E-01         0.00000E+00
    0.10370E-01        -0.12099E-01         0.00000E+00
    0.10230E-01        -0.11830E-01         0.00000E+00
    0.10086E-01        -0.11562E-01         0.00000E+00
    0.99383E-02        -0.11294E-01         0.00000E+00
    0.97868E-02        -0.11026E-01         0.00000E+00
    0.96316E-02        -0.10759E-01         0.00000E+00
    0.94726E-02        -0.10491E-01         0.00000E+00
    0.93100E-02        -0.10224E-01         0.00000E+00
    0.91436E-02        -0.99567E-02         0.00000E+00
    0.89735E-02        -0.96899E-02         0.00000E+00
    0.87998E-02        -0.94235E-02         0.00000E+00
    0.86224E-02        -0.91574E-02         0.00000E+00
    0.84414E-02        -0.88916E-02         0.00000E+00
    0.82569E-02        -0.86262E-02         0.00000E+00
    0.80687E-02        -0.83612E-02         0.00000E+00
    0.78770E-02        -0.80967E-02         0.00000E+00
    0.76818E-02        -0.78326E-02         0.00000E+00
    0.74831E-02        -0.75690E-02         0.00000E+00
    0.72809E-02        -0.73058E-02         0.00000E+00
    0.70752E-02        -0.70432E-02         0.00000E+00
    0.68660E-02        -0.67812E-02         0.00000E+00
    0.66535E-02        -0.65197E-02         0.00000E+00
    0.64375E-02        -0.62588E-02         0.00000E+00
    0.62182E-02        -0.59985E-02         0.00000E+00
    0.59955E-02        -0.57389E-02         0.00000E+00
    0.57695E-02        -0.54800E-02         0.00000E+00
    0.55402E-02        -0.52217E-02         0.00000E+00
    0.53076E-02        -0.49642E-02         0.00000E+00
    0.50717E-02        -0.47074E-02         0.00000E+00
    0.48326E-02        -0.44513E-02         0.00000E+00
    0.45903E-02        -0.41961E-02         0.00000E+00
    0.43447E-02        -0.39417E-02         0.00000E+00
    0.40960E-02        -0.36881E-02         0.00000E+00
    0.38441E-02        -0.34353E-02         0.00000E+00
    0.35891E-02        -0.31835E-02         0.00000E+00
    0.33310E-02        -0.29325E-02         0.00000E+00
    0.30698E-02        -0.26825E-02         0.00000E+00
    0.28056E-02        -0.24334E-02         0.00000E+00
    0.25383E-02        -0.21853E-02         0.00000E+00
    0.22680E-02        -0.19382E-02         0.00000E+00
    0.19947E-02        -0.16921E-02         0.00000E+00
    0.17184E-02        -0.14470E-02         0.00000E+00
    0.14393E-02        -0.12031E-02         0.00000E+00
    0.11571E-02        -0.96018E-03         0.00000E+00
    0.87213E-03        -0.71841E-03         0.00000E+00
    0.58426E-03        -0.47777E-03         0.00000E+00
    0.29354E-03        -0.23830E-03         0.00000E+00
    0.00000E+00         0.00000E+00         0.00000E+00
    0.11224E-01        -0.13551E-01         0.00000E+00
    0.11090E-01        -0.13269E-01         0.00000E+00
    0.10951E-01        -0.12988E-01         0.00000E+00
    0.10809E-01        -0.12706E-01         0.00000E+00
    0.10663E-01        -0.12424E-01         0.00000E+00
    0.10512E-01        -0.12143E-01         0.00000E+00
    0.10358E-01        -0.11862E-01         0.00000E+00
    0.10200E-01        -0.11581E-01         0.00000E+00
    0.10038E-01        -0.11300E-01         0.00000E+00
    0.98715E-02        -0.11019E-01         0.00000E+00
    0.97016E-02        -0.10738E-01         0.00000E+00
    0.95279E-02        -0.10458E-01         0.00000E+00
    0.93504E-02        -0.10178E-01         0.00000E+00
    0.91691E-02        -0.98986E-02         0.00000E+00
    0.89841E-02        -0.96193E-02         0.00000E+00
    0.87952E-02        -0.93403E-02         0.00000E+00
    0.86027E-02        -0.90618E-02         0.00000E+00
    0.84065E-02        -0.87836E-02         0.00000E+00
    0.82065E-02        -0.85059E-02         0.00000E+00
    0.80030E-02        -0.82287E-02         0.00000E+00
    0.77957E-02        -0.79520E-02         0.00000E+00
    0.75849E-02        -0.76757E-02         0.00000E+00
    0.73705E-02        -0.74000E-02         0.00000E+00
    0.71525E-02        -0.71249E-02         0.00000E+00
    0.69309E-02        -0.68504E-02         0.00000E+00
    0.67059E-02        -0.65765E-02         0.00000E+00
    0.64773E-02        -0.63032E-02         0.00000E+00
    0.62452E-02        -0.60306E-02         0.00000E+00
    0.60097E-02        -0.57586E-02         0.00000E+00
    0.57708E-02        -0.54874E-02         0.00000E+00
    0.55284E-02        -0.52169E-02         0.00000E+00
    0.52827E-02        -0.49472E-02         0.00000E+00
    0.50335E-02        -0.46783E-02         0.00000E+00
    0.47811E-02        -0.44102E-02         0.00000E+00
    0.45253E-02        -0.41429E-02         0.00000E+00
    0.42662E-02        -0.38765E-02         0.00000E+00
    0.40038E-02        -0.36110E-02         0.00000E+00
    0.37382E-02        -0.33463E-02         0.00000E+00
    0.34694E-02        -0.30827E-02         0.00000E+00
    0.31973E-02        -0.28199E-02         0.00000E+00
    0.29221E-02        -0.25582E-02         0.00000E+00
    0.26437E-02        -0.22974E-02         0.00000E+00
    0.23622E-02        -0.20377E-02         0.00000E+00
    0.20775E-02        -0.17791E-02         0.00000E+00
    0.17898E-02        -0.15215E-02         0.00000E+00
    0.14990E-02        -0.12650E-02         0.00000E+00
    0.12052E-02        -0.10097E-02         0.00000E+00
    0.90834E-03        -0.75546E-03         0.00000E+00
    0.60852E-03        -0.50243E-03         0.00000E+00
    0.30573E-03        -0.25060E-03         0.00000E+00
    0.00000E+00         0.00000E+00         0.00000E+00
    0.11698E-01        -0.14228E-01         0.00000E+00
    0.11558E-01        -0.13933E-01         0.00000E+00
    0.11413E-01        -0.13637E-01         0.00000E+00
    0.11264E-01        -0.13342E-01         0.00000E+00
    0.11111E-01        -0.13046E-01         0.00000E+00
    0.10954E-01        -0.12751E-01         0.00000E+00
    0.10793E-01        -0.12456E-01         0.00000E+00
    0.10627E-01        -0.12161E-01         0.00000E+00
    0.10458E-01        -0.11866E-01         0.00000E+00
    0.10285E-01        -0.11572E-01         0.00000E+00
    0.10107E-01        -0.11277E-01         0.00000E+00
    0.99260E-02        -0.10983E-01         0.00000E+00
    0.97407E-02        -0.10689E-01         0.00000E+00
    0.95515E-02        -0.10396E-01         0.00000E+00
    0.93585E-02        -0.10103E-01         0.00000E+00
    0.91615E-02        -0.98102E-02         0.00000E+00
    0.89607E-02        -0.95178E-02         0.00000E+00
    0.87561E-02        -0.92259E-02         0.00000E+00
    0.85476E-02        -0.89345E-02         0.00000E+00
    0.83353E-02        -0.86435E-02         0.00000E+00
    0.81193E-02        -0.83531E-02         0.00000E+00
    0.78996E-02        -0.80631E-02         0.00000E+00
    0.76761E-02        -0.77737E-02         0.00000E+00
    0.74489E-02        -0.74849E-02         0.00000E+00
    0.72180E-02        -0.71967E-02         0.00000E+00
    0.69835E-02        -0.69092E-02         0.00000E+00
    0.67453E-02        -0.66223E-02         0.00000E+00
    0.65036E-02        -0.63361E-02         0.00000E+00
    0.62582E-02        -0.60506E-02         0.00000E+00
    0.60093E-02        -0.57658E-02         0.00000E+00
    0.57569E-02        -0.54818E-02         0.00000E+00
    0.55009E-02        -0.51985E-02         0.00000E+00
    0.52414E-02        -0.49161E-02         0.00000E+00
    0.49785E-02        -0.46345E-02         0.00000E+00
    0.47121E-02        -0.43538E-02         0.00000E+00
    0.44422E-02        -0.40740E-02         0.00000E+00
    0.41690E-02        -0.37950E-02         0.00000E+00
    0.38924E-02        -0.35171E-02         0.00000E+00
    0.36125E-02        -0.32400E-02         0.00000E+00
    0.33292E-02        -0.29640E-02         0.00000E+00
    0.30426E-02        -0.26890E-02         0.00000E+00
    0.27527E-02        -0.24150E-02         0.00000E+00
    0.24595E-02        -0.21421E-02         0.00000E+00
    0.21632E-02        -0.18702E-02         0.00000E+00
    0.18636E-02        -0.15995E-02         0.00000E+00
    0.15608E-02        -0.13299E-02         0.00000E+00
    0.12549E-02        -0.10615E-02         0.00000E+00
    0.94580E-03        -0.79430E-03         0.00000E+00
    0.63361E-03        -0.52829E-03         0.00000E+00
    0.31834E-03        -0.26351E-03         0.00000E+00
    0.00000E+00         0.00000E+00         0.00000E+00
    0.12189E-01        -0.14937E-01         0.00000E+00
    0.12042E-01        -0.14627E-01         0.00000E+00
    0.11891E-01        -0.14317E-01         0.00000E+00
    0.11735E-01        -0.14007E-01         0.00000E+00
    0.11575E-01        -0.13697E-01         0.00000E+00
    0.11411E-01        -0.13387E-01         0.00000E+00
    0.11242E-01        -0.13078E-01         0.00000E+00
    0.11070E-01        -0.12768E-01         0.00000E+00
    0.10893E-01        -0.12459E-01         0.00000E+00
    0.10712E-01        -0.12150E-01         0.00000E+00
    0.10527E-01        -0.11841E-01         0.00000E+00
    0.10338E-01        -0.11533E-01         0.00000E+00
    0.10144E-01        -0.11225E-01         0.00000E+00
    0.99471E-02        -0.10917E-01         0.00000E+00
    0.97458E-02        -0.10609E-01         0.00000E+00
    0.95404E-02        -0.10302E-01         0.00000E+00
    0.93310E-02        -0.99953E-02         0.00000E+00
    0.91176E-02        -0.96890E-02         0.00000E+00
    0.89003E-02        -0.93832E-02         0.00000E+00
    0.86791E-02        -0.90779E-02         0.00000E+00
    0.84539E-02        -0.87731E-02         0.00000E+00
    0.82249E-02        -0.84688E-02         0.00000E+00
    0.79920E-02        -0.81651E-02         0.00000E+00
    0.77553E-02        -0.78620E-02         0.00000E+00
    0.75148E-02        -0.75595E-02         0.00000E+00
    0.72705E-02        -0.72577E-02         0.00000E+00
    0.70224E-02        -0.69565E-02         0.00000E+00
    0.67706E-02        -0.66561E-02         0.00000E+00
    0.65151E-02        -0.63564E-02         0.00000E+00
    0.62559E-02        -0.60574E-02         0.00000E+00
    0.59930E-02        -0.57592E-02         0.00000E+00
    0.57264E-02        -0.54618E-02         0.00000E+00
    0.54562E-02        -0.51653E-02         0.00000E+00
    0.51825E-02        -0.48696E-02         0.00000E+00
    0.49051E-02        -0.45748E-02         0.00000E+00
    0.46242E-02        -0.42809E-02         0.00000E+00
    0.43397E-02        -0.39880E-02         0.00000E+00
    0.40518E-02        -0.36960E-02         0.00000E+00
    0.37603E-02        -0.34050E-02         0.00000E+00
    0.34654E-02        -0.31150E-02         0.00000E+00
    0.31671E-02        -0.28261E-02         0.00000E+00
    0.28653E-02        -0.25382E-02         0.00000E+00
    0.25602E-02        -0.22515E-02         0.00000E+00
    0.22517E-02        -0.19658E-02         0.00000E+00
    0.19398E-02        -0.16814E-02         0.00000E+00
    0.16247E-02        -0.13980E-02         0.00000E+00
    0.13062E-02        -0.11159E-02         0.00000E+00
    0.98450E-03        -0.83504E-03         0.00000E+00
    0.65954E-03        -0.55541E-03         0.00000E+00
    0.33137E-03        -0.27705E-03         0.00000E+00
    0.00000E+00         0.00000E+00         0.00000E+00
    0.12698E-01        -0.15678E-01         0.00000E+00
    0.12544E-01        -0.15353E-01         0.00000E+00
    0.12385E-01        -0.15028E-01         0.00000E+00
    0.12223E-01        -0.14703E-01         0.00000E+00
    0.12055E-01        -0.14378E-01         0.00000E+00
    0.11884E-01        -0.14053E-01         0.00000E+00
    0.11708E-01        -0.13729E-01         0.00000E+00
    0.11528E-01        -0.13404E-01         0.00000E+00
    0.11343E-01        -0.13080E-01         0.00000E+00
    0.11154E-01        -0.12755E-01         0.00000E+00
    0.10961E-01        -0.12432E-01         0.00000E+00
    0.10763E-01        -0.12108E-01         0.00000E+00
    0.10562E-01        -0.11785E-01         0.00000E+00
    0.10356E-01        -0.11462E-01         0.00000E+00
    0.10146E-01        -0.11139E-01         0.00000E+00
    0.99319E-02        -0.10817E-01         0.00000E+00
    0.97136E-02        -0.10495E-01         0.00000E+00
    0.94912E-02        -0.10174E-01         0.00000E+00
    0.92647E-02        -0.98530E-02         0.00000E+00
    0.90342E-02        -0.95327E-02         0.00000E+00
    0.87996E-02        -0.92128E-02         0.00000E+00
    0.85610E-02        -0.88936E-02         0.00000E+00
    0.83184E-02        -0.85749E-02         0.00000E+00
    0.80719E-02        -0.82568E-02         0.00000E+00
    0.78214E-02        -0.79394E-02         0.00000E+00
    0.75670E-02        -0.76227E-02         0.00000E+00
    0.73086E-02        -0.73066E-02         0.00000E+00
    0.70464E-02        -0.69913E-02         0.00000E+00
    0.67804E-02        -0.66767E-02         0.00000E+00
    0.65105E-02        -0.63629E-02         0.00000E+00
    0.62368E-02        -0.60498E-02         0.00000E+00
    0.59593E-02        -0.57377E-02         0.00000E+00
    0.56781E-02        -0.54263E-02         0.00000E+00
    0.53931E-02        -0.51159E-02         0.00000E+00
    0.51044E-02        -0.48064E-02         0.00000E+00
    0.48121E-02        -0.44978E-02         0.00000E+00
    0.45160E-02        -0.41901E-02         0.00000E+00
    0.42163E-02        -0.38835E-02         0.00000E+00
    0.39130E-02        -0.35779E-02         0.00000E+00
    0.36061E-02        -0.32733E-02         0.00000E+00
    0.32957E-02        -0.29698E-02         0.00000E+00
    0.29816E-02        -0.26674E-02         0.00000E+00
    0.26641E-02        -0.23662E-02         0.00000E+00
    0.23431E-02        -0.20661E-02         0.00000E+00
    0.20186E-02        -0.17672E-02         0.00000E+00
    0.16906E-02        -0.14694E-02         0.00000E+00
    0.13592E-02        -0.11730E-02         0.00000E+00
    0.10245E-02        -0.87776E-03         0.00000E+00
    0.68631E-03        -0.58385E-03         0.00000E+00
    0.34482E-03        -0.29125E-03         0.00000E+00
    0.00000E+00         0.00000E+00         0.00000E+00
    0.13223E-01        -0.16454E-01         0.00000E+00
    0.13062E-01        -0.16113E-01         0.00000E+00
    0.12896E-01        -0.15772E-01         0.00000E+00
    0.12726E-01        -0.15431E-01         0.00000E+00
    0.12552E-01        -0.15091E-01         0.00000E+00
    0.12372E-01        -0.14750E-01         0.00000E+00
    0.12189E-01        -0.14409E-01         0.00000E+00
    0.12000E-01        -0.14069E-01         0.00000E+00
    0.11808E-01        -0.13729E-01         0.00000E+00
    0.11611E-01        -0.13389E-01         0.00000E+00
    0.11409E-01        -0.13049E-01         0.00000E+00
    0.11203E-01        -0.12710E-01         0.00000E+00
    0.10993E-01        -0.12371E-01         0.00000E+00
    0.10778E-01        -0.12032E-01         0.00000E+00
    0.10559E-01        -0.11694E-01         0.00000E+00
    0.10336E-01        -0.11356E-01         0.00000E+00
    0.10109E-01        -0.11018E-01         0.00000E+00
    0.98769E-02        -0.10681E-01         0.00000E+00
    0.96409E-02        -0.10345E-01         0.00000E+00
    0.94008E-02        -0.10009E-01         0.00000E+00
    0.91564E-02        -0.96733E-02         0.00000E+00
    0.89079E-02        -0.93384E-02         0.00000E+00
    0.86553E-02        -0.90040E-02         0.00000E+00
    0.83986E-02        -0.86703E-02         0.00000E+00
    0.81378E-02        -0.83373E-02         0.00000E+00
    0.78729E-02        -0.80049E-02         0.00000E+00
    0.76040E-02        -0.76732E-02         0.00000E+00
    0.73310E-02        -0.73423E-02         0.00000E+00
    0.70541E-02        -0.70122E-02         0.00000E+00
    0.67732E-02        -0.66828E-02         0.00000E+00
    0.64884E-02        -0.63543E-02         0.00000E+00
    0.61996E-02        -0.60266E-02         0.00000E+00
    0.59070E-02        -0.56998E-02         0.00000E+00
    0.56104E-02        -0.53739E-02         0.00000E+00
    0.53101E-02        -0.50490E-02         0.00000E+00
    0.50059E-02        -0.47250E-02         0.00000E+00
    0.46979E-02        -0.44020E-02         0.00000E+00
    0.43861E-02        -0.40800E-02         0.00000E+00
    0.40705E-02        -0.37591E-02         0.00000E+00
    0.37513E-02        -0.34392E-02         0.00000E+00
    0.34283E-02        -0.31205E-02         0.00000E+00
    0.31016E-02        -0.28029E-02         0.00000E+00
    0.27713E-02        -0.24864E-02         0.00000E+00
    0.24373E-02        -0.21711E-02         0.00000E+00
    0.20998E-02        -0.18571E-02         0.00000E+00
    0.17586E-02        -0.15443E-02         0.00000E+00
    0.14139E-02        -0.12328E-02         0.00000E+00
    0.10657E-02        -0.92256E-03         0.00000E+00
    0.71393E-03        -0.61367E-03         0.00000E+00
    0.35870E-03        -0.30614E-03         0.00000E+00
    0.00000E+00         0.00000E+00         0.00000E+00
    0.13766E-01        -0.17266E-01         0.00000E+00
    0.13598E-01        -0.16908E-01         0.00000E+00
    0.13424E-01        -0.16551E-01         0.00000E+00
    0.13247E-01        -0.16193E-01         0.00000E+00
    0.13064E-01        -0.15836E-01         0.00000E+00
    0.12877E-01        -0.15479E-01         0.00000E+00
    0.12685E-01        -0.15122E-01         0.00000E+00
    0.12489E-01        -0.14765E-01         0.00000E+00
    0.12287E-01        -0.14408E-01         0.00000E+00
    0.12082E-01        -0.14052E-01         0.00000E+00
    0.11872E-01        -0.13696E-01         0.00000E+00
    0.11657E-01        -0.13340E-01         0.00000E+00
    0.11438E-01        -0.12984E-01         0.00000E+00
    0.11214E-01        -0.12629E-01         0.00000E+00
    0.10986E-01        -0.12274E-01         0.00000E+00
    0.10753E-01        -0.11920E-01         0.00000E+00
    0.10516E-01        -0.11566E-01         0.00000E+00
    0.10275E-01        -0.11213E-01         0.00000E+00
    0.10029E-01        -0.10860E-01         0.00000E+00
    0.97788E-02        -0.10507E-01         0.00000E+00
    0.95244E-02        -0.10155E-01         0.00000E+00
    0.92657E-02        -0.98040E-02         0.00000E+00
    0.90027E-02        -0.94533E-02         0.00000E+00
    0.87354E-02        -0.91032E-02         0.00000E+00
    0.84639E-02        -0.87538E-02         0.00000E+00
    0.81883E-02        -0.84051E-02         0.00000E+00
    0.79084E-02        -0.80571E-02         0.00000E+00
    0.76244E-02        -0.77099E-02         0.00000E+00
    0.73363E-02        -0.73635E-02         0.00000E+00
    0.70440E-02        -0.70179E-02         0.00000E+00
    0.67477E-02        -0.66731E-02         0.00000E+00
    0.64473E-02        -0.63293E-02         0.00000E+00
    0.61429E-02        -0.59863E-02         0.00000E+00
    0.58344E-02        -0.56442E-02         0.00000E+00
    0.55220E-02        -0.53031E-02         0.00000E+00
    0.52056E-02        -0.49630E-02         0.00000E+00
    0.48853E-02        -0.46239E-02         0.00000E+00
    0.45610E-02        -0.42859E-02         0.00000E+00
    0.42328E-02        -0.39489E-02         0.00000E+00
    0.39008E-02        -0.36131E-02         0.00000E+00
    0.35650E-02        -0.32783E-02         0.00000E+00
    0.32253E-02        -0.29448E-02         0.00000E+00
    0.28818E-02        -0.26124E-02         0.00000E+00
    0.25345E-02        -0.22813E-02         0.00000E+00
    0.21835E-02        -0.19514E-02         0.00000E+00
    0.18287E-02        -0.16228E-02         0.00000E+00
    0.14703E-02        -0.12955E-02         0.00000E+00
    0.11082E-02        -0.96953E-03         0.00000E+00
    0.74240E-03        -0.64495E-03         0.00000E+00
    0.37300E-03        -0.32176E-03         0.00000E+00
    0.00000E+00         0.00000E+00         0.00000E+00
    0.14326E-01        -0.18114E-01         0.00000E+00
    0.14150E-01        -0.17740E-01         0.00000E+00
    0.13969E-01        -0.17365E-01         0.00000E+00
    0.13783E-01        -0.16990E-01         0.00000E+00
    0.13593E-01        -0.16616E-01         0.00000E+00
    0.13397E-01        -0.16241E-01         0.00000E+00
    0.13197E-01        -0.15867E-01         0.00000E+00
    0.12992E-01        -0.15493E-01         0.00000E+00
    0.12782E-01        -0.15119E-01         0.00000E+00
    0.12568E-01        -0.14746E-01         0.00000E+00
    0.12349E-01        -0.14372E-01         0.00000E+00
    0.12125E-01        -0.13999E-01         0.00000E+00
    0.11896E-01        -0.13626E-01         0.00000E+00
    0.11663E-01        -0.13254E-01         0.00000E+00
    0.11425E-01        -0.12882E-01         0.00000E+00
    0.11183E-01        -0.12510E-01         0.00000E+00
    0.10936E-01        -0.12139E-01         0.00000E+00
    0.10685E-01        -0.11769E-01         0.00000E+00
    0.10429E-01        -0.11398E-01         0.00000E+00
    0.10168E-01        -0.11029E-01         0.00000E+00
    0.99034E-02        -0.10660E-01         0.00000E+00
    0.96341E-02        -0.10291E-01         0.00000E+00
    0.93604E-02        -0.99235E-02         0.00000E+00
    0.90823E-02        -0.95564E-02         0.00000E+00
    0.87999E-02        -0.91899E-02         0.00000E+00
    0.85131E-02        -0.88241E-02         0.00000E+00
    0.82219E-02        -0.84591E-02         0.00000E+00
    0.79265E-02        -0.80949E-02         0.00000E+00
    0.76268E-02        -0.77314E-02         0.00000E+00
    0.73229E-02        -0.73688E-02         0.00000E+00
    0.70147E-02        -0.70071E-02         0.00000E+00
    0.67023E-02        -0.66462E-02         0.00000E+00
    0.63857E-02        -0.62863E-02         0.00000E+00
    0.60650E-02        -0.59273E-02         0.00000E+00
    0.57402E-02        -0.55694E-02         0.00000E+00
    0.54112E-02        -0.52124E-02         0.00000E+00
    0.50782E-02        -0.48565E-02         0.00000E+00
    0.47411E-02        -0.45016E-02         0.00000E+00
    0.43999E-02        -0.41478E-02         0.00000E+00
    0.40548E-02        -0.37952E-02         0.00000E+00
    0.37056E-02        -0.34438E-02         0.00000E+00
    0.33525E-02        -0.30935E-02         0.00000E+00
    0.29955E-02        -0.27445E-02         0.00000E+00
    0.26345E-02        -0.23967E-02         0.00000E+00
    0.22696E-02        -0.20502E-02         0.00000E+00
    0.19009E-02        -0.17051E-02         0.00000E+00
    0.15283E-02        -0.13612E-02         0.00000E+00
    0.11519E-02        -0.10188E-02         0.00000E+00
    0.77170E-03        -0.67773E-03         0.00000E+00
    0.38772E-03        -0.33813E-03         0.00000E+00
    0.00000E+00         0.00000E+00         0.00000E+00
    0.14904E-01        -0.19002E-01         0.00000E+00
    0.14720E-01        -0.18609E-01         0.00000E+00
    0.14531E-01        -0.18217E-01         0.00000E+00
    0.14337E-01        -0.17824E-01         0.00000E+00
    0.14138E-01        -0.17431E-01         0.00000E+00
    0.13933E-01        -0.17039E-01         0.00000E+00
    0.13724E-01        -0.16647E-01         0.00000E+00
    0.13511E-01        -0.16255E-01         0.00000E+00
    0.13292E-01        -0.15863E-01         0.00000E+00
    0.13068E-01        -0.15471E-01         0.00000E+00
    0.12840E-01        -0.15080E-01         0.00000E+00
    0.12606E-01        -0.14689E-01         0.00000E+00
    0.12368E-01        -0.14298E-01         0.00000E+00
    0.12125E-01        -0.13907E-01         0.00000E+00
    0.11878E-01        -0.13518E-01         0.00000E+00
    0.11625E-01        -0.13128E-01         0.00000E+00
    0.11368E-01        -0.12739E-01         0.00000E+00
    0.11107E-01        -0.12350E-01         0.00000E+00
    0.10840E-01        -0.11962E-01         0.00000E+00
    0.10569E-01        -0.11575E-01         0.00000E+00
    0.10293E-01        -0.11188E-01         0.00000E+00
    0.10013E-01        -0.10801E-01         0.00000E+00
    0.97286E-02        -0.10416E-01         0.00000E+00
    0.94393E-02        -0.10031E-01         0.00000E+00
    0.91455E-02        -0.96463E-02         0.00000E+00
    0.88472E-02        -0.92627E-02         0.00000E+00
    0.85444E-02        -0.88799E-02         0.00000E+00
    0.82373E-02        -0.84978E-02         0.00000E+00
    0.79257E-02        -0.81166E-02         0.00000E+00
    0.76097E-02        -0.77362E-02         0.00000E+00
    0.72893E-02        -0.73567E-02         0.00000E+00
    0.69646E-02        -0.69781E-02         0.00000E+00
    0.66355E-02        -0.66005E-02         0.00000E+00
    0.63022E-02        -0.62238E-02         0.00000E+00
    0.59646E-02        -0.58482E-02         0.00000E+00
    0.56227E-02        -0.54736E-02         0.00000E+00
    0.52766E-02        -0.51000E-02         0.00000E+00
    0.49263E-02        -0.47276E-02         0.00000E+00
    0.45718E-02        -0.43562E-02         0.00000E+00
    0.42131E-02        -0.39861E-02         0.00000E+00
    0.38503E-02        -0.36171E-02         0.00000E+00
    0.34834E-02        -0.32494E-02         0.00000E+00
    0.31124E-02        -0.28829E-02         0.00000E+00
    0.27373E-02        -0.25177E-02         0.00000E+00
    0.23582E-02        -0.21538E-02         0.00000E+00
    0.19751E-02        -0.17913E-02         0.00000E+00
    0.15880E-02        -0.14301E-02         0.00000E+00
    0.11969E-02        -0.10704E-02         0.00000E+00
    0.80183E-03        -0.71211E-03         0.00000E+00
    0.40286E-03        -0.35530E-03         0.00000E+00
    0.00000E+00         0.00000E+00         0.00000E+00
    0.15499E-01        -0.19930E-01         0.00000E+00
    0.15306E-01        -0.19518E-01         0.00000E+00
    0.15109E-01        -0.19107E-01         0.00000E+00
    0.14906E-01        -0.18695E-01         0.00000E+00
    0.14698E-01        -0.18284E-01         0.00000E+00
    0.14485E-01        -0.17873E-01         0.00000E+00
    0.14267E-01        -0.17462E-01         0.00000E+00
    0.14044E-01        -0.17051E-01         0.00000E+00
    0.13816E-01        -0.16640E-01         0.00000E+00
    0.13583E-01        -0.16230E-01         0.00000E+00
    0.13345E-01        -0.15820E-01         0.00000E+00
    0.13102E-01        -0.15410E-01         0.00000E+00
    0.12854E-01        -0.15000E-01         0.00000E+00
    0.12601E-01        -0.14591E-01         0.00000E+00
    0.12343E-01        -0.14182E-01         0.00000E+00
    0.12080E-01        -0.13774E-01         0.00000E+00
    0.11813E-01        -0.13366E-01         0.00000E+00
    0.11540E-01        -0.12959E-01         0.00000E+00
    0.11263E-01        -0.12552E-01         0.00000E+00
    0.10981E-01        -0.12146E-01         0.00000E+00
    0.10694E-01        -0.11740E-01         0.00000E+00
    0.10403E-01        -0.11335E-01         0.00000E+00
    0.10107E-01        -0.10931E-01         0.00000E+00
    0.98061E-02        -0.10527E-01         0.00000E+00
    0.95006E-02        -0.10124E-01         0.00000E+00
    0.91905E-02        -0.97218E-02         0.00000E+00
    0.88758E-02        -0.93203E-02         0.00000E+00
    0.85565E-02        -0.89196E-02         0.00000E+00
    0.82327E-02        -0.85198E-02         0.00000E+00
    0.79043E-02        -0.81208E-02         0.00000E+00
    0.75714E-02        -0.77228E-02         0.00000E+00
    0.72340E-02        -0.73256E-02         0.00000E+00
    0.68921E-02        -0.69295E-02         0.00000E+00
    0.65458E-02        -0.65343E-02         0.00000E+00
    0.61951E-02        -0.61402E-02         0.00000E+00
    0.58399E-02        -0.57471E-02         0.00000E+00
    0.54804E-02        -0.53551E-02         0.00000E+00
    0.51165E-02        -0.49642E-02         0.00000E+00
    0.47483E-02        -0.45745E-02         0.00000E+00
    0.43757E-02        -0.41860E-02         0.00000E+00
    0.39989E-02        -0.37987E-02         0.00000E+00
    0.36178E-02        -0.34126E-02         0.00000E+00
    0.32325E-02        -0.30279E-02         0.00000E+00
    0.28430E-02        -0.26444E-02         0.00000E+00
    0.24492E-02        -0.22623E-02         0.00000E+00
    0.20513E-02        -0.18816E-02         0.00000E+00
    0.16492E-02        -0.15023E-02         0.00000E+00
    0.12431E-02        -0.11245E-02         0.00000E+00
    0.83278E-03        -0.74813E-03         0.00000E+00
    0.41842E-03        -0.37329E-03         0.00000E+00
    0.00000E+00         0.00000E+00         0.00000E+00
    0.16111E-01        -0.20900E-01         0.00000E+00
    0.15910E-01        -0.20469E-01         0.00000E+00
    0.15704E-01        -0.20038E-01         0.00000E+00
    0.15492E-01        -0.19606E-01         0.00000E+00
    0.15275E-01        -0.19175E-01         0.00000E+00
    0.15053E-01        -0.18745E-01         0.00000E+00
    0.14825E-01        -0.18314E-01         0.00000E+00
    0.14593E-01        -0.17883E-01         0.00000E+00
    0.14355E-01        -0.17453E-01         0.00000E+00
    0.14112E-01        -0.17023E-01         0.00000E+00
    0.13864E-01        -0.16593E-01         0.00000E+00
    0.13611E-01        -0.16164E-01         0.00000E+00
    0.13353E-01        -0.15735E-01         0.00000E+00
    0.13089E-01        -0.15306E-01         0.00000E+00
    0.12821E-01        -0.14878E-01         0.00000E+00
    0.12547E-01        -0.14450E-01         0.00000E+00
    0.12269E-01        -0.14022E-01         0.00000E+00
    0.11986E-01        -0.13595E-01         0.00000E+00
    0.11697E-01        -0.13169E-01         0.00000E+00
    0.11404E-01        -0.12743E-01         0.00000E+00
    0.11106E-01        -0.12318E-01         0.00000E+00
    0.10803E-01        -0.11893E-01         0.00000E+00
    0.10495E-01        -0.11470E-01         0.00000E+00
    0.10183E-01        -0.11046E-01         0.00000E+00
    0.98651E-02        -0.10624E-01         0.00000E+00
    0.95429E-02        -0.10202E-01         0.00000E+00
    0.92159E-02        -0.97811E-02         0.00000E+00
    0.88842E-02        -0.93610E-02         0.00000E+00
    0.85477E-02        -0.89417E-02         0.00000E+00
    0.82066E-02        -0.85234E-02         0.00000E+00
    0.78608E-02        -0.81059E-02         0.00000E+00
    0.75104E-02        -0.76894E-02         0.00000E+00
    0.71554E-02        -0.72738E-02         0.00000E+00
    0.67957E-02        -0.68593E-02         0.00000E+00
    0.64315E-02        -0.64458E-02         0.00000E+00
    0.60627E-02        -0.60334E-02         0.00000E+00
    0.56894E-02        -0.56222E-02         0.00000E+00
    0.53116E-02        -0.52120E-02         0.00000E+00
    0.49293E-02        -0.48031E-02         0.00000E+00
    0.45425E-02        -0.43953E-02         0.00000E+00
    0.41513E-02        -0.39889E-02         0.00000E+00
    0.37557E-02        -0.35836E-02         0.00000E+00
    0.33557E-02        -0.31798E-02         0.00000E+00
    0.29513E-02        -0.27772E-02         0.00000E+00
    0.25426E-02        -0.23760E-02         0.00000E+00
    0.21295E-02        -0.19763E-02         0.00000E+00
    0.17121E-02        -0.15780E-02         0.00000E+00
    0.12904E-02        -0.11812E-02         0.00000E+00
    0.86452E-03        -0.78589E-03         0.00000E+00
    0.43437E-03        -0.39215E-03         0.00000E+00
    0.00000E+00         0.00000E+00         0.00000E+00
    0.16740E-01        -0.21913E-01         0.00000E+00
    0.16530E-01        -0.21462E-01         0.00000E+00
    0.16315E-01        -0.21010E-01         0.00000E+00
    0.16094E-01        -0.20559E-01         0.00000E+00
    0.15867E-01        -0.20107E-01         0.00000E+00
    0.15636E-01        -0.19656E-01         0.00000E+00
    0.15399E-01        -0.19205E-01         0.00000E+00
    0.15156E-01        -0.18754E-01         0.00000E+00
    0.14908E-01        -0.18303E-01         0.00000E+00
    0.14655E-01        -0.17852E-01         0.00000E+00
    0.14397E-01        -0.17402E-01         0.00000E+00
    0.14133E-01        -0.16952E-01         0.00000E+00
    0.13864E-01        -0.16502E-01         0.00000E+00
    0.13590E-01        -0.16053E-01         0.00000E+00
    0.13311E-01        -0.15605E-01         0.00000E+00
    0.13027E-01        -0.15156E-01         0.00000E+00
    0.12737E-01        -0.14708E-01         0.00000E+00
    0.12442E-01        -0.14261E-01         0.00000E+00
    0.12143E-01        -0.13814E-01         0.00000E+00
    0.11838E-01        -0.13368E-01         0.00000E+00
    0.11528E-01        -0.12922E-01         0.00000E+00
    0.11213E-01        -0.12477E-01         0.00000E+00
    0.10893E-01        -0.12033E-01         0.00000E+00
    0.10568E-01        -0.11590E-01         0.00000E+00
    0.10239E-01        -0.11147E-01         0.00000E+00
    0.99040E-02        -0.10705E-01         0.00000E+00
    0.95644E-02        -0.10263E-01         0.00000E+00
    0.92199E-02        -0.98228E-02         0.00000E+00
    0.88706E-02        -0.93832E-02         0.00000E+00
    0.85164E-02        -0.89445E-02         0.00000E+00
    0.81574E-02        -0.85068E-02         0.00000E+00
    0.77936E-02        -0.80700E-02         0.00000E+00
    0.74251E-02        -0.76342E-02         0.00000E+00
    0.70518E-02        -0.71995E-02         0.00000E+00
    0.66737E-02        -0.67658E-02         0.00000E+00
    0.62910E-02        -0.63332E-02         0.00000E+00
    0.59036E-02        -0.59018E-02         0.00000E+00
    0.55115E-02        -0.54715E-02         0.00000E+00
    0.51148E-02        -0.50424E-02         0.00000E+00
    0.47134E-02        -0.46146E-02         0.00000E+00
    0.43075E-02        -0.41880E-02         0.00000E+00
    0.38970E-02        -0.37627E-02         0.00000E+00
    0.34819E-02        -0.33388E-02         0.00000E+00
    0.30623E-02        -0.29163E-02         0.00000E+00
    0.26382E-02        -0.24951E-02         0.00000E+00
    0.22096E-02        -0.20755E-02         0.00000E+00
    0.17765E-02        -0.16573E-02         0.00000E+00
    0.13390E-02        -0.12406E-02         0.00000E+00
    0.89704E-03        -0.82545E-03         0.00000E+00
    0.45071E-03        -0.41191E-03         0.00000E+00
    0.00000E+00         0.00000E+00         0.00000E+00
    0.17386E-01        -0.22972E-01         0.00000E+00
    0.17166E-01        -0.22499E-01         0.00000E+00
    0.16941E-01        -0.22026E-01         0.00000E+00
    0.16711E-01        -0.21553E-01         0.00000E+00
    0.16475E-01        -0.21080E-01         0.00000E+00
    0.16233E-01        -0.20608E-01         0.00000E+00
    0.15986E-01        -0.20135E-01         0.00000E+00
    0.15734E-01        -0.19663E-01         0.00000E+00
    0.15475E-01        -0.19191E-01         0.00000E+00
    0.15212E-01        -0.18719E-01         0.00000E+00
    0.14943E-01        -0.18247E-01         0.00000E+00
    0.14669E-01        -0.17776E-01         0.00000E+00
    0.14389E-01        -0.17305E-01         0.00000E+00
    0.14104E-01        -0.16834E-01         0.00000E+00
    0.13813E-01        -0.16364E-01         0.00000E+00
    0.13517E-01        -0.15895E-01         0.00000E+00
    0.13216E-01        -0.15426E-01         0.00000E+00
    0.12910E-01        -0.14957E-01         0.00000E+00
    0.12599E-01        -0.14489E-01         0.00000E+00
    0.12282E-01        -0.14021E-01         0.00000E+00
    0.11960E-01        -0.13554E-01         0.00000E+00
    0.11633E-01        -0.13088E-01         0.00000E+00
    0.11301E-01        -0.12622E-01         0.00000E+00
    0.10964E-01        -0.12158E-01         0.00000E+00
    0.10621E-01        -0.11693E-01         0.00000E+00
    0.10274E-01        -0.11230E-01         0.00000E+00
    0.99211E-02        -0.10768E-01         0.00000E+00
    0.95635E-02        -0.10306E-01         0.00000E+00
    0.92010E-02        -0.98450E-02         0.00000E+00
    0.88334E-02        -0.93852E-02         0.00000E+00
    0.84609E-02        -0.89262E-02         0.00000E+00
    0.80834E-02        -0.84682E-02         0.00000E+00
    0.77010E-02        -0.80113E-02         0.00000E+00
    0.73137E-02        -0.75554E-02         0.00000E+00
    0.69215E-02        -0.71006E-02         0.00000E+00
    0.65245E-02        -0.66469E-02         0.00000E+00
    0.61226E-02        -0.61944E-02         0.00000E+00
    0.57159E-02        -0.57430E-02         0.00000E+00
    0.53045E-02        -0.52929E-02         0.00000E+00
    0.48882E-02        -0.48440E-02         0.00000E+00
    0.44672E-02        -0.43965E-02         0.00000E+00
    0.40414E-02        -0.39502E-02         0.00000E+00
    0.36109E-02        -0.35054E-02         0.00000E+00
    0.31758E-02        -0.30619E-02         0.00000E+00
    0.27360E-02        -0.26199E-02         0.00000E+00
    0.22915E-02        -0.21793E-02         0.00000E+00
    0.18423E-02        -0.17403E-02         0.00000E+00
    0.13886E-02        -0.13028E-02         0.00000E+00
    0.93031E-03        -0.86690E-03         0.00000E+00
    0.46743E-03        -0.43262E-03         0.00000E+00
    0.00000E+00         0.00000E+00         0.00000E+00
    0.18047E-01        -0.24078E-01         0.00000E+00
    0.17819E-01        -0.23583E-01         0.00000E+00
    0.17584E-01        -0.23088E-01         0.00000E+00
    0.17343E-01        -0.22592E-01         0.00000E+00
    0.17097E-01        -0.22097E-01         0.00000E+00
    0.16845E-01        -0.21602E-01         0.00000E+00
    0.16588E-01        -0.21107E-01         0.00000E+00
    0.16325E-01        -0.20613E-01         0.00000E+00
    0.16056E-01        -0.20118E-01         0.00000E+00
    0.15782E-01        -0.19624E-01         0.00000E+00
    0.15502E-01        -0.19130E-01         0.00000E+00
    0.15216E-01        -0.18637E-01         0.00000E+00
    0.14925E-01        -0.18143E-01         0.00000E+00
    0.14629E-01        -0.17651E-01         0.00000E+00
    0.14327E-01        -0.17158E-01         0.00000E+00
    0.14020E-01        -0.16666E-01         0.00000E+00
    0.13707E-01        -0.16175E-01         0.00000E+00
    0.13389E-01        -0.15684E-01         0.00000E+00
    0.13065E-01        -0.15194E-01         0.00000E+00
    0.12736E-01        -0.14704E-01         0.00000E+00
    0.12402E-01        -0.14215E-01         0.00000E+00
    0.12062E-01        -0.13726E-01         0.00000E+00
    0.11717E-01        -0.13238E-01         0.00000E+00
    0.11367E-01        -0.12751E-01         0.00000E+00
    0.11012E-01        -0.12265E-01         0.00000E+00
    0.10651E-01        -0.11780E-01         0.00000E+00
    0.10286E-01        -0.11295E-01         0.00000E+00
    0.99146E-02        -0.10811E-01         0.00000E+00
    0.95385E-02        -0.10328E-01         0.00000E+00
    0.91572E-02        -0.98459E-02         0.00000E+00
    0.87709E-02        -0.93649E-02         0.00000E+00
    0.83794E-02        -0.88848E-02         0.00000E+00
    0.79829E-02        -0.84057E-02         0.00000E+00
    0.75813E-02        -0.79277E-02         0.00000E+00
    0.71747E-02        -0.74509E-02         0.00000E+00
    0.67630E-02        -0.69751E-02         0.00000E+00
    0.63464E-02        -0.65005E-02         0.00000E+00
    0.59248E-02        -0.60272E-02         0.00000E+00
    0.54982E-02        -0.55550E-02         0.00000E+00
    0.50667E-02        -0.50842E-02         0.00000E+00
    0.46303E-02        -0.46147E-02         0.00000E+00
    0.41889E-02        -0.41465E-02         0.00000E+00
    0.37428E-02        -0.36797E-02         0.00000E+00
    0.32917E-02        -0.32144E-02         0.00000E+00
    0.28358E-02        -0.27505E-02         0.00000E+00
    0.23751E-02        -0.22881E-02         0.00000E+00
    0.19096E-02        -0.18272E-02         0.00000E+00
    0.14393E-02        -0.13680E-02         0.00000E+00
    0.96428E-03        -0.91030E-03         0.00000E+00
    0.48450E-03        -0.45430E-03         0.00000E+00
    0.00000E+00         0.00000E+00         0.00000E+00
    0.18725E-01        -0.25233E-01         0.00000E+00
    0.18486E-01        -0.24714E-01         0.00000E+00
    0.18241E-01        -0.24196E-01         0.00000E+00
    0.17990E-01        -0.23677E-01         0.00000E+00
    0.17734E-01        -0.23159E-01         0.00000E+00
    0.17472E-01        -0.22641E-01         0.00000E+00
    0.17203E-01        -0.22123E-01         0.00000E+00
    0.16929E-01        -0.21605E-01         0.00000E+00
    0.16650E-01        -0.21087E-01         0.00000E+00
    0.16364E-01        -0.20570E-01         0.00000E+00
    0.16073E-01        -0.20052E-01         0.00000E+00
    0.15776E-01        -0.19536E-01         0.00000E+00
    0.15474E-01        -0.19019E-01         0.00000E+00
    0.15166E-01        -0.18503E-01         0.00000E+00
    0.14852E-01        -0.17988E-01         0.00000E+00
    0.14532E-01        -0.17473E-01         0.00000E+00
    0.14208E-01        -0.16958E-01         0.00000E+00
    0.13877E-01        -0.16444E-01         0.00000E+00
    0.13541E-01        -0.15930E-01         0.00000E+00
    0.13200E-01        -0.15417E-01         0.00000E+00
    0.12853E-01        -0.14905E-01         0.00000E+00
    0.12500E-01        -0.14393E-01         0.00000E+00
    0.12143E-01        -0.13882E-01         0.00000E+00
    0.11779E-01        -0.13372E-01         0.00000E+00
    0.11411E-01        -0.12863E-01         0.00000E+00
    0.11037E-01        -0.12354E-01         0.00000E+00
    0.10657E-01        -0.11846E-01         0.00000E+00
    0.10273E-01        -0.11339E-01         0.00000E+00
    0.98828E-02        -0.10833E-01         0.00000E+00
    0.94876E-02        -0.10328E-01         0.00000E+00
    0.90870E-02        -0.98235E-02         0.00000E+00
    0.86813E-02        -0.93203E-02         0.00000E+00
    0.82703E-02        -0.88182E-02         0.00000E+00
    0.78541E-02        -0.83171E-02         0.00000E+00
    0.74327E-02        -0.78172E-02         0.00000E+00
    0.70062E-02        -0.73184E-02         0.00000E+00
    0.65745E-02        -0.68208E-02         0.00000E+00
    0.61376E-02        -0.63244E-02         0.00000E+00
    0.56957E-02        -0.58293E-02         0.00000E+00
    0.52487E-02        -0.53355E-02         0.00000E+00
    0.47965E-02        -0.48430E-02         0.00000E+00
    0.43393E-02        -0.43519E-02         0.00000E+00
    0.38771E-02        -0.38622E-02         0.00000E+00
    0.34099E-02        -0.33739E-02         0.00000E+00
    0.29376E-02        -0.28871E-02         0.00000E+00
    0.24604E-02        -0.24019E-02         0.00000E+00
    0.19782E-02        -0.19182E-02         0.00000E+00
    0.14910E-02        -0.14362E-02         0.00000E+00
    0.99891E-03        -0.95575E-03         0.00000E+00
    0.50190E-03        -0.47701E-03         0.00000E+00
    0.00000E+00         0.00000E+00         0.00000E+00
    0.19417E-01        -0.26438E-01         0.00000E+00
    0.19168E-01        -0.25895E-01         0.00000E+00
    0.18913E-01        -0.25352E-01         0.00000E+00
    0.18651E-01        -0.24810E-01         0.00000E+00
    0.18384E-01        -0.24267E-01         0.00000E+00
    0.18111E-01        -0.23725E-01         0.00000E+00
    0.17832E-01        -0.23182E-01         0.00000E+00
    0.17547E-01        -0.22640E-01         0.00000E+00
    0.17255E-01        -0.22098E-01         0.00000E+00
    0.16959E-01        -0.21557E-01         0.00000E+00
    0.16656E-01        -0.21015E-01         0.00000E+00
    0.16347E-01        -0.20474E-01         0.00000E+00
    0.16033E-01        -0.19934E-01         0.00000E+00
    0.15713E-01        -0.19394E-01         0.00000E+00
    0.15387E-01        -0.18854E-01         0.00000E+00
    0.15055E-01        -0.18314E-01         0.00000E+00
    0.14718E-01        -0.17776E-01         0.00000E+00
    0.14375E-01        -0.17237E-01         0.00000E+00
    0.14026E-01        -0.16700E-01         0.00000E+00
    0.13672E-01        -0.16162E-01         0.00000E+00
    0.13312E-01        -0.15626E-01         0.00000E+00
    0.12947E-01        -0.15090E-01         0.00000E+00
    0.12576E-01        -0.14555E-01         0.00000E+00
    0.12199E-01        -0.14020E-01         0.00000E+00
    0.11817E-01        -0.13487E-01         0.00000E+00
    0.11429E-01        -0.12954E-01         0.00000E+00
    0.11036E-01        -0.12422E-01         0.00000E+00
    0.10637E-01        -0.11891E-01         0.00000E+00
    0.10233E-01        -0.11360E-01         0.00000E+00
    0.98239E-02        -0.10831E-01         0.00000E+00
    0.94089E-02        -0.10303E-01         0.00000E+00
    0.89886E-02        -0.97756E-02         0.00000E+00
    0.85629E-02        -0.92494E-02         0.00000E+00
    0.81318E-02        -0.87242E-02         0.00000E+00
    0.76954E-02        -0.82002E-02         0.00000E+00
    0.72537E-02        -0.76773E-02         0.00000E+00
    0.68066E-02        -0.71557E-02         0.00000E+00
    0.63543E-02        -0.66352E-02         0.00000E+00
    0.58967E-02        -0.61161E-02         0.00000E+00
    0.54338E-02        -0.55983E-02         0.00000E+00
    0.49657E-02        -0.50818E-02         0.00000E+00
    0.44924E-02        -0.45667E-02         0.00000E+00
    0.40138E-02        -0.40530E-02         0.00000E+00
    0.35301E-02        -0.35408E-02         0.00000E+00
    0.30412E-02        -0.30302E-02         0.00000E+00
    0.25471E-02        -0.25210E-02         0.00000E+00
    0.20479E-02        -0.20135E-02         0.00000E+00
    0.15436E-02        -0.15076E-02         0.00000E+00
    0.10341E-02        -0.10033E-02         0.00000E+00
    0.51961E-03        -0.50078E-03         0.00000E+00
    0.00000E+00         0.00000E+00         0.00000E+00
    0.20124E-01        -0.27695E-01         0.00000E+00
    0.19864E-01        -0.27127E-01         0.00000E+00
    0.19598E-01        -0.26559E-01         0.00000E+00
    0.19326E-01        -0.25991E-01         0.00000E+00
    0.19047E-01        -0.25423E-01         0.00000E+00
    0.18763E-01        -0.24856E-01         0.00000E+00
    0.18472E-01        -0.24288E-01         0.00000E+00
    0.18175E-01        -0.23721E-01         0.00000E+00
    0.17873E-01        -0.23154E-01         0.00000E+00
    0.17564E-01        -0.22587E-01         0.00000E+00
    0.17250E-01        -0.22020E-01         0.00000E+00
    0.16929E-01        -0.21454E-01         0.00000E+00
    0.16602E-01        -0.20888E-01         0.00000E+00
    0.16270E-01        -0.20323E-01         0.00000E+00
    0.15932E-01        -0.19758E-01         0.00000E+00
    0.15588E-01        -0.19193E-01         0.00000E+00
    0.15238E-01        -0.18629E-01         0.00000E+00
    0.14882E-01        -0.18066E-01         0.00000E+00
    0.14520E-01        -0.17503E-01         0.00000E+00
    0.14153E-01        -0.16940E-01         0.00000E+00
    0.13780E-01        -0.16379E-01         0.00000E+00
    0.13401E-01        -0.15818E-01         0.00000E+00
    0.13016E-01        -0.15257E-01         0.00000E+00
    0.12626E-01        -0.14698E-01         0.00000E+00
    0.12230E-01        -0.14139E-01         0.00000E+00
    0.11828E-01        -0.13581E-01         0.00000E+00
    0.11421E-01        -0.13023E-01         0.00000E+00
    0.11008E-01        -0.12467E-01         0.00000E+00
    0.10590E-01        -0.11912E-01         0.00000E+00
    0.10166E-01        -0.11357E-01         0.00000E+00
    0.97360E-02        -0.10804E-01         0.00000E+00
    0.93008E-02        -0.10251E-01         0.00000E+00
    0.88601E-02        -0.96999E-02         0.00000E+00
    0.84139E-02        -0.91497E-02         0.00000E+00
    0.79622E-02        -0.86005E-02         0.00000E+00
    0.75051E-02        -0.80525E-02         0.00000E+00
    0.70424E-02        -0.75057E-02         0.00000E+00
    0.65743E-02        -0.69602E-02         0.00000E+00
    0.61008E-02        -0.64160E-02         0.00000E+00
    0.56219E-02        -0.58731E-02         0.00000E+00
    0.51375E-02        -0.53315E-02         0.00000E+00
    0.46478E-02        -0.47914E-02         0.00000E+00
    0.41527E-02        -0.42527E-02         0.00000E+00
    0.36522E-02        -0.37155E-02         0.00000E+00
    0.31464E-02        -0.31798E-02         0.00000E+00
    0.26352E-02        -0.26457E-02         0.00000E+00
    0.21187E-02        -0.21131E-02         0.00000E+00
    0.15970E-02        -0.15823E-02         0.00000E+00
    0.10699E-02        -0.10531E-02         0.00000E+00
    0.53759E-03        -0.52566E-03         0.00000E+00
    0.00000E+00         0.00000E+00         0.00000E+00
    0.20844E-01        -0.29006E-01         0.00000E+00
    0.20573E-01        -0.28412E-01         0.00000E+00
    0.20295E-01        -0.27818E-01         0.00000E+00
    0.20012E-01        -0.27224E-01         0.00000E+00
    0.19722E-01        -0.26630E-01         0.00000E+00
    0.19426E-01        -0.26036E-01         0.00000E+00
    0.19124E-01        -0.25442E-01         0.00000E+00
    0.18815E-01        -0.24848E-01         0.00000E+00
    0.18501E-01        -0.24255E-01         0.00000E+00
    0.18180E-01        -0.23662E-01         0.00000E+00
    0.17853E-01        -0.23069E-01         0.00000E+00
    0.17520E-01        -0.22476E-01         0.00000E+00
    0.17181E-01        -0.21884E-01         0.00000E+00
    0.16836E-01        -0.21293E-01         0.00000E+00
    0.16485E-01        -0.20701E-01         0.00000E+00
    0.16128E-01        -0.20110E-01         0.00000E+00
    0.15765E-01        -0.19520E-01         0.00000E+00
    0.15396E-01        -0.18930E-01         0.00000E+00
    0.15021E-01        -0.18341E-01         0.00000E+00
    0.14641E-01        -0.17752E-01         0.00000E+00
    0.14254E-01        -0.17164E-01         0.00000E+00
    0.13861E-01        -0.16577E-01         0.00000E+00
    0.13463E-01        -0.15990E-01         0.00000E+00
    0.13059E-01        -0.15405E-01         0.00000E+00
    0.12649E-01        -0.14819E-01         0.00000E+00
    0.12233E-01        -0.14235E-01         0.00000E+00
    0.11811E-01        -0.13652E-01         0.00000E+00
    0.11384E-01        -0.13069E-01         0.00000E+00
    0.10951E-01        -0.12487E-01         0.00000E+00
    0.10512E-01        -0.11907E-01         0.00000E+00
    0.10068E-01        -0.11327E-01         0.00000E+00
    0.96173E-02        -0.10748E-01         0.00000E+00
    0.91614E-02        -0.10171E-01         0.00000E+00
    0.86999E-02        -0.95941E-02         0.00000E+00
    0.82326E-02        -0.90188E-02         0.00000E+00
    0.77598E-02        -0.84446E-02         0.00000E+00
    0.72813E-02        -0.78716E-02         0.00000E+00
    0.67973E-02        -0.72998E-02         0.00000E+00
    0.63076E-02        -0.67294E-02         0.00000E+00
    0.58124E-02        -0.61603E-02         0.00000E+00
    0.53116E-02        -0.55926E-02         0.00000E+00
    0.48052E-02        -0.50263E-02         0.00000E+00
    0.42933E-02        -0.44614E-02         0.00000E+00
    0.37759E-02        -0.38981E-02         0.00000E+00
    0.32529E-02        -0.33362E-02         0.00000E+00
    0.27244E-02        -0.27760E-02         0.00000E+00
    0.21905E-02        -0.22174E-02         0.00000E+00
    0.16511E-02        -0.16604E-02         0.00000E+00
    0.11062E-02        -0.11052E-02         0.00000E+00
    0.55581E-03        -0.55169E-03         0.00000E+00
    0.00000E+00         0.00000E+00         0.00000E+00
    0.21576E-01        -0.30373E-01         0.00000E+00
    0.21293E-01        -0.29752E-01         0.00000E+00
    0.21005E-01        -0.29130E-01         0.00000E+00
    0.20710E-01        -0.28509E-01         0.00000E+00
    0.20408E-01        -0.27887E-01         0.00000E+00
    0.20100E-01        -0.27266E-01         0.00000E+00
    0.19786E-01        -0.26645E-01         0.00000E+00
    0.19465E-01        -0.26024E-01         0.00000E+00
    0.19138E-01        -0.25403E-01         0.00000E+00
    0.18805E-01        -0.24783E-01         0.00000E+00
    0.18466E-01        -0.24162E-01         0.00000E+00
    0.18120E-01        -0.23543E-01         0.00000E+00
    0.17769E-01        -0.22923E-01         0.00000E+00
    0.17411E-01        -0.22304E-01         0.00000E+00
    0.17047E-01        -0.21685E-01         0.00000E+00
    0.16676E-01        -0.21067E-01         0.00000E+00
    0.16300E-01        -0.20449E-01         0.00000E+00
    0.15918E-01        -0.19832E-01         0.00000E+00
    0.15529E-01        -0.19216E-01         0.00000E+00
    0.15135E-01        -0.18600E-01         0.00000E+00
    0.14735E-01        -0.17984E-01         0.00000E+00
    0.14328E-01        -0.17370E-01         0.00000E+00
    0.13916E-01        -0.16756E-01         0.00000E+00
    0.13497E-01        -0.16142E-01         0.00000E+00
    0.13073E-01        -0.15530E-01         0.00000E+00
    0.12643E-01        -0.14918E-01         0.00000E+00
    0.12206E-01        -0.14307E-01         0.00000E+00
    0.11764E-01        -0.13697E-01         0.00000E+00
    0.11316E-01        -0.13088E-01         0.00000E+00
    0.10863E-01        -0.12480E-01         0.00000E+00
    0.10403E-01        -0.11873E-01         0.00000E+00
    0.99374E-02        -0.11267E-01         0.00000E+00
    0.94661E-02        -0.10662E-01         0.00000E+00
    0.89890E-02        -0.10058E-01         0.00000E+00
    0.85060E-02        -0.94556E-02         0.00000E+00
    0.80173E-02        -0.88541E-02         0.00000E+00
    0.75228E-02        -0.82537E-02         0.00000E+00
    0.70226E-02        -0.76547E-02         0.00000E+00
    0.65166E-02        -0.70569E-02         0.00000E+00
    0.60049E-02        -0.64605E-02         0.00000E+00
    0.54874E-02        -0.58654E-02         0.00000E+00
    0.49643E-02        -0.52718E-02         0.00000E+00
    0.44354E-02        -0.46796E-02         0.00000E+00
    0.39008E-02        -0.40889E-02         0.00000E+00
    0.33605E-02        -0.34998E-02         0.00000E+00
    0.28146E-02        -0.29123E-02         0.00000E+00
    0.22630E-02        -0.23264E-02         0.00000E+00
    0.17057E-02        -0.17422E-02         0.00000E+00
    0.11428E-02        -0.11597E-02         0.00000E+00
    0.57421E-03        -0.57892E-03         0.00000E+00
    0.00000E+00         0.00000E+00         0.00000E+00
    0.22319E-01        -0.31798E-01         0.00000E+00
    0.22025E-01        -0.31148E-01         0.00000E+00
    0.21724E-01        -0.30498E-01         0.00000E+00
    0.21417E-01        -0.29848E-01         0.00000E+00
    0.21104E-01        -0.29198E-01         0.00000E+00
    0.20783E-01        -0.28548E-01         0.00000E+00
    0.20457E-01        -0.27898E-01         0.00000E+00
    0.20124E-01        -0.27249E-01         0.00000E+00
    0.19784E-01        -0.26600E-01         0.00000E+00
    0.19439E-01        -0.25951E-01         0.00000E+00
    0.19086E-01        -0.25302E-01         0.00000E+00
    0.18728E-01        -0.24654E-01         0.00000E+00
    0.18363E-01        -0.24006E-01         0.00000E+00
    0.17992E-01        -0.23358E-01         0.00000E+00
    0.17615E-01        -0.22711E-01         0.00000E+00
    0.17231E-01        -0.22065E-01         0.00000E+00
    0.16841E-01        -0.21418E-01         0.00000E+00
    0.16445E-01        -0.20773E-01         0.00000E+00
    0.16043E-01        -0.20128E-01         0.00000E+00
    0.15635E-01        -0.19483E-01         0.00000E+00
    0.15220E-01        -0.18839E-01         0.00000E+00
    0.14800E-01        -0.18196E-01         0.00000E+00
    0.14373E-01        -0.17554E-01         0.00000E+00
    0.13940E-01        -0.16912E-01         0.00000E+00
    0.13501E-01        -0.16271E-01         0.00000E+00
    0.13056E-01        -0.15631E-01         0.00000E+00
    0.12605E-01        -0.14992E-01         0.00000E+00
    0.12148E-01        -0.14353E-01         0.00000E+00
    0.11685E-01        -0.13716E-01         0.00000E+00
    0.11216E-01        -0.13079E-01         0.00000E+00
    0.10741E-01        -0.12443E-01         0.00000E+00
    0.10260E-01        -0.11809E-01         0.00000E+00
    0.97734E-02        -0.11175E-01         0.00000E+00
    0.92805E-02        -0.10543E-01         0.00000E+00
    0.87817E-02        -0.99118E-02         0.00000E+00
    0.82769E-02        -0.92817E-02         0.00000E+00
    0.77663E-02        -0.86529E-02         0.00000E+00
    0.72497E-02        -0.80253E-02         0.00000E+00
    0.67273E-02        -0.73990E-02         0.00000E+00
    0.61989E-02        -0.67740E-02         0.00000E+00
    0.56647E-02        -0.61504E-02         0.00000E+00
    0.51245E-02        -0.55283E-02         0.00000E+00
    0.45785E-02        -0.49076E-02         0.00000E+00
    0.40267E-02        -0.42884E-02         0.00000E+00
    0.34690E-02        -0.36708E-02         0.00000E+00
    0.29054E-02        -0.30547E-02         0.00000E+00
    0.23360E-02        -0.24403E-02         0.00000E+00
    0.17608E-02        -0.18276E-02         0.00000E+00
    0.11797E-02        -0.12166E-02         0.00000E+00
    0.59275E-03        -0.60740E-03         0.00000E+00
    0.00000E+00         0.00000E+00         0.00000E+00
    0.23072E-01        -0.33282E-01         0.00000E+00
    0.22766E-01        -0.32602E-01         0.00000E+00
    0.22453E-01        -0.31922E-01         0.00000E+00
    0.22134E-01        -0.31243E-01         0.00000E+00
    0.21808E-01        -0.30563E-01         0.00000E+00
    0.21475E-01        -0.29884E-01         0.00000E+00
    0.21136E-01        -0.29205E-01         0.00000E+00
    0.20790E-01        -0.28526E-01         0.00000E+00
    0.20437E-01        -0.27847E-01         0.00000E+00
    0.20079E-01        -0.27168E-01         0.00000E+00
    0.19713E-01        -0.26490E-01         0.00000E+00
    0.19342E-01        -0.25812E-01         0.00000E+00
    0.18963E-01        -0.25135E-01         0.00000E+00
    0.18579E-01        -0.24457E-01         0.00000E+00
    0.18188E-01        -0.23781E-01         0.00000E+00
    0.17791E-01        -0.23104E-01         0.00000E+00
    0.17387E-01        -0.22429E-01         0.00000E+00
    0.16977E-01        -0.21753E-01         0.00000E+00
    0.16561E-01        -0.21079E-01         0.00000E+00
    0.16138E-01        -0.20405E-01         0.00000E+00
    0.15710E-01        -0.19731E-01         0.00000E+00
    0.15275E-01        -0.19058E-01         0.00000E+00
    0.14833E-01        -0.18386E-01         0.00000E+00
    0.14386E-01        -0.17715E-01         0.00000E+00
    0.13932E-01        -0.17044E-01         0.00000E+00
    0.13473E-01        -0.16374E-01         0.00000E+00
    0.13007E-01        -0.15705E-01         0.00000E+00
    0.12535E-01        -0.15037E-01         0.00000E+00
    0.12056E-01        -0.14370E-01         0.00000E+00
    0.11572E-01        -0.13704E-01         0.00000E+00
    0.11082E-01        -0.13038E-01         0.00000E+00
    0.10585E-01        -0.12374E-01         0.00000E+00
    0.10082E-01        -0.11711E-01         0.00000E+00
    0.95736E-02        -0.11049E-01         0.00000E+00
    0.90587E-02        -0.10388E-01         0.00000E+00
    0.85379E-02        -0.97281E-02         0.00000E+00
    0.80109E-02        -0.90696E-02         0.00000E+00
    0.74779E-02        -0.84122E-02         0.00000E+00
    0.69389E-02        -0.77562E-02         0.00000E+00
    0.63938E-02        -0.71015E-02         0.00000E+00
    0.58427E-02        -0.64481E-02         0.00000E+00
    0.52855E-02        -0.57962E-02         0.00000E+00
    0.47223E-02        -0.51458E-02         0.00000E+00
    0.41531E-02        -0.44968E-02         0.00000E+00
    0.35779E-02        -0.38494E-02         0.00000E+00
    0.29966E-02        -0.32036E-02         0.00000E+00
    0.24093E-02        -0.25594E-02         0.00000E+00
    0.18160E-02        -0.19169E-02         0.00000E+00
    0.12167E-02        -0.12762E-02         0.00000E+00
    0.61135E-03        -0.63717E-03         0.00000E+00
    0.00000E+00         0.00000E+00         0.00000E+00
    0.23834E-01        -0.34827E-01         0.00000E+00
    0.23515E-01        -0.34116E-01         0.00000E+00
    0.23190E-01        -0.33406E-01         0.00000E+00
    0.22858E-01        -0.32695E-01         0.00000E+00
    0.22519E-01        -0.31985E-01         0.00000E+00
    0.22173E-01        -0.31275E-01         0.00000E+00
    0.21821E-01        -0.30565E-01         0.00000E+00
    0.21462E-01        -0.29855E-01         0.00000E+00
    0.21096E-01        -0.29146E-01         0.00000E+00
    0.20724E-01        -0.28436E-01         0.00000E+00
    0.20345E-01        -0.27727E-01         0.00000E+00
    0.19960E-01        -0.27019E-01         0.00000E+00
    0.19568E-01        -0.26310E-01         0.00000E+00
    0.19170E-01        -0.25602E-01         0.00000E+00
    0.18765E-01        -0.24895E-01         0.00000E+00
    0.18354E-01        -0.24188E-01         0.00000E+00
    0.17936E-01        -0.23481E-01         0.00000E+00
    0.17512E-01        -0.22775E-01         0.00000E+00
    0.17082E-01        -0.22070E-01         0.00000E+00
    0.16645E-01        -0.21365E-01         0.00000E+00
    0.16202E-01        -0.20660E-01         0.00000E+00
    0.15752E-01        -0.19957E-01         0.00000E+00
    0.15296E-01        -0.19254E-01         0.00000E+00
    0.14834E-01        -0.18551E-01         0.00000E+00
    0.14365E-01        -0.17850E-01         0.00000E+00
    0.13891E-01        -0.17149E-01         0.00000E+00
    0.13409E-01        -0.16449E-01         0.00000E+00
    0.12922E-01        -0.15750E-01         0.00000E+00
    0.12429E-01        -0.15052E-01         0.00000E+00
    0.11929E-01        -0.14355E-01         0.00000E+00
    0.11423E-01        -0.13659E-01         0.00000E+00
    0.10910E-01        -0.12964E-01         0.00000E+00
    0.10392E-01        -0.12270E-01         0.00000E+00
    0.98672E-02        -0.11577E-01         0.00000E+00
    0.93362E-02        -0.10885E-01         0.00000E+00
    0.87991E-02        -0.10194E-01         0.00000E+00
    0.82558E-02        -0.95045E-02         0.00000E+00
    0.77064E-02        -0.88161E-02         0.00000E+00
    0.71507E-02        -0.81291E-02         0.00000E+00
    0.65888E-02        -0.74434E-02         0.00000E+00
    0.60208E-02        -0.67590E-02         0.00000E+00
    0.54466E-02        -0.60760E-02         0.00000E+00
    0.48661E-02        -0.53945E-02         0.00000E+00
    0.42795E-02        -0.47145E-02         0.00000E+00
    0.36868E-02        -0.40360E-02         0.00000E+00
    0.30878E-02        -0.33591E-02         0.00000E+00
    0.24826E-02        -0.26839E-02         0.00000E+00
    0.18713E-02        -0.20103E-02         0.00000E+00
    0.12537E-02        -0.13384E-02         0.00000E+00
    0.62996E-03        -0.66829E-03         0.00000E+00
    0.00000E+00         0.00000E+00         0.00000E+00
    0.24602E-01        -0.36434E-01         0.00000E+00
    0.24271E-01        -0.35692E-01         0.00000E+00
    0.23932E-01        -0.34949E-01         0.00000E+00
    0.23587E-01        -0.34207E-01         0.00000E+00
    0.23235E-01        -0.33465E-01         0.00000E+00
    0.22876E-01        -0.32723E-01         0.00000E+00
    0.22511E-01        -0.31981E-01         0.00000E+00
    0.22138E-01        -0.31239E-01         0.00000E+00
    0.21759E-01        -0.30498E-01         0.00000E+00
    0.21373E-01        -0.29756E-01         0.00000E+00
    0.20981E-01        -0.29015E-01         0.00000E+00
    0.20582E-01        -0.28275E-01         0.00000E+00
    0.20176E-01        -0.27534E-01         0.00000E+00
    0.19764E-01        -0.26794E-01         0.00000E+00
    0.19345E-01        -0.26055E-01         0.00000E+00
    0.18919E-01        -0.25316E-01         0.00000E+00
    0.18487E-01        -0.24577E-01         0.00000E+00
    0.18049E-01        -0.23839E-01         0.00000E+00
    0.17604E-01        -0.23102E-01         0.00000E+00
    0.17152E-01        -0.22365E-01         0.00000E+00
    0.16694E-01        -0.21628E-01         0.00000E+00
    0.16230E-01        -0.20893E-01         0.00000E+00
    0.15759E-01        -0.20158E-01         0.00000E+00
    0.15282E-01        -0.19424E-01         0.00000E+00
    0.14799E-01        -0.18690E-01         0.00000E+00
    0.14309E-01        -0.17957E-01         0.00000E+00
    0.13812E-01        -0.17225E-01         0.00000E+00
    0.13309E-01        -0.16494E-01         0.00000E+00
    0.12800E-01        -0.15764E-01         0.00000E+00
    0.12285E-01        -0.15035E-01         0.00000E+00
    0.11763E-01        -0.14306E-01         0.00000E+00
    0.11235E-01        -0.13579E-01         0.00000E+00
    0.10701E-01        -0.12853E-01         0.00000E+00
    0.10160E-01        -0.12127E-01         0.00000E+00
    0.96131E-02        -0.11403E-01         0.00000E+00
    0.90597E-02        -0.10680E-01         0.00000E+00
    0.85001E-02        -0.99583E-02         0.00000E+00
    0.79341E-02        -0.92377E-02         0.00000E+00
    0.73618E-02        -0.85183E-02         0.00000E+00
    0.67832E-02        -0.78002E-02         0.00000E+00
    0.61983E-02        -0.70835E-02         0.00000E+00
    0.56070E-02        -0.63682E-02         0.00000E+00
    0.50094E-02        -0.56543E-02         0.00000E+00
    0.44055E-02        -0.49419E-02         0.00000E+00
    0.37952E-02        -0.42310E-02         0.00000E+00
    0.31786E-02        -0.35216E-02         0.00000E+00
    0.25556E-02        -0.28139E-02         0.00000E+00
    0.19263E-02        -0.21078E-02         0.00000E+00
    0.12906E-02        -0.14034E-02         0.00000E+00
    0.64849E-03        -0.70082E-03         0.00000E+00
    0.00000E+00         0.00000E+00         0.00000E+00
    0.25376E-01        -0.38107E-01         0.00000E+00
    0.25031E-01        -0.37331E-01         0.00000E+00
    0.24679E-01        -0.36556E-01         0.00000E+00
    0.24321E-01        -0.35780E-01         0.00000E+00
    0.23955E-01        -0.35005E-01         0.00000E+00
    0.23583E-01        -0.34230E-01         0.00000E+00
    0.23203E-01        -0.33454E-01         0.00000E+00
    0.22817E-01        -0.32679E-01         0.00000E+00
    0.22424E-01        -0.31905E-01         0.00000E+00
    0.22025E-01        -0.31130E-01         0.00000E+00
    0.21618E-01        -0.30356E-01         0.00000E+00
    0.21205E-01        -0.29582E-01         0.00000E+00
    0.20785E-01        -0.28809E-01         0.00000E+00
    0.20358E-01        -0.28036E-01         0.00000E+00
    0.19925E-01        -0.27263E-01         0.00000E+00
    0.19485E-01        -0.26491E-01         0.00000E+00
    0.19038E-01        -0.25719E-01         0.00000E+00
    0.18585E-01        -0.24948E-01         0.00000E+00
    0.18126E-01        -0.24177E-01         0.00000E+00
    0.17659E-01        -0.23407E-01         0.00000E+00
    0.17186E-01        -0.22637E-01         0.00000E+00
    0.16707E-01        -0.21868E-01         0.00000E+00
    0.16221E-01        -0.21100E-01         0.00000E+00
    0.15729E-01        -0.20332E-01         0.00000E+00
    0.15230E-01        -0.19565E-01         0.00000E+00
    0.14725E-01        -0.18799E-01         0.00000E+00
    0.14213E-01        -0.18034E-01         0.00000E+00
    0.13695E-01        -0.17269E-01         0.00000E+00
    0.13170E-01        -0.16506E-01         0.00000E+00
    0.12639E-01        -0.15743E-01         0.00000E+00
    0.12102E-01        -0.14981E-01         0.00000E+00
    0.11558E-01        -0.14220E-01         0.00000E+00
    0.11008E-01        -0.13460E-01         0.00000E+00
    0.10451E-01        -0.12702E-01         0.00000E+00
    0.98880E-02        -0.11944E-01         0.00000E+00
    0.93184E-02        -0.11187E-01         0.00000E+00
    0.87425E-02        -0.10432E-01         0.00000E+00
    0.81601E-02        -0.96775E-02         0.00000E+00
    0.75712E-02        -0.89245E-02         0.00000E+00
    0.69759E-02        -0.81727E-02         0.00000E+00
    0.63742E-02        -0.74223E-02         0.00000E+00
    0.57660E-02        -0.66732E-02         0.00000E+00
    0.51514E-02        -0.59256E-02         0.00000E+00
    0.45303E-02        -0.51793E-02         0.00000E+00
    0.39026E-02        -0.44346E-02         0.00000E+00
    0.32685E-02        -0.36914E-02         0.00000E+00
    0.26279E-02        -0.29497E-02         0.00000E+00
    0.19808E-02        -0.22097E-02         0.00000E+00
    0.13271E-02        -0.14714E-02         0.00000E+00
    0.66683E-03        -0.73482E-03         0.00000E+00
    0.00000E+00         0.00000E+00         0.00000E+00
    0.26153E-01        -0.39846E-01         0.00000E+00
    0.25794E-01        -0.39036E-01         0.00000E+00
    0.25429E-01        -0.38226E-01         0.00000E+00
    0.25057E-01        -0.37416E-01         0.00000E+00
    0.24677E-01        -0.36607E-01         0.00000E+00
    0.24291E-01        -0.35797E-01         0.00000E+00
    0.23897E-01        -0.34987E-01         0.00000E+00
    0.23497E-01        -0.34178E-01         0.00000E+00
    0.23090E-01        -0.33369E-01         0.00000E+00
    0.22676E-01        -0.32560E-01         0.00000E+00
    0.22255E-01        -0.31751E-01         0.00000E+00
    0.21827E-01        -0.30943E-01         0.00000E+00
    0.21393E-01        -0.30135E-01         0.00000E+00
    0.20951E-01        -0.29327E-01         0.00000E+00
    0.20503E-01        -0.28520E-01         0.00000E+00
    0.20049E-01        -0.27713E-01         0.00000E+00
    0.19587E-01        -0.26907E-01         0.00000E+00
    0.19119E-01        -0.26101E-01         0.00000E+00
    0.18645E-01        -0.25296E-01         0.00000E+00
    0.18163E-01        -0.24491E-01         0.00000E+00
    0.17676E-01        -0.23687E-01         0.00000E+00
    0.17181E-01        -0.22884E-01         0.00000E+00
    0.16680E-01        -0.22081E-01         0.00000E+00
    0.16173E-01        -0.21278E-01         0.00000E+00
    0.15658E-01        -0.20477E-01         0.00000E+00
    0.15138E-01        -0.19676E-01         0.00000E+00
    0.14611E-01        -0.18876E-01         0.00000E+00
    0.14077E-01        -0.18077E-01         0.00000E+00
    0.13537E-01        -0.17279E-01         0.00000E+00
    0.12990E-01        -0.16481E-01         0.00000E+00
    0.12437E-01        -0.15684E-01         0.00000E+00
    0.11877E-01        -0.14889E-01         0.00000E+00
    0.11311E-01        -0.14094E-01         0.00000E+00
    0.10739E-01        -0.13300E-01         0.00000E+00
    0.10159E-01        -0.12508E-01         0.00000E+00
    0.95738E-02        -0.11716E-01         0.00000E+00
    0.89816E-02        -0.10926E-01         0.00000E+00
    0.83829E-02        -0.10136E-01         0.00000E+00
    0.77777E-02        -0.93484E-02         0.00000E+00
    0.71659E-02        -0.85615E-02         0.00000E+00
    0.65476E-02        -0.77759E-02         0.00000E+00
    0.59227E-02        -0.69917E-02         0.00000E+00
    0.52912E-02        -0.62088E-02         0.00000E+00
    0.46531E-02        -0.54273E-02         0.00000E+00
    0.40084E-02        -0.46472E-02         0.00000E+00
    0.33571E-02        -0.38687E-02         0.00000E+00
    0.26991E-02        -0.30917E-02         0.00000E+00
    0.20344E-02        -0.23162E-02         0.00000E+00
    0.13630E-02        -0.15425E-02         0.00000E+00
    0.68487E-03        -0.77035E-03         0.00000E+00
    0.00000E+00         0.00000E+00         0.00000E+00
    0.26931E-01        -0.41655E-01         0.00000E+00
    0.26559E-01        -0.40809E-01         0.00000E+00
    0.26179E-01        -0.39963E-01         0.00000E+00
    0.25793E-01        -0.39118E-01         0.00000E+00
    0.25399E-01        -0.38272E-01         0.00000E+00
    0.24998E-01        -0.37427E-01         0.00000E+00
    0.24590E-01        -0.36582E-01         0.00000E+00
    0.24175E-01        -0.35736E-01         0.00000E+00
    0.23753E-01        -0.34892E-01         0.00000E+00
    0.23325E-01        -0.34047E-01         0.00000E+00
    0.22889E-01        -0.33203E-01         0.00000E+00
    0.22446E-01        -0.32359E-01         0.00000E+00
    0.21997E-01        -0.31515E-01         0.00000E+00
    0.21541E-01        -0.30672E-01         0.00000E+00
    0.21078E-01        -0.29829E-01         0.00000E+00
    0.20608E-01        -0.28986E-01         0.00000E+00
    0.20132E-01        -0.28144E-01         0.00000E+00
    0.19649E-01        -0.27302E-01         0.00000E+00
    0.19159E-01        -0.26461E-01         0.00000E+00
    0.18663E-01        -0.25621E-01         0.00000E+00
    0.18159E-01        -0.24781E-01         0.00000E+00
    0.17650E-01        -0.23941E-01         0.00000E+00
    0.17133E-01        -0.23102E-01         0.00000E+00
    0.16611E-01        -0.22264E-01         0.00000E+00
    0.16081E-01        -0.21427E-01         0.00000E+00
    0.15545E-01        -0.20590E-01         0.00000E+00
    0.15002E-01        -0.19754E-01         0.00000E+00
    0.14453E-01        -0.18919E-01         0.00000E+00
    0.13898E-01        -0.18084E-01         0.00000E+00
    0.13335E-01        -0.17251E-01         0.00000E+00
    0.12767E-01        -0.16418E-01         0.00000E+00
    0.12191E-01        -0.15586E-01         0.00000E+00
    0.11609E-01        -0.14755E-01         0.00000E+00
    0.11021E-01        -0.13925E-01         0.00000E+00
    0.10426E-01        -0.13096E-01         0.00000E+00
    0.98243E-02        -0.12268E-01         0.00000E+00
    0.92161E-02        -0.11441E-01         0.00000E+00
    0.86013E-02        -0.10615E-01         0.00000E+00
    0.79799E-02        -0.97908E-02         0.00000E+00
    0.73519E-02        -0.89674E-02         0.00000E+00
    0.67173E-02        -0.81452E-02         0.00000E+00
    0.60760E-02        -0.73242E-02         0.00000E+00
    0.54280E-02        -0.65046E-02         0.00000E+00
    0.47732E-02        -0.56863E-02         0.00000E+00
    0.41118E-02        -0.48694E-02         0.00000E+00
    0.34436E-02        -0.40539E-02         0.00000E+00
    0.27685E-02        -0.32400E-02         0.00000E+00
    0.20867E-02        -0.24276E-02         0.00000E+00
    0.13980E-02        -0.16167E-02         0.00000E+00
    0.70248E-03        -0.80751E-03         0.00000E+00
    0.00000E+00         0.00000E+00         0.00000E+00
    0.27709E-01        -0.43535E-01         0.00000E+00
    0.27322E-01        -0.42652E-01         0.00000E+00
    0.26928E-01        -0.41769E-01         0.00000E+00
    0.26527E-01        -0.40887E-01         0.00000E+00
    0.26118E-01        -0.40004E-01         0.00000E+00
    0.25702E-01        -0.39122E-01         0.00000E+00
    0.25279E-01        -0.38239E-01         0.00000E+00
    0.24850E-01        -0.37357E-01         0.00000E+00
    0.24413E-01        -0.36475E-01         0.00000E+00
    0.23969E-01        -0.35594E-01         0.00000E+00
    0.23518E-01        -0.34712E-01         0.00000E+00
    0.23060E-01        -0.33831E-01         0.00000E+00
    0.22596E-01        -0.32951E-01         0.00000E+00
    0.22124E-01        -0.32070E-01         0.00000E+00
    0.21646E-01        -0.31190E-01         0.00000E+00
    0.21161E-01        -0.30311E-01         0.00000E+00
    0.20669E-01        -0.29431E-01         0.00000E+00
    0.20171E-01        -0.28553E-01         0.00000E+00
    0.19666E-01        -0.27674E-01         0.00000E+00
    0.19154E-01        -0.26797E-01         0.00000E+00
    0.18636E-01        -0.25919E-01         0.00000E+00
    0.18111E-01        -0.25043E-01         0.00000E+00
    0.17579E-01        -0.24167E-01         0.00000E+00
    0.17041E-01        -0.23291E-01         0.00000E+00
    0.16496E-01        -0.22416E-01         0.00000E+00
    0.15944E-01        -0.21542E-01         0.00000E+00
    0.15386E-01        -0.20669E-01         0.00000E+00
    0.14822E-01        -0.19796E-01         0.00000E+00
    0.14250E-01        -0.18924E-01         0.00000E+00
    0.13673E-01        -0.18053E-01         0.00000E+00
    0.13088E-01        -0.17182E-01         0.00000E+00
    0.12497E-01        -0.16313E-01         0.00000E+00
    0.11900E-01        -0.15444E-01         0.00000E+00
    0.11296E-01        -0.14577E-01         0.00000E+00
    0.10685E-01        -0.13710E-01         0.00000E+00
    0.10068E-01        -0.12844E-01         0.00000E+00
    0.94441E-02        -0.11979E-01         0.00000E+00
    0.88135E-02        -0.11115E-01         0.00000E+00
    0.81764E-02        -0.10253E-01         0.00000E+00
    0.75325E-02        -0.93911E-02         0.00000E+00
    0.68819E-02        -0.85307E-02         0.00000E+00
    0.62246E-02        -0.76715E-02         0.00000E+00
    0.55605E-02        -0.68136E-02         0.00000E+00
    0.48896E-02        -0.59569E-02         0.00000E+00
    0.42119E-02        -0.51016E-02         0.00000E+00
    0.35273E-02        -0.42476E-02         0.00000E+00
    0.28358E-02        -0.33950E-02         0.00000E+00
    0.21373E-02        -0.25439E-02         0.00000E+00
    0.14319E-02        -0.16944E-02         0.00000E+00
    0.71950E-03        -0.84638E-03         0.00000E+00
    0.00000E+00         0.00000E+00         0.00000E+00
    0.28484E-01        -0.45488E-01         0.00000E+00
    0.28082E-01        -0.44567E-01         0.00000E+00
    0.27673E-01        -0.43646E-01         0.00000E+00
    0.27256E-01        -0.42725E-01         0.00000E+00
    0.26832E-01        -0.41805E-01         0.00000E+00
    0.26401E-01        -0.40884E-01         0.00000E+00
    0.25963E-01        -0.39963E-01         0.00000E+00
    0.25517E-01        -0.39043E-01         0.00000E+00
    0.25065E-01        -0.38123E-01         0.00000E+00
    0.24606E-01        -0.37203E-01         0.00000E+00
    0.24139E-01        -0.36283E-01         0.00000E+00
    0.23666E-01        -0.35364E-01         0.00000E+00
    0.23186E-01        -0.34445E-01         0.00000E+00
    0.22699E-01        -0.33526E-01         0.00000E+00
    0.22205E-01        -0.32607E-01         0.00000E+00
    0.21704E-01        -0.31689E-01         0.00000E+00
    0.21197E-01        -0.30772E-01         0.00000E+00
    0.20683E-01        -0.29854E-01         0.00000E+00
    0.20162E-01        -0.28938E-01         0.00000E+00
    0.19635E-01        -0.28021E-01         0.00000E+00
    0.19101E-01        -0.27105E-01         0.00000E+00
    0.18561E-01        -0.26190E-01         0.00000E+00
    0.18013E-01        -0.25275E-01         0.00000E+00
    0.17460E-01        -0.24361E-01         0.00000E+00
    0.16899E-01        -0.23448E-01         0.00000E+00
    0.16332E-01        -0.22535E-01         0.00000E+00
    0.15759E-01        -0.21622E-01         0.00000E+00
    0.15179E-01        -0.20711E-01         0.00000E+00
    0.14592E-01        -0.19800E-01         0.00000E+00
    0.13999E-01        -0.18890E-01         0.00000E+00
    0.13400E-01        -0.17980E-01         0.00000E+00
    0.12793E-01        -0.17071E-01         0.00000E+00
    0.12181E-01        -0.16164E-01         0.00000E+00
    0.11561E-01        -0.15257E-01         0.00000E+00
    0.10935E-01        -0.14350E-01         0.00000E+00
    0.10303E-01        -0.13445E-01         0.00000E+00
    0.96635E-02        -0.12541E-01         0.00000E+00
    0.90177E-02        -0.11637E-01         0.00000E+00
    0.83651E-02        -0.10735E-01         0.00000E+00
    0.77059E-02        -0.98338E-02         0.00000E+00
    0.70399E-02        -0.89336E-02         0.00000E+00
    0.63671E-02        -0.80345E-02         0.00000E+00
    0.56875E-02        -0.71366E-02         0.00000E+00
    0.50010E-02        -0.62398E-02         0.00000E+00
    0.43077E-02        -0.53443E-02         0.00000E+00
    0.36074E-02        -0.44501E-02         0.00000E+00
    0.29001E-02        -0.35572E-02         0.00000E+00
    0.21857E-02        -0.26657E-02         0.00000E+00
    0.14643E-02        -0.17757E-02         0.00000E+00
    0.73576E-03        -0.88706E-03         0.00000E+00
    0.00000E+00         0.00000E+00         0.00000E+00
    0.29254E-01        -0.47519E-01         0.00000E+00
    0.28837E-01        -0.46559E-01         0.00000E+00
    0.28411E-01        -0.45598E-01         0.00000E+00
    0.27979E-01        -0.44638E-01         0.00000E+00
    0.27539E-01        -0.43677E-01         0.00000E+00
    0.27092E-01        -0.42717E-01         0.00000E+00
    0.26637E-01        -0.41757E-01         0.00000E+00
    0.26176E-01        -0.40796E-01         0.00000E+00
    0.25708E-01        -0.39837E-01         0.00000E+00
    0.25232E-01        -0.38877E-01         0.00000E+00
    0.24750E-01        -0.37918E-01         0.00000E+00
    0.24260E-01        -0.36958E-01         0.00000E+00
    0.23764E-01        -0.36000E-01         0.00000E+00
    0.23261E-01        -0.35041E-01         0.00000E+00
    0.22751E-01        -0.34083E-01         0.00000E+00
    0.22235E-01        -0.33125E-01         0.00000E+00
    0.21712E-01        -0.32167E-01         0.00000E+00
    0.21182E-01        -0.31210E-01         0.00000E+00
    0.20645E-01        -0.30254E-01         0.00000E+00
    0.20102E-01        -0.29297E-01         0.00000E+00
    0.19553E-01        -0.28341E-01         0.00000E+00
    0.18996E-01        -0.27386E-01         0.00000E+00
    0.18434E-01        -0.26431E-01         0.00000E+00
    0.17864E-01        -0.25477E-01         0.00000E+00
    0.17289E-01        -0.24523E-01         0.00000E+00
    0.16706E-01        -0.23570E-01         0.00000E+00
    0.16118E-01        -0.22617E-01         0.00000E+00
    0.15522E-01        -0.21665E-01         0.00000E+00
    0.14921E-01        -0.20714E-01         0.00000E+00
    0.14312E-01        -0.19763E-01         0.00000E+00
    0.13698E-01        -0.18813E-01         0.00000E+00
    0.13076E-01        -0.17863E-01         0.00000E+00
    0.12449E-01        -0.16915E-01         0.00000E+00
    0.11814E-01        -0.15967E-01         0.00000E+00
    0.11174E-01        -0.15020E-01         0.00000E+00
    0.10526E-01        -0.14073E-01         0.00000E+00
    0.98722E-02        -0.13128E-01         0.00000E+00
    0.92115E-02        -0.12183E-01         0.00000E+00
    0.85442E-02        -0.11239E-01         0.00000E+00
    0.78702E-02        -0.10297E-01         0.00000E+00
    0.71894E-02        -0.93550E-02         0.00000E+00
    0.65019E-02        -0.84142E-02         0.00000E+00
    0.58075E-02        -0.74745E-02         0.00000E+00
    0.51062E-02        -0.65359E-02         0.00000E+00
    0.43980E-02        -0.55984E-02         0.00000E+00
    0.36829E-02        -0.46621E-02         0.00000E+00
    0.29606E-02        -0.37271E-02         0.00000E+00
    0.22313E-02        -0.27933E-02         0.00000E+00
    0.14948E-02        -0.18608E-02         0.00000E+00
    0.75105E-03        -0.92969E-03         0.00000E+00
    0.00000E+00         0.00000E+00         0.00000E+00
    0.30017E-01        -0.49631E-01         0.00000E+00
    0.29583E-01        -0.48630E-01         0.00000E+00
    0.29141E-01        -0.47628E-01         0.00000E+00
    0.28692E-01        -0.46626E-01         0.00000E+00
    0.28235E-01        -0.45625E-01         0.00000E+00
    0.27771E-01        -0.44624E-01         0.00000E+00
    0.27300E-01        -0.43622E-01         0.00000E+00
    0.26822E-01        -0.42621E-01         0.00000E+00
    0.26337E-01        -0.41620E-01         0.00000E+00
    0.25845E-01        -0.40620E-01         0.00000E+00
    0.25346E-01        -0.39619E-01         0.00000E+00
    0.24840E-01        -0.38619E-01         0.00000E+00
    0.24327E-01        -0.37619E-01         0.00000E+00
    0.23808E-01        -0.36619E-01         0.00000E+00
    0.23282E-01        -0.35620E-01         0.00000E+00
    0.22749E-01        -0.34621E-01         0.00000E+00
    0.22209E-01        -0.33622E-01         0.00000E+00
    0.21664E-01        -0.32623E-01         0.00000E+00
    0.21111E-01        -0.31625E-01         0.00000E+00
    0.20552E-01        -0.30628E-01         0.00000E+00
    0.19987E-01        -0.29630E-01         0.00000E+00
    0.19415E-01        -0.28633E-01         0.00000E+00
    0.18836E-01        -0.27637E-01         0.00000E+00
    0.18252E-01        -0.26641E-01         0.00000E+00
    0.17660E-01        -0.25645E-01         0.00000E+00
    0.17063E-01        -0.24650E-01         0.00000E+00
    0.16459E-01        -0.23656E-01         0.00000E+00
    0.15849E-01        -0.22661E-01         0.00000E+00
    0.15232E-01        -0.21668E-01         0.00000E+00
    0.14609E-01        -0.20675E-01         0.00000E+00
    0.13979E-01        -0.19683E-01         0.00000E+00
    0.13343E-01        -0.18691E-01         0.00000E+00
    0.12701E-01        -0.17700E-01         0.00000E+00
    0.12052E-01        -0.16709E-01         0.00000E+00
    0.11397E-01        -0.15719E-01         0.00000E+00
    0.10736E-01        -0.14730E-01         0.00000E+00
    0.10067E-01        -0.13742E-01         0.00000E+00
    0.93926E-02        -0.12754E-01         0.00000E+00
    0.87113E-02        -0.11767E-01         0.00000E+00
    0.80233E-02        -0.10781E-01         0.00000E+00
    0.73285E-02        -0.97961E-02         0.00000E+00
    0.66271E-02        -0.88118E-02         0.00000E+00
    0.59188E-02        -0.78284E-02         0.00000E+00
    0.52037E-02        -0.68461E-02         0.00000E+00
    0.44817E-02        -0.58647E-02         0.00000E+00
    0.37527E-02        -0.48844E-02         0.00000E+00
    0.30166E-02        -0.39051E-02         0.00000E+00
    0.22733E-02        -0.29270E-02         0.00000E+00
    0.15229E-02        -0.19501E-02         0.00000E+00
    0.76513E-03        -0.97440E-03         0.00000E+00
    0.00000E+00         0.00000E+00         0.00000E+00
    0.30770E-01        -0.51828E-01         0.00000E+00
    0.30318E-01        -0.50784E-01         0.00000E+00
    0.29858E-01        -0.49740E-01         0.00000E+00
    0.29392E-01        -0.48696E-01         0.00000E+00
    0.28917E-01        -0.47653E-01         0.00000E+00
    0.28436E-01        -0.46609E-01         0.00000E+00
    0.27947E-01        -0.45565E-01         0.00000E+00
    0.27452E-01        -0.44522E-01         0.00000E+00
    0.26949E-01        -0.43479E-01         0.00000E+00
    0.26440E-01        -0.42435E-01         0.00000E+00
    0.25924E-01        -0.41392E-01         0.00000E+00
    0.25401E-01        -0.40350E-01         0.00000E+00
    0.24871E-01        -0.39307E-01         0.00000E+00
    0.24335E-01        -0.38265E-01         0.00000E+00
    0.23792E-01        -0.37223E-01         0.00000E+00
    0.23242E-01        -0.36181E-01         0.00000E+00
    0.22686E-01        -0.35139E-01         0.00000E+00
    0.22124E-01        -0.34098E-01         0.00000E+00
    0.21555E-01        -0.33057E-01         0.00000E+00
    0.20980E-01        -0.32016E-01         0.00000E+00
    0.20399E-01        -0.30976E-01         0.00000E+00
    0.19811E-01        -0.29936E-01         0.00000E+00
    0.19217E-01        -0.28896E-01         0.00000E+00
    0.18617E-01        -0.27857E-01         0.00000E+00
    0.18010E-01        -0.26818E-01         0.00000E+00
    0.17397E-01        -0.25779E-01         0.00000E+00
    0.16779E-01        -0.24741E-01         0.00000E+00
    0.16153E-01        -0.23703E-01         0.00000E+00
    0.15522E-01        -0.22666E-01         0.00000E+00
    0.14885E-01        -0.21629E-01         0.00000E+00
    0.14241E-01        -0.20593E-01         0.00000E+00
    0.13591E-01        -0.19557E-01         0.00000E+00
    0.12934E-01        -0.18521E-01         0.00000E+00
    0.12272E-01        -0.17486E-01         0.00000E+00
    0.11603E-01        -0.16452E-01         0.00000E+00
    0.10928E-01        -0.15418E-01         0.00000E+00
    0.10246E-01        -0.14385E-01         0.00000E+00
    0.95581E-02        -0.13352E-01         0.00000E+00
    0.88636E-02        -0.12320E-01         0.00000E+00
    0.81625E-02        -0.11289E-01         0.00000E+00
    0.74549E-02        -0.10259E-01         0.00000E+00
    0.67406E-02        -0.92288E-02         0.00000E+00
    0.60196E-02        -0.81997E-02         0.00000E+00
    0.52918E-02        -0.71715E-02         0.00000E+00
    0.45571E-02        -0.61441E-02         0.00000E+00
    0.38155E-02        -0.51176E-02         0.00000E+00
    0.30668E-02        -0.40921E-02         0.00000E+00
    0.23110E-02        -0.30675E-02         0.00000E+00
    0.15480E-02        -0.20439E-02         0.00000E+00
    0.77773E-03        -0.10214E-02         0.00000E+00
    0.00000E+00         0.00000E+00         0.00000E+00
    0.31510E-01        -0.54116E-01         0.00000E+00
    0.31039E-01        -0.53028E-01         0.00000E+00
    0.30561E-01        -0.51941E-01         0.00000E+00
    0.30075E-01        -0.50853E-01         0.00000E+00
    0.29582E-01        -0.49766E-01         0.00000E+00
    0.29082E-01        -0.48678E-01         0.00000E+00
    0.28575E-01        -0.47591E-01         0.00000E+00
    0.28061E-01        -0.46503E-01         0.00000E+00
    0.27541E-01        -0.45416E-01         0.00000E+00
    0.27013E-01        -0.44329E-01         0.00000E+00
    0.26479E-01        -0.43242E-01         0.00000E+00
    0.25938E-01        -0.42156E-01         0.00000E+00
    0.25391E-01        -0.41069E-01         0.00000E+00
    0.24837E-01        -0.39983E-01         0.00000E+00
    0.24277E-01        -0.38896E-01         0.00000E+00
    0.23710E-01        -0.37810E-01         0.00000E+00
    0.23137E-01        -0.36725E-01         0.00000E+00
    0.22558E-01        -0.35639E-01         0.00000E+00
    0.21973E-01        -0.34553E-01         0.00000E+00
    0.21381E-01        -0.33468E-01         0.00000E+00
    0.20784E-01        -0.32383E-01         0.00000E+00
    0.20180E-01        -0.31298E-01         0.00000E+00
    0.19571E-01        -0.30214E-01         0.00000E+00
    0.18955E-01        -0.29129E-01         0.00000E+00
    0.18333E-01        -0.28045E-01         0.00000E+00
    0.17706E-01        -0.26961E-01         0.00000E+00
    0.17072E-01        -0.25878E-01         0.00000E+00
    0.16433E-01        -0.24794E-01         0.00000E+00
    0.15787E-01        -0.23711E-01         0.00000E+00
    0.15135E-01        -0.22629E-01         0.00000E+00
    0.14478E-01        -0.21546E-01         0.00000E+00
    0.13814E-01        -0.20464E-01         0.00000E+00
    0.13145E-01        -0.19383E-01         0.00000E+00
    0.12469E-01        -0.18301E-01         0.00000E+00
    0.11787E-01        -0.17220E-01         0.00000E+00
    0.11099E-01        -0.16140E-01         0.00000E+00
    0.10405E-01        -0.15060E-01         0.00000E+00
    0.97048E-02        -0.13980E-01         0.00000E+00
    0.89981E-02        -0.12901E-01         0.00000E+00
    0.82852E-02        -0.11823E-01         0.00000E+00
    0.75658E-02        -0.10744E-01         0.00000E+00
    0.68399E-02        -0.96669E-02         0.00000E+00
    0.61074E-02        -0.85900E-02         0.00000E+00
    0.53683E-02        -0.75136E-02         0.00000E+00
    0.46225E-02        -0.64380E-02         0.00000E+00
    0.38698E-02        -0.53630E-02         0.00000E+00
    0.31102E-02        -0.42887E-02         0.00000E+00
    0.23435E-02        -0.32153E-02         0.00000E+00
    0.15696E-02        -0.21426E-02         0.00000E+00
    0.78852E-03        -0.10709E-02         0.00000E+00
    0.00000E+00         0.00000E+00         0.00000E+00
    0.32233E-01        -0.56501E-01         0.00000E+00
    0.31742E-01        -0.55368E-01         0.00000E+00
    0.31244E-01        -0.54235E-01         0.00000E+00
    0.30738E-01        -0.53103E-01         0.00000E+00
    0.30226E-01        -0.51970E-01         0.00000E+00
    0.29706E-01        -0.50838E-01         0.00000E+00
    0.29179E-01        -0.49705E-01         0.00000E+00
    0.28646E-01        -0.48573E-01         0.00000E+00
    0.28106E-01        -0.47440E-01         0.00000E+00
    0.27559E-01        -0.46308E-01         0.00000E+00
    0.27006E-01        -0.45176E-01         0.00000E+00
    0.26447E-01        -0.44043E-01         0.00000E+00
    0.25881E-01        -0.42911E-01         0.00000E+00
    0.25309E-01        -0.41779E-01         0.00000E+00
    0.24731E-01        -0.40647E-01         0.00000E+00
    0.24147E-01        -0.39515E-01         0.00000E+00
    0.23557E-01        -0.38384E-01         0.00000E+00
    0.22961E-01        -0.37252E-01         0.00000E+00
    0.22359E-01        -0.36120E-01         0.00000E+00
    0.21751E-01        -0.34989E-01         0.00000E+00
    0.21137E-01        -0.33857E-01         0.00000E+00
    0.20518E-01        -0.32726E-01         0.00000E+00
    0.19893E-01        -0.31594E-01         0.00000E+00
    0.19262E-01        -0.30463E-01         0.00000E+00
    0.18625E-01        -0.29332E-01         0.00000E+00
    0.17983E-01        -0.28201E-01         0.00000E+00
    0.17335E-01        -0.27070E-01         0.00000E+00
    0.16681E-01        -0.25940E-01         0.00000E+00
    0.16022E-01        -0.24809E-01         0.00000E+00
    0.15357E-01        -0.23678E-01         0.00000E+00
    0.14686E-01        -0.22548E-01         0.00000E+00
    0.14010E-01        -0.21418E-01         0.00000E+00
    0.13327E-01        -0.20288E-01         0.00000E+00
    0.12639E-01        -0.19158E-01         0.00000E+00
    0.11946E-01        -0.18029E-01         0.00000E+00
    0.11246E-01        -0.16899E-01         0.00000E+00
    0.10540E-01        -0.15770E-01         0.00000E+00
    0.98290E-02        -0.14641E-01         0.00000E+00
    0.91115E-02        -0.13512E-01         0.00000E+00
    0.83879E-02        -0.12384E-01         0.00000E+00
    0.76582E-02        -0.11256E-01         0.00000E+00
    0.69222E-02        -0.10128E-01         0.00000E+00
    0.61799E-02        -0.90012E-02         0.00000E+00
    0.54311E-02        -0.78743E-02         0.00000E+00
    0.46758E-02        -0.67478E-02         0.00000E+00
    0.39139E-02        -0.56218E-02         0.00000E+00
    0.31452E-02        -0.44962E-02         0.00000E+00
    0.23696E-02        -0.33713E-02         0.00000E+00
    0.15870E-02        -0.22469E-02         0.00000E+00
    0.79714E-03        -0.11231E-02         0.00000E+00
    0.00000E+00         0.00000E+00         0.00000E+00
    0.32936E-01        -0.58991E-01         0.00000E+00
    0.32423E-01        -0.57812E-01         0.00000E+00
    0.31903E-01        -0.56633E-01         0.00000E+00
    0.31376E-01        -0.55454E-01         0.00000E+00
    0.30842E-01        -0.54275E-01         0.00000E+00
    0.30301E-01        -0.53095E-01         0.00000E+00
    0.29754E-01        -0.51916E-01         0.00000E+00
    0.29200E-01        -0.50737E-01         0.00000E+00
    0.28639E-01        -0.49558E-01         0.00000E+00
    0.28073E-01        -0.48379E-01         0.00000E+00
    0.27500E-01        -0.47200E-01         0.00000E+00
    0.26921E-01        -0.46021E-01         0.00000E+00
    0.26337E-01        -0.44841E-01         0.00000E+00
    0.25746E-01        -0.43662E-01         0.00000E+00
    0.25149E-01        -0.42483E-01         0.00000E+00
    0.24547E-01        -0.41304E-01         0.00000E+00
    0.23939E-01        -0.40124E-01         0.00000E+00
    0.23326E-01        -0.38945E-01         0.00000E+00
    0.22707E-01        -0.37765E-01         0.00000E+00
    0.22083E-01        -0.36585E-01         0.00000E+00
    0.21453E-01        -0.35406E-01         0.00000E+00
    0.20817E-01        -0.34226E-01         0.00000E+00
    0.20177E-01        -0.33046E-01         0.00000E+00
    0.19531E-01        -0.31866E-01         0.00000E+00
    0.18879E-01        -0.30686E-01         0.00000E+00
    0.18223E-01        -0.29506E-01         0.00000E+00
    0.17561E-01        -0.28325E-01         0.00000E+00
    0.16894E-01        -0.27145E-01         0.00000E+00
    0.16221E-01        -0.25965E-01         0.00000E+00
    0.15543E-01        -0.24784E-01         0.00000E+00
    0.14860E-01        -0.23604E-01         0.00000E+00
    0.14172E-01        -0.22423E-01         0.00000E+00
    0.13478E-01        -0.21242E-01         0.00000E+00
    0.12778E-01        -0.20062E-01         0.00000E+00
    0.12074E-01        -0.18881E-01         0.00000E+00
    0.11364E-01        -0.17700E-01         0.00000E+00
    0.10648E-01        -0.16519E-01         0.00000E+00
    0.99266E-02        -0.15339E-01         0.00000E+00
    0.91997E-02        -0.14158E-01         0.00000E+00
    0.84670E-02        -0.12977E-01         0.00000E+00
    0.77286E-02        -0.11797E-01         0.00000E+00
    0.69843E-02        -0.10616E-01         0.00000E+00
    0.62339E-02        -0.94359E-02         0.00000E+00
    0.54775E-02        -0.82556E-02         0.00000E+00
    0.47148E-02        -0.70755E-02         0.00000E+00
    0.39458E-02        -0.58956E-02         0.00000E+00
    0.31703E-02        -0.47159E-02         0.00000E+00
    0.23881E-02        -0.35364E-02         0.00000E+00
    0.15991E-02        -0.23573E-02         0.00000E+00
    0.80312E-03        -0.11784E-02         0.00000E+00
    0.00000E+00         0.00000E+00         0.00000E+00
    0.33613E-01        -0.61596E-01         0.00000E+00
    0.33076E-01        -0.60369E-01         0.00000E+00
    0.32532E-01        -0.59142E-01         0.00000E+00
    0.31982E-01        -0.57915E-01         0.00000E+00
    0.31425E-01        -0.56688E-01         0.00000E+00
    0.30861E-01        -0.55461E-01         0.00000E+00
    0.30292E-01        -0.54234E-01         0.00000E+00
    0.29716E-01        -0.53007E-01         0.00000E+00
    0.29134E-01        -0.51780E-01         0.00000E+00
    0.28546E-01        -0.50552E-01         0.00000E+00
    0.27953E-01        -0.49325E-01         0.00000E+00
    0.27354E-01        -0.48097E-01         0.00000E+00
    0.26749E-01        -0.46869E-01         0.00000E+00
    0.26139E-01        -0.45641E-01         0.00000E+00
    0.25524E-01        -0.44413E-01         0.00000E+00
    0.24904E-01        -0.43184E-01         0.00000E+00
    0.24278E-01        -0.41955E-01         0.00000E+00
    0.23647E-01        -0.40726E-01         0.00000E+00
    0.23011E-01        -0.39497E-01         0.00000E+00
    0.22370E-01        -0.38267E-01         0.00000E+00
    0.21724E-01        -0.37037E-01         0.00000E+00
    0.21073E-01        -0.35807E-01         0.00000E+00
    0.20417E-01        -0.34577E-01         0.00000E+00
    0.19756E-01        -0.33346E-01         0.00000E+00
    0.19090E-01        -0.32115E-01         0.00000E+00
    0.18420E-01        -0.30883E-01         0.00000E+00
    0.17744E-01        -0.29651E-01         0.00000E+00
    0.17064E-01        -0.28419E-01         0.00000E+00
    0.16379E-01        -0.27186E-01         0.00000E+00
    0.15689E-01        -0.25953E-01         0.00000E+00
    0.14994E-01        -0.24720E-01         0.00000E+00
    0.14295E-01        -0.23486E-01         0.00000E+00
    0.13590E-01        -0.22252E-01         0.00000E+00
    0.12881E-01        -0.21018E-01         0.00000E+00
    0.12166E-01        -0.19784E-01         0.00000E+00
    0.11447E-01        -0.18549E-01         0.00000E+00
    0.10723E-01        -0.17314E-01         0.00000E+00
    0.99931E-02        -0.16078E-01         0.00000E+00
    0.92584E-02        -0.14843E-01         0.00000E+00
    0.85184E-02        -0.13607E-01         0.00000E+00
    0.77731E-02        -0.12370E-01         0.00000E+00
    0.70224E-02        -0.11134E-01         0.00000E+00
    0.62662E-02        -0.98975E-02         0.00000E+00
    0.55043E-02        -0.86607E-02         0.00000E+00
    0.47366E-02        -0.74237E-02         0.00000E+00
    0.39630E-02        -0.61866E-02         0.00000E+00
    0.31833E-02        -0.49494E-02         0.00000E+00
    0.23973E-02        -0.37121E-02         0.00000E+00
    0.16050E-02        -0.24747E-02         0.00000E+00
    0.80593E-03        -0.12374E-02         0.00000E+00
    0.00000E+00         0.00000E+00         0.00000E+00
    0.34257E-01        -0.64328E-01         0.00000E+00
    0.33694E-01        -0.63052E-01         0.00000E+00
    0.33125E-01        -0.61776E-01         0.00000E+00
    0.32549E-01        -0.60499E-01         0.00000E+00
    0.31967E-01        -0.59223E-01         0.00000E+00
    0.31379E-01        -0.57947E-01         0.00000E+00
    0.30786E-01        -0.56670E-01         0.00000E+00
    0.30186E-01        -0.55393E-01         0.00000E+00
    0.29582E-01        -0.54116E-01         0.00000E+00
    0.28972E-01        -0.52839E-01         0.00000E+00
    0.28357E-01        -0.51561E-01         0.00000E+00
    0.27737E-01        -0.50284E-01         0.00000E+00
    0.27112E-01        -0.49005E-01         0.00000E+00
    0.26482E-01        -0.47727E-01         0.00000E+00
    0.25847E-01        -0.46448E-01         0.00000E+00
    0.25208E-01        -0.45168E-01         0.00000E+00
    0.24564E-01        -0.43888E-01         0.00000E+00
    0.23915E-01        -0.42608E-01         0.00000E+00
    0.23262E-01        -0.41327E-01         0.00000E+00
    0.22604E-01        -0.40045E-01         0.00000E+00
    0.21942E-01        -0.38763E-01         0.00000E+00
    0.21276E-01        -0.37480E-01         0.00000E+00
    0.20605E-01        -0.36197E-01         0.00000E+00
    0.19930E-01        -0.34913E-01         0.00000E+00
    0.19250E-01        -0.33628E-01         0.00000E+00
    0.18567E-01        -0.32343E-01         0.00000E+00
    0.17878E-01        -0.31057E-01         0.00000E+00
    0.17186E-01        -0.29771E-01         0.00000E+00
    0.16489E-01        -0.28483E-01         0.00000E+00
    0.15789E-01        -0.27195E-01         0.00000E+00
    0.15083E-01        -0.25906E-01         0.00000E+00
    0.14374E-01        -0.24617E-01         0.00000E+00
    0.13660E-01        -0.23327E-01         0.00000E+00
    0.12941E-01        -0.22036E-01         0.00000E+00
    0.12219E-01        -0.20745E-01         0.00000E+00
    0.11491E-01        -0.19453E-01         0.00000E+00
    0.10760E-01        -0.18160E-01         0.00000E+00
    0.10024E-01        -0.16867E-01         0.00000E+00
    0.92828E-02        -0.15573E-01         0.00000E+00
    0.85374E-02        -0.14278E-01         0.00000E+00
    0.77872E-02        -0.12983E-01         0.00000E+00
    0.70323E-02        -0.11687E-01         0.00000E+00
    0.62725E-02        -0.10390E-01         0.00000E+00
    0.55076E-02        -0.90935E-02         0.00000E+00
    0.47377E-02        -0.77960E-02         0.00000E+00
    0.39624E-02        -0.64979E-02         0.00000E+00
    0.31818E-02        -0.51993E-02         0.00000E+00
    0.23954E-02        -0.39002E-02         0.00000E+00
    0.16031E-02        -0.26005E-02         0.00000E+00
    0.80471E-03        -0.13004E-02         0.00000E+00
    0.00000E+00         0.00000E+00         0.00000E+00
    0.34860E-01        -0.67198E-01         0.00000E+00
    0.34268E-01        -0.65872E-01         0.00000E+00
    0.33670E-01        -0.64545E-01         0.00000E+00
    0.33067E-01        -0.63218E-01         0.00000E+00
    0.32458E-01        -0.61891E-01         0.00000E+00
    0.31844E-01        -0.60564E-01         0.00000E+00
    0.31225E-01        -0.59237E-01         0.00000E+00
    0.30601E-01        -0.57909E-01         0.00000E+00
    0.29973E-01        -0.56581E-01         0.00000E+00
    0.29340E-01        -0.55252E-01         0.00000E+00
    0.28702E-01        -0.53923E-01         0.00000E+00
    0.28060E-01        -0.52594E-01         0.00000E+00
    0.27414E-01        -0.51263E-01         0.00000E+00
    0.26763E-01        -0.49933E-01         0.00000E+00
    0.26109E-01        -0.48601E-01         0.00000E+00
    0.25450E-01        -0.47269E-01         0.00000E+00
    0.24788E-01        -0.45936E-01         0.00000E+00
    0.24122E-01        -0.44602E-01         0.00000E+00
    0.23452E-01        -0.43268E-01         0.00000E+00
    0.22778E-01        -0.41932E-01         0.00000E+00
    0.22100E-01        -0.40596E-01         0.00000E+00
    0.21418E-01        -0.39258E-01         0.00000E+00
    0.20733E-01        -0.37920E-01         0.00000E+00
    0.20045E-01        -0.36581E-01         0.00000E+00
    0.19352E-01        -0.35240E-01         0.00000E+00
    0.18656E-01        -0.33899E-01         0.00000E+00
    0.17956E-01        -0.32557E-01         0.00000E+00
    0.17253E-01        -0.31213E-01         0.00000E+00
    0.16545E-01        -0.29868E-01         0.00000E+00
    0.15835E-01        -0.28522E-01         0.00000E+00
    0.15120E-01        -0.27175E-01         0.00000E+00
    0.14402E-01        -0.25827E-01         0.00000E+00
    0.13680E-01        -0.24478E-01         0.00000E+00
    0.12954E-01        -0.23128E-01         0.00000E+00
    0.12224E-01        -0.21776E-01         0.00000E+00
    0.11491E-01        -0.20423E-01         0.00000E+00
    0.10754E-01        -0.19069E-01         0.00000E+00
    0.10013E-01        -0.17714E-01         0.00000E+00
    0.92679E-02        -0.16358E-01         0.00000E+00
    0.85190E-02        -0.15001E-01         0.00000E+00
    0.77661E-02        -0.13642E-01         0.00000E+00
    0.70092E-02        -0.12283E-01         0.00000E+00
    0.62482E-02        -0.10922E-01         0.00000E+00
    0.54830E-02        -0.95606E-02         0.00000E+00
    0.47137E-02        -0.81979E-02         0.00000E+00
    0.39400E-02        -0.68342E-02         0.00000E+00
    0.31617E-02        -0.54695E-02         0.00000E+00
    0.23790E-02        -0.41038E-02         0.00000E+00
    0.15914E-02        -0.27371E-02         0.00000E+00
    0.79870E-03        -0.13692E-02         0.00000E+00
    0.00000E+00         0.00000E+00         0.00000E+00
    0.35409E-01        -0.70222E-01         0.00000E+00
    0.34786E-01        -0.68844E-01         0.00000E+00
    0.34157E-01        -0.67465E-01         0.00000E+00
    0.33524E-01        -0.66086E-01         0.00000E+00
    0.32886E-01        -0.64707E-01         0.00000E+00
    0.32244E-01        -0.63328E-01         0.00000E+00
    0.31598E-01        -0.61948E-01         0.00000E+00
    0.30948E-01        -0.60568E-01         0.00000E+00
    0.30294E-01        -0.59187E-01         0.00000E+00
    0.29637E-01        -0.57806E-01         0.00000E+00
    0.28976E-01        -0.56424E-01         0.00000E+00
    0.28311E-01        -0.55041E-01         0.00000E+00
    0.27643E-01        -0.53658E-01         0.00000E+00
    0.26972E-01        -0.52273E-01         0.00000E+00
    0.26298E-01        -0.50887E-01         0.00000E+00
    0.25620E-01        -0.49501E-01         0.00000E+00
    0.24940E-01        -0.48113E-01         0.00000E+00
    0.24256E-01        -0.46724E-01         0.00000E+00
    0.23569E-01        -0.45334E-01         0.00000E+00
    0.22880E-01        -0.43943E-01         0.00000E+00
    0.22187E-01        -0.42550E-01         0.00000E+00
    0.21491E-01        -0.41156E-01         0.00000E+00
    0.20793E-01        -0.39761E-01         0.00000E+00
    0.20091E-01        -0.38364E-01         0.00000E+00
    0.19387E-01        -0.36966E-01         0.00000E+00
    0.18679E-01        -0.35566E-01         0.00000E+00
    0.17969E-01        -0.34165E-01         0.00000E+00
    0.17255E-01        -0.32762E-01         0.00000E+00
    0.16539E-01        -0.31357E-01         0.00000E+00
    0.15820E-01        -0.29951E-01         0.00000E+00
    0.15097E-01        -0.28543E-01         0.00000E+00
    0.14372E-01        -0.27133E-01         0.00000E+00
    0.13644E-01        -0.25722E-01         0.00000E+00
    0.12912E-01        -0.24309E-01         0.00000E+00
    0.12178E-01        -0.22894E-01         0.00000E+00
    0.11440E-01        -0.21477E-01         0.00000E+00
    0.10699E-01        -0.20059E-01         0.00000E+00
    0.99552E-02        -0.18638E-01         0.00000E+00
    0.92081E-02        -0.17216E-01         0.00000E+00
    0.84579E-02        -0.15792E-01         0.00000E+00
    0.77045E-02        -0.14366E-01         0.00000E+00
    0.69478E-02        -0.12938E-01         0.00000E+00
    0.61881E-02        -0.11508E-01         0.00000E+00
    0.54253E-02        -0.10076E-01         0.00000E+00
    0.46594E-02        -0.86422E-02         0.00000E+00
    0.38907E-02        -0.72063E-02         0.00000E+00
    0.31190E-02        -0.57683E-02         0.00000E+00
    0.23440E-02        -0.43281E-02         0.00000E+00
    0.15658E-02        -0.28863E-02         0.00000E+00
    0.78412E-03        -0.14435E-02         0.00000E+00
    0.00000E+00         0.00000E+00         0.00000E+00
    0.35891E-01        -0.73415E-01         0.00000E+00
    0.35232E-01        -0.71983E-01         0.00000E+00
    0.34571E-01        -0.70551E-01         0.00000E+00
    0.33905E-01        -0.69119E-01         0.00000E+00
    0.33237E-01        -0.67687E-01         0.00000E+00
    0.32565E-01        -0.66254E-01         0.00000E+00
    0.31890E-01        -0.64820E-01         0.00000E+00
    0.31213E-01        -0.63386E-01         0.00000E+00
    0.30533E-01        -0.61952E-01         0.00000E+00
    0.29850E-01        -0.60516E-01         0.00000E+00
    0.29165E-01        -0.59080E-01         0.00000E+00
    0.28477E-01        -0.57642E-01         0.00000E+00
    0.27787E-01        -0.56203E-01         0.00000E+00
    0.27095E-01        -0.54763E-01         0.00000E+00
    0.26401E-01        -0.53322E-01         0.00000E+00
    0.25705E-01        -0.51880E-01         0.00000E+00
    0.25006E-01        -0.50436E-01         0.00000E+00
    0.24306E-01        -0.48990E-01         0.00000E+00
    0.23603E-01        -0.47543E-01         0.00000E+00
    0.22898E-01        -0.46094E-01         0.00000E+00
    0.22191E-01        -0.44643E-01         0.00000E+00
    0.21482E-01        -0.43191E-01         0.00000E+00
    0.20771E-01        -0.41737E-01         0.00000E+00
    0.20058E-01        -0.40281E-01         0.00000E+00
    0.19343E-01        -0.38823E-01         0.00000E+00
    0.18626E-01        -0.37362E-01         0.00000E+00
    0.17906E-01        -0.35900E-01         0.00000E+00
    0.17185E-01        -0.34436E-01         0.00000E+00
    0.16461E-01        -0.32969E-01         0.00000E+00
    0.15735E-01        -0.31501E-01         0.00000E+00
    0.15006E-01        -0.30029E-01         0.00000E+00
    0.14276E-01        -0.28556E-01         0.00000E+00
    0.13543E-01        -0.27080E-01         0.00000E+00
    0.12807E-01        -0.25602E-01         0.00000E+00
    0.12070E-01        -0.24121E-01         0.00000E+00
    0.11330E-01        -0.22638E-01         0.00000E+00
    0.10587E-01        -0.21152E-01         0.00000E+00
    0.98426E-02        -0.19664E-01         0.00000E+00
    0.90955E-02        -0.18173E-01         0.00000E+00
    0.83462E-02        -0.16679E-01         0.00000E+00
    0.75947E-02        -0.15182E-01         0.00000E+00
    0.68411E-02        -0.13682E-01         0.00000E+00
    0.60853E-02        -0.12179E-01         0.00000E+00
    0.53270E-02        -0.10672E-01         0.00000E+00
    0.45665E-02        -0.91629E-02         0.00000E+00
    0.38035E-02        -0.76507E-02         0.00000E+00
    0.30391E-02        -0.61357E-02         0.00000E+00
    0.22755E-02        -0.46173E-02         0.00000E+00
    0.15133E-02        -0.30921E-02         0.00000E+00
    0.75519E-03        -0.15558E-02         0.00000E+00
    0.00000E+00         0.00000E+00         0.00000E+00
    0.36286E-01        -0.76790E-01         0.00000E+00
    0.35590E-01        -0.75304E-01         0.00000E+00
    0.34892E-01        -0.73818E-01         0.00000E+00
    0.34193E-01        -0.72331E-01         0.00000E+00
    0.33491E-01        -0.70844E-01         0.00000E+00
    0.32788E-01        -0.69356E-01         0.00000E+00
    0.32084E-01        -0.67868E-01         0.00000E+00
    0.31378E-01        -0.66379E-01         0.00000E+00
    0.30670E-01        -0.64888E-01         0.00000E+00
    0.29962E-01        -0.63397E-01         0.00000E+00
    0.29252E-01        -0.61905E-01         0.00000E+00
    0.28541E-01        -0.60411E-01         0.00000E+00
    0.27830E-01        -0.58916E-01         0.00000E+00
    0.27117E-01        -0.57419E-01         0.00000E+00
    0.26403E-01        -0.55921E-01         0.00000E+00
    0.25688E-01        -0.54421E-01         0.00000E+00
    0.24973E-01        -0.52919E-01         0.00000E+00
    0.24256E-01        -0.51415E-01         0.00000E+00
    0.23538E-01        -0.49909E-01         0.00000E+00
    0.22819E-01        -0.48402E-01         0.00000E+00
    0.22100E-01        -0.46891E-01         0.00000E+00
    0.21379E-01        -0.45379E-01         0.00000E+00
    0.20657E-01        -0.43865E-01         0.00000E+00
    0.19934E-01        -0.42347E-01         0.00000E+00
    0.19209E-01        -0.40828E-01         0.00000E+00
    0.18484E-01        -0.39306E-01         0.00000E+00
    0.17757E-01        -0.37781E-01         0.00000E+00
    0.17028E-01        -0.36254E-01         0.00000E+00
    0.16299E-01        -0.34724E-01         0.00000E+00
    0.15568E-01        -0.33191E-01         0.00000E+00
    0.14835E-01        -0.31656E-01         0.00000E+00
    0.14101E-01        -0.30117E-01         0.00000E+00
    0.13365E-01        -0.28576E-01         0.00000E+00
    0.12628E-01        -0.27032E-01         0.00000E+00
    0.11889E-01        -0.25484E-01         0.00000E+00
    0.11149E-01        -0.23933E-01         0.00000E+00
    0.10407E-01        -0.22379E-01         0.00000E+00
    0.96633E-02        -0.20822E-01         0.00000E+00
    0.89179E-02        -0.19261E-01         0.00000E+00
    0.81708E-02        -0.17697E-01         0.00000E+00
    0.74214E-02        -0.16129E-01         0.00000E+00
    0.66703E-02        -0.14559E-01         0.00000E+00
    0.59189E-02        -0.12986E-01         0.00000E+00
    0.51682E-02        -0.11409E-01         0.00000E+00
    0.44181E-02        -0.98245E-02         0.00000E+00
    0.36711E-02        -0.82297E-02         0.00000E+00
    0.29264E-02        -0.66185E-02         0.00000E+00
    0.21864E-02        -0.49905E-02         0.00000E+00
    0.14524E-02        -0.33447E-02         0.00000E+00
    0.72383E-03        -0.16805E-02         0.00000E+00
    0.00000E+00         0.00000E+00         0.00000E+00
    0.36572E-01        -0.80363E-01         0.00000E+00
    0.35836E-01        -0.78821E-01         0.00000E+00
    0.35100E-01        -0.77279E-01         0.00000E+00
    0.34365E-01        -0.75736E-01         0.00000E+00
    0.33629E-01        -0.74193E-01         0.00000E+00
    0.32893E-01        -0.72649E-01         0.00000E+00
    0.32157E-01        -0.71105E-01         0.00000E+00
    0.31422E-01        -0.69559E-01         0.00000E+00
    0.30687E-01        -0.68012E-01         0.00000E+00
    0.29952E-01        -0.66464E-01         0.00000E+00
    0.29218E-01        -0.64915E-01         0.00000E+00
    0.28485E-01        -0.63363E-01         0.00000E+00
    0.27751E-01        -0.61810E-01         0.00000E+00
    0.27019E-01        -0.60256E-01         0.00000E+00
    0.26286E-01        -0.58699E-01         0.00000E+00
    0.25554E-01        -0.57140E-01         0.00000E+00
    0.24822E-01        -0.55579E-01         0.00000E+00
    0.24091E-01        -0.54015E-01         0.00000E+00
    0.23359E-01        -0.52449E-01         0.00000E+00
    0.22628E-01        -0.50881E-01         0.00000E+00
    0.21897E-01        -0.49310E-01         0.00000E+00
    0.21166E-01        -0.47736E-01         0.00000E+00
    0.20434E-01        -0.46160E-01         0.00000E+00
    0.19703E-01        -0.44580E-01         0.00000E+00
    0.18971E-01        -0.42998E-01         0.00000E+00
    0.18239E-01        -0.41413E-01         0.00000E+00
    0.17506E-01        -0.39825E-01         0.00000E+00
    0.16773E-01        -0.38234E-01         0.00000E+00
    0.16039E-01        -0.36640E-01         0.00000E+00
    0.15305E-01        -0.35042E-01         0.00000E+00
    0.14570E-01        -0.33441E-01         0.00000E+00
    0.13834E-01        -0.31837E-01         0.00000E+00
    0.13098E-01        -0.30229E-01         0.00000E+00
    0.12360E-01        -0.28618E-01         0.00000E+00
    0.11621E-01        -0.27004E-01         0.00000E+00
    0.10880E-01        -0.25386E-01         0.00000E+00
    0.10139E-01        -0.23765E-01         0.00000E+00
    0.93972E-02        -0.22141E-01         0.00000E+00
    0.86562E-02        -0.20514E-01         0.00000E+00
    0.79153E-02        -0.18880E-01         0.00000E+00
    0.71770E-02        -0.17237E-01         0.00000E+00
    0.64407E-02        -0.15582E-01         0.00000E+00
    0.57078E-02        -0.13912E-01         0.00000E+00
    0.49801E-02        -0.12227E-01         0.00000E+00
    0.42581E-02        -0.10527E-01         0.00000E+00
    0.35411E-02        -0.88093E-02         0.00000E+00
    0.28288E-02        -0.70765E-02         0.00000E+00
    0.21195E-02        -0.53283E-02         0.00000E+00
    0.14123E-02        -0.35656E-02         0.00000E+00
    0.70609E-03        -0.17893E-02         0.00000E+00
    0.00000E+00         0.00000E+00         0.00000E+00
    0.36722E-01        -0.84146E-01         0.00000E+00
    0.35945E-01        -0.82547E-01         0.00000E+00
    0.35169E-01        -0.80948E-01         0.00000E+00
    0.34395E-01        -0.79348E-01         0.00000E+00
    0.33624E-01        -0.77748E-01         0.00000E+00
    0.32854E-01        -0.76146E-01         0.00000E+00
    0.32087E-01        -0.74544E-01         0.00000E+00
    0.31322E-01        -0.72941E-01         0.00000E+00
    0.30560E-01        -0.71336E-01         0.00000E+00
    0.29800E-01        -0.69730E-01         0.00000E+00
    0.29042E-01        -0.68122E-01         0.00000E+00
    0.28286E-01        -0.66511E-01         0.00000E+00
    0.27532E-01        -0.64899E-01         0.00000E+00
    0.26781E-01        -0.63285E-01         0.00000E+00
    0.26031E-01        -0.61668E-01         0.00000E+00
    0.25284E-01        -0.60048E-01         0.00000E+00
    0.24537E-01        -0.58426E-01         0.00000E+00
    0.23793E-01        -0.56801E-01         0.00000E+00
    0.23050E-01        -0.55174E-01         0.00000E+00
    0.22308E-01        -0.53544E-01         0.00000E+00
    0.21567E-01        -0.51910E-01         0.00000E+00
    0.20828E-01        -0.50274E-01         0.00000E+00
    0.20089E-01        -0.48635E-01         0.00000E+00
    0.19351E-01        -0.46992E-01         0.00000E+00
    0.18614E-01        -0.45346E-01         0.00000E+00
    0.17877E-01        -0.43696E-01         0.00000E+00
    0.17141E-01        -0.42044E-01         0.00000E+00
    0.16405E-01        -0.40388E-01         0.00000E+00
    0.15668E-01        -0.38728E-01         0.00000E+00
    0.14931E-01        -0.37066E-01         0.00000E+00
    0.14195E-01        -0.35400E-01         0.00000E+00
    0.13459E-01        -0.33730E-01         0.00000E+00
    0.12724E-01        -0.32058E-01         0.00000E+00
    0.11990E-01        -0.30380E-01         0.00000E+00
    0.11257E-01        -0.28695E-01         0.00000E+00
    0.10526E-01        -0.27001E-01         0.00000E+00
    0.97986E-02        -0.25296E-01         0.00000E+00
    0.90744E-02        -0.23579E-01         0.00000E+00
    0.83555E-02        -0.21849E-01         0.00000E+00
    0.76421E-02        -0.20105E-01         0.00000E+00
    0.69339E-02        -0.18346E-01         0.00000E+00
    0.62307E-02        -0.16572E-01         0.00000E+00
    0.55316E-02        -0.14784E-01         0.00000E+00
    0.48359E-02        -0.12982E-01         0.00000E+00
    0.41430E-02        -0.11165E-01         0.00000E+00
    0.34520E-02        -0.93357E-02         0.00000E+00
    0.27622E-02        -0.74930E-02         0.00000E+00
    0.20730E-02        -0.56378E-02         0.00000E+00
    0.13835E-02        -0.37704E-02         0.00000E+00
    0.69275E-03        -0.18910E-02         0.00000E+00
    0.00000E+00         0.00000E+00         0.00000E+00
    0.36707E-01        -0.88149E-01         0.00000E+00
    0.35886E-01        -0.86492E-01         0.00000E+00
    0.35069E-01        -0.84835E-01         0.00000E+00
    0.34256E-01        -0.83177E-01         0.00000E+00
    0.33447E-01        -0.81519E-01         0.00000E+00
    0.32644E-01        -0.79859E-01         0.00000E+00
    0.31845E-01        -0.78198E-01         0.00000E+00
    0.31051E-01        -0.76536E-01         0.00000E+00
    0.30262E-01        -0.74871E-01         0.00000E+00
    0.29478E-01        -0.73205E-01         0.00000E+00
    0.28698E-01        -0.71536E-01         0.00000E+00
    0.27922E-01        -0.69865E-01         0.00000E+00
    0.27151E-01        -0.68192E-01         0.00000E+00
    0.26383E-01        -0.66516E-01         0.00000E+00
    0.25619E-01        -0.64837E-01         0.00000E+00
    0.24858E-01        -0.63155E-01         0.00000E+00
    0.24100E-01        -0.61470E-01         0.00000E+00
    0.23345E-01        -0.59782E-01         0.00000E+00
    0.22593E-01        -0.58091E-01         0.00000E+00
    0.21842E-01        -0.56397E-01         0.00000E+00
    0.21094E-01        -0.54700E-01         0.00000E+00
    0.20348E-01        -0.52999E-01         0.00000E+00
    0.19604E-01        -0.51295E-01         0.00000E+00
    0.18862E-01        -0.49588E-01         0.00000E+00
    0.18122E-01        -0.47878E-01         0.00000E+00
    0.17384E-01        -0.46164E-01         0.00000E+00
    0.16648E-01        -0.44446E-01         0.00000E+00
    0.15914E-01        -0.42723E-01         0.00000E+00
    0.15183E-01        -0.40993E-01         0.00000E+00
    0.14455E-01        -0.39254E-01         0.00000E+00
    0.13729E-01        -0.37506E-01         0.00000E+00
    0.13008E-01        -0.35748E-01         0.00000E+00
    0.12292E-01        -0.33980E-01         0.00000E+00
    0.11581E-01        -0.32201E-01         0.00000E+00
    0.10876E-01        -0.30409E-01         0.00000E+00
    0.10176E-01        -0.28604E-01         0.00000E+00
    0.94814E-02        -0.26787E-01         0.00000E+00
    0.87913E-02        -0.24956E-01         0.00000E+00
    0.81053E-02        -0.23111E-01         0.00000E+00
    0.74233E-02        -0.21253E-01         0.00000E+00
    0.67446E-02        -0.19382E-01         0.00000E+00
    0.60686E-02        -0.17498E-01         0.00000E+00
    0.53950E-02        -0.15601E-01         0.00000E+00
    0.47229E-02        -0.13692E-01         0.00000E+00
    0.40516E-02        -0.11771E-01         0.00000E+00
    0.33804E-02        -0.98380E-02         0.00000E+00
    0.27085E-02        -0.78929E-02         0.00000E+00
    0.20355E-02        -0.59363E-02         0.00000E+00
    0.13604E-02        -0.39684E-02         0.00000E+00
    0.68223E-03        -0.19895E-02         0.00000E+00
    0.00000E+00         0.00000E+00         0.00000E+00
    0.36505E-01        -0.92403E-01         0.00000E+00
    0.35628E-01        -0.90680E-01         0.00000E+00
    0.34763E-01        -0.88963E-01         0.00000E+00
    0.33908E-01        -0.87245E-01         0.00000E+00
    0.33063E-01        -0.85525E-01         0.00000E+00
    0.32227E-01        -0.83803E-01         0.00000E+00
    0.31399E-01        -0.82080E-01         0.00000E+00
    0.30580E-01        -0.80354E-01         0.00000E+00
    0.29767E-01        -0.78626E-01         0.00000E+00
    0.28962E-01        -0.76895E-01         0.00000E+00
    0.28163E-01        -0.75162E-01         0.00000E+00
    0.27370E-01        -0.73427E-01         0.00000E+00
    0.26584E-01        -0.71689E-01         0.00000E+00
    0.25803E-01        -0.69948E-01         0.00000E+00
    0.25028E-01        -0.68205E-01         0.00000E+00
    0.24258E-01        -0.66459E-01         0.00000E+00
    0.23492E-01        -0.64710E-01         0.00000E+00
    0.22731E-01        -0.62958E-01         0.00000E+00
    0.21974E-01        -0.61202E-01         0.00000E+00
    0.21221E-01        -0.59441E-01         0.00000E+00
    0.20474E-01        -0.57674E-01         0.00000E+00
    0.19730E-01        -0.55901E-01         0.00000E+00
    0.18991E-01        -0.54122E-01         0.00000E+00
    0.18257E-01        -0.52335E-01         0.00000E+00
    0.17527E-01        -0.50542E-01         0.00000E+00
    0.16803E-01        -0.48741E-01         0.00000E+00
    0.16085E-01        -0.46931E-01         0.00000E+00
    0.15373E-01        -0.45111E-01         0.00000E+00
    0.14666E-01        -0.43280E-01         0.00000E+00
    0.13966E-01        -0.41439E-01         0.00000E+00
    0.13271E-01        -0.39587E-01         0.00000E+00
    0.12581E-01        -0.37722E-01         0.00000E+00
    0.11897E-01        -0.35845E-01         0.00000E+00
    0.11218E-01        -0.33956E-01         0.00000E+00
    0.10544E-01        -0.32055E-01         0.00000E+00
    0.98746E-02        -0.30141E-01         0.00000E+00
    0.92093E-02        -0.28214E-01         0.00000E+00
    0.85476E-02        -0.26276E-01         0.00000E+00
    0.78891E-02        -0.24325E-01         0.00000E+00
    0.72331E-02        -0.22361E-01         0.00000E+00
    0.65790E-02        -0.20386E-01         0.00000E+00
    0.59262E-02        -0.18398E-01         0.00000E+00
    0.52742E-02        -0.16399E-01         0.00000E+00
    0.46223E-02        -0.14388E-01         0.00000E+00
    0.39700E-02        -0.12365E-01         0.00000E+00
    0.33164E-02        -0.10331E-01         0.00000E+00
    0.26606E-02        -0.82860E-02         0.00000E+00
    0.20019E-02        -0.62300E-02         0.00000E+00
    0.13395E-02        -0.41635E-02         0.00000E+00
    0.67263E-03        -0.20868E-02         0.00000E+00
    0.00000E+00         0.00000E+00         0.00000E+00
    0.36089E-01        -0.96983E-01         0.00000E+00
    0.35156E-01        -0.95176E-01         0.00000E+00
    0.34242E-01        -0.93374E-01         0.00000E+00
    0.33346E-01        -0.91575E-01         0.00000E+00
    0.32465E-01        -0.89778E-01         0.00000E+00
    0.31598E-01        -0.87982E-01         0.00000E+00
    0.30744E-01        -0.86186E-01         0.00000E+00
    0.29902E-01        -0.84389E-01         0.00000E+00
    0.29070E-01        -0.82591E-01         0.00000E+00
    0.28249E-01        -0.80790E-01         0.00000E+00
    0.27437E-01        -0.78987E-01         0.00000E+00
    0.26634E-01        -0.77180E-01         0.00000E+00
    0.25840E-01        -0.75370E-01         0.00000E+00
    0.25054E-01        -0.73556E-01         0.00000E+00
    0.24276E-01        -0.71738E-01         0.00000E+00
    0.23506E-01        -0.69916E-01         0.00000E+00
    0.22744E-01        -0.68088E-01         0.00000E+00
    0.21990E-01        -0.66254E-01         0.00000E+00
    0.21243E-01        -0.64413E-01         0.00000E+00
    0.20505E-01        -0.62565E-01         0.00000E+00
    0.19773E-01        -0.60710E-01         0.00000E+00
    0.19049E-01        -0.58846E-01         0.00000E+00
    0.18332E-01        -0.56974E-01         0.00000E+00
    0.17621E-01        -0.55092E-01         0.00000E+00
    0.16918E-01        -0.53200E-01         0.00000E+00
    0.16222E-01        -0.51298E-01         0.00000E+00
    0.15532E-01        -0.49385E-01         0.00000E+00
    0.14849E-01        -0.47462E-01         0.00000E+00
    0.14173E-01        -0.45527E-01         0.00000E+00
    0.13503E-01        -0.43580E-01         0.00000E+00
    0.12838E-01        -0.41622E-01         0.00000E+00
    0.12180E-01        -0.39652E-01         0.00000E+00
    0.11526E-01        -0.37670E-01         0.00000E+00
    0.10877E-01        -0.35676E-01         0.00000E+00
    0.10232E-01        -0.33669E-01         0.00000E+00
    0.95909E-02        -0.31651E-01         0.00000E+00
    0.89528E-02        -0.29620E-01         0.00000E+00
    0.83174E-02        -0.27578E-01         0.00000E+00
    0.76841E-02        -0.25524E-01         0.00000E+00
    0.70522E-02        -0.23458E-01         0.00000E+00
    0.64214E-02        -0.21380E-01         0.00000E+00
    0.57907E-02        -0.19290E-01         0.00000E+00
    0.51594E-02        -0.17190E-01         0.00000E+00
    0.45269E-02        -0.15078E-01         0.00000E+00
    0.38926E-02        -0.12955E-01         0.00000E+00
    0.32558E-02        -0.10821E-01         0.00000E+00
    0.26155E-02        -0.86770E-02         0.00000E+00
    0.19707E-02        -0.65225E-02         0.00000E+00
    0.13204E-02        -0.43580E-02         0.00000E+00
    0.66372E-03        -0.21837E-02         0.00000E+00
    0.00000E+00         0.00000E+00         0.00000E+00
    0.35403E-01        -0.10178E+00         0.00000E+00
    0.34439E-01        -0.99897E-01         0.00000E+00
    0.33495E-01        -0.98012E-01         0.00000E+00
    0.32570E-01        -0.96128E-01         0.00000E+00
    0.31664E-01        -0.94246E-01         0.00000E+00
    0.30775E-01        -0.92365E-01         0.00000E+00
    0.29903E-01        -0.90484E-01         0.00000E+00
    0.29046E-01        -0.88602E-01         0.00000E+00
    0.28204E-01        -0.86719E-01         0.00000E+00
    0.27376E-01        -0.84833E-01         0.00000E+00
    0.26561E-01        -0.82945E-01         0.00000E+00
    0.25759E-01        -0.81053E-01         0.00000E+00
    0.24969E-01        -0.79156E-01         0.00000E+00
    0.24191E-01        -0.77254E-01         0.00000E+00
    0.23423E-01        -0.75347E-01         0.00000E+00
    0.22667E-01        -0.73433E-01         0.00000E+00
    0.21921E-01        -0.71513E-01         0.00000E+00
    0.21185E-01        -0.69585E-01         0.00000E+00
    0.20459E-01        -0.67649E-01         0.00000E+00
    0.19743E-01        -0.65704E-01         0.00000E+00
    0.19036E-01        -0.63751E-01         0.00000E+00
    0.18338E-01        -0.61789E-01         0.00000E+00
    0.17648E-01        -0.59816E-01         0.00000E+00
    0.16968E-01        -0.57834E-01         0.00000E+00
    0.16295E-01        -0.55840E-01         0.00000E+00
    0.15630E-01        -0.53836E-01         0.00000E+00
    0.14972E-01        -0.51821E-01         0.00000E+00
    0.14321E-01        -0.49794E-01         0.00000E+00
    0.13677E-01        -0.47755E-01         0.00000E+00
    0.13038E-01        -0.45705E-01         0.00000E+00
    0.12406E-01        -0.43643E-01         0.00000E+00
    0.11778E-01        -0.41569E-01         0.00000E+00
    0.11155E-01        -0.39483E-01         0.00000E+00
    0.10536E-01        -0.37386E-01         0.00000E+00
    0.99204E-02        -0.35276E-01         0.00000E+00
    0.93079E-02        -0.33155E-01         0.00000E+00
    0.86975E-02        -0.31021E-01         0.00000E+00
    0.80889E-02        -0.28876E-01         0.00000E+00
    0.74812E-02        -0.26720E-01         0.00000E+00
    0.68738E-02        -0.24551E-01         0.00000E+00
    0.62662E-02        -0.22372E-01         0.00000E+00
    0.56578E-02        -0.20181E-01         0.00000E+00
    0.50475E-02        -0.17979E-01         0.00000E+00
    0.44347E-02        -0.15767E-01         0.00000E+00
    0.38184E-02        -0.13544E-01         0.00000E+00
    0.31977E-02        -0.11311E-01         0.00000E+00
    0.25720E-02        -0.90673E-02         0.00000E+00
    0.19406E-02        -0.68142E-02         0.00000E+00
    0.13026E-02        -0.45518E-02         0.00000E+00
    0.65597E-03        -0.22803E-02         0.00000E+00
    0.00000E+00         0.00000E+00         0.00000E+00
    0.34396E-01        -0.10668E+00         0.00000E+00
    0.33424E-01        -0.10472E+00         0.00000E+00
    0.32474E-01        -0.10275E+00         0.00000E+00
    0.31543E-01        -0.10078E+00         0.00000E+00
    0.30632E-01        -0.98816E-01         0.00000E+00
    0.29740E-01        -0.96847E-01         0.00000E+00
    0.28867E-01        -0.94876E-01         0.00000E+00
    0.28012E-01        -0.92903E-01         0.00000E+00
    0.27173E-01        -0.90928E-01         0.00000E+00
    0.26352E-01        -0.88949E-01         0.00000E+00
    0.25546E-01        -0.86966E-01         0.00000E+00
    0.24756E-01        -0.84979E-01         0.00000E+00
    0.23981E-01        -0.82986E-01         0.00000E+00
    0.23219E-01        -0.80988E-01         0.00000E+00
    0.22472E-01        -0.78984E-01         0.00000E+00
    0.21737E-01        -0.76972E-01         0.00000E+00
    0.21016E-01        -0.74953E-01         0.00000E+00
    0.20306E-01        -0.72926E-01         0.00000E+00
    0.19608E-01        -0.70890E-01         0.00000E+00
    0.18921E-01        -0.68845E-01         0.00000E+00
    0.18245E-01        -0.66791E-01         0.00000E+00
    0.17579E-01        -0.64727E-01         0.00000E+00
    0.16922E-01        -0.62653E-01         0.00000E+00
    0.16275E-01        -0.60568E-01         0.00000E+00
    0.15636E-01        -0.58472E-01         0.00000E+00
    0.15006E-01        -0.56366E-01         0.00000E+00
    0.14383E-01        -0.54247E-01         0.00000E+00
    0.13767E-01        -0.52118E-01         0.00000E+00
    0.13157E-01        -0.49977E-01         0.00000E+00
    0.12553E-01        -0.47824E-01         0.00000E+00
    0.11955E-01        -0.45659E-01         0.00000E+00
    0.11361E-01        -0.43482E-01         0.00000E+00
    0.10771E-01        -0.41294E-01         0.00000E+00
    0.10184E-01        -0.39093E-01         0.00000E+00
    0.95998E-02        -0.36881E-01         0.00000E+00
    0.90177E-02        -0.34657E-01         0.00000E+00
    0.84369E-02        -0.32421E-01         0.00000E+00
    0.78567E-02        -0.30174E-01         0.00000E+00
    0.72763E-02        -0.27915E-01         0.00000E+00
    0.66951E-02        -0.25645E-01         0.00000E+00
    0.61120E-02        -0.23364E-01         0.00000E+00
    0.55263E-02        -0.21072E-01         0.00000E+00
    0.49375E-02        -0.18769E-01         0.00000E+00
    0.43446E-02        -0.16456E-01         0.00000E+00
    0.37470E-02        -0.14133E-01         0.00000E+00
    0.31433E-02        -0.11800E-01         0.00000E+00
    0.25327E-02        -0.94577E-02         0.00000E+00
    0.19140E-02        -0.71062E-02         0.00000E+00
    0.12863E-02        -0.47457E-02         0.00000E+00
    0.64842E-03        -0.23769E-02         0.00000E+00
    0.00000E+00         0.00000E+00         0.00000E+00
    0.33043E-01        -0.11157E+00         0.00000E+00
    0.32083E-01        -0.10953E+00         0.00000E+00
    0.31144E-01        -0.10748E+00         0.00000E+00
    0.30227E-01        -0.10543E+00         0.00000E+00
    0.29331E-01        -0.10338E+00         0.00000E+00
    0.28455E-01        -0.10132E+00         0.00000E+00
    0.27599E-01        -0.99262E-01         0.00000E+00
    0.26762E-01        -0.97198E-01         0.00000E+00
    0.25943E-01        -0.95131E-01         0.00000E+00
    0.25143E-01        -0.93058E-01         0.00000E+00
    0.24360E-01        -0.90980E-01         0.00000E+00
    0.23595E-01        -0.88896E-01         0.00000E+00
    0.22846E-01        -0.86807E-01         0.00000E+00
    0.22112E-01        -0.84710E-01         0.00000E+00
    0.21394E-01        -0.82607E-01         0.00000E+00
    0.20691E-01        -0.80496E-01         0.00000E+00
    0.20002E-01        -0.78377E-01         0.00000E+00
    0.19326E-01        -0.76249E-01         0.00000E+00
    0.18663E-01        -0.74113E-01         0.00000E+00
    0.18012E-01        -0.71967E-01         0.00000E+00
    0.17373E-01        -0.69812E-01         0.00000E+00
    0.16745E-01        -0.67647E-01         0.00000E+00
    0.16127E-01        -0.65471E-01         0.00000E+00
    0.15519E-01        -0.63285E-01         0.00000E+00
    0.14919E-01        -0.61087E-01         0.00000E+00
    0.14328E-01        -0.58879E-01         0.00000E+00
    0.13745E-01        -0.56659E-01         0.00000E+00
    0.13168E-01        -0.54428E-01         0.00000E+00
    0.12598E-01        -0.52185E-01         0.00000E+00
    0.12032E-01        -0.49930E-01         0.00000E+00
    0.11472E-01        -0.47664E-01         0.00000E+00
    0.10916E-01        -0.45386E-01         0.00000E+00
    0.10362E-01        -0.43095E-01         0.00000E+00
    0.98116E-02        -0.40793E-01         0.00000E+00
    0.92625E-02        -0.38479E-01         0.00000E+00
    0.87142E-02        -0.36153E-01         0.00000E+00
    0.81659E-02        -0.33816E-01         0.00000E+00
    0.76168E-02        -0.31467E-01         0.00000E+00
    0.70661E-02        -0.29107E-01         0.00000E+00
    0.65132E-02        -0.26735E-01         0.00000E+00
    0.59570E-02        -0.24353E-01         0.00000E+00
    0.53965E-02        -0.21960E-01         0.00000E+00
    0.48309E-02        -0.19557E-01         0.00000E+00
    0.42590E-02        -0.17143E-01         0.00000E+00
    0.36797E-02        -0.14720E-01         0.00000E+00
    0.30921E-02        -0.12287E-01         0.00000E+00
    0.24957E-02        -0.98459E-02         0.00000E+00
    0.18897E-02        -0.73960E-02         0.00000E+00
    0.12727E-02        -0.49381E-02         0.00000E+00
    0.64345E-03        -0.24726E-02         0.00000E+00
    0.00000E+00         0.00000E+00         0.00000E+00
    0.31324E-01        -0.11637E+00         0.00000E+00
    0.30390E-01        -0.11425E+00         0.00000E+00
    0.29480E-01        -0.11212E+00         0.00000E+00
    0.28592E-01        -0.10999E+00         0.00000E+00
    0.27726E-01        -0.10785E+00         0.00000E+00
    0.26881E-01        -0.10571E+00         0.00000E+00
    0.26057E-01        -0.10356E+00         0.00000E+00
    0.25254E-01        -0.10141E+00         0.00000E+00
    0.24470E-01        -0.99251E-01         0.00000E+00
    0.23706E-01        -0.97087E-01         0.00000E+00
    0.22960E-01        -0.94917E-01         0.00000E+00
    0.22232E-01        -0.92739E-01         0.00000E+00
    0.21521E-01        -0.90555E-01         0.00000E+00
    0.20828E-01        -0.88363E-01         0.00000E+00
    0.20150E-01        -0.86163E-01         0.00000E+00
    0.19489E-01        -0.83955E-01         0.00000E+00
    0.18842E-01        -0.81738E-01         0.00000E+00
    0.18209E-01        -0.79513E-01         0.00000E+00
    0.17590E-01        -0.77278E-01         0.00000E+00
    0.16983E-01        -0.75034E-01         0.00000E+00
    0.16389E-01        -0.72780E-01         0.00000E+00
    0.15806E-01        -0.70515E-01         0.00000E+00
    0.15234E-01        -0.68241E-01         0.00000E+00
    0.14671E-01        -0.65955E-01         0.00000E+00
    0.14117E-01        -0.63659E-01         0.00000E+00
    0.13572E-01        -0.61352E-01         0.00000E+00
    0.13034E-01        -0.59033E-01         0.00000E+00
    0.12503E-01        -0.56702E-01         0.00000E+00
    0.11978E-01        -0.54361E-01         0.00000E+00
    0.11457E-01        -0.52007E-01         0.00000E+00
    0.10941E-01        -0.49641E-01         0.00000E+00
    0.10427E-01        -0.47264E-01         0.00000E+00
    0.99163E-02        -0.44874E-01         0.00000E+00
    0.94066E-02        -0.42472E-01         0.00000E+00
    0.88975E-02        -0.40059E-01         0.00000E+00
    0.83879E-02        -0.37634E-01         0.00000E+00
    0.78769E-02        -0.35197E-01         0.00000E+00
    0.73635E-02        -0.32748E-01         0.00000E+00
    0.68468E-02        -0.30288E-01         0.00000E+00
    0.63254E-02        -0.27816E-01         0.00000E+00
    0.57985E-02        -0.25334E-01         0.00000E+00
    0.52651E-02        -0.22841E-01         0.00000E+00
    0.47244E-02        -0.20338E-01         0.00000E+00
    0.41754E-02        -0.17825E-01         0.00000E+00
    0.36172E-02        -0.15303E-01         0.00000E+00
    0.30482E-02        -0.12772E-01         0.00000E+00
    0.24670E-02        -0.10233E-01         0.00000E+00
    0.18727E-02        -0.76853E-02         0.00000E+00
    0.12643E-02        -0.51303E-02         0.00000E+00
    0.64038E-03        -0.25684E-02         0.00000E+00
    0.00000E+00         0.00000E+00         0.00000E+00
    0.29214E-01        -0.12101E+00         0.00000E+00
    0.28320E-01        -0.11880E+00         0.00000E+00
    0.27451E-01        -0.11659E+00         0.00000E+00
    0.26605E-01        -0.11438E+00         0.00000E+00
    0.25783E-01        -0.11216E+00         0.00000E+00
    0.24983E-01        -0.10994E+00         0.00000E+00
    0.24205E-01        -0.10770E+00         0.00000E+00
    0.23449E-01        -0.10547E+00         0.00000E+00
    0.22713E-01        -0.10322E+00         0.00000E+00
    0.21998E-01        -0.10097E+00         0.00000E+00
    0.21302E-01        -0.98710E-01         0.00000E+00
    0.20624E-01        -0.96443E-01         0.00000E+00
    0.19965E-01        -0.94167E-01         0.00000E+00
    0.19323E-01        -0.91884E-01         0.00000E+00
    0.18697E-01        -0.89592E-01         0.00000E+00
    0.18088E-01        -0.87291E-01         0.00000E+00
    0.17494E-01        -0.84980E-01         0.00000E+00
    0.16914E-01        -0.82661E-01         0.00000E+00
    0.16348E-01        -0.80332E-01         0.00000E+00
    0.15795E-01        -0.77994E-01         0.00000E+00
    0.15255E-01        -0.75645E-01         0.00000E+00
    0.14725E-01        -0.73286E-01         0.00000E+00
    0.14207E-01        -0.70917E-01         0.00000E+00
    0.13698E-01        -0.68537E-01         0.00000E+00
    0.13198E-01        -0.66146E-01         0.00000E+00
    0.12706E-01        -0.63744E-01         0.00000E+00
    0.12222E-01        -0.61331E-01         0.00000E+00
    0.11743E-01        -0.58906E-01         0.00000E+00
    0.11270E-01        -0.56470E-01         0.00000E+00
    0.10802E-01        -0.54022E-01         0.00000E+00
    0.10336E-01        -0.51561E-01         0.00000E+00
    0.98732E-02        -0.49089E-01         0.00000E+00
    0.94115E-02        -0.46605E-01         0.00000E+00
    0.89501E-02        -0.44109E-01         0.00000E+00
    0.84877E-02        -0.41600E-01         0.00000E+00
    0.80233E-02        -0.39079E-01         0.00000E+00
    0.75556E-02        -0.36546E-01         0.00000E+00
    0.70835E-02        -0.34001E-01         0.00000E+00
    0.66059E-02        -0.31445E-01         0.00000E+00
    0.61218E-02        -0.28877E-01         0.00000E+00
    0.56300E-02        -0.26298E-01         0.00000E+00
    0.51289E-02        -0.23708E-01         0.00000E+00
    0.46173E-02        -0.21108E-01         0.00000E+00
    0.40940E-02        -0.18497E-01         0.00000E+00
    0.35578E-02        -0.15878E-01         0.00000E+00
    0.30075E-02        -0.13249E-01         0.00000E+00
    0.24417E-02        -0.10613E-01         0.00000E+00
    0.18587E-02        -0.79694E-02         0.00000E+00
    0.12580E-02        -0.53189E-02         0.00000E+00
    0.63877E-03        -0.26622E-02         0.00000E+00
    0.00000E+00         0.00000E+00         0.00000E+00
    0.26683E-01        -0.12542E+00         0.00000E+00
    0.25841E-01        -0.12313E+00         0.00000E+00
    0.25026E-01        -0.12084E+00         0.00000E+00
    0.24236E-01        -0.11855E+00         0.00000E+00
    0.23470E-01        -0.11625E+00         0.00000E+00
    0.22729E-01        -0.11394E+00         0.00000E+00
    0.22010E-01        -0.11163E+00         0.00000E+00
    0.21314E-01        -0.10931E+00         0.00000E+00
    0.20638E-01        -0.10698E+00         0.00000E+00
    0.19984E-01        -0.10464E+00         0.00000E+00
    0.19350E-01        -0.10229E+00         0.00000E+00
    0.18734E-01        -0.99941E-01         0.00000E+00
    0.18138E-01        -0.97579E-01         0.00000E+00
    0.17558E-01        -0.95207E-01         0.00000E+00
    0.16996E-01        -0.92827E-01         0.00000E+00
    0.16450E-01        -0.90438E-01         0.00000E+00
    0.15918E-01        -0.88039E-01         0.00000E+00
    0.15402E-01        -0.85631E-01         0.00000E+00
    0.14899E-01        -0.83214E-01         0.00000E+00
    0.14409E-01        -0.80786E-01         0.00000E+00
    0.13931E-01        -0.78349E-01         0.00000E+00
    0.13464E-01        -0.75901E-01         0.00000E+00
    0.13008E-01        -0.73443E-01         0.00000E+00
    0.12562E-01        -0.70975E-01         0.00000E+00
    0.12124E-01        -0.68495E-01         0.00000E+00
    0.11693E-01        -0.66005E-01         0.00000E+00
    0.11270E-01        -0.63504E-01         0.00000E+00
    0.10852E-01        -0.60991E-01         0.00000E+00
    0.10440E-01        -0.58467E-01         0.00000E+00
    0.10031E-01        -0.55931E-01         0.00000E+00
    0.96243E-02        -0.53383E-01         0.00000E+00
    0.92196E-02        -0.50823E-01         0.00000E+00
    0.88151E-02        -0.48251E-01         0.00000E+00
    0.84097E-02        -0.45667E-01         0.00000E+00
    0.80022E-02        -0.43070E-01         0.00000E+00
    0.75913E-02        -0.40461E-01         0.00000E+00
    0.71757E-02        -0.37839E-01         0.00000E+00
    0.67539E-02        -0.35205E-01         0.00000E+00
    0.63243E-02        -0.32559E-01         0.00000E+00
    0.58854E-02        -0.29900E-01         0.00000E+00
    0.54356E-02        -0.27229E-01         0.00000E+00
    0.49735E-02        -0.24547E-01         0.00000E+00
    0.44969E-02        -0.21854E-01         0.00000E+00
    0.40042E-02        -0.19150E-01         0.00000E+00
    0.34939E-02        -0.16437E-01         0.00000E+00
    0.29647E-02        -0.13714E-01         0.00000E+00
    0.24154E-02        -0.10984E-01         0.00000E+00
    0.18450E-02        -0.82458E-02         0.00000E+00
    0.12530E-02        -0.55019E-02         0.00000E+00
    0.63816E-03        -0.27530E-02         0.00000E+00
    0.00000E+00         0.00000E+00         0.00000E+00
    0.23697E-01        -0.12953E+00         0.00000E+00
    0.22922E-01        -0.12717E+00         0.00000E+00
    0.22175E-01        -0.12480E+00         0.00000E+00
    0.21455E-01        -0.12243E+00         0.00000E+00
    0.20759E-01        -0.12005E+00         0.00000E+00
    0.20089E-01        -0.11766E+00         0.00000E+00
    0.19442E-01        -0.11527E+00         0.00000E+00
    0.18818E-01        -0.11286E+00         0.00000E+00
    0.18216E-01        -0.11045E+00         0.00000E+00
    0.17635E-01        -0.10803E+00         0.00000E+00
    0.17074E-01        -0.10560E+00         0.00000E+00
    0.16533E-01        -0.10317E+00         0.00000E+00
    0.16009E-01        -0.10072E+00         0.00000E+00
    0.15503E-01        -0.98267E-01         0.00000E+00
    0.15013E-01        -0.95803E-01         0.00000E+00
    0.14540E-01        -0.93331E-01         0.00000E+00
    0.14081E-01        -0.90849E-01         0.00000E+00
    0.13636E-01        -0.88358E-01         0.00000E+00
    0.13205E-01        -0.85857E-01         0.00000E+00
    0.12787E-01        -0.83346E-01         0.00000E+00
    0.12380E-01        -0.80826E-01         0.00000E+00
    0.11983E-01        -0.78296E-01         0.00000E+00
    0.11597E-01        -0.75756E-01         0.00000E+00
    0.11220E-01        -0.73205E-01         0.00000E+00
    0.10852E-01        -0.70644E-01         0.00000E+00
    0.10490E-01        -0.68073E-01         0.00000E+00
    0.10135E-01        -0.65491E-01         0.00000E+00
    0.97858E-02        -0.62898E-01         0.00000E+00
    0.94405E-02        -0.60294E-01         0.00000E+00
    0.90984E-02        -0.57679E-01         0.00000E+00
    0.87584E-02        -0.55052E-01         0.00000E+00
    0.84194E-02        -0.52413E-01         0.00000E+00
    0.80801E-02        -0.49763E-01         0.00000E+00
    0.77393E-02        -0.47101E-01         0.00000E+00
    0.73956E-02        -0.44426E-01         0.00000E+00
    0.70474E-02        -0.41738E-01         0.00000E+00
    0.66932E-02        -0.39038E-01         0.00000E+00
    0.63311E-02        -0.36325E-01         0.00000E+00
    0.59595E-02        -0.33599E-01         0.00000E+00
    0.55761E-02        -0.30860E-01         0.00000E+00
    0.51787E-02        -0.28108E-01         0.00000E+00
    0.47653E-02        -0.25344E-01         0.00000E+00
    0.43339E-02        -0.22568E-01         0.00000E+00
    0.38824E-02        -0.19779E-01         0.00000E+00
    0.34092E-02        -0.16980E-01         0.00000E+00
    0.29125E-02        -0.14170E-01         0.00000E+00
    0.23906E-02        -0.11350E-01         0.00000E+00
    0.18401E-02        -0.85219E-02         0.00000E+00
    0.12593E-02        -0.56865E-02         0.00000E+00
    0.64662E-03        -0.28452E-02         0.00000E+00
    0.00000E+00         0.00000E+00         0.00000E+00
    0.20226E-01        -0.13328E+00         0.00000E+00
    0.19534E-01        -0.13084E+00         0.00000E+00
    0.18870E-01        -0.12840E+00         0.00000E+00
    0.18234E-01        -0.12595E+00         0.00000E+00
    0.17624E-01        -0.12349E+00         0.00000E+00
    0.17039E-01        -0.12102E+00         0.00000E+00
    0.16478E-01        -0.11855E+00         0.00000E+00
    0.15940E-01        -0.11606E+00         0.00000E+00
    0.15424E-01        -0.11357E+00         0.00000E+00
    0.14927E-01        -0.11107E+00         0.00000E+00
    0.14451E-01        -0.10857E+00         0.00000E+00
    0.13992E-01        -0.10605E+00         0.00000E+00
    0.13552E-01        -0.10353E+00         0.00000E+00
    0.13128E-01        -0.10099E+00         0.00000E+00
    0.12720E-01        -0.98452E-01         0.00000E+00
    0.12328E-01        -0.95901E-01         0.00000E+00
    0.11950E-01        -0.93341E-01         0.00000E+00
    0.11585E-01        -0.90772E-01         0.00000E+00
    0.11233E-01        -0.88193E-01         0.00000E+00
    0.10893E-01        -0.85606E-01         0.00000E+00
    0.10564E-01        -0.83009E-01         0.00000E+00
    0.10245E-01        -0.80402E-01         0.00000E+00
    0.99354E-02        -0.77786E-01         0.00000E+00
    0.96340E-02        -0.75161E-01         0.00000E+00
    0.93401E-02        -0.72526E-01         0.00000E+00
    0.90528E-02        -0.69881E-01         0.00000E+00
    0.87711E-02        -0.67227E-01         0.00000E+00
    0.84942E-02        -0.64562E-01         0.00000E+00
    0.82211E-02        -0.61887E-01         0.00000E+00
    0.79508E-02        -0.59203E-01         0.00000E+00
    0.76822E-02        -0.56507E-01         0.00000E+00
    0.74144E-02        -0.53801E-01         0.00000E+00
    0.71461E-02        -0.51083E-01         0.00000E+00
    0.68759E-02        -0.48354E-01         0.00000E+00
    0.66025E-02        -0.45613E-01         0.00000E+00
    0.63244E-02        -0.42861E-01         0.00000E+00
    0.60397E-02        -0.40095E-01         0.00000E+00
    0.57465E-02        -0.37317E-01         0.00000E+00
    0.54428E-02        -0.34526E-01         0.00000E+00
    0.51265E-02        -0.31721E-01         0.00000E+00
    0.47954E-02        -0.28903E-01         0.00000E+00
    0.44470E-02        -0.26071E-01         0.00000E+00
    0.40788E-02        -0.23224E-01         0.00000E+00
    0.36885E-02        -0.20363E-01         0.00000E+00
    0.32720E-02        -0.17487E-01         0.00000E+00
    0.28249E-02        -0.14598E-01         0.00000E+00
    0.23435E-02        -0.11696E-01         0.00000E+00
    0.18227E-02        -0.87826E-02         0.00000E+00
    0.12598E-02        -0.58605E-02         0.00000E+00
    0.65336E-03        -0.29320E-02         0.00000E+00
    0.00000E+00         0.00000E+00         0.00000E+00
    0.16238E-01        -0.13657E+00         0.00000E+00
    0.15644E-01        -0.13406E+00         0.00000E+00
    0.15084E-01        -0.13154E+00         0.00000E+00
    0.14552E-01        -0.12901E+00         0.00000E+00
    0.14045E-01        -0.12648E+00         0.00000E+00
    0.13561E-01        -0.12393E+00         0.00000E+00
    0.13099E-01        -0.12138E+00         0.00000E+00
    0.12658E-01        -0.11883E+00         0.00000E+00
    0.12237E-01        -0.11626E+00         0.00000E+00
    0.11835E-01        -0.11369E+00         0.00000E+00
    0.11453E-01        -0.11111E+00         0.00000E+00
    0.11088E-01        -0.10852E+00         0.00000E+00
    0.10740E-01        -0.10592E+00         0.00000E+00
    0.10408E-01        -0.10332E+00         0.00000E+00
    0.10091E-01        -0.10070E+00         0.00000E+00
    0.97881E-02        -0.98077E-01         0.00000E+00
    0.94985E-02        -0.95444E-01         0.00000E+00
    0.92210E-02        -0.92802E-01         0.00000E+00
    0.89549E-02        -0.90152E-01         0.00000E+00
    0.86991E-02        -0.87493E-01         0.00000E+00
    0.84528E-02        -0.84825E-01         0.00000E+00
    0.82151E-02        -0.82149E-01         0.00000E+00
    0.79852E-02        -0.79465E-01         0.00000E+00
    0.77623E-02        -0.76772E-01         0.00000E+00
    0.75456E-02        -0.74072E-01         0.00000E+00
    0.73343E-02        -0.71362E-01         0.00000E+00
    0.71278E-02        -0.68645E-01         0.00000E+00
    0.69252E-02        -0.65919E-01         0.00000E+00
    0.67257E-02        -0.63184E-01         0.00000E+00
    0.65286E-02        -0.60440E-01         0.00000E+00
    0.63328E-02        -0.57687E-01         0.00000E+00
    0.61374E-02        -0.54925E-01         0.00000E+00
    0.59416E-02        -0.52153E-01         0.00000E+00
    0.57441E-02        -0.49371E-01         0.00000E+00
    0.55438E-02        -0.46578E-01         0.00000E+00
    0.53392E-02        -0.43774E-01         0.00000E+00
    0.51289E-02        -0.40958E-01         0.00000E+00
    0.49113E-02        -0.38131E-01         0.00000E+00
    0.46844E-02        -0.35290E-01         0.00000E+00
    0.44463E-02        -0.32436E-01         0.00000E+00
    0.41947E-02        -0.29567E-01         0.00000E+00
    0.39274E-02        -0.26682E-01         0.00000E+00
    0.36420E-02        -0.23782E-01         0.00000E+00
    0.33345E-02        -0.20865E-01         0.00000E+00
    0.29985E-02        -0.17930E-01         0.00000E+00
    0.26275E-02        -0.14978E-01         0.00000E+00
    0.22139E-02        -0.12009E-01         0.00000E+00
    0.17520E-02        -0.90244E-02         0.00000E+00
    0.12364E-02        -0.60251E-02         0.00000E+00
    0.65392E-03        -0.30157E-02         0.00000E+00
    0.00000E+00         0.00000E+00         0.00000E+00
    0.11686E-01        -0.13929E+00         0.00000E+00
    0.11242E-01        -0.13670E+00         0.00000E+00
    0.10810E-01        -0.13410E+00         0.00000E+00
    0.10395E-01        -0.13150E+00         0.00000E+00
    0.99999E-02        -0.12891E+00         0.00000E+00
    0.96249E-02        -0.12630E+00         0.00000E+00
    0.92708E-02        -0.12369E+00         0.00000E+00
    0.89373E-02        -0.12107E+00         0.00000E+00
    0.86240E-02        -0.11844E+00         0.00000E+00
    0.83299E-02        -0.11580E+00         0.00000E+00
    0.80540E-02        -0.11315E+00         0.00000E+00
    0.77948E-02        -0.11050E+00         0.00000E+00
    0.75511E-02        -0.10783E+00         0.00000E+00
    0.73216E-02        -0.10515E+00         0.00000E+00
    0.71050E-02        -0.10247E+00         0.00000E+00
    0.69001E-02        -0.99775E-01         0.00000E+00
    0.67057E-02        -0.97075E-01         0.00000E+00
    0.65208E-02        -0.94367E-01         0.00000E+00
    0.63445E-02        -0.91652E-01         0.00000E+00
    0.61760E-02        -0.88929E-01         0.00000E+00
    0.60144E-02        -0.86200E-01         0.00000E+00
    0.58591E-02        -0.83465E-01         0.00000E+00
    0.57094E-02        -0.80722E-01         0.00000E+00
    0.55647E-02        -0.77974E-01         0.00000E+00
    0.54244E-02        -0.75218E-01         0.00000E+00
    0.52879E-02        -0.72456E-01         0.00000E+00
    0.51547E-02        -0.69688E-01         0.00000E+00
    0.50242E-02        -0.66912E-01         0.00000E+00
    0.48959E-02        -0.64130E-01         0.00000E+00
    0.47692E-02        -0.61340E-01         0.00000E+00
    0.46435E-02        -0.58543E-01         0.00000E+00
    0.45181E-02        -0.55738E-01         0.00000E+00
    0.43924E-02        -0.52925E-01         0.00000E+00
    0.42657E-02        -0.50104E-01         0.00000E+00
    0.41371E-02        -0.47273E-01         0.00000E+00
    0.40057E-02        -0.44432E-01         0.00000E+00
    0.38704E-02        -0.41581E-01         0.00000E+00
    0.37300E-02        -0.38719E-01         0.00000E+00
    0.35832E-02        -0.35845E-01         0.00000E+00
    0.34282E-02        -0.32958E-01         0.00000E+00
    0.32633E-02        -0.30056E-01         0.00000E+00
    0.30864E-02        -0.27139E-01         0.00000E+00
    0.28950E-02        -0.24206E-01         0.00000E+00
    0.26861E-02        -0.21255E-01         0.00000E+00
    0.24550E-02        -0.18284E-01         0.00000E+00
    0.21932E-02        -0.15293E-01         0.00000E+00
    0.18916E-02        -0.12279E-01         0.00000E+00
    0.15391E-02        -0.92406E-02         0.00000E+00
    0.11197E-02        -0.61789E-02         0.00000E+00
    0.60807E-03        -0.30966E-02         0.00000E+00
    0.00000E+00         0.00000E+00         0.00000E+00
    0.65597E-02        -0.14112E+00         0.00000E+00
    0.62502E-02        -0.13855E+00         0.00000E+00
    0.59583E-02        -0.13597E+00         0.00000E+00
    0.56790E-02        -0.13336E+00         0.00000E+00
    0.54134E-02        -0.13072E+00         0.00000E+00
    0.51673E-02        -0.12807E+00         0.00000E+00
    0.49436E-02        -0.12540E+00         0.00000E+00
    0.47411E-02        -0.12271E+00         0.00000E+00
    0.45576E-02        -0.12001E+00         0.00000E+00
    0.43911E-02        -0.11730E+00         0.00000E+00
    0.42402E-02        -0.11458E+00         0.00000E+00
    0.41030E-02        -0.11186E+00         0.00000E+00
    0.39769E-02        -0.10912E+00         0.00000E+00
    0.38601E-02        -0.10638E+00         0.00000E+00
    0.37510E-02        -0.10364E+00         0.00000E+00
    0.36487E-02        -0.10089E+00         0.00000E+00
    0.35524E-02        -0.98131E-01         0.00000E+00
    0.34613E-02        -0.95370E-01         0.00000E+00
    0.33747E-02        -0.92605E-01         0.00000E+00
    0.32923E-02        -0.89835E-01         0.00000E+00
    0.32135E-02        -0.87060E-01         0.00000E+00
    0.31379E-02        -0.84281E-01         0.00000E+00
    0.30652E-02        -0.81498E-01         0.00000E+00
    0.29951E-02        -0.78710E-01         0.00000E+00
    0.29272E-02        -0.75917E-01         0.00000E+00
    0.28613E-02        -0.73119E-01         0.00000E+00
    0.27970E-02        -0.70317E-01         0.00000E+00
    0.27342E-02        -0.67508E-01         0.00000E+00
    0.26724E-02        -0.64695E-01         0.00000E+00
    0.26115E-02        -0.61875E-01         0.00000E+00
    0.25512E-02        -0.59050E-01         0.00000E+00
    0.24911E-02        -0.56217E-01         0.00000E+00
    0.24310E-02        -0.53378E-01         0.00000E+00
    0.23704E-02        -0.50532E-01         0.00000E+00
    0.23090E-02        -0.47678E-01         0.00000E+00
    0.22463E-02        -0.44815E-01         0.00000E+00
    0.21819E-02        -0.41943E-01         0.00000E+00
    0.21152E-02        -0.39061E-01         0.00000E+00
    0.20454E-02        -0.36168E-01         0.00000E+00
    0.19715E-02        -0.33264E-01         0.00000E+00
    0.18925E-02        -0.30346E-01         0.00000E+00
    0.18071E-02        -0.27415E-01         0.00000E+00
    0.17137E-02        -0.24467E-01         0.00000E+00
    0.16105E-02        -0.21502E-01         0.00000E+00
    0.14949E-02        -0.18517E-01         0.00000E+00
    0.13632E-02        -0.15509E-01         0.00000E+00
    0.12091E-02        -0.12476E-01         0.00000E+00
    0.10214E-02        -0.94131E-02         0.00000E+00
    0.78316E-03        -0.63158E-02         0.00000E+00
    0.46434E-03        -0.31790E-02         0.00000E+00
    0.00000E+00         0.00000E+00         0.00000E+00
    0.00000E+00        -0.14211E+00         0.00000E+00
    0.00000E+00        -0.13947E+00         0.00000E+00
    0.00000E+00        -0.13684E+00         0.00000E+00
    0.00000E+00        -0.13422E+00         0.00000E+00
    0.00000E+00        -0.13156E+00         0.00000E+00
    0.00000E+00        -0.12887E+00         0.00000E+00
    0.00000E+00        -0.12615E+00         0.00000E+00
    0.00000E+00        -0.12341E+00         0.00000E+00
    0.00000E+00        -0.12066E+00         0.00000E+00
    0.00000E+00        -0.11790E+00         0.00000E+00
    0.00000E+00        -0.11514E+00         0.00000E+00
    0.00000E+00        -0.11237E+00         0.00000E+00
    0.00000E+00        -0.10960E+00         0.00000E+00
    0.00000E+00        -0.10683E+00         0.00000E+00
    0.00000E+00        -0.10406E+00         0.00000E+00
    0.00000E+00        -0.10128E+00         0.00000E+00
    0.00000E+00        -0.98500E-01         0.00000E+00
    0.00000E+00        -0.95717E-01         0.00000E+00
    0.00000E+00        -0.92932E-01         0.00000E+00
    0.00000E+00        -0.90143E-01         0.00000E+00
    0.00000E+00        -0.87352E-01         0.00000E+00
    0.00000E+00        -0.84556E-01         0.00000E+00
    0.00000E+00        -0.81758E-01         0.00000E+00
    0.00000E+00        -0.78955E-01         0.00000E+00
    0.00000E+00        -0.76149E-01         0.00000E+00
    0.00000E+00        -0.73338E-01         0.00000E+00
    0.00000E+00        -0.70524E-01         0.00000E+00
    0.00000E+00        -0.67704E-01         0.00000E+00
    0.00000E+00        -0.64879E-01         0.00000E+00
    0.00000E+00        -0.62049E-01         0.00000E+00
    0.00000E+00        -0.59214E-01         0.00000E+00
    0.00000E+00        -0.56373E-01         0.00000E+00
    0.00000E+00        -0.53525E-01         0.00000E+00
    0.00000E+00        -0.50670E-01         0.00000E+00
    0.00000E+00        -0.47808E-01         0.00000E+00
    0.00000E+00        -0.44938E-01         0.00000E+00
    0.00000E+00        -0.42059E-01         0.00000E+00
    0.00000E+00        -0.39171E-01         0.00000E+00
    0.00000E+00        -0.36273E-01         0.00000E+00
    0.00000E+00        -0.33364E-01         0.00000E+00
    0.00000E+00        -0.30443E-01         0.00000E+00
    0.00000E+00        -0.27508E-01         0.00000E+00
    0.00000E+00        -0.24558E-01         0.00000E+00
    0.00000E+00        -0.21592E-01         0.00000E+00
    0.00000E+00        -0.18606E-01         0.00000E+00
    0.00000E+00        -0.15598E-01         0.00000E+00
    0.00000E+00        -0.12565E-01         0.00000E+00
    0.00000E+00        -0.94999E-02         0.00000E+00
    0.00000E+00        -0.63952E-02         0.00000E+00
    0.00000E+00        -0.32367E-02         0.00000E+00
    0.00000E+00         0.00000E+00         0.00000E+00
CELL_DATA       5000
VECTORS vDarcy double 
    0.45771E-08         0.17959E-11         0.00000E+00
    0.45758E-08         0.48891E-11         0.00000E+00
    0.45733E-08         0.73817E-11         0.00000E+00
    0.45700E-08         0.94161E-11         0.00000E+00
    0.45659E-08         0.11094E-10         0.00000E+00
    0.45612E-08         0.12490E-10         0.00000E+00
    0.45559E-08         0.13659E-10         0.00000E+00
    0.45503E-08         0.14642E-10         0.00000E+00
    0.45442E-08         0.15471E-10         0.00000E+00
    0.45379E-08         0.16170E-10         0.00000E+00
    0.45313E-08         0.16760E-10         0.00000E+00
    0.45245E-08         0.17255E-10         0.00000E+00
    0.45175E-08         0.17669E-10         0.00000E+00
    0.45104E-08         0.18010E-10         0.00000E+00
    0.45031E-08         0.18287E-10         0.00000E+00
    0.44958E-08         0.18508E-10         0.00000E+00
    0.44884E-08         0.18677E-10         0.00000E+00
    0.44809E-08         0.18800E-10         0.00000E+00
    0.44733E-08         0.18879E-10         0.00000E+00
    0.44658E-08         0.18919E-10         0.00000E+00
    0.44582E-08         0.18921E-10         0.00000E+00
    0.44506E-08         0.18889E-10         0.00000E+00
    0.44431E-08         0.18823E-10         0.00000E+00
    0.44356E-08         0.18726E-10         0.00000E+00
    0.44281E-08         0.18597E-10         0.00000E+00
    0.44207E-08         0.18439E-10         0.00000E+00
    0.44134E-08         0.18251E-10         0.00000E+00
    0.44061E-08         0.18033E-10         0.00000E+00
    0.43989E-08         0.17787E-10         0.00000E+00
    0.43919E-08         0.17510E-10         0.00000E+00
    0.43849E-08         0.17204E-10         0.00000E+00
    0.43781E-08         0.16866E-10         0.00000E+00
    0.43715E-08         0.16497E-10         0.00000E+00
    0.43649E-08         0.16094E-10         0.00000E+00
    0.43586E-08         0.15656E-10         0.00000E+00
    0.43524E-08         0.15181E-10         0.00000E+00
    0.43465E-08         0.14667E-10         0.00000E+00
    0.43407E-08         0.14109E-10         0.00000E+00
    0.43352E-08         0.13506E-10         0.00000E+00
    0.43299E-08         0.12851E-10         0.00000E+00
    0.43249E-08         0.12140E-10         0.00000E+00
    0.43202E-08         0.11365E-10         0.00000E+00
    0.43158E-08         0.10518E-10         0.00000E+00
    0.43118E-08         0.95893E-11         0.00000E+00
    0.43082E-08         0.85638E-11         0.00000E+00
    0.43050E-08         0.74242E-11         0.00000E+00
    0.43023E-08         0.61473E-11         0.00000E+00
    0.43001E-08         0.47013E-11         0.00000E+00
    0.42985E-08         0.30430E-11         0.00000E+00
    0.42977E-08         0.11113E-11         0.00000E+00
    0.44220E-08         0.37685E-11         0.00000E+00
    0.44218E-08         0.10587E-10         0.00000E+00
    0.44213E-08         0.16454E-10         0.00000E+00
    0.44205E-08         0.21513E-10         0.00000E+00
    0.44192E-08         0.25884E-10         0.00000E+00
    0.44175E-08         0.29666E-10         0.00000E+00
    0.44155E-08         0.32943E-10         0.00000E+00
    0.44130E-08         0.35785E-10         0.00000E+00
    0.44103E-08         0.38247E-10         0.00000E+00
    0.44072E-08         0.40379E-10         0.00000E+00
    0.44038E-08         0.42221E-10         0.00000E+00
    0.44002E-08         0.43805E-10         0.00000E+00
    0.43964E-08         0.45160E-10         0.00000E+00
    0.43924E-08         0.46310E-10         0.00000E+00
    0.43882E-08         0.47275E-10         0.00000E+00
    0.43839E-08         0.48071E-10         0.00000E+00
    0.43794E-08         0.48714E-10         0.00000E+00
    0.43748E-08         0.49215E-10         0.00000E+00
    0.43701E-08         0.49585E-10         0.00000E+00
    0.43653E-08         0.49832E-10         0.00000E+00
    0.43605E-08         0.49964E-10         0.00000E+00
    0.43556E-08         0.49987E-10         0.00000E+00
    0.43507E-08         0.49906E-10         0.00000E+00
    0.43458E-08         0.49725E-10         0.00000E+00
    0.43409E-08         0.49447E-10         0.00000E+00
    0.43360E-08         0.49075E-10         0.00000E+00
    0.43312E-08         0.48609E-10         0.00000E+00
    0.43264E-08         0.48052E-10         0.00000E+00
    0.43216E-08         0.47403E-10         0.00000E+00
    0.43169E-08         0.46661E-10         0.00000E+00
    0.43123E-08         0.45827E-10         0.00000E+00
    0.43078E-08         0.44897E-10         0.00000E+00
    0.43034E-08         0.43869E-10         0.00000E+00
    0.42991E-08         0.42740E-10         0.00000E+00
    0.42949E-08         0.41505E-10         0.00000E+00
    0.42909E-08         0.40160E-10         0.00000E+00
    0.42871E-08         0.38698E-10         0.00000E+00
    0.42834E-08         0.37111E-10         0.00000E+00
    0.42800E-08         0.35391E-10         0.00000E+00
    0.42768E-08         0.33527E-10         0.00000E+00
    0.42737E-08         0.31506E-10         0.00000E+00
    0.42710E-08         0.29314E-10         0.00000E+00
    0.42685E-08         0.26932E-10         0.00000E+00
    0.42663E-08         0.24340E-10         0.00000E+00
    0.42644E-08         0.21512E-10         0.00000E+00
    0.42628E-08         0.18417E-10         0.00000E+00
    0.42615E-08         0.15019E-10         0.00000E+00
    0.42606E-08         0.11275E-10         0.00000E+00
    0.42600E-08         0.71304E-11         0.00000E+00
    0.42597E-08         0.25234E-11         0.00000E+00
    0.43059E-08         0.39827E-11         0.00000E+00
    0.43059E-08         0.11540E-10         0.00000E+00
    0.43058E-08         0.18477E-10         0.00000E+00
    0.43056E-08         0.24802E-10         0.00000E+00
    0.43053E-08         0.30538E-10         0.00000E+00
    0.43048E-08         0.35720E-10         0.00000E+00
    0.43042E-08         0.40385E-10         0.00000E+00
    0.43033E-08         0.44570E-10         0.00000E+00
    0.43023E-08         0.48314E-10         0.00000E+00
    0.43011E-08         0.51651E-10         0.00000E+00
    0.42997E-08         0.54614E-10         0.00000E+00
    0.42982E-08         0.57233E-10         0.00000E+00
    0.42964E-08         0.59533E-10         0.00000E+00
    0.42945E-08         0.61540E-10         0.00000E+00
    0.42925E-08         0.63275E-10         0.00000E+00
    0.42903E-08         0.64756E-10         0.00000E+00
    0.42880E-08         0.66000E-10         0.00000E+00
    0.42856E-08         0.67023E-10         0.00000E+00
    0.42831E-08         0.67836E-10         0.00000E+00
    0.42804E-08         0.68452E-10         0.00000E+00
    0.42778E-08         0.68879E-10         0.00000E+00
    0.42750E-08         0.69127E-10         0.00000E+00
    0.42722E-08         0.69201E-10         0.00000E+00
    0.42694E-08         0.69109E-10         0.00000E+00
    0.42665E-08         0.68853E-10         0.00000E+00
    0.42637E-08         0.68439E-10         0.00000E+00
    0.42608E-08         0.67868E-10         0.00000E+00
    0.42580E-08         0.67143E-10         0.00000E+00
    0.42551E-08         0.66263E-10         0.00000E+00
    0.42523E-08         0.65230E-10         0.00000E+00
    0.42496E-08         0.64041E-10         0.00000E+00
    0.42469E-08         0.62695E-10         0.00000E+00
    0.42443E-08         0.61189E-10         0.00000E+00
    0.42418E-08         0.59520E-10         0.00000E+00
    0.42393E-08         0.57681E-10         0.00000E+00
    0.42370E-08         0.55669E-10         0.00000E+00
    0.42348E-08         0.53475E-10         0.00000E+00
    0.42327E-08         0.51091E-10         0.00000E+00
    0.42307E-08         0.48508E-10         0.00000E+00
    0.42289E-08         0.45716E-10         0.00000E+00
    0.42272E-08         0.42702E-10         0.00000E+00
    0.42257E-08         0.39453E-10         0.00000E+00
    0.42244E-08         0.35953E-10         0.00000E+00
    0.42232E-08         0.32187E-10         0.00000E+00
    0.42222E-08         0.28136E-10         0.00000E+00
    0.42214E-08         0.23783E-10         0.00000E+00
    0.42208E-08         0.19110E-10         0.00000E+00
    0.42203E-08         0.14098E-10         0.00000E+00
    0.42200E-08         0.87340E-11         0.00000E+00
    0.42199E-08         0.30106E-11         0.00000E+00
    0.42198E-08         0.39261E-11         0.00000E+00
    0.42199E-08         0.11459E-10         0.00000E+00
    0.42200E-08         0.18520E-10         0.00000E+00
    0.42201E-08         0.25116E-10         0.00000E+00
    0.42202E-08         0.31255E-10         0.00000E+00
    0.42203E-08         0.36944E-10         0.00000E+00
    0.42203E-08         0.42196E-10         0.00000E+00
    0.42203E-08         0.47026E-10         0.00000E+00
    0.42201E-08         0.51449E-10         0.00000E+00
    0.42200E-08         0.55482E-10         0.00000E+00
    0.42197E-08         0.59141E-10         0.00000E+00
    0.42193E-08         0.62445E-10         0.00000E+00
    0.42188E-08         0.65410E-10         0.00000E+00
    0.42182E-08         0.68051E-10         0.00000E+00
    0.42175E-08         0.70385E-10         0.00000E+00
    0.42168E-08         0.72425E-10         0.00000E+00
    0.42159E-08         0.74185E-10         0.00000E+00
    0.42150E-08         0.75676E-10         0.00000E+00
    0.42139E-08         0.76910E-10         0.00000E+00
    0.42129E-08         0.77896E-10         0.00000E+00
    0.42117E-08         0.78644E-10         0.00000E+00
    0.42105E-08         0.79160E-10         0.00000E+00
    0.42092E-08         0.79452E-10         0.00000E+00
    0.42079E-08         0.79525E-10         0.00000E+00
    0.42066E-08         0.79384E-10         0.00000E+00
    0.42052E-08         0.79033E-10         0.00000E+00
    0.42038E-08         0.78475E-10         0.00000E+00
    0.42025E-08         0.77711E-10         0.00000E+00
    0.42011E-08         0.76743E-10         0.00000E+00
    0.41997E-08         0.75572E-10         0.00000E+00
    0.41983E-08         0.74196E-10         0.00000E+00
    0.41970E-08         0.72615E-10         0.00000E+00
    0.41957E-08         0.70826E-10         0.00000E+00
    0.41945E-08         0.68827E-10         0.00000E+00
    0.41933E-08         0.66613E-10         0.00000E+00
    0.41921E-08         0.64181E-10         0.00000E+00
    0.41910E-08         0.61525E-10         0.00000E+00
    0.41900E-08         0.58639E-10         0.00000E+00
    0.41891E-08         0.55517E-10         0.00000E+00
    0.41882E-08         0.52151E-10         0.00000E+00
    0.41874E-08         0.48533E-10         0.00000E+00
    0.41867E-08         0.44656E-10         0.00000E+00
    0.41861E-08         0.40509E-10         0.00000E+00
    0.41856E-08         0.36086E-10         0.00000E+00
    0.41851E-08         0.31376E-10         0.00000E+00
    0.41848E-08         0.26372E-10         0.00000E+00
    0.41845E-08         0.21066E-10         0.00000E+00
    0.41843E-08         0.15450E-10         0.00000E+00
    0.41842E-08         0.95188E-11         0.00000E+00
    0.41841E-08         0.32648E-11         0.00000E+00
    0.41594E-08         0.36930E-11         0.00000E+00
    0.41595E-08         0.10848E-10         0.00000E+00
    0.41597E-08         0.17651E-10         0.00000E+00
    0.41600E-08         0.24096E-10         0.00000E+00
    0.41603E-08         0.30180E-10         0.00000E+00
    0.41606E-08         0.35904E-10         0.00000E+00
    0.41610E-08         0.41270E-10         0.00000E+00
    0.41614E-08         0.46280E-10         0.00000E+00
    0.41617E-08         0.50939E-10         0.00000E+00
    0.41621E-08         0.55253E-10         0.00000E+00
    0.41624E-08         0.59228E-10         0.00000E+00
    0.41626E-08         0.62871E-10         0.00000E+00
    0.41629E-08         0.66191E-10         0.00000E+00
    0.41631E-08         0.69196E-10         0.00000E+00
    0.41632E-08         0.71893E-10         0.00000E+00
    0.41633E-08         0.74290E-10         0.00000E+00
    0.41634E-08         0.76396E-10         0.00000E+00
    0.41634E-08         0.78218E-10         0.00000E+00
    0.41633E-08         0.79763E-10         0.00000E+00
    0.41632E-08         0.81038E-10         0.00000E+00
    0.41630E-08         0.82048E-10         0.00000E+00
    0.41629E-08         0.82800E-10         0.00000E+00
    0.41626E-08         0.83297E-10         0.00000E+00
    0.41624E-08         0.83546E-10         0.00000E+00
    0.41621E-08         0.83548E-10         0.00000E+00
    0.41617E-08         0.83308E-10         0.00000E+00
    0.41614E-08         0.82828E-10         0.00000E+00
    0.41610E-08         0.82109E-10         0.00000E+00
    0.41606E-08         0.81154E-10         0.00000E+00
    0.41602E-08         0.79962E-10         0.00000E+00
    0.41599E-08         0.78533E-10         0.00000E+00
    0.41595E-08         0.76868E-10         0.00000E+00
    0.41591E-08         0.74965E-10         0.00000E+00
    0.41587E-08         0.72823E-10         0.00000E+00
    0.41583E-08         0.70439E-10         0.00000E+00
    0.41580E-08         0.67811E-10         0.00000E+00
    0.41577E-08         0.64936E-10         0.00000E+00
    0.41574E-08         0.61810E-10         0.00000E+00
    0.41571E-08         0.58430E-10         0.00000E+00
    0.41569E-08         0.54793E-10         0.00000E+00
    0.41567E-08         0.50893E-10         0.00000E+00
    0.41565E-08         0.46727E-10         0.00000E+00
    0.41563E-08         0.42290E-10         0.00000E+00
    0.41562E-08         0.37578E-10         0.00000E+00
    0.41561E-08         0.32588E-10         0.00000E+00
    0.41560E-08         0.27315E-10         0.00000E+00
    0.41560E-08         0.21756E-10         0.00000E+00
    0.41559E-08         0.15908E-10         0.00000E+00
    0.41559E-08         0.97695E-11         0.00000E+00
    0.41559E-08         0.33378E-11         0.00000E+00
    0.41218E-08         0.33974E-11         0.00000E+00
    0.41219E-08         0.10020E-10         0.00000E+00
    0.41222E-08         0.16377E-10         0.00000E+00
    0.41225E-08         0.22459E-10         0.00000E+00
    0.41229E-08         0.28259E-10         0.00000E+00
    0.41234E-08         0.33771E-10         0.00000E+00
    0.41239E-08         0.38991E-10         0.00000E+00
    0.41244E-08         0.43916E-10         0.00000E+00
    0.41250E-08         0.48543E-10         0.00000E+00
    0.41256E-08         0.52873E-10         0.00000E+00
    0.41263E-08         0.56906E-10         0.00000E+00
    0.41269E-08         0.60643E-10         0.00000E+00
    0.41275E-08         0.64085E-10         0.00000E+00
    0.41281E-08         0.67235E-10         0.00000E+00
    0.41288E-08         0.70095E-10         0.00000E+00
    0.41293E-08         0.72669E-10         0.00000E+00
    0.41299E-08         0.74960E-10         0.00000E+00
    0.41305E-08         0.76971E-10         0.00000E+00
    0.41310E-08         0.78705E-10         0.00000E+00
    0.41315E-08         0.80166E-10         0.00000E+00
    0.41319E-08         0.81357E-10         0.00000E+00
    0.41324E-08         0.82281E-10         0.00000E+00
    0.41328E-08         0.82941E-10         0.00000E+00
    0.41331E-08         0.83339E-10         0.00000E+00
    0.41335E-08         0.83477E-10         0.00000E+00
    0.41338E-08         0.83358E-10         0.00000E+00
    0.41341E-08         0.82983E-10         0.00000E+00
    0.41344E-08         0.82353E-10         0.00000E+00
    0.41347E-08         0.81470E-10         0.00000E+00
    0.41349E-08         0.80333E-10         0.00000E+00
    0.41352E-08         0.78944E-10         0.00000E+00
    0.41354E-08         0.77302E-10         0.00000E+00
    0.41356E-08         0.75407E-10         0.00000E+00
    0.41358E-08         0.73259E-10         0.00000E+00
    0.41360E-08         0.70856E-10         0.00000E+00
    0.41362E-08         0.68197E-10         0.00000E+00
    0.41363E-08         0.65282E-10         0.00000E+00
    0.41365E-08         0.62108E-10         0.00000E+00
    0.41367E-08         0.58675E-10         0.00000E+00
    0.41368E-08         0.54979E-10         0.00000E+00
    0.41370E-08         0.51021E-10         0.00000E+00
    0.41371E-08         0.46797E-10         0.00000E+00
    0.41373E-08         0.42306E-10         0.00000E+00
    0.41374E-08         0.37548E-10         0.00000E+00
    0.41375E-08         0.32520E-10         0.00000E+00
    0.41376E-08         0.27221E-10         0.00000E+00
    0.41377E-08         0.21650E-10         0.00000E+00
    0.41378E-08         0.15808E-10         0.00000E+00
    0.41378E-08         0.96931E-11         0.00000E+00
    0.41379E-08         0.33065E-11         0.00000E+00
    0.41050E-08         0.30854E-11         0.00000E+00
    0.41051E-08         0.91286E-11         0.00000E+00
    0.41053E-08         0.14971E-10         0.00000E+00
    0.41056E-08         0.20602E-10         0.00000E+00
    0.41061E-08         0.26011E-10         0.00000E+00
    0.41066E-08         0.31189E-10         0.00000E+00
    0.41071E-08         0.36129E-10         0.00000E+00
    0.41078E-08         0.40826E-10         0.00000E+00
    0.41084E-08         0.45272E-10         0.00000E+00
    0.41092E-08         0.49464E-10         0.00000E+00
    0.41099E-08         0.53399E-10         0.00000E+00
    0.41107E-08         0.57074E-10         0.00000E+00
    0.41115E-08         0.60486E-10         0.00000E+00
    0.41123E-08         0.63634E-10         0.00000E+00
    0.41132E-08         0.66518E-10         0.00000E+00
    0.41140E-08         0.69136E-10         0.00000E+00
    0.41148E-08         0.71489E-10         0.00000E+00
    0.41157E-08         0.73577E-10         0.00000E+00
    0.41165E-08         0.75400E-10         0.00000E+00
    0.41173E-08         0.76959E-10         0.00000E+00
    0.41181E-08         0.78255E-10         0.00000E+00
    0.41189E-08         0.79288E-10         0.00000E+00
    0.41196E-08         0.80059E-10         0.00000E+00
    0.41204E-08         0.80570E-10         0.00000E+00
    0.41211E-08         0.80821E-10         0.00000E+00
    0.41218E-08         0.80812E-10         0.00000E+00
    0.41225E-08         0.80544E-10         0.00000E+00
    0.41232E-08         0.80019E-10         0.00000E+00
    0.41238E-08         0.79236E-10         0.00000E+00
    0.41245E-08         0.78196E-10         0.00000E+00
    0.41251E-08         0.76899E-10         0.00000E+00
    0.41256E-08         0.75345E-10         0.00000E+00
    0.41262E-08         0.73534E-10         0.00000E+00
    0.41267E-08         0.71466E-10         0.00000E+00
    0.41272E-08         0.69140E-10         0.00000E+00
    0.41277E-08         0.66558E-10         0.00000E+00
    0.41282E-08         0.63717E-10         0.00000E+00
    0.41287E-08         0.60618E-10         0.00000E+00
    0.41291E-08         0.57261E-10         0.00000E+00
    0.41295E-08         0.53644E-10         0.00000E+00
    0.41298E-08         0.49768E-10         0.00000E+00
    0.41302E-08         0.45633E-10         0.00000E+00
    0.41305E-08         0.41237E-10         0.00000E+00
    0.41308E-08         0.36582E-10         0.00000E+00
    0.41310E-08         0.31667E-10         0.00000E+00
    0.41312E-08         0.26492E-10         0.00000E+00
    0.41314E-08         0.21058E-10         0.00000E+00
    0.41315E-08         0.15366E-10         0.00000E+00
    0.41316E-08         0.94157E-11         0.00000E+00
    0.41317E-08         0.32094E-11         0.00000E+00
    0.41072E-08         0.27867E-11         0.00000E+00
    0.41073E-08         0.82647E-11         0.00000E+00
    0.41075E-08         0.13590E-10         0.00000E+00
    0.41078E-08         0.18751E-10         0.00000E+00
    0.41082E-08         0.23736E-10         0.00000E+00
    0.41087E-08         0.28535E-10         0.00000E+00
    0.41093E-08         0.33140E-10         0.00000E+00
    0.41099E-08         0.37541E-10         0.00000E+00
    0.41106E-08         0.41732E-10         0.00000E+00
    0.41113E-08         0.45707E-10         0.00000E+00
    0.41121E-08         0.49459E-10         0.00000E+00
    0.41129E-08         0.52984E-10         0.00000E+00
    0.41138E-08         0.56276E-10         0.00000E+00
    0.41146E-08         0.59334E-10         0.00000E+00
    0.41156E-08         0.62152E-10         0.00000E+00
    0.41165E-08         0.64729E-10         0.00000E+00
    0.41174E-08         0.67062E-10         0.00000E+00
    0.41183E-08         0.69149E-10         0.00000E+00
    0.41193E-08         0.70989E-10         0.00000E+00
    0.41202E-08         0.72580E-10         0.00000E+00
    0.41212E-08         0.73921E-10         0.00000E+00
    0.41221E-08         0.75012E-10         0.00000E+00
    0.41231E-08         0.75851E-10         0.00000E+00
    0.41240E-08         0.76439E-10         0.00000E+00
    0.41249E-08         0.76774E-10         0.00000E+00
    0.41258E-08         0.76857E-10         0.00000E+00
    0.41266E-08         0.76687E-10         0.00000E+00
    0.41275E-08         0.76264E-10         0.00000E+00
    0.41283E-08         0.75589E-10         0.00000E+00
    0.41291E-08         0.74660E-10         0.00000E+00
    0.41299E-08         0.73478E-10         0.00000E+00
    0.41307E-08         0.72043E-10         0.00000E+00
    0.41314E-08         0.70354E-10         0.00000E+00
    0.41321E-08         0.68413E-10         0.00000E+00
    0.41328E-08         0.66218E-10         0.00000E+00
    0.41335E-08         0.63769E-10         0.00000E+00
    0.41341E-08         0.61068E-10         0.00000E+00
    0.41347E-08         0.58114E-10         0.00000E+00
    0.41352E-08         0.54907E-10         0.00000E+00
    0.41358E-08         0.51447E-10         0.00000E+00
    0.41362E-08         0.47735E-10         0.00000E+00
    0.41367E-08         0.43771E-10         0.00000E+00
    0.41371E-08         0.39555E-10         0.00000E+00
    0.41374E-08         0.35089E-10         0.00000E+00
    0.41377E-08         0.30372E-10         0.00000E+00
    0.41380E-08         0.25407E-10         0.00000E+00
    0.41382E-08         0.20193E-10         0.00000E+00
    0.41384E-08         0.14733E-10         0.00000E+00
    0.41385E-08         0.90263E-11         0.00000E+00
    0.41386E-08         0.30761E-11         0.00000E+00
    0.41272E-08         0.25171E-11         0.00000E+00
    0.41273E-08         0.74789E-11         0.00000E+00
    0.41275E-08         0.12323E-10         0.00000E+00
    0.41278E-08         0.17037E-10         0.00000E+00
    0.41282E-08         0.21609E-10         0.00000E+00
    0.41286E-08         0.26030E-10         0.00000E+00
    0.41291E-08         0.30290E-10         0.00000E+00
    0.41297E-08         0.34379E-10         0.00000E+00
    0.41303E-08         0.38289E-10         0.00000E+00
    0.41310E-08         0.42014E-10         0.00000E+00
    0.41318E-08         0.45546E-10         0.00000E+00
    0.41325E-08         0.48879E-10         0.00000E+00
    0.41334E-08         0.52007E-10         0.00000E+00
    0.41342E-08         0.54926E-10         0.00000E+00
    0.41351E-08         0.57630E-10         0.00000E+00
    0.41360E-08         0.60115E-10         0.00000E+00
    0.41369E-08         0.62379E-10         0.00000E+00
    0.41379E-08         0.64416E-10         0.00000E+00
    0.41388E-08         0.66226E-10         0.00000E+00
    0.41398E-08         0.67804E-10         0.00000E+00
    0.41408E-08         0.69149E-10         0.00000E+00
    0.41417E-08         0.70259E-10         0.00000E+00
    0.41427E-08         0.71132E-10         0.00000E+00
    0.41436E-08         0.71766E-10         0.00000E+00
    0.41446E-08         0.72161E-10         0.00000E+00
    0.41455E-08         0.72314E-10         0.00000E+00
    0.41465E-08         0.72226E-10         0.00000E+00
    0.41474E-08         0.71895E-10         0.00000E+00
    0.41483E-08         0.71320E-10         0.00000E+00
    0.41491E-08         0.70501E-10         0.00000E+00
    0.41500E-08         0.69438E-10         0.00000E+00
    0.41508E-08         0.68130E-10         0.00000E+00
    0.41516E-08         0.66578E-10         0.00000E+00
    0.41524E-08         0.64780E-10         0.00000E+00
    0.41531E-08         0.62736E-10         0.00000E+00
    0.41538E-08         0.60448E-10         0.00000E+00
    0.41545E-08         0.57915E-10         0.00000E+00
    0.41552E-08         0.55137E-10         0.00000E+00
    0.41558E-08         0.52114E-10         0.00000E+00
    0.41563E-08         0.48847E-10         0.00000E+00
    0.41568E-08         0.45337E-10         0.00000E+00
    0.41573E-08         0.41584E-10         0.00000E+00
    0.41578E-08         0.37589E-10         0.00000E+00
    0.41581E-08         0.33352E-10         0.00000E+00
    0.41585E-08         0.28875E-10         0.00000E+00
    0.41588E-08         0.24159E-10         0.00000E+00
    0.41590E-08         0.19205E-10         0.00000E+00
    0.41592E-08         0.14013E-10         0.00000E+00
    0.41593E-08         0.85870E-11         0.00000E+00
    0.41593E-08         0.29268E-11         0.00000E+00
    0.41641E-08         0.22846E-11         0.00000E+00
    0.41642E-08         0.67971E-11         0.00000E+00
    0.41644E-08         0.11216E-10         0.00000E+00
    0.41646E-08         0.15529E-10         0.00000E+00
    0.41649E-08         0.19726E-10         0.00000E+00
    0.41653E-08         0.23796E-10         0.00000E+00
    0.41658E-08         0.27730E-10         0.00000E+00
    0.41663E-08         0.31519E-10         0.00000E+00
    0.41668E-08         0.35154E-10         0.00000E+00
    0.41674E-08         0.38628E-10         0.00000E+00
    0.41681E-08         0.41933E-10         0.00000E+00
    0.41688E-08         0.45062E-10         0.00000E+00
    0.41695E-08         0.48010E-10         0.00000E+00
    0.41703E-08         0.50770E-10         0.00000E+00
    0.41711E-08         0.53337E-10         0.00000E+00
    0.41720E-08         0.55707E-10         0.00000E+00
    0.41728E-08         0.57874E-10         0.00000E+00
    0.41737E-08         0.59836E-10         0.00000E+00
    0.41746E-08         0.61587E-10         0.00000E+00
    0.41755E-08         0.63125E-10         0.00000E+00
    0.41764E-08         0.64447E-10         0.00000E+00
    0.41773E-08         0.65549E-10         0.00000E+00
    0.41782E-08         0.66431E-10         0.00000E+00
    0.41791E-08         0.67088E-10         0.00000E+00
    0.41801E-08         0.67520E-10         0.00000E+00
    0.41810E-08         0.67724E-10         0.00000E+00
    0.41819E-08         0.67699E-10         0.00000E+00
    0.41827E-08         0.67444E-10         0.00000E+00
    0.41836E-08         0.66958E-10         0.00000E+00
    0.41845E-08         0.66239E-10         0.00000E+00
    0.41853E-08         0.65286E-10         0.00000E+00
    0.41861E-08         0.64100E-10         0.00000E+00
    0.41869E-08         0.62680E-10         0.00000E+00
    0.41877E-08         0.61024E-10         0.00000E+00
    0.41884E-08         0.59134E-10         0.00000E+00
    0.41891E-08         0.57009E-10         0.00000E+00
    0.41897E-08         0.54648E-10         0.00000E+00
    0.41904E-08         0.52052E-10         0.00000E+00
    0.41910E-08         0.49222E-10         0.00000E+00
    0.41915E-08         0.46157E-10         0.00000E+00
    0.41920E-08         0.42858E-10         0.00000E+00
    0.41925E-08         0.39326E-10         0.00000E+00
    0.41929E-08         0.35561E-10         0.00000E+00
    0.41933E-08         0.31565E-10         0.00000E+00
    0.41936E-08         0.27337E-10         0.00000E+00
    0.41939E-08         0.22880E-10         0.00000E+00
    0.41942E-08         0.18194E-10         0.00000E+00
    0.41943E-08         0.13280E-10         0.00000E+00
    0.41944E-08         0.81401E-11         0.00000E+00
    0.41945E-08         0.27755E-11         0.00000E+00
    0.42171E-08         0.20920E-11         0.00000E+00
    0.42171E-08         0.62293E-11         0.00000E+00
    0.42173E-08         0.10288E-10         0.00000E+00
    0.42175E-08         0.14259E-10         0.00000E+00
    0.42177E-08         0.18130E-10         0.00000E+00
    0.42180E-08         0.21892E-10         0.00000E+00
    0.42184E-08         0.25536E-10         0.00000E+00
    0.42188E-08         0.29053E-10         0.00000E+00
    0.42193E-08         0.32436E-10         0.00000E+00
    0.42198E-08         0.35675E-10         0.00000E+00
    0.42204E-08         0.38765E-10         0.00000E+00
    0.42210E-08         0.41698E-10         0.00000E+00
    0.42216E-08         0.44468E-10         0.00000E+00
    0.42223E-08         0.47069E-10         0.00000E+00
    0.42230E-08         0.49495E-10         0.00000E+00
    0.42238E-08         0.51741E-10         0.00000E+00
    0.42245E-08         0.53803E-10         0.00000E+00
    0.42253E-08         0.55675E-10         0.00000E+00
    0.42261E-08         0.57355E-10         0.00000E+00
    0.42269E-08         0.58837E-10         0.00000E+00
    0.42277E-08         0.60119E-10         0.00000E+00
    0.42285E-08         0.61198E-10         0.00000E+00
    0.42293E-08         0.62070E-10         0.00000E+00
    0.42301E-08         0.62732E-10         0.00000E+00
    0.42310E-08         0.63184E-10         0.00000E+00
    0.42318E-08         0.63421E-10         0.00000E+00
    0.42326E-08         0.63443E-10         0.00000E+00
    0.42334E-08         0.63248E-10         0.00000E+00
    0.42342E-08         0.62833E-10         0.00000E+00
    0.42350E-08         0.62199E-10         0.00000E+00
    0.42358E-08         0.61343E-10         0.00000E+00
    0.42365E-08         0.60265E-10         0.00000E+00
    0.42372E-08         0.58964E-10         0.00000E+00
    0.42379E-08         0.57439E-10         0.00000E+00
    0.42386E-08         0.55691E-10         0.00000E+00
    0.42393E-08         0.53717E-10         0.00000E+00
    0.42399E-08         0.51519E-10         0.00000E+00
    0.42405E-08         0.49097E-10         0.00000E+00
    0.42410E-08         0.46449E-10         0.00000E+00
    0.42415E-08         0.43577E-10         0.00000E+00
    0.42420E-08         0.40481E-10         0.00000E+00
    0.42424E-08         0.37161E-10         0.00000E+00
    0.42428E-08         0.33618E-10         0.00000E+00
    0.42432E-08         0.29852E-10         0.00000E+00
    0.42435E-08         0.25865E-10         0.00000E+00
    0.42438E-08         0.21656E-10         0.00000E+00
    0.42440E-08         0.17227E-10         0.00000E+00
    0.42441E-08         0.12579E-10         0.00000E+00
    0.42442E-08         0.77137E-11         0.00000E+00
    0.42443E-08         0.26311E-11         0.00000E+00
    0.42854E-08         0.19388E-11         0.00000E+00
    0.42855E-08         0.57752E-11         0.00000E+00
    0.42856E-08         0.95426E-11         0.00000E+00
    0.42858E-08         0.13231E-10         0.00000E+00
    0.42860E-08         0.16831E-10         0.00000E+00
    0.42862E-08         0.20334E-10         0.00000E+00
    0.42865E-08         0.23732E-10         0.00000E+00
    0.42869E-08         0.27015E-10         0.00000E+00
    0.42872E-08         0.30177E-10         0.00000E+00
    0.42877E-08         0.33210E-10         0.00000E+00
    0.42881E-08         0.36107E-10         0.00000E+00
    0.42886E-08         0.38862E-10         0.00000E+00
    0.42892E-08         0.41468E-10         0.00000E+00
    0.42897E-08         0.43920E-10         0.00000E+00
    0.42903E-08         0.46211E-10         0.00000E+00
    0.42909E-08         0.48338E-10         0.00000E+00
    0.42915E-08         0.50294E-10         0.00000E+00
    0.42922E-08         0.52076E-10         0.00000E+00
    0.42929E-08         0.53679E-10         0.00000E+00
    0.42935E-08         0.55099E-10         0.00000E+00
    0.42942E-08         0.56333E-10         0.00000E+00
    0.42949E-08         0.57377E-10         0.00000E+00
    0.42956E-08         0.58228E-10         0.00000E+00
    0.42964E-08         0.58883E-10         0.00000E+00
    0.42971E-08         0.59340E-10         0.00000E+00
    0.42978E-08         0.59597E-10         0.00000E+00
    0.42985E-08         0.59650E-10         0.00000E+00
    0.42992E-08         0.59498E-10         0.00000E+00
    0.42999E-08         0.59139E-10         0.00000E+00
    0.43006E-08         0.58573E-10         0.00000E+00
    0.43012E-08         0.57796E-10         0.00000E+00
    0.43019E-08         0.56809E-10         0.00000E+00
    0.43025E-08         0.55610E-10         0.00000E+00
    0.43031E-08         0.54198E-10         0.00000E+00
    0.43037E-08         0.52573E-10         0.00000E+00
    0.43043E-08         0.50733E-10         0.00000E+00
    0.43049E-08         0.48680E-10         0.00000E+00
    0.43054E-08         0.46411E-10         0.00000E+00
    0.43059E-08         0.43928E-10         0.00000E+00
    0.43063E-08         0.41229E-10         0.00000E+00
    0.43068E-08         0.38316E-10         0.00000E+00
    0.43071E-08         0.35189E-10         0.00000E+00
    0.43075E-08         0.31847E-10         0.00000E+00
    0.43078E-08         0.28291E-10         0.00000E+00
    0.43081E-08         0.24522E-10         0.00000E+00
    0.43083E-08         0.20540E-10         0.00000E+00
    0.43085E-08         0.16346E-10         0.00000E+00
    0.43086E-08         0.11941E-10         0.00000E+00
    0.43087E-08         0.73248E-11         0.00000E+00
    0.43088E-08         0.24996E-11         0.00000E+00
    0.43688E-08         0.18224E-11         0.00000E+00
    0.43688E-08         0.54283E-11         0.00000E+00
    0.43689E-08         0.89689E-11         0.00000E+00
    0.43690E-08         0.12436E-10         0.00000E+00
    0.43692E-08         0.15820E-10         0.00000E+00
    0.43693E-08         0.19114E-10         0.00000E+00
    0.43696E-08         0.22310E-10         0.00000E+00
    0.43698E-08         0.25400E-10         0.00000E+00
    0.43701E-08         0.28378E-10         0.00000E+00
    0.43705E-08         0.31236E-10         0.00000E+00
    0.43708E-08         0.33969E-10         0.00000E+00
    0.43712E-08         0.36569E-10         0.00000E+00
    0.43716E-08         0.39032E-10         0.00000E+00
    0.43721E-08         0.41351E-10         0.00000E+00
    0.43725E-08         0.43521E-10         0.00000E+00
    0.43730E-08         0.45538E-10         0.00000E+00
    0.43735E-08         0.47396E-10         0.00000E+00
    0.43741E-08         0.49091E-10         0.00000E+00
    0.43746E-08         0.50619E-10         0.00000E+00
    0.43752E-08         0.51977E-10         0.00000E+00
    0.43757E-08         0.53159E-10         0.00000E+00
    0.43763E-08         0.54164E-10         0.00000E+00
    0.43769E-08         0.54987E-10         0.00000E+00
    0.43775E-08         0.55626E-10         0.00000E+00
    0.43781E-08         0.56078E-10         0.00000E+00
    0.43787E-08         0.56341E-10         0.00000E+00
    0.43793E-08         0.56413E-10         0.00000E+00
    0.43798E-08         0.56290E-10         0.00000E+00
    0.43804E-08         0.55972E-10         0.00000E+00
    0.43810E-08         0.55456E-10         0.00000E+00
    0.43816E-08         0.54741E-10         0.00000E+00
    0.43821E-08         0.53826E-10         0.00000E+00
    0.43827E-08         0.52710E-10         0.00000E+00
    0.43832E-08         0.51390E-10         0.00000E+00
    0.43837E-08         0.49868E-10         0.00000E+00
    0.43842E-08         0.48141E-10         0.00000E+00
    0.43846E-08         0.46209E-10         0.00000E+00
    0.43851E-08         0.44071E-10         0.00000E+00
    0.43855E-08         0.41728E-10         0.00000E+00
    0.43859E-08         0.39179E-10         0.00000E+00
    0.43863E-08         0.36424E-10         0.00000E+00
    0.43866E-08         0.33463E-10         0.00000E+00
    0.43869E-08         0.30295E-10         0.00000E+00
    0.43872E-08         0.26922E-10         0.00000E+00
    0.43874E-08         0.23344E-10         0.00000E+00
    0.43876E-08         0.19560E-10         0.00000E+00
    0.43878E-08         0.15572E-10         0.00000E+00
    0.43879E-08         0.11379E-10         0.00000E+00
    0.43880E-08         0.69829E-11         0.00000E+00
    0.43880E-08         0.23838E-11         0.00000E+00
    0.44666E-08         0.17393E-11         0.00000E+00
    0.44667E-08         0.51782E-11         0.00000E+00
    0.44667E-08         0.85519E-11         0.00000E+00
    0.44668E-08         0.11853E-10         0.00000E+00
    0.44669E-08         0.15073E-10         0.00000E+00
    0.44670E-08         0.18206E-10         0.00000E+00
    0.44672E-08         0.21245E-10         0.00000E+00
    0.44674E-08         0.24183E-10         0.00000E+00
    0.44676E-08         0.27013E-10         0.00000E+00
    0.44679E-08         0.29730E-10         0.00000E+00
    0.44681E-08         0.32327E-10         0.00000E+00
    0.44684E-08         0.34799E-10         0.00000E+00
    0.44687E-08         0.37141E-10         0.00000E+00
    0.44691E-08         0.39347E-10         0.00000E+00
    0.44694E-08         0.41413E-10         0.00000E+00
    0.44698E-08         0.43333E-10         0.00000E+00
    0.44702E-08         0.45103E-10         0.00000E+00
    0.44706E-08         0.46720E-10         0.00000E+00
    0.44710E-08         0.48179E-10         0.00000E+00
    0.44715E-08         0.49476E-10         0.00000E+00
    0.44719E-08         0.50608E-10         0.00000E+00
    0.44724E-08         0.51571E-10         0.00000E+00
    0.44728E-08         0.52363E-10         0.00000E+00
    0.44733E-08         0.52981E-10         0.00000E+00
    0.44738E-08         0.53421E-10         0.00000E+00
    0.44742E-08         0.53681E-10         0.00000E+00
    0.44747E-08         0.53759E-10         0.00000E+00
    0.44752E-08         0.53653E-10         0.00000E+00
    0.44756E-08         0.53361E-10         0.00000E+00
    0.44761E-08         0.52881E-10         0.00000E+00
    0.44766E-08         0.52211E-10         0.00000E+00
    0.44770E-08         0.51350E-10         0.00000E+00
    0.44774E-08         0.50297E-10         0.00000E+00
    0.44779E-08         0.49050E-10         0.00000E+00
    0.44783E-08         0.47608E-10         0.00000E+00
    0.44787E-08         0.45971E-10         0.00000E+00
    0.44791E-08         0.44137E-10         0.00000E+00
    0.44794E-08         0.42106E-10         0.00000E+00
    0.44798E-08         0.39878E-10         0.00000E+00
    0.44801E-08         0.37452E-10         0.00000E+00
    0.44804E-08         0.34828E-10         0.00000E+00
    0.44807E-08         0.32005E-10         0.00000E+00
    0.44809E-08         0.28983E-10         0.00000E+00
    0.44811E-08         0.25764E-10         0.00000E+00
    0.44813E-08         0.22345E-10         0.00000E+00
    0.44815E-08         0.18729E-10         0.00000E+00
    0.44816E-08         0.14914E-10         0.00000E+00
    0.44818E-08         0.10902E-10         0.00000E+00
    0.44818E-08         0.66918E-11         0.00000E+00
    0.44819E-08         0.22852E-11         0.00000E+00
    0.45788E-08         0.16852E-11         0.00000E+00
    0.45788E-08         0.50134E-11         0.00000E+00
    0.45788E-08         0.82733E-11         0.00000E+00
    0.45789E-08         0.11458E-10         0.00000E+00
    0.45790E-08         0.14562E-10         0.00000E+00
    0.45790E-08         0.17578E-10         0.00000E+00
    0.45792E-08         0.20501E-10         0.00000E+00
    0.45793E-08         0.23324E-10         0.00000E+00
    0.45794E-08         0.26041E-10         0.00000E+00
    0.45796E-08         0.28648E-10         0.00000E+00
    0.45798E-08         0.31139E-10         0.00000E+00
    0.45800E-08         0.33509E-10         0.00000E+00
    0.45802E-08         0.35754E-10         0.00000E+00
    0.45804E-08         0.37867E-10         0.00000E+00
    0.45807E-08         0.39845E-10         0.00000E+00
    0.45810E-08         0.41684E-10         0.00000E+00
    0.45813E-08         0.43380E-10         0.00000E+00
    0.45816E-08         0.44928E-10         0.00000E+00
    0.45819E-08         0.46324E-10         0.00000E+00
    0.45822E-08         0.47567E-10         0.00000E+00
    0.45825E-08         0.48651E-10         0.00000E+00
    0.45828E-08         0.49574E-10         0.00000E+00
    0.45832E-08         0.50333E-10         0.00000E+00
    0.45835E-08         0.50925E-10         0.00000E+00
    0.45839E-08         0.51348E-10         0.00000E+00
    0.45843E-08         0.51599E-10         0.00000E+00
    0.45846E-08         0.51675E-10         0.00000E+00
    0.45850E-08         0.51576E-10         0.00000E+00
    0.45853E-08         0.51297E-10         0.00000E+00
    0.45857E-08         0.50839E-10         0.00000E+00
    0.45861E-08         0.50199E-10         0.00000E+00
    0.45864E-08         0.49376E-10         0.00000E+00
    0.45867E-08         0.48367E-10         0.00000E+00
    0.45871E-08         0.47173E-10         0.00000E+00
    0.45874E-08         0.45792E-10         0.00000E+00
    0.45877E-08         0.44223E-10         0.00000E+00
    0.45880E-08         0.42465E-10         0.00000E+00
    0.45883E-08         0.40517E-10         0.00000E+00
    0.45886E-08         0.38378E-10         0.00000E+00
    0.45888E-08         0.36049E-10         0.00000E+00
    0.45891E-08         0.33528E-10         0.00000E+00
    0.45893E-08         0.30816E-10         0.00000E+00
    0.45895E-08         0.27912E-10         0.00000E+00
    0.45897E-08         0.24815E-10         0.00000E+00
    0.45898E-08         0.21527E-10         0.00000E+00
    0.45900E-08         0.18046E-10         0.00000E+00
    0.45901E-08         0.14373E-10         0.00000E+00
    0.45902E-08         0.10508E-10         0.00000E+00
    0.45902E-08         0.64518E-11         0.00000E+00
    0.45902E-08         0.22037E-11         0.00000E+00
    0.47050E-08         0.16559E-11         0.00000E+00
    0.47050E-08         0.49215E-11         0.00000E+00
    0.47050E-08         0.81137E-11         0.00000E+00
    0.47051E-08         0.11227E-10         0.00000E+00
    0.47051E-08         0.14255E-10         0.00000E+00
    0.47052E-08         0.17193E-10         0.00000E+00
    0.47052E-08         0.20036E-10         0.00000E+00
    0.47053E-08         0.22779E-10         0.00000E+00
    0.47054E-08         0.25416E-10         0.00000E+00
    0.47055E-08         0.27943E-10         0.00000E+00
    0.47056E-08         0.30354E-10         0.00000E+00
    0.47057E-08         0.32647E-10         0.00000E+00
    0.47058E-08         0.34815E-10         0.00000E+00
    0.47060E-08         0.36856E-10         0.00000E+00
    0.47062E-08         0.38764E-10         0.00000E+00
    0.47063E-08         0.40537E-10         0.00000E+00
    0.47065E-08         0.42170E-10         0.00000E+00
    0.47067E-08         0.43660E-10         0.00000E+00
    0.47069E-08         0.45004E-10         0.00000E+00
    0.47072E-08         0.46197E-10         0.00000E+00
    0.47074E-08         0.47238E-10         0.00000E+00
    0.47076E-08         0.48123E-10         0.00000E+00
    0.47079E-08         0.48850E-10         0.00000E+00
    0.47081E-08         0.49415E-10         0.00000E+00
    0.47084E-08         0.49817E-10         0.00000E+00
    0.47086E-08         0.50053E-10         0.00000E+00
    0.47089E-08         0.50121E-10         0.00000E+00
    0.47091E-08         0.50019E-10         0.00000E+00
    0.47094E-08         0.49744E-10         0.00000E+00
    0.47097E-08         0.49296E-10         0.00000E+00
    0.47099E-08         0.48672E-10         0.00000E+00
    0.47102E-08         0.47872E-10         0.00000E+00
    0.47104E-08         0.46893E-10         0.00000E+00
    0.47107E-08         0.45734E-10         0.00000E+00
    0.47109E-08         0.44395E-10         0.00000E+00
    0.47112E-08         0.42874E-10         0.00000E+00
    0.47114E-08         0.41170E-10         0.00000E+00
    0.47116E-08         0.39282E-10         0.00000E+00
    0.47118E-08         0.37210E-10         0.00000E+00
    0.47120E-08         0.34953E-10         0.00000E+00
    0.47122E-08         0.32511E-10         0.00000E+00
    0.47124E-08         0.29883E-10         0.00000E+00
    0.47125E-08         0.27069E-10         0.00000E+00
    0.47126E-08         0.24068E-10         0.00000E+00
    0.47128E-08         0.20880E-10         0.00000E+00
    0.47129E-08         0.17506E-10         0.00000E+00
    0.47130E-08         0.13944E-10         0.00000E+00
    0.47130E-08         0.10196E-10         0.00000E+00
    0.47131E-08         0.62606E-11         0.00000E+00
    0.47131E-08         0.21387E-11         0.00000E+00
    0.48452E-08         0.16473E-11         0.00000E+00
    0.48452E-08         0.48909E-11         0.00000E+00
    0.48452E-08         0.80544E-11         0.00000E+00
    0.48452E-08         0.11133E-10         0.00000E+00
    0.48452E-08         0.14121E-10         0.00000E+00
    0.48452E-08         0.17016E-10         0.00000E+00
    0.48453E-08         0.19811E-10         0.00000E+00
    0.48453E-08         0.22503E-10         0.00000E+00
    0.48453E-08         0.25088E-10         0.00000E+00
    0.48454E-08         0.27560E-10         0.00000E+00
    0.48454E-08         0.29917E-10         0.00000E+00
    0.48455E-08         0.32154E-10         0.00000E+00
    0.48455E-08         0.34267E-10         0.00000E+00
    0.48456E-08         0.36253E-10         0.00000E+00
    0.48457E-08         0.38109E-10         0.00000E+00
    0.48458E-08         0.39829E-10         0.00000E+00
    0.48459E-08         0.41413E-10         0.00000E+00
    0.48460E-08         0.42855E-10         0.00000E+00
    0.48461E-08         0.44154E-10         0.00000E+00
    0.48463E-08         0.45306E-10         0.00000E+00
    0.48464E-08         0.46308E-10         0.00000E+00
    0.48466E-08         0.47158E-10         0.00000E+00
    0.48467E-08         0.47854E-10         0.00000E+00
    0.48469E-08         0.48392E-10         0.00000E+00
    0.48470E-08         0.48771E-10         0.00000E+00
    0.48472E-08         0.48989E-10         0.00000E+00
    0.48474E-08         0.49042E-10         0.00000E+00
    0.48475E-08         0.48931E-10         0.00000E+00
    0.48477E-08         0.48652E-10         0.00000E+00
    0.48479E-08         0.48204E-10         0.00000E+00
    0.48481E-08         0.47585E-10         0.00000E+00
    0.48482E-08         0.46795E-10         0.00000E+00
    0.48484E-08         0.45831E-10         0.00000E+00
    0.48486E-08         0.44693E-10         0.00000E+00
    0.48487E-08         0.43379E-10         0.00000E+00
    0.48489E-08         0.41888E-10         0.00000E+00
    0.48491E-08         0.40220E-10         0.00000E+00
    0.48492E-08         0.38373E-10         0.00000E+00
    0.48494E-08         0.36346E-10         0.00000E+00
    0.48495E-08         0.34140E-10         0.00000E+00
    0.48496E-08         0.31753E-10         0.00000E+00
    0.48498E-08         0.29185E-10         0.00000E+00
    0.48499E-08         0.26436E-10         0.00000E+00
    0.48500E-08         0.23505E-10         0.00000E+00
    0.48501E-08         0.20392E-10         0.00000E+00
    0.48501E-08         0.17096E-10         0.00000E+00
    0.48502E-08         0.13618E-10         0.00000E+00
    0.48503E-08         0.99575E-11         0.00000E+00
    0.48503E-08         0.61144E-11         0.00000E+00
    0.48503E-08         0.20888E-11         0.00000E+00
    0.49993E-08         0.16558E-11         0.00000E+00
    0.49993E-08         0.49108E-11         0.00000E+00
    0.49993E-08         0.80778E-11         0.00000E+00
    0.49993E-08         0.11153E-10         0.00000E+00
    0.49992E-08         0.14131E-10         0.00000E+00
    0.49992E-08         0.17010E-10         0.00000E+00
    0.49992E-08         0.19785E-10         0.00000E+00
    0.49992E-08         0.22453E-10         0.00000E+00
    0.49992E-08         0.25009E-10         0.00000E+00
    0.49992E-08         0.27450E-10         0.00000E+00
    0.49992E-08         0.29773E-10         0.00000E+00
    0.49992E-08         0.31974E-10         0.00000E+00
    0.49992E-08         0.34051E-10         0.00000E+00
    0.49992E-08         0.35999E-10         0.00000E+00
    0.49992E-08         0.37815E-10         0.00000E+00
    0.49993E-08         0.39498E-10         0.00000E+00
    0.49993E-08         0.41043E-10         0.00000E+00
    0.49994E-08         0.42448E-10         0.00000E+00
    0.49994E-08         0.43710E-10         0.00000E+00
    0.49995E-08         0.44827E-10         0.00000E+00
    0.49995E-08         0.45796E-10         0.00000E+00
    0.49996E-08         0.46615E-10         0.00000E+00
    0.49997E-08         0.47281E-10         0.00000E+00
    0.49997E-08         0.47793E-10         0.00000E+00
    0.49998E-08         0.48148E-10         0.00000E+00
    0.49999E-08         0.48344E-10         0.00000E+00
    0.50000E-08         0.48380E-10         0.00000E+00
    0.50001E-08         0.48254E-10         0.00000E+00
    0.50002E-08         0.47964E-10         0.00000E+00
    0.50003E-08         0.47508E-10         0.00000E+00
    0.50004E-08         0.46886E-10         0.00000E+00
    0.50005E-08         0.46095E-10         0.00000E+00
    0.50006E-08         0.45135E-10         0.00000E+00
    0.50007E-08         0.44004E-10         0.00000E+00
    0.50008E-08         0.42701E-10         0.00000E+00
    0.50009E-08         0.41225E-10         0.00000E+00
    0.50010E-08         0.39576E-10         0.00000E+00
    0.50011E-08         0.37752E-10         0.00000E+00
    0.50012E-08         0.35753E-10         0.00000E+00
    0.50013E-08         0.33578E-10         0.00000E+00
    0.50014E-08         0.31226E-10         0.00000E+00
    0.50015E-08         0.28697E-10         0.00000E+00
    0.50015E-08         0.25991E-10         0.00000E+00
    0.50016E-08         0.23107E-10         0.00000E+00
    0.50017E-08         0.20045E-10         0.00000E+00
    0.50017E-08         0.16804E-10         0.00000E+00
    0.50018E-08         0.13384E-10         0.00000E+00
    0.50018E-08         0.97859E-11         0.00000E+00
    0.50018E-08         0.60087E-11         0.00000E+00
    0.50018E-08         0.20526E-11         0.00000E+00
    0.51673E-08         0.16780E-11         0.00000E+00
    0.51673E-08         0.49714E-11         0.00000E+00
    0.51673E-08         0.81682E-11         0.00000E+00
    0.51672E-08         0.11265E-10         0.00000E+00
    0.51672E-08         0.14259E-10         0.00000E+00
    0.51672E-08         0.17146E-10         0.00000E+00
    0.51671E-08         0.19923E-10         0.00000E+00
    0.51671E-08         0.22587E-10         0.00000E+00
    0.51670E-08         0.25136E-10         0.00000E+00
    0.51670E-08         0.27565E-10         0.00000E+00
    0.51669E-08         0.29872E-10         0.00000E+00
    0.51669E-08         0.32055E-10         0.00000E+00
    0.51669E-08         0.34110E-10         0.00000E+00
    0.51668E-08         0.36034E-10         0.00000E+00
    0.51668E-08         0.37825E-10         0.00000E+00
    0.51668E-08         0.39480E-10         0.00000E+00
    0.51667E-08         0.40997E-10         0.00000E+00
    0.51667E-08         0.42374E-10         0.00000E+00
    0.51667E-08         0.43607E-10         0.00000E+00
    0.51667E-08         0.44696E-10         0.00000E+00
    0.51667E-08         0.45636E-10         0.00000E+00
    0.51667E-08         0.46428E-10         0.00000E+00
    0.51667E-08         0.47067E-10         0.00000E+00
    0.51667E-08         0.47554E-10         0.00000E+00
    0.51667E-08         0.47885E-10         0.00000E+00
    0.51668E-08         0.48059E-10         0.00000E+00
    0.51668E-08         0.48074E-10         0.00000E+00
    0.51668E-08         0.47929E-10         0.00000E+00
    0.51669E-08         0.47623E-10         0.00000E+00
    0.51669E-08         0.47153E-10         0.00000E+00
    0.51669E-08         0.46519E-10         0.00000E+00
    0.51670E-08         0.45719E-10         0.00000E+00
    0.51670E-08         0.44753E-10         0.00000E+00
    0.51671E-08         0.43618E-10         0.00000E+00
    0.51671E-08         0.42315E-10         0.00000E+00
    0.51672E-08         0.40841E-10         0.00000E+00
    0.51672E-08         0.39197E-10         0.00000E+00
    0.51673E-08         0.37382E-10         0.00000E+00
    0.51673E-08         0.35394E-10         0.00000E+00
    0.51674E-08         0.33234E-10         0.00000E+00
    0.51674E-08         0.30900E-10         0.00000E+00
    0.51675E-08         0.28392E-10         0.00000E+00
    0.51675E-08         0.25710E-10         0.00000E+00
    0.51676E-08         0.22853E-10         0.00000E+00
    0.51676E-08         0.19821E-10         0.00000E+00
    0.51676E-08         0.16614E-10         0.00000E+00
    0.51676E-08         0.13231E-10         0.00000E+00
    0.51677E-08         0.96728E-11         0.00000E+00
    0.51677E-08         0.59385E-11         0.00000E+00
    0.51677E-08         0.20283E-11         0.00000E+00
    0.53492E-08         0.17111E-11         0.00000E+00
    0.53492E-08         0.50642E-11         0.00000E+00
    0.53492E-08         0.83117E-11         0.00000E+00
    0.53492E-08         0.11451E-10         0.00000E+00
    0.53491E-08         0.14479E-10         0.00000E+00
    0.53491E-08         0.17394E-10         0.00000E+00
    0.53490E-08         0.20192E-10         0.00000E+00
    0.53489E-08         0.22871E-10         0.00000E+00
    0.53489E-08         0.25428E-10         0.00000E+00
    0.53488E-08         0.27862E-10         0.00000E+00
    0.53487E-08         0.30168E-10         0.00000E+00
    0.53486E-08         0.32346E-10         0.00000E+00
    0.53486E-08         0.34393E-10         0.00000E+00
    0.53485E-08         0.36305E-10         0.00000E+00
    0.53484E-08         0.38082E-10         0.00000E+00
    0.53483E-08         0.39721E-10         0.00000E+00
    0.53483E-08         0.41219E-10         0.00000E+00
    0.53482E-08         0.42575E-10         0.00000E+00
    0.53481E-08         0.43786E-10         0.00000E+00
    0.53481E-08         0.44852E-10         0.00000E+00
    0.53480E-08         0.45769E-10         0.00000E+00
    0.53480E-08         0.46536E-10         0.00000E+00
    0.53479E-08         0.47152E-10         0.00000E+00
    0.53479E-08         0.47614E-10         0.00000E+00
    0.53478E-08         0.47921E-10         0.00000E+00
    0.53478E-08         0.48072E-10         0.00000E+00
    0.53478E-08         0.48065E-10         0.00000E+00
    0.53478E-08         0.47899E-10         0.00000E+00
    0.53477E-08         0.47572E-10         0.00000E+00
    0.53477E-08         0.47084E-10         0.00000E+00
    0.53477E-08         0.46432E-10         0.00000E+00
    0.53477E-08         0.45616E-10         0.00000E+00
    0.53477E-08         0.44636E-10         0.00000E+00
    0.53477E-08         0.43489E-10         0.00000E+00
    0.53477E-08         0.42175E-10         0.00000E+00
    0.53477E-08         0.40694E-10         0.00000E+00
    0.53477E-08         0.39044E-10         0.00000E+00
    0.53477E-08         0.37225E-10         0.00000E+00
    0.53478E-08         0.35235E-10         0.00000E+00
    0.53478E-08         0.33076E-10         0.00000E+00
    0.53478E-08         0.30745E-10         0.00000E+00
    0.53478E-08         0.28243E-10         0.00000E+00
    0.53478E-08         0.25569E-10         0.00000E+00
    0.53478E-08         0.22723E-10         0.00000E+00
    0.53479E-08         0.19704E-10         0.00000E+00
    0.53479E-08         0.16512E-10         0.00000E+00
    0.53479E-08         0.13147E-10         0.00000E+00
    0.53479E-08         0.96097E-11         0.00000E+00
    0.53479E-08         0.58987E-11         0.00000E+00
    0.53479E-08         0.20144E-11         0.00000E+00
    0.55453E-08         0.17523E-11         0.00000E+00
    0.55453E-08         0.51816E-11         0.00000E+00
    0.55452E-08         0.84961E-11         0.00000E+00
    0.55452E-08         0.11694E-10         0.00000E+00
    0.55451E-08         0.14772E-10         0.00000E+00
    0.55451E-08         0.17729E-10         0.00000E+00
    0.55450E-08         0.20563E-10         0.00000E+00
    0.55449E-08         0.23271E-10         0.00000E+00
    0.55448E-08         0.25851E-10         0.00000E+00
    0.55447E-08         0.28301E-10         0.00000E+00
    0.55446E-08         0.30620E-10         0.00000E+00
    0.55445E-08         0.32804E-10         0.00000E+00
    0.55444E-08         0.34853E-10         0.00000E+00
    0.55443E-08         0.36765E-10         0.00000E+00
    0.55442E-08         0.38536E-10         0.00000E+00
    0.55441E-08         0.40167E-10         0.00000E+00
    0.55440E-08         0.41654E-10         0.00000E+00
    0.55439E-08         0.42996E-10         0.00000E+00
    0.55438E-08         0.44192E-10         0.00000E+00
    0.55437E-08         0.45239E-10         0.00000E+00
    0.55436E-08         0.46137E-10         0.00000E+00
    0.55435E-08         0.46884E-10         0.00000E+00
    0.55434E-08         0.47478E-10         0.00000E+00
    0.55433E-08         0.47917E-10         0.00000E+00
    0.55432E-08         0.48202E-10         0.00000E+00
    0.55431E-08         0.48329E-10         0.00000E+00
    0.55431E-08         0.48299E-10         0.00000E+00
    0.55430E-08         0.48109E-10         0.00000E+00
    0.55429E-08         0.47759E-10         0.00000E+00
    0.55429E-08         0.47248E-10         0.00000E+00
    0.55428E-08         0.46575E-10         0.00000E+00
    0.55428E-08         0.45738E-10         0.00000E+00
    0.55428E-08         0.44737E-10         0.00000E+00
    0.55427E-08         0.43571E-10         0.00000E+00
    0.55427E-08         0.42239E-10         0.00000E+00
    0.55427E-08         0.40741E-10         0.00000E+00
    0.55426E-08         0.39076E-10         0.00000E+00
    0.55426E-08         0.37243E-10         0.00000E+00
    0.55426E-08         0.35241E-10         0.00000E+00
    0.55426E-08         0.33071E-10         0.00000E+00
    0.55426E-08         0.30732E-10         0.00000E+00
    0.55426E-08         0.28223E-10         0.00000E+00
    0.55425E-08         0.25544E-10         0.00000E+00
    0.55425E-08         0.22694E-10         0.00000E+00
    0.55425E-08         0.19674E-10         0.00000E+00
    0.55425E-08         0.16483E-10         0.00000E+00
    0.55425E-08         0.13121E-10         0.00000E+00
    0.55425E-08         0.95885E-11         0.00000E+00
    0.55425E-08         0.58844E-11         0.00000E+00
    0.55425E-08         0.20090E-11         0.00000E+00
    0.57556E-08         0.17997E-11         0.00000E+00
    0.57556E-08         0.53173E-11         0.00000E+00
    0.57555E-08         0.87109E-11         0.00000E+00
    0.57555E-08         0.11979E-10         0.00000E+00
    0.57554E-08         0.15119E-10         0.00000E+00
    0.57553E-08         0.18130E-10         0.00000E+00
    0.57552E-08         0.21011E-10         0.00000E+00
    0.57551E-08         0.23759E-10         0.00000E+00
    0.57550E-08         0.26372E-10         0.00000E+00
    0.57549E-08         0.28850E-10         0.00000E+00
    0.57548E-08         0.31190E-10         0.00000E+00
    0.57547E-08         0.33391E-10         0.00000E+00
    0.57545E-08         0.35451E-10         0.00000E+00
    0.57544E-08         0.37369E-10         0.00000E+00
    0.57543E-08         0.39143E-10         0.00000E+00
    0.57541E-08         0.40772E-10         0.00000E+00
    0.57540E-08         0.42255E-10         0.00000E+00
    0.57539E-08         0.43589E-10         0.00000E+00
    0.57537E-08         0.44774E-10         0.00000E+00
    0.57536E-08         0.45808E-10         0.00000E+00
    0.57535E-08         0.46690E-10         0.00000E+00
    0.57534E-08         0.47419E-10         0.00000E+00
    0.57532E-08         0.47994E-10         0.00000E+00
    0.57531E-08         0.48412E-10         0.00000E+00
    0.57530E-08         0.48674E-10         0.00000E+00
    0.57529E-08         0.48779E-10         0.00000E+00
    0.57528E-08         0.48724E-10         0.00000E+00
    0.57527E-08         0.48510E-10         0.00000E+00
    0.57526E-08         0.48135E-10         0.00000E+00
    0.57525E-08         0.47599E-10         0.00000E+00
    0.57524E-08         0.46900E-10         0.00000E+00
    0.57523E-08         0.46038E-10         0.00000E+00
    0.57523E-08         0.45012E-10         0.00000E+00
    0.57522E-08         0.43822E-10         0.00000E+00
    0.57521E-08         0.42466E-10         0.00000E+00
    0.57521E-08         0.40945E-10         0.00000E+00
    0.57520E-08         0.39257E-10         0.00000E+00
    0.57520E-08         0.37403E-10         0.00000E+00
    0.57519E-08         0.35381E-10         0.00000E+00
    0.57519E-08         0.33191E-10         0.00000E+00
    0.57519E-08         0.30833E-10         0.00000E+00
    0.57518E-08         0.28307E-10         0.00000E+00
    0.57518E-08         0.25613E-10         0.00000E+00
    0.57518E-08         0.22749E-10         0.00000E+00
    0.57518E-08         0.19716E-10         0.00000E+00
    0.57518E-08         0.16514E-10         0.00000E+00
    0.57518E-08         0.13142E-10         0.00000E+00
    0.57518E-08         0.96013E-11         0.00000E+00
    0.57518E-08         0.58907E-11         0.00000E+00
    0.57518E-08         0.20107E-11         0.00000E+00
    0.59804E-08         0.18513E-11         0.00000E+00
    0.59803E-08         0.54659E-11         0.00000E+00
    0.59803E-08         0.89472E-11         0.00000E+00
    0.59802E-08         0.12294E-10         0.00000E+00
    0.59802E-08         0.15505E-10         0.00000E+00
    0.59801E-08         0.18579E-10         0.00000E+00
    0.59800E-08         0.21515E-10         0.00000E+00
    0.59799E-08         0.24310E-10         0.00000E+00
    0.59797E-08         0.26965E-10         0.00000E+00
    0.59796E-08         0.29478E-10         0.00000E+00
    0.59795E-08         0.31847E-10         0.00000E+00
    0.59793E-08         0.34071E-10         0.00000E+00
    0.59792E-08         0.36149E-10         0.00000E+00
    0.59790E-08         0.38080E-10         0.00000E+00
    0.59789E-08         0.39863E-10         0.00000E+00
    0.59787E-08         0.41496E-10         0.00000E+00
    0.59786E-08         0.42979E-10         0.00000E+00
    0.59784E-08         0.44310E-10         0.00000E+00
    0.59783E-08         0.45488E-10         0.00000E+00
    0.59781E-08         0.46513E-10         0.00000E+00
    0.59780E-08         0.47382E-10         0.00000E+00
    0.59778E-08         0.48096E-10         0.00000E+00
    0.59777E-08         0.48653E-10         0.00000E+00
    0.59775E-08         0.49052E-10         0.00000E+00
    0.59774E-08         0.49293E-10         0.00000E+00
    0.59773E-08         0.49375E-10         0.00000E+00
    0.59771E-08         0.49296E-10         0.00000E+00
    0.59770E-08         0.49056E-10         0.00000E+00
    0.59769E-08         0.48655E-10         0.00000E+00
    0.59768E-08         0.48092E-10         0.00000E+00
    0.59767E-08         0.47365E-10         0.00000E+00
    0.59766E-08         0.46476E-10         0.00000E+00
    0.59765E-08         0.45421E-10         0.00000E+00
    0.59764E-08         0.44203E-10         0.00000E+00
    0.59763E-08         0.42819E-10         0.00000E+00
    0.59762E-08         0.41269E-10         0.00000E+00
    0.59761E-08         0.39554E-10         0.00000E+00
    0.59761E-08         0.37672E-10         0.00000E+00
    0.59760E-08         0.35623E-10         0.00000E+00
    0.59760E-08         0.33407E-10         0.00000E+00
    0.59759E-08         0.31024E-10         0.00000E+00
    0.59759E-08         0.28473E-10         0.00000E+00
    0.59758E-08         0.25755E-10         0.00000E+00
    0.59758E-08         0.22868E-10         0.00000E+00
    0.59758E-08         0.19814E-10         0.00000E+00
    0.59758E-08         0.16591E-10         0.00000E+00
    0.59757E-08         0.13200E-10         0.00000E+00
    0.59757E-08         0.96407E-11         0.00000E+00
    0.59757E-08         0.59134E-11         0.00000E+00
    0.59757E-08         0.20178E-11         0.00000E+00
    0.62198E-08         0.19056E-11         0.00000E+00
    0.62198E-08         0.56225E-11         0.00000E+00
    0.62198E-08         0.91972E-11         0.00000E+00
    0.62197E-08         0.12629E-10         0.00000E+00
    0.62196E-08         0.15916E-10         0.00000E+00
    0.62195E-08         0.19059E-10         0.00000E+00
    0.62194E-08         0.22055E-10         0.00000E+00
    0.62193E-08         0.24904E-10         0.00000E+00
    0.62192E-08         0.27606E-10         0.00000E+00
    0.62191E-08         0.30159E-10         0.00000E+00
    0.62189E-08         0.32562E-10         0.00000E+00
    0.62188E-08         0.34815E-10         0.00000E+00
    0.62186E-08         0.36916E-10         0.00000E+00
    0.62184E-08         0.38865E-10         0.00000E+00
    0.62183E-08         0.40661E-10         0.00000E+00
    0.62181E-08         0.42303E-10         0.00000E+00
    0.62179E-08         0.43789E-10         0.00000E+00
    0.62178E-08         0.45120E-10         0.00000E+00
    0.62176E-08         0.46295E-10         0.00000E+00
    0.62174E-08         0.47312E-10         0.00000E+00
    0.62173E-08         0.48172E-10         0.00000E+00
    0.62171E-08         0.48873E-10         0.00000E+00
    0.62169E-08         0.49414E-10         0.00000E+00
    0.62168E-08         0.49795E-10         0.00000E+00
    0.62166E-08         0.50016E-10         0.00000E+00
    0.62165E-08         0.50075E-10         0.00000E+00
    0.62163E-08         0.49972E-10         0.00000E+00
    0.62162E-08         0.49707E-10         0.00000E+00
    0.62161E-08         0.49279E-10         0.00000E+00
    0.62159E-08         0.48688E-10         0.00000E+00
    0.62158E-08         0.47932E-10         0.00000E+00
    0.62157E-08         0.47013E-10         0.00000E+00
    0.62156E-08         0.45928E-10         0.00000E+00
    0.62155E-08         0.44678E-10         0.00000E+00
    0.62154E-08         0.43263E-10         0.00000E+00
    0.62153E-08         0.41682E-10         0.00000E+00
    0.62152E-08         0.39935E-10         0.00000E+00
    0.62151E-08         0.38021E-10         0.00000E+00
    0.62150E-08         0.35941E-10         0.00000E+00
    0.62150E-08         0.33694E-10         0.00000E+00
    0.62149E-08         0.31280E-10         0.00000E+00
    0.62149E-08         0.28699E-10         0.00000E+00
    0.62148E-08         0.25950E-10         0.00000E+00
    0.62148E-08         0.23035E-10         0.00000E+00
    0.62147E-08         0.19952E-10         0.00000E+00
    0.62147E-08         0.16702E-10         0.00000E+00
    0.62147E-08         0.13285E-10         0.00000E+00
    0.62147E-08         0.96999E-11         0.00000E+00
    0.62147E-08         0.59480E-11         0.00000E+00
    0.62147E-08         0.20291E-11         0.00000E+00
    0.64743E-08         0.19612E-11         0.00000E+00
    0.64743E-08         0.57833E-11         0.00000E+00
    0.64743E-08         0.94542E-11         0.00000E+00
    0.64742E-08         0.12974E-10         0.00000E+00
    0.64741E-08         0.16341E-10         0.00000E+00
    0.64740E-08         0.19555E-10         0.00000E+00
    0.64739E-08         0.22616E-10         0.00000E+00
    0.64738E-08         0.25522E-10         0.00000E+00
    0.64737E-08         0.28274E-10         0.00000E+00
    0.64735E-08         0.30871E-10         0.00000E+00
    0.64734E-08         0.33312E-10         0.00000E+00
    0.64732E-08         0.35597E-10         0.00000E+00
    0.64731E-08         0.37724E-10         0.00000E+00
    0.64729E-08         0.39694E-10         0.00000E+00
    0.64727E-08         0.41506E-10         0.00000E+00
    0.64726E-08         0.43159E-10         0.00000E+00
    0.64724E-08         0.44652E-10         0.00000E+00
    0.64722E-08         0.45986E-10         0.00000E+00
    0.64720E-08         0.47159E-10         0.00000E+00
    0.64719E-08         0.48172E-10         0.00000E+00
    0.64717E-08         0.49023E-10         0.00000E+00
    0.64715E-08         0.49712E-10         0.00000E+00
    0.64713E-08         0.50239E-10         0.00000E+00
    0.64712E-08         0.50604E-10         0.00000E+00
    0.64710E-08         0.50805E-10         0.00000E+00
    0.64708E-08         0.50843E-10         0.00000E+00
    0.64707E-08         0.50716E-10         0.00000E+00
    0.64705E-08         0.50426E-10         0.00000E+00
    0.64704E-08         0.49971E-10         0.00000E+00
    0.64702E-08         0.49351E-10         0.00000E+00
    0.64701E-08         0.48565E-10         0.00000E+00
    0.64700E-08         0.47615E-10         0.00000E+00
    0.64699E-08         0.46498E-10         0.00000E+00
    0.64697E-08         0.45216E-10         0.00000E+00
    0.64696E-08         0.43767E-10         0.00000E+00
    0.64695E-08         0.42152E-10         0.00000E+00
    0.64694E-08         0.40371E-10         0.00000E+00
    0.64694E-08         0.38423E-10         0.00000E+00
    0.64693E-08         0.36309E-10         0.00000E+00
    0.64692E-08         0.34027E-10         0.00000E+00
    0.64691E-08         0.31579E-10         0.00000E+00
    0.64691E-08         0.28964E-10         0.00000E+00
    0.64690E-08         0.26182E-10         0.00000E+00
    0.64690E-08         0.23234E-10         0.00000E+00
    0.64689E-08         0.20118E-10         0.00000E+00
    0.64689E-08         0.16836E-10         0.00000E+00
    0.64689E-08         0.13388E-10         0.00000E+00
    0.64689E-08         0.97723E-11         0.00000E+00
    0.64688E-08         0.59908E-11         0.00000E+00
    0.64688E-08         0.20430E-11         0.00000E+00
    0.67442E-08         0.20169E-11         0.00000E+00
    0.67442E-08         0.59445E-11         0.00000E+00
    0.67441E-08         0.97124E-11         0.00000E+00
    0.67441E-08         0.13320E-10         0.00000E+00
    0.67440E-08         0.16768E-10         0.00000E+00
    0.67439E-08         0.20056E-10         0.00000E+00
    0.67438E-08         0.23182E-10         0.00000E+00
    0.67437E-08         0.26148E-10         0.00000E+00
    0.67435E-08         0.28952E-10         0.00000E+00
    0.67434E-08         0.31594E-10         0.00000E+00
    0.67432E-08         0.34074E-10         0.00000E+00
    0.67431E-08         0.36392E-10         0.00000E+00
    0.67429E-08         0.38548E-10         0.00000E+00
    0.67428E-08         0.40540E-10         0.00000E+00
    0.67426E-08         0.42370E-10         0.00000E+00
    0.67424E-08         0.44036E-10         0.00000E+00
    0.67422E-08         0.45538E-10         0.00000E+00
    0.67421E-08         0.46876E-10         0.00000E+00
    0.67419E-08         0.48049E-10         0.00000E+00
    0.67417E-08         0.49059E-10         0.00000E+00
    0.67415E-08         0.49903E-10         0.00000E+00
    0.67413E-08         0.50582E-10         0.00000E+00
    0.67412E-08         0.51096E-10         0.00000E+00
    0.67410E-08         0.51444E-10         0.00000E+00
    0.67408E-08         0.51627E-10         0.00000E+00
    0.67407E-08         0.51643E-10         0.00000E+00
    0.67405E-08         0.51494E-10         0.00000E+00
    0.67404E-08         0.51178E-10         0.00000E+00
    0.67402E-08         0.50696E-10         0.00000E+00
    0.67401E-08         0.50047E-10         0.00000E+00
    0.67399E-08         0.49232E-10         0.00000E+00
    0.67398E-08         0.48250E-10         0.00000E+00
    0.67397E-08         0.47101E-10         0.00000E+00
    0.67395E-08         0.45786E-10         0.00000E+00
    0.67394E-08         0.44303E-10         0.00000E+00
    0.67393E-08         0.42654E-10         0.00000E+00
    0.67392E-08         0.40837E-10         0.00000E+00
    0.67391E-08         0.38854E-10         0.00000E+00
    0.67391E-08         0.36703E-10         0.00000E+00
    0.67390E-08         0.34386E-10         0.00000E+00
    0.67389E-08         0.31902E-10         0.00000E+00
    0.67388E-08         0.29251E-10         0.00000E+00
    0.67388E-08         0.26434E-10         0.00000E+00
    0.67387E-08         0.23450E-10         0.00000E+00
    0.67387E-08         0.20299E-10         0.00000E+00
    0.67387E-08         0.16983E-10         0.00000E+00
    0.67386E-08         0.13500E-10         0.00000E+00
    0.67386E-08         0.98519E-11         0.00000E+00
    0.67386E-08         0.60379E-11         0.00000E+00
    0.67386E-08         0.20585E-11         0.00000E+00
    0.70298E-08         0.20717E-11         0.00000E+00
    0.70298E-08         0.61031E-11         0.00000E+00
    0.70297E-08         0.99666E-11         0.00000E+00
    0.70297E-08         0.13662E-10         0.00000E+00
    0.70296E-08         0.17190E-10         0.00000E+00
    0.70295E-08         0.20550E-10         0.00000E+00
    0.70294E-08         0.23741E-10         0.00000E+00
    0.70293E-08         0.26765E-10         0.00000E+00
    0.70292E-08         0.29621E-10         0.00000E+00
    0.70290E-08         0.32309E-10         0.00000E+00
    0.70289E-08         0.34829E-10         0.00000E+00
    0.70287E-08         0.37181E-10         0.00000E+00
    0.70286E-08         0.39365E-10         0.00000E+00
    0.70284E-08         0.41381E-10         0.00000E+00
    0.70282E-08         0.43228E-10         0.00000E+00
    0.70281E-08         0.44908E-10         0.00000E+00
    0.70279E-08         0.46419E-10         0.00000E+00
    0.70277E-08         0.47762E-10         0.00000E+00
    0.70275E-08         0.48937E-10         0.00000E+00
    0.70274E-08         0.49943E-10         0.00000E+00
    0.70272E-08         0.50781E-10         0.00000E+00
    0.70270E-08         0.51451E-10         0.00000E+00
    0.70268E-08         0.51952E-10         0.00000E+00
    0.70267E-08         0.52285E-10         0.00000E+00
    0.70265E-08         0.52449E-10         0.00000E+00
    0.70263E-08         0.52446E-10         0.00000E+00
    0.70262E-08         0.52274E-10         0.00000E+00
    0.70260E-08         0.51933E-10         0.00000E+00
    0.70259E-08         0.51425E-10         0.00000E+00
    0.70257E-08         0.50748E-10         0.00000E+00
    0.70256E-08         0.49903E-10         0.00000E+00
    0.70255E-08         0.48890E-10         0.00000E+00
    0.70254E-08         0.47709E-10         0.00000E+00
    0.70252E-08         0.46360E-10         0.00000E+00
    0.70251E-08         0.44844E-10         0.00000E+00
    0.70250E-08         0.43160E-10         0.00000E+00
    0.70249E-08         0.41308E-10         0.00000E+00
    0.70248E-08         0.39289E-10         0.00000E+00
    0.70248E-08         0.37103E-10         0.00000E+00
    0.70247E-08         0.34749E-10         0.00000E+00
    0.70246E-08         0.32229E-10         0.00000E+00
    0.70245E-08         0.29542E-10         0.00000E+00
    0.70245E-08         0.26689E-10         0.00000E+00
    0.70244E-08         0.23669E-10         0.00000E+00
    0.70244E-08         0.20483E-10         0.00000E+00
    0.70244E-08         0.17132E-10         0.00000E+00
    0.70243E-08         0.13615E-10         0.00000E+00
    0.70243E-08         0.99330E-11         0.00000E+00
    0.70243E-08         0.60860E-11         0.00000E+00
    0.70243E-08         0.20743E-11         0.00000E+00
    0.73316E-08         0.21245E-11         0.00000E+00
    0.73315E-08         0.62562E-11         0.00000E+00
    0.73315E-08         0.10212E-10         0.00000E+00
    0.73314E-08         0.13992E-10         0.00000E+00
    0.73314E-08         0.17597E-10         0.00000E+00
    0.73313E-08         0.21027E-10         0.00000E+00
    0.73312E-08         0.24282E-10         0.00000E+00
    0.73311E-08         0.27362E-10         0.00000E+00
    0.73309E-08         0.30268E-10         0.00000E+00
    0.73308E-08         0.33001E-10         0.00000E+00
    0.73307E-08         0.35559E-10         0.00000E+00
    0.73305E-08         0.37944E-10         0.00000E+00
    0.73304E-08         0.40155E-10         0.00000E+00
    0.73302E-08         0.42193E-10         0.00000E+00
    0.73301E-08         0.44059E-10         0.00000E+00
    0.73299E-08         0.45751E-10         0.00000E+00
    0.73297E-08         0.47271E-10         0.00000E+00
    0.73296E-08         0.48619E-10         0.00000E+00
    0.73294E-08         0.49794E-10         0.00000E+00
    0.73292E-08         0.50798E-10         0.00000E+00
    0.73291E-08         0.51630E-10         0.00000E+00
    0.73289E-08         0.52290E-10         0.00000E+00
    0.73287E-08         0.52779E-10         0.00000E+00
    0.73286E-08         0.53097E-10         0.00000E+00
    0.73284E-08         0.53244E-10         0.00000E+00
    0.73283E-08         0.53221E-10         0.00000E+00
    0.73281E-08         0.53027E-10         0.00000E+00
    0.73280E-08         0.52662E-10         0.00000E+00
    0.73278E-08         0.52128E-10         0.00000E+00
    0.73277E-08         0.51424E-10         0.00000E+00
    0.73276E-08         0.50550E-10         0.00000E+00
    0.73275E-08         0.49507E-10         0.00000E+00
    0.73273E-08         0.48295E-10         0.00000E+00
    0.73272E-08         0.46914E-10         0.00000E+00
    0.73271E-08         0.45365E-10         0.00000E+00
    0.73270E-08         0.43647E-10         0.00000E+00
    0.73269E-08         0.41761E-10         0.00000E+00
    0.73269E-08         0.39707E-10         0.00000E+00
    0.73268E-08         0.37486E-10         0.00000E+00
    0.73267E-08         0.35098E-10         0.00000E+00
    0.73266E-08         0.32543E-10         0.00000E+00
    0.73266E-08         0.29821E-10         0.00000E+00
    0.73265E-08         0.26933E-10         0.00000E+00
    0.73265E-08         0.23879E-10         0.00000E+00
    0.73264E-08         0.20659E-10         0.00000E+00
    0.73264E-08         0.17274E-10         0.00000E+00
    0.73264E-08         0.13724E-10         0.00000E+00
    0.73264E-08         0.10010E-10         0.00000E+00
    0.73264E-08         0.61316E-11         0.00000E+00
    0.73264E-08         0.20893E-11         0.00000E+00
    0.76499E-08         0.21746E-11         0.00000E+00
    0.76499E-08         0.64011E-11         0.00000E+00
    0.76499E-08         0.10444E-10         0.00000E+00
    0.76498E-08         0.14304E-10         0.00000E+00
    0.76498E-08         0.17982E-10         0.00000E+00
    0.76497E-08         0.21478E-10         0.00000E+00
    0.76496E-08         0.24792E-10         0.00000E+00
    0.76495E-08         0.27926E-10         0.00000E+00
    0.76494E-08         0.30879E-10         0.00000E+00
    0.76493E-08         0.33652E-10         0.00000E+00
    0.76491E-08         0.36247E-10         0.00000E+00
    0.76490E-08         0.38662E-10         0.00000E+00
    0.76488E-08         0.40899E-10         0.00000E+00
    0.76487E-08         0.42957E-10         0.00000E+00
    0.76486E-08         0.44839E-10         0.00000E+00
    0.76484E-08         0.46543E-10         0.00000E+00
    0.76483E-08         0.48071E-10         0.00000E+00
    0.76481E-08         0.49422E-10         0.00000E+00
    0.76479E-08         0.50598E-10         0.00000E+00
    0.76478E-08         0.51598E-10         0.00000E+00
    0.76476E-08         0.52424E-10         0.00000E+00
    0.76475E-08         0.53075E-10         0.00000E+00
    0.76473E-08         0.53552E-10         0.00000E+00
    0.76472E-08         0.53855E-10         0.00000E+00
    0.76470E-08         0.53985E-10         0.00000E+00
    0.76469E-08         0.53942E-10         0.00000E+00
    0.76468E-08         0.53726E-10         0.00000E+00
    0.76466E-08         0.53339E-10         0.00000E+00
    0.76465E-08         0.52779E-10         0.00000E+00
    0.76464E-08         0.52049E-10         0.00000E+00
    0.76463E-08         0.51148E-10         0.00000E+00
    0.76462E-08         0.50076E-10         0.00000E+00
    0.76461E-08         0.48834E-10         0.00000E+00
    0.76460E-08         0.47422E-10         0.00000E+00
    0.76459E-08         0.45842E-10         0.00000E+00
    0.76458E-08         0.44092E-10         0.00000E+00
    0.76457E-08         0.42174E-10         0.00000E+00
    0.76456E-08         0.40088E-10         0.00000E+00
    0.76456E-08         0.37834E-10         0.00000E+00
    0.76455E-08         0.35413E-10         0.00000E+00
    0.76454E-08         0.32826E-10         0.00000E+00
    0.76454E-08         0.30072E-10         0.00000E+00
    0.76453E-08         0.27152E-10         0.00000E+00
    0.76453E-08         0.24066E-10         0.00000E+00
    0.76453E-08         0.20816E-10         0.00000E+00
    0.76453E-08         0.17401E-10         0.00000E+00
    0.76452E-08         0.13821E-10         0.00000E+00
    0.76452E-08         0.10078E-10         0.00000E+00
    0.76452E-08         0.61716E-11         0.00000E+00
    0.76452E-08         0.21023E-11         0.00000E+00
    0.79854E-08         0.22209E-11         0.00000E+00
    0.79854E-08         0.65352E-11         0.00000E+00
    0.79854E-08         0.10659E-10         0.00000E+00
    0.79853E-08         0.14592E-10         0.00000E+00
    0.79853E-08         0.18337E-10         0.00000E+00
    0.79852E-08         0.21893E-10         0.00000E+00
    0.79851E-08         0.25262E-10         0.00000E+00
    0.79850E-08         0.28444E-10         0.00000E+00
    0.79849E-08         0.31440E-10         0.00000E+00
    0.79848E-08         0.34250E-10         0.00000E+00
    0.79847E-08         0.36876E-10         0.00000E+00
    0.79846E-08         0.39318E-10         0.00000E+00
    0.79845E-08         0.41577E-10         0.00000E+00
    0.79843E-08         0.43654E-10         0.00000E+00
    0.79842E-08         0.45549E-10         0.00000E+00
    0.79841E-08         0.47262E-10         0.00000E+00
    0.79839E-08         0.48796E-10         0.00000E+00
    0.79838E-08         0.50149E-10         0.00000E+00
    0.79836E-08         0.51324E-10         0.00000E+00
    0.79835E-08         0.52320E-10         0.00000E+00
    0.79834E-08         0.53138E-10         0.00000E+00
    0.79832E-08         0.53779E-10         0.00000E+00
    0.79831E-08         0.54243E-10         0.00000E+00
    0.79830E-08         0.54531E-10         0.00000E+00
    0.79829E-08         0.54644E-10         0.00000E+00
    0.79827E-08         0.54582E-10         0.00000E+00
    0.79826E-08         0.54346E-10         0.00000E+00
    0.79825E-08         0.53936E-10         0.00000E+00
    0.79824E-08         0.53353E-10         0.00000E+00
    0.79823E-08         0.52597E-10         0.00000E+00
    0.79822E-08         0.51670E-10         0.00000E+00
    0.79821E-08         0.50571E-10         0.00000E+00
    0.79820E-08         0.49302E-10         0.00000E+00
    0.79819E-08         0.47862E-10         0.00000E+00
    0.79819E-08         0.46252E-10         0.00000E+00
    0.79818E-08         0.44474E-10         0.00000E+00
    0.79817E-08         0.42526E-10         0.00000E+00
    0.79817E-08         0.40411E-10         0.00000E+00
    0.79816E-08         0.38128E-10         0.00000E+00
    0.79816E-08         0.35678E-10         0.00000E+00
    0.79815E-08         0.33062E-10         0.00000E+00
    0.79815E-08         0.30280E-10         0.00000E+00
    0.79814E-08         0.27332E-10         0.00000E+00
    0.79814E-08         0.24220E-10         0.00000E+00
    0.79814E-08         0.20943E-10         0.00000E+00
    0.79814E-08         0.17502E-10         0.00000E+00
    0.79814E-08         0.13898E-10         0.00000E+00
    0.79813E-08         0.10132E-10         0.00000E+00
    0.79813E-08         0.62030E-11         0.00000E+00
    0.79813E-08         0.21124E-11         0.00000E+00
    0.83386E-08         0.22628E-11         0.00000E+00
    0.83386E-08         0.66561E-11         0.00000E+00
    0.83385E-08         0.10852E-10         0.00000E+00
    0.83385E-08         0.14851E-10         0.00000E+00
    0.83384E-08         0.18655E-10         0.00000E+00
    0.83384E-08         0.22265E-10         0.00000E+00
    0.83383E-08         0.25681E-10         0.00000E+00
    0.83382E-08         0.28905E-10         0.00000E+00
    0.83381E-08         0.31937E-10         0.00000E+00
    0.83380E-08         0.34779E-10         0.00000E+00
    0.83379E-08         0.37432E-10         0.00000E+00
    0.83378E-08         0.39896E-10         0.00000E+00
    0.83377E-08         0.42173E-10         0.00000E+00
    0.83376E-08         0.44264E-10         0.00000E+00
    0.83375E-08         0.46168E-10         0.00000E+00
    0.83374E-08         0.47888E-10         0.00000E+00
    0.83373E-08         0.49425E-10         0.00000E+00
    0.83372E-08         0.50778E-10         0.00000E+00
    0.83370E-08         0.51949E-10         0.00000E+00
    0.83369E-08         0.52939E-10         0.00000E+00
    0.83368E-08         0.53748E-10         0.00000E+00
    0.83367E-08         0.54378E-10         0.00000E+00
    0.83366E-08         0.54828E-10         0.00000E+00
    0.83365E-08         0.55101E-10         0.00000E+00
    0.83364E-08         0.55197E-10         0.00000E+00
    0.83363E-08         0.55116E-10         0.00000E+00
    0.83362E-08         0.54860E-10         0.00000E+00
    0.83361E-08         0.54429E-10         0.00000E+00
    0.83360E-08         0.53823E-10         0.00000E+00
    0.83360E-08         0.53044E-10         0.00000E+00
    0.83359E-08         0.52093E-10         0.00000E+00
    0.83358E-08         0.50969E-10         0.00000E+00
    0.83357E-08         0.49675E-10         0.00000E+00
    0.83357E-08         0.48209E-10         0.00000E+00
    0.83356E-08         0.46574E-10         0.00000E+00
    0.83356E-08         0.44770E-10         0.00000E+00
    0.83355E-08         0.42797E-10         0.00000E+00
    0.83355E-08         0.40657E-10         0.00000E+00
    0.83354E-08         0.38349E-10         0.00000E+00
    0.83354E-08         0.35875E-10         0.00000E+00
    0.83354E-08         0.33235E-10         0.00000E+00
    0.83354E-08         0.30430E-10         0.00000E+00
    0.83353E-08         0.27460E-10         0.00000E+00
    0.83353E-08         0.24327E-10         0.00000E+00
    0.83353E-08         0.21030E-10         0.00000E+00
    0.83353E-08         0.17571E-10         0.00000E+00
    0.83353E-08         0.13949E-10         0.00000E+00
    0.83353E-08         0.10166E-10         0.00000E+00
    0.83353E-08         0.62226E-11         0.00000E+00
    0.83353E-08         0.21186E-11         0.00000E+00
    0.87099E-08         0.22992E-11         0.00000E+00
    0.87099E-08         0.67611E-11         0.00000E+00
    0.87099E-08         0.11019E-10         0.00000E+00
    0.87099E-08         0.15074E-10         0.00000E+00
    0.87098E-08         0.18929E-10         0.00000E+00
    0.87098E-08         0.22583E-10         0.00000E+00
    0.87097E-08         0.26038E-10         0.00000E+00
    0.87096E-08         0.29297E-10         0.00000E+00
    0.87096E-08         0.32358E-10         0.00000E+00
    0.87095E-08         0.35225E-10         0.00000E+00
    0.87094E-08         0.37899E-10         0.00000E+00
    0.87093E-08         0.40380E-10         0.00000E+00
    0.87092E-08         0.42669E-10         0.00000E+00
    0.87091E-08         0.44768E-10         0.00000E+00
    0.87091E-08         0.46678E-10         0.00000E+00
    0.87090E-08         0.48400E-10         0.00000E+00
    0.87089E-08         0.49936E-10         0.00000E+00
    0.87088E-08         0.51285E-10         0.00000E+00
    0.87087E-08         0.52450E-10         0.00000E+00
    0.87086E-08         0.53431E-10         0.00000E+00
    0.87085E-08         0.54230E-10         0.00000E+00
    0.87085E-08         0.54847E-10         0.00000E+00
    0.87084E-08         0.55283E-10         0.00000E+00
    0.87083E-08         0.55540E-10         0.00000E+00
    0.87082E-08         0.55619E-10         0.00000E+00
    0.87082E-08         0.55520E-10         0.00000E+00
    0.87081E-08         0.55244E-10         0.00000E+00
    0.87080E-08         0.54792E-10         0.00000E+00
    0.87080E-08         0.54166E-10         0.00000E+00
    0.87079E-08         0.53365E-10         0.00000E+00
    0.87079E-08         0.52392E-10         0.00000E+00
    0.87078E-08         0.51246E-10         0.00000E+00
    0.87078E-08         0.49930E-10         0.00000E+00
    0.87078E-08         0.48442E-10         0.00000E+00
    0.87077E-08         0.46786E-10         0.00000E+00
    0.87077E-08         0.44960E-10         0.00000E+00
    0.87077E-08         0.42967E-10         0.00000E+00
    0.87076E-08         0.40806E-10         0.00000E+00
    0.87076E-08         0.38479E-10         0.00000E+00
    0.87076E-08         0.35987E-10         0.00000E+00
    0.87076E-08         0.33330E-10         0.00000E+00
    0.87076E-08         0.30508E-10         0.00000E+00
    0.87076E-08         0.27524E-10         0.00000E+00
    0.87076E-08         0.24377E-10         0.00000E+00
    0.87076E-08         0.21068E-10         0.00000E+00
    0.87076E-08         0.17598E-10         0.00000E+00
    0.87076E-08         0.13967E-10         0.00000E+00
    0.87076E-08         0.10177E-10         0.00000E+00
    0.87076E-08         0.62274E-11         0.00000E+00
    0.87076E-08         0.21196E-11         0.00000E+00
    0.91001E-08         0.23294E-11         0.00000E+00
    0.91001E-08         0.68477E-11         0.00000E+00
    0.91001E-08         0.11156E-10         0.00000E+00
    0.91000E-08         0.15257E-10         0.00000E+00
    0.91000E-08         0.19150E-10         0.00000E+00
    0.91000E-08         0.22839E-10         0.00000E+00
    0.90999E-08         0.26324E-10         0.00000E+00
    0.90999E-08         0.29608E-10         0.00000E+00
    0.90998E-08         0.32690E-10         0.00000E+00
    0.90998E-08         0.35574E-10         0.00000E+00
    0.90997E-08         0.38260E-10         0.00000E+00
    0.90996E-08         0.40751E-10         0.00000E+00
    0.90996E-08         0.43046E-10         0.00000E+00
    0.90995E-08         0.45148E-10         0.00000E+00
    0.90994E-08         0.47058E-10         0.00000E+00
    0.90994E-08         0.48777E-10         0.00000E+00
    0.90993E-08         0.50307E-10         0.00000E+00
    0.90993E-08         0.51649E-10         0.00000E+00
    0.90992E-08         0.52804E-10         0.00000E+00
    0.90992E-08         0.53774E-10         0.00000E+00
    0.90991E-08         0.54560E-10         0.00000E+00
    0.90991E-08         0.55162E-10         0.00000E+00
    0.90990E-08         0.55583E-10         0.00000E+00
    0.90990E-08         0.55823E-10         0.00000E+00
    0.90989E-08         0.55884E-10         0.00000E+00
    0.90989E-08         0.55766E-10         0.00000E+00
    0.90989E-08         0.55472E-10         0.00000E+00
    0.90988E-08         0.55001E-10         0.00000E+00
    0.90988E-08         0.54355E-10         0.00000E+00
    0.90988E-08         0.53535E-10         0.00000E+00
    0.90988E-08         0.52543E-10         0.00000E+00
    0.90988E-08         0.51378E-10         0.00000E+00
    0.90988E-08         0.50043E-10         0.00000E+00
    0.90988E-08         0.48538E-10         0.00000E+00
    0.90988E-08         0.46864E-10         0.00000E+00
    0.90988E-08         0.45023E-10         0.00000E+00
    0.90988E-08         0.43014E-10         0.00000E+00
    0.90988E-08         0.40840E-10         0.00000E+00
    0.90988E-08         0.38500E-10         0.00000E+00
    0.90988E-08         0.35996E-10         0.00000E+00
    0.90988E-08         0.33329E-10         0.00000E+00
    0.90988E-08         0.30500E-10         0.00000E+00
    0.90988E-08         0.27509E-10         0.00000E+00
    0.90988E-08         0.24357E-10         0.00000E+00
    0.90988E-08         0.21045E-10         0.00000E+00
    0.90988E-08         0.17574E-10         0.00000E+00
    0.90989E-08         0.13945E-10         0.00000E+00
    0.90989E-08         0.10158E-10         0.00000E+00
    0.90989E-08         0.62145E-11         0.00000E+00
    0.90989E-08         0.21147E-11         0.00000E+00
    0.95097E-08         0.23524E-11         0.00000E+00
    0.95097E-08         0.69131E-11         0.00000E+00
    0.95097E-08         0.11259E-10         0.00000E+00
    0.95097E-08         0.15391E-10         0.00000E+00
    0.95096E-08         0.19312E-10         0.00000E+00
    0.95096E-08         0.23024E-10         0.00000E+00
    0.95096E-08         0.26528E-10         0.00000E+00
    0.95095E-08         0.29826E-10         0.00000E+00
    0.95095E-08         0.32919E-10         0.00000E+00
    0.95095E-08         0.35810E-10         0.00000E+00
    0.95094E-08         0.38501E-10         0.00000E+00
    0.95094E-08         0.40992E-10         0.00000E+00
    0.95094E-08         0.43286E-10         0.00000E+00
    0.95093E-08         0.45383E-10         0.00000E+00
    0.95093E-08         0.47287E-10         0.00000E+00
    0.95093E-08         0.48998E-10         0.00000E+00
    0.95093E-08         0.50517E-10         0.00000E+00
    0.95092E-08         0.51847E-10         0.00000E+00
    0.95092E-08         0.52989E-10         0.00000E+00
    0.95092E-08         0.53943E-10         0.00000E+00
    0.95092E-08         0.54713E-10         0.00000E+00
    0.95092E-08         0.55299E-10         0.00000E+00
    0.95092E-08         0.55702E-10         0.00000E+00
    0.95092E-08         0.55925E-10         0.00000E+00
    0.95092E-08         0.55967E-10         0.00000E+00
    0.95092E-08         0.55831E-10         0.00000E+00
    0.95092E-08         0.55518E-10         0.00000E+00
    0.95092E-08         0.55030E-10         0.00000E+00
    0.95092E-08         0.54366E-10         0.00000E+00
    0.95092E-08         0.53530E-10         0.00000E+00
    0.95092E-08         0.52521E-10         0.00000E+00
    0.95093E-08         0.51341E-10         0.00000E+00
    0.95093E-08         0.49992E-10         0.00000E+00
    0.95093E-08         0.48474E-10         0.00000E+00
    0.95094E-08         0.46789E-10         0.00000E+00
    0.95094E-08         0.44937E-10         0.00000E+00
    0.95094E-08         0.42919E-10         0.00000E+00
    0.95095E-08         0.40738E-10         0.00000E+00
    0.95095E-08         0.38393E-10         0.00000E+00
    0.95095E-08         0.35886E-10         0.00000E+00
    0.95096E-08         0.33218E-10         0.00000E+00
    0.95096E-08         0.30390E-10         0.00000E+00
    0.95096E-08         0.27402E-10         0.00000E+00
    0.95097E-08         0.24256E-10         0.00000E+00
    0.95097E-08         0.20953E-10         0.00000E+00
    0.95097E-08         0.17492E-10         0.00000E+00
    0.95097E-08         0.13876E-10         0.00000E+00
    0.95097E-08         0.10106E-10         0.00000E+00
    0.95098E-08         0.61808E-11         0.00000E+00
    0.95098E-08         0.21026E-11         0.00000E+00
    0.99394E-08         0.23673E-11         0.00000E+00
    0.99394E-08         0.69544E-11         0.00000E+00
    0.99394E-08         0.11322E-10         0.00000E+00
    0.99394E-08         0.15472E-10         0.00000E+00
    0.99394E-08         0.19406E-10         0.00000E+00
    0.99394E-08         0.23127E-10         0.00000E+00
    0.99393E-08         0.26637E-10         0.00000E+00
    0.99393E-08         0.29938E-10         0.00000E+00
    0.99393E-08         0.33031E-10         0.00000E+00
    0.99393E-08         0.35919E-10         0.00000E+00
    0.99393E-08         0.38603E-10         0.00000E+00
    0.99393E-08         0.41086E-10         0.00000E+00
    0.99393E-08         0.43369E-10         0.00000E+00
    0.99393E-08         0.45455E-10         0.00000E+00
    0.99393E-08         0.47344E-10         0.00000E+00
    0.99393E-08         0.49039E-10         0.00000E+00
    0.99393E-08         0.50542E-10         0.00000E+00
    0.99393E-08         0.51855E-10         0.00000E+00
    0.99394E-08         0.52978E-10         0.00000E+00
    0.99394E-08         0.53914E-10         0.00000E+00
    0.99394E-08         0.54664E-10         0.00000E+00
    0.99394E-08         0.55231E-10         0.00000E+00
    0.99395E-08         0.55615E-10         0.00000E+00
    0.99395E-08         0.55818E-10         0.00000E+00
    0.99396E-08         0.55842E-10         0.00000E+00
    0.99396E-08         0.55688E-10         0.00000E+00
    0.99397E-08         0.55357E-10         0.00000E+00
    0.99397E-08         0.54852E-10         0.00000E+00
    0.99398E-08         0.54173E-10         0.00000E+00
    0.99399E-08         0.53323E-10         0.00000E+00
    0.99399E-08         0.52301E-10         0.00000E+00
    0.99400E-08         0.51110E-10         0.00000E+00
    0.99400E-08         0.49752E-10         0.00000E+00
    0.99401E-08         0.48226E-10         0.00000E+00
    0.99402E-08         0.46535E-10         0.00000E+00
    0.99403E-08         0.44680E-10         0.00000E+00
    0.99403E-08         0.42661E-10         0.00000E+00
    0.99404E-08         0.40481E-10         0.00000E+00
    0.99405E-08         0.38140E-10         0.00000E+00
    0.99405E-08         0.35639E-10         0.00000E+00
    0.99406E-08         0.32980E-10         0.00000E+00
    0.99406E-08         0.30163E-10         0.00000E+00
    0.99407E-08         0.27190E-10         0.00000E+00
    0.99408E-08         0.24062E-10         0.00000E+00
    0.99408E-08         0.20779E-10         0.00000E+00
    0.99408E-08         0.17343E-10         0.00000E+00
    0.99409E-08         0.13754E-10         0.00000E+00
    0.99409E-08         0.10014E-10         0.00000E+00
    0.99409E-08         0.61231E-11         0.00000E+00
    0.99409E-08         0.20824E-11         0.00000E+00
    0.10390E-07         0.23730E-11         0.00000E+00
    0.10390E-07         0.69687E-11         0.00000E+00
    0.10390E-07         0.11341E-10         0.00000E+00
    0.10390E-07         0.15492E-10         0.00000E+00
    0.10390E-07         0.19424E-10         0.00000E+00
    0.10390E-07         0.23139E-10         0.00000E+00
    0.10390E-07         0.26640E-10         0.00000E+00
    0.10390E-07         0.29930E-10         0.00000E+00
    0.10390E-07         0.33010E-10         0.00000E+00
    0.10390E-07         0.35882E-10         0.00000E+00
    0.10390E-07         0.38549E-10         0.00000E+00
    0.10390E-07         0.41013E-10         0.00000E+00
    0.10390E-07         0.43276E-10         0.00000E+00
    0.10390E-07         0.45340E-10         0.00000E+00
    0.10390E-07         0.47207E-10         0.00000E+00
    0.10390E-07         0.48880E-10         0.00000E+00
    0.10390E-07         0.50359E-10         0.00000E+00
    0.10390E-07         0.51648E-10         0.00000E+00
    0.10390E-07         0.52748E-10         0.00000E+00
    0.10390E-07         0.53660E-10         0.00000E+00
    0.10391E-07         0.54388E-10         0.00000E+00
    0.10391E-07         0.54932E-10         0.00000E+00
    0.10391E-07         0.55294E-10         0.00000E+00
    0.10391E-07         0.55476E-10         0.00000E+00
    0.10391E-07         0.55481E-10         0.00000E+00
    0.10391E-07         0.55308E-10         0.00000E+00
    0.10391E-07         0.54962E-10         0.00000E+00
    0.10391E-07         0.54441E-10         0.00000E+00
    0.10391E-07         0.53750E-10         0.00000E+00
    0.10391E-07         0.52888E-10         0.00000E+00
    0.10391E-07         0.51857E-10         0.00000E+00
    0.10392E-07         0.50660E-10         0.00000E+00
    0.10392E-07         0.49297E-10         0.00000E+00
    0.10392E-07         0.47770E-10         0.00000E+00
    0.10392E-07         0.46080E-10         0.00000E+00
    0.10392E-07         0.44229E-10         0.00000E+00
    0.10392E-07         0.42218E-10         0.00000E+00
    0.10392E-07         0.40048E-10         0.00000E+00
    0.10392E-07         0.37720E-10         0.00000E+00
    0.10392E-07         0.35236E-10         0.00000E+00
    0.10393E-07         0.32597E-10         0.00000E+00
    0.10393E-07         0.29805E-10         0.00000E+00
    0.10393E-07         0.26859E-10         0.00000E+00
    0.10393E-07         0.23762E-10         0.00000E+00
    0.10393E-07         0.20514E-10         0.00000E+00
    0.10393E-07         0.17117E-10         0.00000E+00
    0.10393E-07         0.13571E-10         0.00000E+00
    0.10393E-07         0.98781E-11         0.00000E+00
    0.10393E-07         0.60384E-11         0.00000E+00
    0.10393E-07         0.20530E-11         0.00000E+00
    0.10862E-07         0.23684E-11         0.00000E+00
    0.10862E-07         0.69526E-11         0.00000E+00
    0.10862E-07         0.11310E-10         0.00000E+00
    0.10862E-07         0.15443E-10         0.00000E+00
    0.10862E-07         0.19355E-10         0.00000E+00
    0.10862E-07         0.23048E-10         0.00000E+00
    0.10862E-07         0.26525E-10         0.00000E+00
    0.10862E-07         0.29788E-10         0.00000E+00
    0.10862E-07         0.32840E-10         0.00000E+00
    0.10862E-07         0.35683E-10         0.00000E+00
    0.10862E-07         0.38320E-10         0.00000E+00
    0.10862E-07         0.40754E-10         0.00000E+00
    0.10862E-07         0.42985E-10         0.00000E+00
    0.10862E-07         0.45018E-10         0.00000E+00
    0.10862E-07         0.46853E-10         0.00000E+00
    0.10863E-07         0.48494E-10         0.00000E+00
    0.10863E-07         0.49943E-10         0.00000E+00
    0.10863E-07         0.51201E-10         0.00000E+00
    0.10863E-07         0.52271E-10         0.00000E+00
    0.10863E-07         0.53155E-10         0.00000E+00
    0.10863E-07         0.53855E-10         0.00000E+00
    0.10863E-07         0.54373E-10         0.00000E+00
    0.10863E-07         0.54711E-10         0.00000E+00
    0.10864E-07         0.54871E-10         0.00000E+00
    0.10864E-07         0.54855E-10         0.00000E+00
    0.10864E-07         0.54665E-10         0.00000E+00
    0.10864E-07         0.54303E-10         0.00000E+00
    0.10864E-07         0.53769E-10         0.00000E+00
    0.10864E-07         0.53067E-10         0.00000E+00
    0.10865E-07         0.52198E-10         0.00000E+00
    0.10865E-07         0.51163E-10         0.00000E+00
    0.10865E-07         0.49964E-10         0.00000E+00
    0.10865E-07         0.48603E-10         0.00000E+00
    0.10865E-07         0.47081E-10         0.00000E+00
    0.10865E-07         0.45401E-10         0.00000E+00
    0.10866E-07         0.43562E-10         0.00000E+00
    0.10866E-07         0.41567E-10         0.00000E+00
    0.10866E-07         0.39418E-10         0.00000E+00
    0.10866E-07         0.37115E-10         0.00000E+00
    0.10866E-07         0.34660E-10         0.00000E+00
    0.10866E-07         0.32054E-10         0.00000E+00
    0.10866E-07         0.29298E-10         0.00000E+00
    0.10866E-07         0.26395E-10         0.00000E+00
    0.10867E-07         0.23344E-10         0.00000E+00
    0.10867E-07         0.20147E-10         0.00000E+00
    0.10867E-07         0.16806E-10         0.00000E+00
    0.10867E-07         0.13321E-10         0.00000E+00
    0.10867E-07         0.96927E-11         0.00000E+00
    0.10867E-07         0.59233E-11         0.00000E+00
    0.10867E-07         0.20133E-11         0.00000E+00
    0.11356E-07         0.23523E-11         0.00000E+00
    0.11356E-07         0.69028E-11         0.00000E+00
    0.11356E-07         0.11224E-10         0.00000E+00
    0.11356E-07         0.15319E-10         0.00000E+00
    0.11356E-07         0.19191E-10         0.00000E+00
    0.11356E-07         0.22843E-10         0.00000E+00
    0.11356E-07         0.26278E-10         0.00000E+00
    0.11356E-07         0.29498E-10         0.00000E+00
    0.11356E-07         0.32506E-10         0.00000E+00
    0.11357E-07         0.35305E-10         0.00000E+00
    0.11357E-07         0.37897E-10         0.00000E+00
    0.11357E-07         0.40286E-10         0.00000E+00
    0.11357E-07         0.42474E-10         0.00000E+00
    0.11357E-07         0.44464E-10         0.00000E+00
    0.11357E-07         0.46257E-10         0.00000E+00
    0.11357E-07         0.47857E-10         0.00000E+00
    0.11357E-07         0.49266E-10         0.00000E+00
    0.11358E-07         0.50486E-10         0.00000E+00
    0.11358E-07         0.51520E-10         0.00000E+00
    0.11358E-07         0.52370E-10         0.00000E+00
    0.11358E-07         0.53038E-10         0.00000E+00
    0.11358E-07         0.53527E-10         0.00000E+00
    0.11359E-07         0.53838E-10         0.00000E+00
    0.11359E-07         0.53974E-10         0.00000E+00
    0.11359E-07         0.53937E-10         0.00000E+00
    0.11359E-07         0.53729E-10         0.00000E+00
    0.11359E-07         0.53351E-10         0.00000E+00
    0.11360E-07         0.52807E-10         0.00000E+00
    0.11360E-07         0.52097E-10         0.00000E+00
    0.11360E-07         0.51224E-10         0.00000E+00
    0.11360E-07         0.50189E-10         0.00000E+00
    0.11361E-07         0.48995E-10         0.00000E+00
    0.11361E-07         0.47643E-10         0.00000E+00
    0.11361E-07         0.46134E-10         0.00000E+00
    0.11361E-07         0.44471E-10         0.00000E+00
    0.11361E-07         0.42654E-10         0.00000E+00
    0.11362E-07         0.40686E-10         0.00000E+00
    0.11362E-07         0.38569E-10         0.00000E+00
    0.11362E-07         0.36303E-10         0.00000E+00
    0.11362E-07         0.33889E-10         0.00000E+00
    0.11362E-07         0.31331E-10         0.00000E+00
    0.11363E-07         0.28628E-10         0.00000E+00
    0.11363E-07         0.25782E-10         0.00000E+00
    0.11363E-07         0.22794E-10         0.00000E+00
    0.11363E-07         0.19666E-10         0.00000E+00
    0.11363E-07         0.16399E-10         0.00000E+00
    0.11363E-07         0.12994E-10         0.00000E+00
    0.11363E-07         0.94523E-11         0.00000E+00
    0.11363E-07         0.57746E-11         0.00000E+00
    0.11363E-07         0.19620E-11         0.00000E+00
    0.11873E-07         0.23236E-11         0.00000E+00
    0.11873E-07         0.68155E-11         0.00000E+00
    0.11873E-07         0.11077E-10         0.00000E+00
    0.11873E-07         0.15111E-10         0.00000E+00
    0.11874E-07         0.18922E-10         0.00000E+00
    0.11874E-07         0.22512E-10         0.00000E+00
    0.11874E-07         0.25884E-10         0.00000E+00
    0.11874E-07         0.29042E-10         0.00000E+00
    0.11874E-07         0.31988E-10         0.00000E+00
    0.11874E-07         0.34726E-10         0.00000E+00
    0.11874E-07         0.37259E-10         0.00000E+00
    0.11874E-07         0.39589E-10         0.00000E+00
    0.11875E-07         0.41720E-10         0.00000E+00
    0.11875E-07         0.43654E-10         0.00000E+00
    0.11875E-07         0.45394E-10         0.00000E+00
    0.11875E-07         0.46942E-10         0.00000E+00
    0.11875E-07         0.48302E-10         0.00000E+00
    0.11876E-07         0.49476E-10         0.00000E+00
    0.11876E-07         0.50467E-10         0.00000E+00
    0.11876E-07         0.51276E-10         0.00000E+00
    0.11876E-07         0.51907E-10         0.00000E+00
    0.11877E-07         0.52362E-10         0.00000E+00
    0.11877E-07         0.52643E-10         0.00000E+00
    0.11877E-07         0.52753E-10         0.00000E+00
    0.11877E-07         0.52694E-10         0.00000E+00
    0.11878E-07         0.52468E-10         0.00000E+00
    0.11878E-07         0.52077E-10         0.00000E+00
    0.11878E-07         0.51523E-10         0.00000E+00
    0.11879E-07         0.50809E-10         0.00000E+00
    0.11879E-07         0.49937E-10         0.00000E+00
    0.11879E-07         0.48908E-10         0.00000E+00
    0.11879E-07         0.47724E-10         0.00000E+00
    0.11880E-07         0.46388E-10         0.00000E+00
    0.11880E-07         0.44901E-10         0.00000E+00
    0.11880E-07         0.43265E-10         0.00000E+00
    0.11881E-07         0.41481E-10         0.00000E+00
    0.11881E-07         0.39552E-10         0.00000E+00
    0.11881E-07         0.37478E-10         0.00000E+00
    0.11881E-07         0.35263E-10         0.00000E+00
    0.11881E-07         0.32906E-10         0.00000E+00
    0.11882E-07         0.30410E-10         0.00000E+00
    0.11882E-07         0.27776E-10         0.00000E+00
    0.11882E-07         0.25005E-10         0.00000E+00
    0.11882E-07         0.22100E-10         0.00000E+00
    0.11882E-07         0.19060E-10         0.00000E+00
    0.11882E-07         0.15888E-10         0.00000E+00
    0.11883E-07         0.12585E-10         0.00000E+00
    0.11883E-07         0.91513E-11         0.00000E+00
    0.11883E-07         0.55887E-11         0.00000E+00
    0.11883E-07         0.18982E-11         0.00000E+00
    0.12415E-07         0.22808E-11         0.00000E+00
    0.12415E-07         0.66868E-11         0.00000E+00
    0.12415E-07         0.10862E-10         0.00000E+00
    0.12415E-07         0.14810E-10         0.00000E+00
    0.12415E-07         0.18535E-10         0.00000E+00
    0.12415E-07         0.22040E-10         0.00000E+00
    0.12415E-07         0.25329E-10         0.00000E+00
    0.12415E-07         0.28404E-10         0.00000E+00
    0.12415E-07         0.31269E-10         0.00000E+00
    0.12415E-07         0.33928E-10         0.00000E+00
    0.12416E-07         0.36384E-10         0.00000E+00
    0.12416E-07         0.38639E-10         0.00000E+00
    0.12416E-07         0.40698E-10         0.00000E+00
    0.12416E-07         0.42562E-10         0.00000E+00
    0.12417E-07         0.44236E-10         0.00000E+00
    0.12417E-07         0.45722E-10         0.00000E+00
    0.12417E-07         0.47022E-10         0.00000E+00
    0.12417E-07         0.48141E-10         0.00000E+00
    0.12418E-07         0.49080E-10         0.00000E+00
    0.12418E-07         0.49842E-10         0.00000E+00
    0.12418E-07         0.50430E-10         0.00000E+00
    0.12419E-07         0.50847E-10         0.00000E+00
    0.12419E-07         0.51095E-10         0.00000E+00
    0.12419E-07         0.51177E-10         0.00000E+00
    0.12420E-07         0.51095E-10         0.00000E+00
    0.12420E-07         0.50851E-10         0.00000E+00
    0.12420E-07         0.50448E-10         0.00000E+00
    0.12421E-07         0.49888E-10         0.00000E+00
    0.12421E-07         0.49173E-10         0.00000E+00
    0.12422E-07         0.48306E-10         0.00000E+00
    0.12422E-07         0.47289E-10         0.00000E+00
    0.12422E-07         0.46123E-10         0.00000E+00
    0.12423E-07         0.44811E-10         0.00000E+00
    0.12423E-07         0.43355E-10         0.00000E+00
    0.12423E-07         0.41756E-10         0.00000E+00
    0.12424E-07         0.40016E-10         0.00000E+00
    0.12424E-07         0.38138E-10         0.00000E+00
    0.12424E-07         0.36123E-10         0.00000E+00
    0.12425E-07         0.33973E-10         0.00000E+00
    0.12425E-07         0.31689E-10         0.00000E+00
    0.12425E-07         0.29272E-10         0.00000E+00
    0.12425E-07         0.26726E-10         0.00000E+00
    0.12426E-07         0.24050E-10         0.00000E+00
    0.12426E-07         0.21247E-10         0.00000E+00
    0.12426E-07         0.18317E-10         0.00000E+00
    0.12426E-07         0.15262E-10         0.00000E+00
    0.12426E-07         0.12084E-10         0.00000E+00
    0.12426E-07         0.87838E-11         0.00000E+00
    0.12426E-07         0.53622E-11         0.00000E+00
    0.12426E-07         0.18205E-11         0.00000E+00
    0.12980E-07         0.22226E-11         0.00000E+00
    0.12980E-07         0.65126E-11         0.00000E+00
    0.12980E-07         0.10573E-10         0.00000E+00
    0.12980E-07         0.14408E-10         0.00000E+00
    0.12981E-07         0.18020E-10         0.00000E+00
    0.12981E-07         0.21415E-10         0.00000E+00
    0.12981E-07         0.24596E-10         0.00000E+00
    0.12981E-07         0.27566E-10         0.00000E+00
    0.12981E-07         0.30329E-10         0.00000E+00
    0.12981E-07         0.32888E-10         0.00000E+00
    0.12982E-07         0.35248E-10         0.00000E+00
    0.12982E-07         0.37411E-10         0.00000E+00
    0.12982E-07         0.39381E-10         0.00000E+00
    0.12983E-07         0.41162E-10         0.00000E+00
    0.12983E-07         0.42755E-10         0.00000E+00
    0.12983E-07         0.44166E-10         0.00000E+00
    0.12984E-07         0.45396E-10         0.00000E+00
    0.12984E-07         0.46449E-10         0.00000E+00
    0.12984E-07         0.47328E-10         0.00000E+00
    0.12985E-07         0.48036E-10         0.00000E+00
    0.12985E-07         0.48576E-10         0.00000E+00
    0.12985E-07         0.48950E-10         0.00000E+00
    0.12986E-07         0.49161E-10         0.00000E+00
    0.12986E-07         0.49212E-10         0.00000E+00
    0.12987E-07         0.49106E-10         0.00000E+00
    0.12987E-07         0.48844E-10         0.00000E+00
    0.12988E-07         0.48431E-10         0.00000E+00
    0.12988E-07         0.47867E-10         0.00000E+00
    0.12989E-07         0.47156E-10         0.00000E+00
    0.12989E-07         0.46300E-10         0.00000E+00
    0.12989E-07         0.45300E-10         0.00000E+00
    0.12990E-07         0.44160E-10         0.00000E+00
    0.12990E-07         0.42881E-10         0.00000E+00
    0.12991E-07         0.41466E-10         0.00000E+00
    0.12991E-07         0.39916E-10         0.00000E+00
    0.12992E-07         0.38234E-10         0.00000E+00
    0.12992E-07         0.36421E-10         0.00000E+00
    0.12992E-07         0.34479E-10         0.00000E+00
    0.12993E-07         0.32411E-10         0.00000E+00
    0.12993E-07         0.30217E-10         0.00000E+00
    0.12993E-07         0.27899E-10         0.00000E+00
    0.12994E-07         0.25459E-10         0.00000E+00
    0.12994E-07         0.22899E-10         0.00000E+00
    0.12994E-07         0.20220E-10         0.00000E+00
    0.12994E-07         0.17424E-10         0.00000E+00
    0.12994E-07         0.14512E-10         0.00000E+00
    0.12995E-07         0.11485E-10         0.00000E+00
    0.12995E-07         0.83441E-11         0.00000E+00
    0.12995E-07         0.50914E-11         0.00000E+00
    0.12995E-07         0.17277E-11         0.00000E+00
    0.13572E-07         0.21474E-11         0.00000E+00
    0.13572E-07         0.62885E-11         0.00000E+00
    0.13572E-07         0.10202E-10         0.00000E+00
    0.13572E-07         0.13893E-10         0.00000E+00
    0.13572E-07         0.17365E-10         0.00000E+00
    0.13572E-07         0.20622E-10         0.00000E+00
    0.13572E-07         0.23669E-10         0.00000E+00
    0.13572E-07         0.26509E-10         0.00000E+00
    0.13573E-07         0.29146E-10         0.00000E+00
    0.13573E-07         0.31585E-10         0.00000E+00
    0.13573E-07         0.33828E-10         0.00000E+00
    0.13574E-07         0.35880E-10         0.00000E+00
    0.13574E-07         0.37744E-10         0.00000E+00
    0.13574E-07         0.39423E-10         0.00000E+00
    0.13575E-07         0.40923E-10         0.00000E+00
    0.13575E-07         0.42244E-10         0.00000E+00
    0.13576E-07         0.43392E-10         0.00000E+00
    0.13576E-07         0.44369E-10         0.00000E+00
    0.13576E-07         0.45179E-10         0.00000E+00
    0.13577E-07         0.45825E-10         0.00000E+00
    0.13577E-07         0.46309E-10         0.00000E+00
    0.13578E-07         0.46635E-10         0.00000E+00
    0.13578E-07         0.46806E-10         0.00000E+00
    0.13579E-07         0.46824E-10         0.00000E+00
    0.13579E-07         0.46693E-10         0.00000E+00
    0.13580E-07         0.46414E-10         0.00000E+00
    0.13581E-07         0.45992E-10         0.00000E+00
    0.13581E-07         0.45428E-10         0.00000E+00
    0.13582E-07         0.44725E-10         0.00000E+00
    0.13582E-07         0.43885E-10         0.00000E+00
    0.13583E-07         0.42911E-10         0.00000E+00
    0.13583E-07         0.41805E-10         0.00000E+00
    0.13584E-07         0.40570E-10         0.00000E+00
    0.13584E-07         0.39207E-10         0.00000E+00
    0.13585E-07         0.37718E-10         0.00000E+00
    0.13585E-07         0.36107E-10         0.00000E+00
    0.13586E-07         0.34374E-10         0.00000E+00
    0.13586E-07         0.32522E-10         0.00000E+00
    0.13586E-07         0.30553E-10         0.00000E+00
    0.13587E-07         0.28468E-10         0.00000E+00
    0.13587E-07         0.26269E-10         0.00000E+00
    0.13588E-07         0.23958E-10         0.00000E+00
    0.13588E-07         0.21537E-10         0.00000E+00
    0.13588E-07         0.19007E-10         0.00000E+00
    0.13588E-07         0.16369E-10         0.00000E+00
    0.13589E-07         0.13626E-10         0.00000E+00
    0.13589E-07         0.10778E-10         0.00000E+00
    0.13589E-07         0.78261E-11         0.00000E+00
    0.13589E-07         0.47727E-11         0.00000E+00
    0.13589E-07         0.16186E-11         0.00000E+00
    0.14189E-07         0.20537E-11         0.00000E+00
    0.14189E-07         0.60098E-11         0.00000E+00
    0.14189E-07         0.97426E-11         0.00000E+00
    0.14189E-07         0.13257E-10         0.00000E+00
    0.14190E-07         0.16556E-10         0.00000E+00
    0.14190E-07         0.19646E-10         0.00000E+00
    0.14190E-07         0.22530E-10         0.00000E+00
    0.14190E-07         0.25214E-10         0.00000E+00
    0.14191E-07         0.27700E-10         0.00000E+00
    0.14191E-07         0.29993E-10         0.00000E+00
    0.14191E-07         0.32098E-10         0.00000E+00
    0.14192E-07         0.34018E-10         0.00000E+00
    0.14192E-07         0.35757E-10         0.00000E+00
    0.14192E-07         0.37318E-10         0.00000E+00
    0.14193E-07         0.38707E-10         0.00000E+00
    0.14193E-07         0.39925E-10         0.00000E+00
    0.14194E-07         0.40978E-10         0.00000E+00
    0.14194E-07         0.41868E-10         0.00000E+00
    0.14195E-07         0.42598E-10         0.00000E+00
    0.14196E-07         0.43173E-10         0.00000E+00
    0.14196E-07         0.43595E-10         0.00000E+00
    0.14197E-07         0.43868E-10         0.00000E+00
    0.14197E-07         0.43994E-10         0.00000E+00
    0.14198E-07         0.43977E-10         0.00000E+00
    0.14199E-07         0.43820E-10         0.00000E+00
    0.14199E-07         0.43526E-10         0.00000E+00
    0.14200E-07         0.43096E-10         0.00000E+00
    0.14201E-07         0.42535E-10         0.00000E+00
    0.14201E-07         0.41845E-10         0.00000E+00
    0.14202E-07         0.41029E-10         0.00000E+00
    0.14202E-07         0.40088E-10         0.00000E+00
    0.14203E-07         0.39025E-10         0.00000E+00
    0.14204E-07         0.37844E-10         0.00000E+00
    0.14204E-07         0.36545E-10         0.00000E+00
    0.14205E-07         0.35132E-10         0.00000E+00
    0.14205E-07         0.33607E-10         0.00000E+00
    0.14206E-07         0.31971E-10         0.00000E+00
    0.14206E-07         0.30227E-10         0.00000E+00
    0.14207E-07         0.28376E-10         0.00000E+00
    0.14207E-07         0.26421E-10         0.00000E+00
    0.14208E-07         0.24363E-10         0.00000E+00
    0.14208E-07         0.22204E-10         0.00000E+00
    0.14208E-07         0.19947E-10         0.00000E+00
    0.14209E-07         0.17591E-10         0.00000E+00
    0.14209E-07         0.15140E-10         0.00000E+00
    0.14209E-07         0.12594E-10         0.00000E+00
    0.14209E-07         0.99545E-11         0.00000E+00
    0.14210E-07         0.72237E-11         0.00000E+00
    0.14210E-07         0.44024E-11         0.00000E+00
    0.14210E-07         0.14920E-11         0.00000E+00
    0.14834E-07         0.19399E-11         0.00000E+00
    0.14834E-07         0.56719E-11         0.00000E+00
    0.14834E-07         0.91861E-11         0.00000E+00
    0.14834E-07         0.12487E-10         0.00000E+00
    0.14834E-07         0.15581E-10         0.00000E+00
    0.14835E-07         0.18471E-10         0.00000E+00
    0.14835E-07         0.21162E-10         0.00000E+00
    0.14835E-07         0.23660E-10         0.00000E+00
    0.14836E-07         0.25968E-10         0.00000E+00
    0.14836E-07         0.28091E-10         0.00000E+00
    0.14836E-07         0.30033E-10         0.00000E+00
    0.14837E-07         0.31798E-10         0.00000E+00
    0.14837E-07         0.33391E-10         0.00000E+00
    0.14838E-07         0.34816E-10         0.00000E+00
    0.14838E-07         0.36077E-10         0.00000E+00
    0.14839E-07         0.37177E-10         0.00000E+00
    0.14840E-07         0.38120E-10         0.00000E+00
    0.14840E-07         0.38910E-10         0.00000E+00
    0.14841E-07         0.39551E-10         0.00000E+00
    0.14842E-07         0.40046E-10         0.00000E+00
    0.14842E-07         0.40399E-10         0.00000E+00
    0.14843E-07         0.40612E-10         0.00000E+00
    0.14844E-07         0.40690E-10         0.00000E+00
    0.14844E-07         0.40636E-10         0.00000E+00
    0.14845E-07         0.40452E-10         0.00000E+00
    0.14846E-07         0.40142E-10         0.00000E+00
    0.14847E-07         0.39708E-10         0.00000E+00
    0.14847E-07         0.39154E-10         0.00000E+00
    0.14848E-07         0.38483E-10         0.00000E+00
    0.14849E-07         0.37696E-10         0.00000E+00
    0.14849E-07         0.36797E-10         0.00000E+00
    0.14850E-07         0.35789E-10         0.00000E+00
    0.14851E-07         0.34673E-10         0.00000E+00
    0.14852E-07         0.33452E-10         0.00000E+00
    0.14852E-07         0.32129E-10         0.00000E+00
    0.14853E-07         0.30706E-10         0.00000E+00
    0.14853E-07         0.29184E-10         0.00000E+00
    0.14854E-07         0.27567E-10         0.00000E+00
    0.14855E-07         0.25856E-10         0.00000E+00
    0.14855E-07         0.24053E-10         0.00000E+00
    0.14856E-07         0.22160E-10         0.00000E+00
    0.14856E-07         0.20178E-10         0.00000E+00
    0.14856E-07         0.18111E-10         0.00000E+00
    0.14857E-07         0.15958E-10         0.00000E+00
    0.14857E-07         0.13722E-10         0.00000E+00
    0.14857E-07         0.11405E-10         0.00000E+00
    0.14858E-07         0.90071E-11         0.00000E+00
    0.14858E-07         0.65306E-11         0.00000E+00
    0.14858E-07         0.39767E-11         0.00000E+00
    0.14858E-07         0.13464E-11         0.00000E+00
    0.15507E-07         0.18042E-11         0.00000E+00
    0.15507E-07         0.52696E-11         0.00000E+00
    0.15507E-07         0.85247E-11         0.00000E+00
    0.15507E-07         0.11575E-10         0.00000E+00
    0.15507E-07         0.14425E-10         0.00000E+00
    0.15508E-07         0.17080E-10         0.00000E+00
    0.15508E-07         0.19546E-10         0.00000E+00
    0.15508E-07         0.21826E-10         0.00000E+00
    0.15509E-07         0.23927E-10         0.00000E+00
    0.15509E-07         0.25851E-10         0.00000E+00
    0.15510E-07         0.27605E-10         0.00000E+00
    0.15510E-07         0.29193E-10         0.00000E+00
    0.15511E-07         0.30618E-10         0.00000E+00
    0.15512E-07         0.31886E-10         0.00000E+00
    0.15512E-07         0.33000E-10         0.00000E+00
    0.15513E-07         0.33965E-10         0.00000E+00
    0.15514E-07         0.34784E-10         0.00000E+00
    0.15514E-07         0.35461E-10         0.00000E+00
    0.15515E-07         0.36001E-10         0.00000E+00
    0.15516E-07         0.36407E-10         0.00000E+00
    0.15517E-07         0.36683E-10         0.00000E+00
    0.15517E-07         0.36832E-10         0.00000E+00
    0.15518E-07         0.36857E-10         0.00000E+00
    0.15519E-07         0.36763E-10         0.00000E+00
    0.15520E-07         0.36552E-10         0.00000E+00
    0.15521E-07         0.36227E-10         0.00000E+00
    0.15522E-07         0.35792E-10         0.00000E+00
    0.15522E-07         0.35249E-10         0.00000E+00
    0.15523E-07         0.34602E-10         0.00000E+00
    0.15524E-07         0.33853E-10         0.00000E+00
    0.15525E-07         0.33006E-10         0.00000E+00
    0.15526E-07         0.32062E-10         0.00000E+00
    0.15526E-07         0.31025E-10         0.00000E+00
    0.15527E-07         0.29896E-10         0.00000E+00
    0.15528E-07         0.28679E-10         0.00000E+00
    0.15529E-07         0.27376E-10         0.00000E+00
    0.15529E-07         0.25988E-10         0.00000E+00
    0.15530E-07         0.24518E-10         0.00000E+00
    0.15531E-07         0.22969E-10         0.00000E+00
    0.15531E-07         0.21342E-10         0.00000E+00
    0.15532E-07         0.19639E-10         0.00000E+00
    0.15532E-07         0.17862E-10         0.00000E+00
    0.15533E-07         0.16013E-10         0.00000E+00
    0.15533E-07         0.14093E-10         0.00000E+00
    0.15534E-07         0.12104E-10         0.00000E+00
    0.15534E-07         0.10049E-10         0.00000E+00
    0.15534E-07         0.79269E-11         0.00000E+00
    0.15534E-07         0.57409E-11         0.00000E+00
    0.15535E-07         0.34917E-11         0.00000E+00
    0.15535E-07         0.11808E-11         0.00000E+00
    0.16209E-07         0.16449E-11         0.00000E+00
    0.16209E-07         0.47980E-11         0.00000E+00
    0.16209E-07         0.77503E-11         0.00000E+00
    0.16209E-07         0.10507E-10         0.00000E+00
    0.16209E-07         0.13075E-10         0.00000E+00
    0.16210E-07         0.15458E-10         0.00000E+00
    0.16210E-07         0.17662E-10         0.00000E+00
    0.16211E-07         0.19692E-10         0.00000E+00
    0.16211E-07         0.21553E-10         0.00000E+00
    0.16212E-07         0.23250E-10         0.00000E+00
    0.16212E-07         0.24789E-10         0.00000E+00
    0.16213E-07         0.26173E-10         0.00000E+00
    0.16213E-07         0.27407E-10         0.00000E+00
    0.16214E-07         0.28496E-10         0.00000E+00
    0.16215E-07         0.29444E-10         0.00000E+00
    0.16216E-07         0.30256E-10         0.00000E+00
    0.16216E-07         0.30936E-10         0.00000E+00
    0.16217E-07         0.31487E-10         0.00000E+00
    0.16218E-07         0.31914E-10         0.00000E+00
    0.16219E-07         0.32221E-10         0.00000E+00
    0.16220E-07         0.32412E-10         0.00000E+00
    0.16221E-07         0.32490E-10         0.00000E+00
    0.16222E-07         0.32458E-10         0.00000E+00
    0.16223E-07         0.32321E-10         0.00000E+00
    0.16224E-07         0.32082E-10         0.00000E+00
    0.16225E-07         0.31744E-10         0.00000E+00
    0.16226E-07         0.31310E-10         0.00000E+00
    0.16227E-07         0.30784E-10         0.00000E+00
    0.16227E-07         0.30168E-10         0.00000E+00
    0.16228E-07         0.29466E-10         0.00000E+00
    0.16229E-07         0.28680E-10         0.00000E+00
    0.16230E-07         0.27813E-10         0.00000E+00
    0.16231E-07         0.26868E-10         0.00000E+00
    0.16232E-07         0.25847E-10         0.00000E+00
    0.16233E-07         0.24753E-10         0.00000E+00
    0.16234E-07         0.23588E-10         0.00000E+00
    0.16234E-07         0.22355E-10         0.00000E+00
    0.16235E-07         0.21055E-10         0.00000E+00
    0.16236E-07         0.19691E-10         0.00000E+00
    0.16237E-07         0.18266E-10         0.00000E+00
    0.16237E-07         0.16780E-10         0.00000E+00
    0.16238E-07         0.15236E-10         0.00000E+00
    0.16238E-07         0.13636E-10         0.00000E+00
    0.16239E-07         0.11981E-10         0.00000E+00
    0.16239E-07         0.10273E-10         0.00000E+00
    0.16240E-07         0.85144E-11         0.00000E+00
    0.16240E-07         0.67056E-11         0.00000E+00
    0.16240E-07         0.48483E-11         0.00000E+00
    0.16240E-07         0.29439E-11         0.00000E+00
    0.16240E-07         0.99375E-12         0.00000E+00
    0.16940E-07         0.14603E-11         0.00000E+00
    0.16941E-07         0.42518E-11         0.00000E+00
    0.16941E-07         0.68544E-11         0.00000E+00
    0.16941E-07         0.92738E-11         0.00000E+00
    0.16941E-07         0.11516E-10         0.00000E+00
    0.16942E-07         0.13587E-10         0.00000E+00
    0.16942E-07         0.15491E-10         0.00000E+00
    0.16943E-07         0.17235E-10         0.00000E+00
    0.16943E-07         0.18824E-10         0.00000E+00
    0.16944E-07         0.20262E-10         0.00000E+00
    0.16944E-07         0.21556E-10         0.00000E+00
    0.16945E-07         0.22709E-10         0.00000E+00
    0.16946E-07         0.23727E-10         0.00000E+00
    0.16947E-07         0.24615E-10         0.00000E+00
    0.16947E-07         0.25377E-10         0.00000E+00
    0.16948E-07         0.26017E-10         0.00000E+00
    0.16949E-07         0.26541E-10         0.00000E+00
    0.16950E-07         0.26951E-10         0.00000E+00
    0.16951E-07         0.27254E-10         0.00000E+00
    0.16952E-07         0.27451E-10         0.00000E+00
    0.16953E-07         0.27548E-10         0.00000E+00
    0.16954E-07         0.27549E-10         0.00000E+00
    0.16955E-07         0.27457E-10         0.00000E+00
    0.16956E-07         0.27275E-10         0.00000E+00
    0.16957E-07         0.27007E-10         0.00000E+00
    0.16959E-07         0.26658E-10         0.00000E+00
    0.16960E-07         0.26229E-10         0.00000E+00
    0.16961E-07         0.25724E-10         0.00000E+00
    0.16962E-07         0.25147E-10         0.00000E+00
    0.16963E-07         0.24500E-10         0.00000E+00
    0.16964E-07         0.23787E-10         0.00000E+00
    0.16965E-07         0.23010E-10         0.00000E+00
    0.16966E-07         0.22171E-10         0.00000E+00
    0.16967E-07         0.21274E-10         0.00000E+00
    0.16968E-07         0.20321E-10         0.00000E+00
    0.16969E-07         0.19315E-10         0.00000E+00
    0.16970E-07         0.18258E-10         0.00000E+00
    0.16971E-07         0.17152E-10         0.00000E+00
    0.16971E-07         0.15999E-10         0.00000E+00
    0.16972E-07         0.14802E-10         0.00000E+00
    0.16973E-07         0.13563E-10         0.00000E+00
    0.16973E-07         0.12283E-10         0.00000E+00
    0.16974E-07         0.10964E-10         0.00000E+00
    0.16975E-07         0.96079E-11         0.00000E+00
    0.16975E-07         0.82168E-11         0.00000E+00
    0.16975E-07         0.67920E-11         0.00000E+00
    0.16976E-07         0.53349E-11         0.00000E+00
    0.16976E-07         0.38470E-11         0.00000E+00
    0.16976E-07         0.23297E-11         0.00000E+00
    0.16976E-07         0.78411E-12         0.00000E+00
    0.17703E-07         0.12485E-11         0.00000E+00
    0.17703E-07         0.36260E-11         0.00000E+00
    0.17703E-07         0.58287E-11         0.00000E+00
    0.17703E-07         0.78629E-11         0.00000E+00
    0.17704E-07         0.97347E-11         0.00000E+00
    0.17704E-07         0.11450E-10         0.00000E+00
    0.17705E-07         0.13015E-10         0.00000E+00
    0.17705E-07         0.14435E-10         0.00000E+00
    0.17706E-07         0.15715E-10         0.00000E+00
    0.17707E-07         0.16862E-10         0.00000E+00
    0.17707E-07         0.17879E-10         0.00000E+00
    0.17708E-07         0.18774E-10         0.00000E+00
    0.17709E-07         0.19550E-10         0.00000E+00
    0.17710E-07         0.20212E-10         0.00000E+00
    0.17711E-07         0.20766E-10         0.00000E+00
    0.17712E-07         0.21215E-10         0.00000E+00
    0.17713E-07         0.21565E-10         0.00000E+00
    0.17714E-07         0.21820E-10         0.00000E+00
    0.17715E-07         0.21985E-10         0.00000E+00
    0.17716E-07         0.22062E-10         0.00000E+00
    0.17717E-07         0.22058E-10         0.00000E+00
    0.17719E-07         0.21975E-10         0.00000E+00
    0.17720E-07         0.21817E-10         0.00000E+00
    0.17721E-07         0.21588E-10         0.00000E+00
    0.17722E-07         0.21292E-10         0.00000E+00
    0.17723E-07         0.20932E-10         0.00000E+00
    0.17725E-07         0.20513E-10         0.00000E+00
    0.17726E-07         0.20036E-10         0.00000E+00
    0.17727E-07         0.19505E-10         0.00000E+00
    0.17728E-07         0.18923E-10         0.00000E+00
    0.17729E-07         0.18294E-10         0.00000E+00
    0.17730E-07         0.17620E-10         0.00000E+00
    0.17732E-07         0.16904E-10         0.00000E+00
    0.17733E-07         0.16149E-10         0.00000E+00
    0.17734E-07         0.15357E-10         0.00000E+00
    0.17735E-07         0.14531E-10         0.00000E+00
    0.17736E-07         0.13673E-10         0.00000E+00
    0.17737E-07         0.12786E-10         0.00000E+00
    0.17738E-07         0.11871E-10         0.00000E+00
    0.17738E-07         0.10931E-10         0.00000E+00
    0.17739E-07         0.99685E-11         0.00000E+00
    0.17740E-07         0.89844E-11         0.00000E+00
    0.17741E-07         0.79809E-11         0.00000E+00
    0.17741E-07         0.69598E-11         0.00000E+00
    0.17742E-07         0.59228E-11         0.00000E+00
    0.17742E-07         0.48714E-11         0.00000E+00
    0.17743E-07         0.38072E-11         0.00000E+00
    0.17743E-07         0.27314E-11         0.00000E+00
    0.17743E-07         0.16455E-11         0.00000E+00
    0.17743E-07         0.55071E-12         0.00000E+00
    0.18497E-07         0.10079E-11         0.00000E+00
    0.18497E-07         0.29153E-11         0.00000E+00
    0.18497E-07         0.46649E-11         0.00000E+00
    0.18498E-07         0.62634E-11         0.00000E+00
    0.18498E-07         0.77170E-11         0.00000E+00
    0.18498E-07         0.90319E-11         0.00000E+00
    0.18499E-07         0.10214E-10         0.00000E+00
    0.18500E-07         0.11270E-10         0.00000E+00
    0.18500E-07         0.12205E-10         0.00000E+00
    0.18501E-07         0.13024E-10         0.00000E+00
    0.18502E-07         0.13734E-10         0.00000E+00
    0.18503E-07         0.14339E-10         0.00000E+00
    0.18504E-07         0.14845E-10         0.00000E+00
    0.18505E-07         0.15257E-10         0.00000E+00
    0.18506E-07         0.15580E-10         0.00000E+00
    0.18507E-07         0.15819E-10         0.00000E+00
    0.18508E-07         0.15977E-10         0.00000E+00
    0.18509E-07         0.16061E-10         0.00000E+00
    0.18511E-07         0.16074E-10         0.00000E+00
    0.18512E-07         0.16021E-10         0.00000E+00
    0.18513E-07         0.15906E-10         0.00000E+00
    0.18515E-07         0.15732E-10         0.00000E+00
    0.18516E-07         0.15505E-10         0.00000E+00
    0.18517E-07         0.15227E-10         0.00000E+00
    0.18519E-07         0.14903E-10         0.00000E+00
    0.18520E-07         0.14535E-10         0.00000E+00
    0.18521E-07         0.14128E-10         0.00000E+00
    0.18523E-07         0.13686E-10         0.00000E+00
    0.18524E-07         0.13210E-10         0.00000E+00
    0.18525E-07         0.12704E-10         0.00000E+00
    0.18527E-07         0.12172E-10         0.00000E+00
    0.18528E-07         0.11616E-10         0.00000E+00
    0.18529E-07         0.11039E-10         0.00000E+00
    0.18530E-07         0.10445E-10         0.00000E+00
    0.18531E-07         0.98341E-11         0.00000E+00
    0.18533E-07         0.92107E-11         0.00000E+00
    0.18534E-07         0.85766E-11         0.00000E+00
    0.18535E-07         0.79343E-11         0.00000E+00
    0.18536E-07         0.72859E-11         0.00000E+00
    0.18537E-07         0.66336E-11         0.00000E+00
    0.18538E-07         0.59793E-11         0.00000E+00
    0.18538E-07         0.53251E-11         0.00000E+00
    0.18539E-07         0.46727E-11         0.00000E+00
    0.18540E-07         0.40239E-11         0.00000E+00
    0.18540E-07         0.33804E-11         0.00000E+00
    0.18541E-07         0.27436E-11         0.00000E+00
    0.18541E-07         0.21151E-11         0.00000E+00
    0.18541E-07         0.14963E-11         0.00000E+00
    0.18542E-07         0.88830E-12         0.00000E+00
    0.18542E-07         0.29246E-12         0.00000E+00
    0.19324E-07         0.73673E-12         0.00000E+00
    0.19324E-07         0.21149E-11         0.00000E+00
    0.19324E-07         0.33553E-11         0.00000E+00
    0.19324E-07         0.44647E-11         0.00000E+00
    0.19325E-07         0.54495E-11         0.00000E+00
    0.19325E-07         0.63164E-11         0.00000E+00
    0.19326E-07         0.70715E-11         0.00000E+00
    0.19326E-07         0.77210E-11         0.00000E+00
    0.19327E-07         0.82708E-11         0.00000E+00
    0.19328E-07         0.87267E-11         0.00000E+00
    0.19329E-07         0.90944E-11         0.00000E+00
    0.19330E-07         0.93794E-11         0.00000E+00
    0.19331E-07         0.95871E-11         0.00000E+00
    0.19332E-07         0.97226E-11         0.00000E+00
    0.19334E-07         0.97911E-11         0.00000E+00
    0.19335E-07         0.97974E-11         0.00000E+00
    0.19336E-07         0.97465E-11         0.00000E+00
    0.19337E-07         0.96429E-11         0.00000E+00
    0.19339E-07         0.94912E-11         0.00000E+00
    0.19340E-07         0.92958E-11         0.00000E+00
    0.19342E-07         0.90609E-11         0.00000E+00
    0.19343E-07         0.87907E-11         0.00000E+00
    0.19344E-07         0.84893E-11         0.00000E+00
    0.19346E-07         0.81605E-11         0.00000E+00
    0.19347E-07         0.78080E-11         0.00000E+00
    0.19349E-07         0.74355E-11         0.00000E+00
    0.19350E-07         0.70466E-11         0.00000E+00
    0.19352E-07         0.66447E-11         0.00000E+00
    0.19353E-07         0.62330E-11         0.00000E+00
    0.19355E-07         0.58147E-11         0.00000E+00
    0.19356E-07         0.53929E-11         0.00000E+00
    0.19358E-07         0.49706E-11         0.00000E+00
    0.19359E-07         0.45506E-11         0.00000E+00
    0.19360E-07         0.41356E-11         0.00000E+00
    0.19362E-07         0.37282E-11         0.00000E+00
    0.19363E-07         0.33311E-11         0.00000E+00
    0.19364E-07         0.29465E-11         0.00000E+00
    0.19365E-07         0.25768E-11         0.00000E+00
    0.19366E-07         0.22243E-11         0.00000E+00
    0.19367E-07         0.18910E-11         0.00000E+00
    0.19368E-07         0.15789E-11         0.00000E+00
    0.19369E-07         0.12899E-11         0.00000E+00
    0.19370E-07         0.10259E-11         0.00000E+00
    0.19371E-07         0.78856E-12         0.00000E+00
    0.19371E-07         0.57949E-12         0.00000E+00
    0.19372E-07         0.40024E-12         0.00000E+00
    0.19372E-07         0.25221E-12         0.00000E+00
    0.19373E-07         0.13675E-12         0.00000E+00
    0.19373E-07         0.55089E-13         0.00000E+00
    0.19373E-07         0.83868E-14         0.00000E+00
    0.20183E-07         0.43341E-12         0.00000E+00
    0.20183E-07         0.12202E-11         0.00000E+00
    0.20184E-07         0.18924E-11         0.00000E+00
    0.20184E-07         0.24567E-11         0.00000E+00
    0.20184E-07         0.29201E-11         0.00000E+00
    0.20185E-07         0.32892E-11         0.00000E+00
    0.20186E-07         0.35703E-11         0.00000E+00
    0.20187E-07         0.37698E-11         0.00000E+00
    0.20187E-07         0.38937E-11         0.00000E+00
    0.20188E-07         0.39480E-11         0.00000E+00
    0.20189E-07         0.39385E-11         0.00000E+00
    0.20191E-07         0.38708E-11         0.00000E+00
    0.20192E-07         0.37504E-11         0.00000E+00
    0.20193E-07         0.35825E-11         0.00000E+00
    0.20194E-07         0.33723E-11         0.00000E+00
    0.20196E-07         0.31250E-11         0.00000E+00
    0.20197E-07         0.28452E-11         0.00000E+00
    0.20199E-07         0.25379E-11         0.00000E+00
    0.20200E-07         0.22074E-11         0.00000E+00
    0.20202E-07         0.18584E-11         0.00000E+00
    0.20203E-07         0.14951E-11         0.00000E+00
    0.20205E-07         0.11217E-11         0.00000E+00
    0.20206E-07         0.74224E-12         0.00000E+00
    0.20208E-07         0.36065E-12         0.00000E+00
    0.20210E-07        -0.19282E-13         0.00000E+00
    0.20211E-07        -0.39389E-12         0.00000E+00
    0.20213E-07        -0.75964E-12         0.00000E+00
    0.20215E-07        -0.11131E-11         0.00000E+00
    0.20216E-07        -0.14510E-11         0.00000E+00
    0.20218E-07        -0.17701E-11         0.00000E+00
    0.20219E-07        -0.20674E-11         0.00000E+00
    0.20221E-07        -0.23399E-11         0.00000E+00
    0.20222E-07        -0.25848E-11         0.00000E+00
    0.20224E-07        -0.27994E-11         0.00000E+00
    0.20225E-07        -0.29811E-11         0.00000E+00
    0.20227E-07        -0.31273E-11         0.00000E+00
    0.20228E-07        -0.32357E-11         0.00000E+00
    0.20229E-07        -0.33039E-11         0.00000E+00
    0.20231E-07        -0.33299E-11         0.00000E+00
    0.20232E-07        -0.33115E-11         0.00000E+00
    0.20233E-07        -0.32468E-11         0.00000E+00
    0.20234E-07        -0.31338E-11         0.00000E+00
    0.20235E-07        -0.29708E-11         0.00000E+00
    0.20235E-07        -0.27562E-11         0.00000E+00
    0.20236E-07        -0.24884E-11         0.00000E+00
    0.20237E-07        -0.21658E-11         0.00000E+00
    0.20237E-07        -0.17871E-11         0.00000E+00
    0.20237E-07        -0.13511E-11         0.00000E+00
    0.20238E-07        -0.85656E-12         0.00000E+00
    0.20238E-07        -0.30234E-12         0.00000E+00
    0.21077E-07         0.96511E-13         0.00000E+00
    0.21077E-07         0.22711E-12         0.00000E+00
    0.21077E-07         0.26947E-12         0.00000E+00
    0.21078E-07         0.23072E-12         0.00000E+00
    0.21078E-07         0.11777E-12         0.00000E+00
    0.21079E-07        -0.62644E-13         0.00000E+00
    0.21080E-07        -0.30397E-12         0.00000E+00
    0.21081E-07        -0.59983E-12         0.00000E+00
    0.21082E-07        -0.94403E-12         0.00000E+00
    0.21083E-07        -0.13305E-11         0.00000E+00
    0.21084E-07        -0.17535E-11         0.00000E+00
    0.21085E-07        -0.22072E-11         0.00000E+00
    0.21086E-07        -0.26862E-11         0.00000E+00
    0.21088E-07        -0.31851E-11         0.00000E+00
    0.21089E-07        -0.36986E-11         0.00000E+00
    0.21091E-07        -0.42217E-11         0.00000E+00
    0.21092E-07        -0.47496E-11         0.00000E+00
    0.21094E-07        -0.52774E-11         0.00000E+00
    0.21096E-07        -0.58006E-11         0.00000E+00
    0.21097E-07        -0.63146E-11         0.00000E+00
    0.21099E-07        -0.68152E-11         0.00000E+00
    0.21101E-07        -0.72983E-11         0.00000E+00
    0.21102E-07        -0.77596E-11         0.00000E+00
    0.21104E-07        -0.81954E-11         0.00000E+00
    0.21106E-07        -0.86018E-11         0.00000E+00
    0.21108E-07        -0.89753E-11         0.00000E+00
    0.21110E-07        -0.93122E-11         0.00000E+00
    0.21111E-07        -0.96092E-11         0.00000E+00
    0.21113E-07        -0.98630E-11         0.00000E+00
    0.21115E-07        -0.10070E-10         0.00000E+00
    0.21117E-07        -0.10228E-10         0.00000E+00
    0.21118E-07        -0.10334E-10         0.00000E+00
    0.21120E-07        -0.10385E-10         0.00000E+00
    0.21122E-07        -0.10378E-10         0.00000E+00
    0.21123E-07        -0.10310E-10         0.00000E+00
    0.21125E-07        -0.10180E-10         0.00000E+00
    0.21126E-07        -0.99848E-11         0.00000E+00
    0.21127E-07        -0.97221E-11         0.00000E+00
    0.21129E-07        -0.93898E-11         0.00000E+00
    0.21130E-07        -0.89859E-11         0.00000E+00
    0.21131E-07        -0.85086E-11         0.00000E+00
    0.21132E-07        -0.79560E-11         0.00000E+00
    0.21133E-07        -0.73265E-11         0.00000E+00
    0.21134E-07        -0.66183E-11         0.00000E+00
    0.21135E-07        -0.58299E-11         0.00000E+00
    0.21135E-07        -0.49601E-11         0.00000E+00
    0.21136E-07        -0.40074E-11         0.00000E+00
    0.21136E-07        -0.29706E-11         0.00000E+00
    0.21137E-07        -0.18486E-11         0.00000E+00
    0.21137E-07        -0.64038E-12         0.00000E+00
    0.22006E-07        -0.27519E-12         0.00000E+00
    0.22006E-07        -0.86800E-12         0.00000E+00
    0.22006E-07        -0.15190E-11         0.00000E+00
    0.22006E-07        -0.22209E-11         0.00000E+00
    0.22007E-07        -0.29667E-11         0.00000E+00
    0.22008E-07        -0.37498E-11         0.00000E+00
    0.22009E-07        -0.45633E-11         0.00000E+00
    0.22009E-07        -0.54010E-11         0.00000E+00
    0.22011E-07        -0.62566E-11         0.00000E+00
    0.22012E-07        -0.71241E-11         0.00000E+00
    0.22013E-07        -0.79975E-11         0.00000E+00
    0.22014E-07        -0.88712E-11         0.00000E+00
    0.22016E-07        -0.97396E-11         0.00000E+00
    0.22017E-07        -0.10597E-10         0.00000E+00
    0.22019E-07        -0.11439E-10         0.00000E+00
    0.22020E-07        -0.12261E-10         0.00000E+00
    0.22022E-07        -0.13056E-10         0.00000E+00
    0.22024E-07        -0.13821E-10         0.00000E+00
    0.22026E-07        -0.14551E-10         0.00000E+00
    0.22028E-07        -0.15241E-10         0.00000E+00
    0.22029E-07        -0.15888E-10         0.00000E+00
    0.22031E-07        -0.16487E-10         0.00000E+00
    0.22033E-07        -0.17034E-10         0.00000E+00
    0.22035E-07        -0.17525E-10         0.00000E+00
    0.22037E-07        -0.17956E-10         0.00000E+00
    0.22039E-07        -0.18325E-10         0.00000E+00
    0.22041E-07        -0.18627E-10         0.00000E+00
    0.22043E-07        -0.18859E-10         0.00000E+00
    0.22045E-07        -0.19018E-10         0.00000E+00
    0.22047E-07        -0.19101E-10         0.00000E+00
    0.22049E-07        -0.19104E-10         0.00000E+00
    0.22050E-07        -0.19026E-10         0.00000E+00
    0.22052E-07        -0.18862E-10         0.00000E+00
    0.22054E-07        -0.18612E-10         0.00000E+00
    0.22056E-07        -0.18271E-10         0.00000E+00
    0.22057E-07        -0.17839E-10         0.00000E+00
    0.22059E-07        -0.17311E-10         0.00000E+00
    0.22060E-07        -0.16687E-10         0.00000E+00
    0.22062E-07        -0.15964E-10         0.00000E+00
    0.22063E-07        -0.15141E-10         0.00000E+00
    0.22064E-07        -0.14214E-10         0.00000E+00
    0.22065E-07        -0.13184E-10         0.00000E+00
    0.22066E-07        -0.12047E-10         0.00000E+00
    0.22067E-07        -0.10803E-10         0.00000E+00
    0.22068E-07        -0.94498E-11         0.00000E+00
    0.22069E-07        -0.79864E-11         0.00000E+00
    0.22069E-07        -0.64114E-11         0.00000E+00
    0.22070E-07        -0.47237E-11         0.00000E+00
    0.22070E-07        -0.29223E-11         0.00000E+00
    0.22070E-07        -0.10062E-11         0.00000E+00
    0.22969E-07        -0.68265E-12         0.00000E+00
    0.22970E-07        -0.20678E-11         0.00000E+00
    0.22970E-07        -0.34772E-11         0.00000E+00
    0.22970E-07        -0.49036E-11         0.00000E+00
    0.22971E-07        -0.63402E-11         0.00000E+00
    0.22972E-07        -0.77799E-11         0.00000E+00
    0.22973E-07        -0.92164E-11         0.00000E+00
    0.22974E-07        -0.10643E-10         0.00000E+00
    0.22975E-07        -0.12054E-10         0.00000E+00
    0.22976E-07        -0.13443E-10         0.00000E+00
    0.22977E-07        -0.14804E-10         0.00000E+00
    0.22979E-07        -0.16132E-10         0.00000E+00
    0.22980E-07        -0.17421E-10         0.00000E+00
    0.22982E-07        -0.18666E-10         0.00000E+00
    0.22984E-07        -0.19861E-10         0.00000E+00
    0.22986E-07        -0.21003E-10         0.00000E+00
    0.22987E-07        -0.22085E-10         0.00000E+00
    0.22989E-07        -0.23104E-10         0.00000E+00
    0.22991E-07        -0.24054E-10         0.00000E+00
    0.22993E-07        -0.24932E-10         0.00000E+00
    0.22995E-07        -0.25733E-10         0.00000E+00
    0.22997E-07        -0.26453E-10         0.00000E+00
    0.23000E-07        -0.27089E-10         0.00000E+00
    0.23002E-07        -0.27636E-10         0.00000E+00
    0.23004E-07        -0.28092E-10         0.00000E+00
    0.23006E-07        -0.28451E-10         0.00000E+00
    0.23008E-07        -0.28712E-10         0.00000E+00
    0.23010E-07        -0.28870E-10         0.00000E+00
    0.23012E-07        -0.28923E-10         0.00000E+00
    0.23014E-07        -0.28868E-10         0.00000E+00
    0.23016E-07        -0.28701E-10         0.00000E+00
    0.23018E-07        -0.28421E-10         0.00000E+00
    0.23020E-07        -0.28023E-10         0.00000E+00
    0.23022E-07        -0.27507E-10         0.00000E+00
    0.23024E-07        -0.26869E-10         0.00000E+00
    0.23025E-07        -0.26107E-10         0.00000E+00
    0.23027E-07        -0.25219E-10         0.00000E+00
    0.23029E-07        -0.24203E-10         0.00000E+00
    0.23030E-07        -0.23057E-10         0.00000E+00
    0.23032E-07        -0.21779E-10         0.00000E+00
    0.23033E-07        -0.20367E-10         0.00000E+00
    0.23034E-07        -0.18820E-10         0.00000E+00
    0.23035E-07        -0.17135E-10         0.00000E+00
    0.23036E-07        -0.15312E-10         0.00000E+00
    0.23037E-07        -0.13350E-10         0.00000E+00
    0.23038E-07        -0.11246E-10         0.00000E+00
    0.23039E-07        -0.90005E-11         0.00000E+00
    0.23039E-07        -0.66114E-11         0.00000E+00
    0.23039E-07        -0.40782E-11         0.00000E+00
    0.23039E-07        -0.13999E-11         0.00000E+00
    0.23969E-07        -0.11264E-11         0.00000E+00
    0.23969E-07        -0.33739E-11         0.00000E+00
    0.23970E-07        -0.56077E-11         0.00000E+00
    0.23970E-07        -0.78208E-11         0.00000E+00
    0.23971E-07        -0.10006E-10         0.00000E+00
    0.23972E-07        -0.12157E-10         0.00000E+00
    0.23973E-07        -0.14268E-10         0.00000E+00
    0.23974E-07        -0.16331E-10         0.00000E+00
    0.23975E-07        -0.18341E-10         0.00000E+00
    0.23976E-07        -0.20292E-10         0.00000E+00
    0.23978E-07        -0.22178E-10         0.00000E+00
    0.23980E-07        -0.23994E-10         0.00000E+00
    0.23981E-07        -0.25734E-10         0.00000E+00
    0.23983E-07        -0.27394E-10         0.00000E+00
    0.23985E-07        -0.28968E-10         0.00000E+00
    0.23987E-07        -0.30451E-10         0.00000E+00
    0.23989E-07        -0.31840E-10         0.00000E+00
    0.23991E-07        -0.33128E-10         0.00000E+00
    0.23993E-07        -0.34312E-10         0.00000E+00
    0.23995E-07        -0.35388E-10         0.00000E+00
    0.23997E-07        -0.36352E-10         0.00000E+00
    0.23999E-07        -0.37200E-10         0.00000E+00
    0.24002E-07        -0.37927E-10         0.00000E+00
    0.24004E-07        -0.38531E-10         0.00000E+00
    0.24006E-07        -0.39008E-10         0.00000E+00
    0.24008E-07        -0.39354E-10         0.00000E+00
    0.24011E-07        -0.39566E-10         0.00000E+00
    0.24013E-07        -0.39642E-10         0.00000E+00
    0.24015E-07        -0.39577E-10         0.00000E+00
    0.24017E-07        -0.39370E-10         0.00000E+00
    0.24020E-07        -0.39018E-10         0.00000E+00
    0.24022E-07        -0.38517E-10         0.00000E+00
    0.24024E-07        -0.37865E-10         0.00000E+00
    0.24026E-07        -0.37061E-10         0.00000E+00
    0.24028E-07        -0.36101E-10         0.00000E+00
    0.24030E-07        -0.34984E-10         0.00000E+00
    0.24031E-07        -0.33707E-10         0.00000E+00
    0.24033E-07        -0.32268E-10         0.00000E+00
    0.24035E-07        -0.30666E-10         0.00000E+00
    0.24036E-07        -0.28899E-10         0.00000E+00
    0.24038E-07        -0.26964E-10         0.00000E+00
    0.24039E-07        -0.24862E-10         0.00000E+00
    0.24040E-07        -0.22589E-10         0.00000E+00
    0.24041E-07        -0.20145E-10         0.00000E+00
    0.24042E-07        -0.17529E-10         0.00000E+00
    0.24043E-07        -0.14739E-10         0.00000E+00
    0.24044E-07        -0.11774E-10         0.00000E+00
    0.24044E-07        -0.86331E-11         0.00000E+00
    0.24044E-07        -0.53159E-11         0.00000E+00
    0.24045E-07        -0.18214E-11         0.00000E+00
    0.25005E-07        -0.16067E-11         0.00000E+00
    0.25006E-07        -0.47866E-11         0.00000E+00
    0.25006E-07        -0.79108E-11         0.00000E+00
    0.25007E-07        -0.10972E-10         0.00000E+00
    0.25007E-07        -0.13965E-10         0.00000E+00
    0.25008E-07        -0.16881E-10         0.00000E+00
    0.25009E-07        -0.19716E-10         0.00000E+00
    0.25011E-07        -0.22463E-10         0.00000E+00
    0.25012E-07        -0.25115E-10         0.00000E+00
    0.25013E-07        -0.27668E-10         0.00000E+00
    0.25015E-07        -0.30116E-10         0.00000E+00
    0.25017E-07        -0.32453E-10         0.00000E+00
    0.25018E-07        -0.34675E-10         0.00000E+00
    0.25020E-07        -0.36777E-10         0.00000E+00
    0.25022E-07        -0.38753E-10         0.00000E+00
    0.25024E-07        -0.40600E-10         0.00000E+00
    0.25026E-07        -0.42312E-10         0.00000E+00
    0.25029E-07        -0.43886E-10         0.00000E+00
    0.25031E-07        -0.45317E-10         0.00000E+00
    0.25033E-07        -0.46601E-10         0.00000E+00
    0.25036E-07        -0.47735E-10         0.00000E+00
    0.25038E-07        -0.48714E-10         0.00000E+00
    0.25040E-07        -0.49536E-10         0.00000E+00
    0.25043E-07        -0.50197E-10         0.00000E+00
    0.25045E-07        -0.50692E-10         0.00000E+00
    0.25048E-07        -0.51020E-10         0.00000E+00
    0.25050E-07        -0.51178E-10         0.00000E+00
    0.25052E-07        -0.51161E-10         0.00000E+00
    0.25055E-07        -0.50968E-10         0.00000E+00
    0.25057E-07        -0.50595E-10         0.00000E+00
    0.25059E-07        -0.50041E-10         0.00000E+00
    0.25062E-07        -0.49302E-10         0.00000E+00
    0.25064E-07        -0.48377E-10         0.00000E+00
    0.25066E-07        -0.47262E-10         0.00000E+00
    0.25068E-07        -0.45956E-10         0.00000E+00
    0.25070E-07        -0.44457E-10         0.00000E+00
    0.25072E-07        -0.42763E-10         0.00000E+00
    0.25074E-07        -0.40871E-10         0.00000E+00
    0.25075E-07        -0.38781E-10         0.00000E+00
    0.25077E-07        -0.36491E-10         0.00000E+00
    0.25079E-07        -0.33998E-10         0.00000E+00
    0.25080E-07        -0.31302E-10         0.00000E+00
    0.25081E-07        -0.28402E-10         0.00000E+00
    0.25082E-07        -0.25295E-10         0.00000E+00
    0.25083E-07        -0.21981E-10         0.00000E+00
    0.25084E-07        -0.18459E-10         0.00000E+00
    0.25085E-07        -0.14727E-10         0.00000E+00
    0.25085E-07        -0.10786E-10         0.00000E+00
    0.25086E-07        -0.66339E-11         0.00000E+00
    0.25086E-07        -0.22702E-11         0.00000E+00
    0.26079E-07        -0.21230E-11         0.00000E+00
    0.26079E-07        -0.63045E-11         0.00000E+00
    0.26079E-07        -0.10384E-10         0.00000E+00
    0.26080E-07        -0.14355E-10         0.00000E+00
    0.26081E-07        -0.18211E-10         0.00000E+00
    0.26082E-07        -0.21946E-10         0.00000E+00
    0.26083E-07        -0.25554E-10         0.00000E+00
    0.26084E-07        -0.29030E-10         0.00000E+00
    0.26085E-07        -0.32367E-10         0.00000E+00
    0.26087E-07        -0.35560E-10         0.00000E+00
    0.26089E-07        -0.38605E-10         0.00000E+00
    0.26091E-07        -0.41496E-10         0.00000E+00
    0.26092E-07        -0.44228E-10         0.00000E+00
    0.26094E-07        -0.46798E-10         0.00000E+00
    0.26097E-07        -0.49199E-10         0.00000E+00
    0.26099E-07        -0.51429E-10         0.00000E+00
    0.26101E-07        -0.53483E-10         0.00000E+00
    0.26103E-07        -0.55356E-10         0.00000E+00
    0.26106E-07        -0.57046E-10         0.00000E+00
    0.26108E-07        -0.58548E-10         0.00000E+00
    0.26111E-07        -0.59858E-10         0.00000E+00
    0.26113E-07        -0.60974E-10         0.00000E+00
    0.26116E-07        -0.61892E-10         0.00000E+00
    0.26118E-07        -0.62609E-10         0.00000E+00
    0.26121E-07        -0.63121E-10         0.00000E+00
    0.26123E-07        -0.63426E-10         0.00000E+00
    0.26126E-07        -0.63521E-10         0.00000E+00
    0.26128E-07        -0.63403E-10         0.00000E+00
    0.26131E-07        -0.63070E-10         0.00000E+00
    0.26133E-07        -0.62518E-10         0.00000E+00
    0.26136E-07        -0.61747E-10         0.00000E+00
    0.26138E-07        -0.60752E-10         0.00000E+00
    0.26141E-07        -0.59533E-10         0.00000E+00
    0.26143E-07        -0.58087E-10         0.00000E+00
    0.26145E-07        -0.56412E-10         0.00000E+00
    0.26147E-07        -0.54506E-10         0.00000E+00
    0.26149E-07        -0.52367E-10         0.00000E+00
    0.26151E-07        -0.49994E-10         0.00000E+00
    0.26153E-07        -0.47385E-10         0.00000E+00
    0.26155E-07        -0.44538E-10         0.00000E+00
    0.26156E-07        -0.41453E-10         0.00000E+00
    0.26158E-07        -0.38127E-10         0.00000E+00
    0.26159E-07        -0.34560E-10         0.00000E+00
    0.26160E-07        -0.30750E-10         0.00000E+00
    0.26161E-07        -0.26697E-10         0.00000E+00
    0.26162E-07        -0.22399E-10         0.00000E+00
    0.26163E-07        -0.17856E-10         0.00000E+00
    0.26163E-07        -0.13066E-10         0.00000E+00
    0.26164E-07        -0.80294E-11         0.00000E+00
    0.26164E-07        -0.27453E-11         0.00000E+00
    0.27189E-07        -0.26743E-11         0.00000E+00
    0.27189E-07        -0.79243E-11         0.00000E+00
    0.27190E-07        -0.13022E-10         0.00000E+00
    0.27190E-07        -0.17961E-10         0.00000E+00
    0.27191E-07        -0.22735E-10         0.00000E+00
    0.27192E-07        -0.27339E-10         0.00000E+00
    0.27193E-07        -0.31768E-10         0.00000E+00
    0.27195E-07        -0.36015E-10         0.00000E+00
    0.27196E-07        -0.40076E-10         0.00000E+00
    0.27198E-07        -0.43947E-10         0.00000E+00
    0.27200E-07        -0.47621E-10         0.00000E+00
    0.27202E-07        -0.51096E-10         0.00000E+00
    0.27204E-07        -0.54365E-10         0.00000E+00
    0.27206E-07        -0.57426E-10         0.00000E+00
    0.27208E-07        -0.60274E-10         0.00000E+00
    0.27210E-07        -0.62906E-10         0.00000E+00
    0.27213E-07        -0.65316E-10         0.00000E+00
    0.27215E-07        -0.67503E-10         0.00000E+00
    0.27218E-07        -0.69462E-10         0.00000E+00
    0.27220E-07        -0.71189E-10         0.00000E+00
    0.27223E-07        -0.72683E-10         0.00000E+00
    0.27225E-07        -0.73939E-10         0.00000E+00
    0.27228E-07        -0.74954E-10         0.00000E+00
    0.27231E-07        -0.75726E-10         0.00000E+00
    0.27233E-07        -0.76252E-10         0.00000E+00
    0.27236E-07        -0.76529E-10         0.00000E+00
    0.27239E-07        -0.76555E-10         0.00000E+00
    0.27242E-07        -0.76327E-10         0.00000E+00
    0.27244E-07        -0.75842E-10         0.00000E+00
    0.27247E-07        -0.75099E-10         0.00000E+00
    0.27249E-07        -0.74096E-10         0.00000E+00
    0.27252E-07        -0.72829E-10         0.00000E+00
    0.27254E-07        -0.71298E-10         0.00000E+00
    0.27257E-07        -0.69500E-10         0.00000E+00
    0.27259E-07        -0.67433E-10         0.00000E+00
    0.27261E-07        -0.65097E-10         0.00000E+00
    0.27263E-07        -0.62488E-10         0.00000E+00
    0.27265E-07        -0.59606E-10         0.00000E+00
    0.27267E-07        -0.56449E-10         0.00000E+00
    0.27269E-07        -0.53015E-10         0.00000E+00
    0.27271E-07        -0.49304E-10         0.00000E+00
    0.27272E-07        -0.45315E-10         0.00000E+00
    0.27274E-07        -0.41045E-10         0.00000E+00
    0.27275E-07        -0.36495E-10         0.00000E+00
    0.27276E-07        -0.31662E-10         0.00000E+00
    0.27277E-07        -0.26547E-10         0.00000E+00
    0.27278E-07        -0.21149E-10         0.00000E+00
    0.27278E-07        -0.15466E-10         0.00000E+00
    0.27279E-07        -0.94982E-11         0.00000E+00
    0.27279E-07        -0.32454E-11         0.00000E+00
    0.28336E-07        -0.32585E-11         0.00000E+00
    0.28337E-07        -0.96401E-11         0.00000E+00
    0.28337E-07        -0.15814E-10         0.00000E+00
    0.28338E-07        -0.21776E-10         0.00000E+00
    0.28339E-07        -0.27519E-10         0.00000E+00
    0.28340E-07        -0.33039E-10         0.00000E+00
    0.28341E-07        -0.38331E-10         0.00000E+00
    0.28343E-07        -0.43390E-10         0.00000E+00
    0.28344E-07        -0.48212E-10         0.00000E+00
    0.28346E-07        -0.52792E-10         0.00000E+00
    0.28348E-07        -0.57127E-10         0.00000E+00
    0.28350E-07        -0.61212E-10         0.00000E+00
    0.28352E-07        -0.65043E-10         0.00000E+00
    0.28354E-07        -0.68617E-10         0.00000E+00
    0.28356E-07        -0.71930E-10         0.00000E+00
    0.28359E-07        -0.74979E-10         0.00000E+00
    0.28361E-07        -0.77761E-10         0.00000E+00
    0.28364E-07        -0.80272E-10         0.00000E+00
    0.28367E-07        -0.82509E-10         0.00000E+00
    0.28369E-07        -0.84470E-10         0.00000E+00
    0.28372E-07        -0.86150E-10         0.00000E+00
    0.28375E-07        -0.87549E-10         0.00000E+00
    0.28378E-07        -0.88663E-10         0.00000E+00
    0.28380E-07        -0.89489E-10         0.00000E+00
    0.28383E-07        -0.90026E-10         0.00000E+00
    0.28386E-07        -0.90270E-10         0.00000E+00
    0.28389E-07        -0.90220E-10         0.00000E+00
    0.28392E-07        -0.89873E-10         0.00000E+00
    0.28394E-07        -0.89227E-10         0.00000E+00
    0.28397E-07        -0.88281E-10         0.00000E+00
    0.28400E-07        -0.87032E-10         0.00000E+00
    0.28402E-07        -0.85478E-10         0.00000E+00
    0.28405E-07        -0.83618E-10         0.00000E+00
    0.28407E-07        -0.81449E-10         0.00000E+00
    0.28410E-07        -0.78971E-10         0.00000E+00
    0.28412E-07        -0.76182E-10         0.00000E+00
    0.28414E-07        -0.73080E-10         0.00000E+00
    0.28416E-07        -0.69664E-10         0.00000E+00
    0.28418E-07        -0.65933E-10         0.00000E+00
    0.28420E-07        -0.61885E-10         0.00000E+00
    0.28422E-07        -0.57519E-10         0.00000E+00
    0.28424E-07        -0.52834E-10         0.00000E+00
    0.28425E-07        -0.47829E-10         0.00000E+00
    0.28426E-07        -0.42503E-10         0.00000E+00
    0.28428E-07        -0.36856E-10         0.00000E+00
    0.28429E-07        -0.30886E-10         0.00000E+00
    0.28429E-07        -0.24593E-10         0.00000E+00
    0.28430E-07        -0.17976E-10         0.00000E+00
    0.28430E-07        -0.11034E-10         0.00000E+00
    0.28431E-07        -0.37684E-11         0.00000E+00
    0.29521E-07        -0.38729E-11         0.00000E+00
    0.29522E-07        -0.11443E-10         0.00000E+00
    0.29522E-07        -0.18747E-10         0.00000E+00
    0.29523E-07        -0.25780E-10         0.00000E+00
    0.29524E-07        -0.32538E-10         0.00000E+00
    0.29525E-07        -0.39015E-10         0.00000E+00
    0.29526E-07        -0.45209E-10         0.00000E+00
    0.29528E-07        -0.51115E-10         0.00000E+00
    0.29529E-07        -0.56729E-10         0.00000E+00
    0.29531E-07        -0.62048E-10         0.00000E+00
    0.29533E-07        -0.67068E-10         0.00000E+00
    0.29535E-07        -0.71787E-10         0.00000E+00
    0.29537E-07        -0.76200E-10         0.00000E+00
    0.29540E-07        -0.80306E-10         0.00000E+00
    0.29542E-07        -0.84100E-10         0.00000E+00
    0.29545E-07        -0.87580E-10         0.00000E+00
    0.29547E-07        -0.90744E-10         0.00000E+00
    0.29550E-07        -0.93589E-10         0.00000E+00
    0.29553E-07        -0.96111E-10         0.00000E+00
    0.29555E-07        -0.98310E-10         0.00000E+00
    0.29558E-07        -0.10018E-09         0.00000E+00
    0.29561E-07        -0.10173E-09         0.00000E+00
    0.29564E-07        -0.10294E-09         0.00000E+00
    0.29567E-07        -0.10382E-09         0.00000E+00
    0.29570E-07        -0.10436E-09         0.00000E+00
    0.29573E-07        -0.10457E-09         0.00000E+00
    0.29576E-07        -0.10444E-09         0.00000E+00
    0.29579E-07        -0.10396E-09         0.00000E+00
    0.29581E-07        -0.10315E-09         0.00000E+00
    0.29584E-07        -0.10199E-09         0.00000E+00
    0.29587E-07        -0.10048E-09         0.00000E+00
    0.29590E-07        -0.98625E-10         0.00000E+00
    0.29592E-07        -0.96421E-10         0.00000E+00
    0.29595E-07        -0.93867E-10         0.00000E+00
    0.29597E-07        -0.90960E-10         0.00000E+00
    0.29600E-07        -0.87700E-10         0.00000E+00
    0.29602E-07        -0.84085E-10         0.00000E+00
    0.29604E-07        -0.80113E-10         0.00000E+00
    0.29606E-07        -0.75785E-10         0.00000E+00
    0.29608E-07        -0.71097E-10         0.00000E+00
    0.29610E-07        -0.66051E-10         0.00000E+00
    0.29612E-07        -0.60644E-10         0.00000E+00
    0.29613E-07        -0.54875E-10         0.00000E+00
    0.29615E-07        -0.48744E-10         0.00000E+00
    0.29616E-07        -0.42250E-10         0.00000E+00
    0.29617E-07        -0.35392E-10         0.00000E+00
    0.29618E-07        -0.28170E-10         0.00000E+00
    0.29618E-07        -0.20583E-10         0.00000E+00
    0.29619E-07        -0.12630E-10         0.00000E+00
    0.29619E-07        -0.43118E-11         0.00000E+00
    0.30743E-07        -0.45133E-11         0.00000E+00
    0.30744E-07        -0.13322E-10         0.00000E+00
    0.30744E-07        -0.21801E-10         0.00000E+00
    0.30745E-07        -0.29947E-10         0.00000E+00
    0.30746E-07        -0.37757E-10         0.00000E+00
    0.30747E-07        -0.45226E-10         0.00000E+00
    0.30748E-07        -0.52353E-10         0.00000E+00
    0.30750E-07        -0.59134E-10         0.00000E+00
    0.30751E-07        -0.65566E-10         0.00000E+00
    0.30753E-07        -0.71647E-10         0.00000E+00
    0.30755E-07        -0.77374E-10         0.00000E+00
    0.30758E-07        -0.82744E-10         0.00000E+00
    0.30760E-07        -0.87755E-10         0.00000E+00
    0.30762E-07        -0.92406E-10         0.00000E+00
    0.30765E-07        -0.96693E-10         0.00000E+00
    0.30767E-07        -0.10061E-09         0.00000E+00
    0.30770E-07        -0.10417E-09         0.00000E+00
    0.30773E-07        -0.10735E-09         0.00000E+00
    0.30776E-07        -0.11017E-09         0.00000E+00
    0.30778E-07        -0.11261E-09         0.00000E+00
    0.30781E-07        -0.11467E-09         0.00000E+00
    0.30784E-07        -0.11636E-09         0.00000E+00
    0.30787E-07        -0.11767E-09         0.00000E+00
    0.30790E-07        -0.11860E-09         0.00000E+00
    0.30793E-07        -0.11915E-09         0.00000E+00
    0.30796E-07        -0.11932E-09         0.00000E+00
    0.30799E-07        -0.11910E-09         0.00000E+00
    0.30802E-07        -0.11849E-09         0.00000E+00
    0.30805E-07        -0.11750E-09         0.00000E+00
    0.30808E-07        -0.11611E-09         0.00000E+00
    0.30811E-07        -0.11434E-09         0.00000E+00
    0.30814E-07        -0.11218E-09         0.00000E+00
    0.30816E-07        -0.10962E-09         0.00000E+00
    0.30819E-07        -0.10666E-09         0.00000E+00
    0.30822E-07        -0.10331E-09         0.00000E+00
    0.30824E-07        -0.99568E-10         0.00000E+00
    0.30826E-07        -0.95424E-10         0.00000E+00
    0.30829E-07        -0.90880E-10         0.00000E+00
    0.30831E-07        -0.85936E-10         0.00000E+00
    0.30833E-07        -0.80591E-10         0.00000E+00
    0.30835E-07        -0.74843E-10         0.00000E+00
    0.30836E-07        -0.68692E-10         0.00000E+00
    0.30838E-07        -0.62137E-10         0.00000E+00
    0.30839E-07        -0.55176E-10         0.00000E+00
    0.30840E-07        -0.47810E-10         0.00000E+00
    0.30841E-07        -0.40038E-10         0.00000E+00
    0.30842E-07        -0.31858E-10         0.00000E+00
    0.30843E-07        -0.23271E-10         0.00000E+00
    0.30843E-07        -0.14276E-10         0.00000E+00
    0.30844E-07        -0.48722E-11         0.00000E+00
    0.32002E-07        -0.51743E-11         0.00000E+00
    0.32002E-07        -0.15260E-10         0.00000E+00
    0.32003E-07        -0.24949E-10         0.00000E+00
    0.32003E-07        -0.34240E-10         0.00000E+00
    0.32004E-07        -0.43130E-10         0.00000E+00
    0.32006E-07        -0.51617E-10         0.00000E+00
    0.32007E-07        -0.59700E-10         0.00000E+00
    0.32009E-07        -0.67376E-10         0.00000E+00
    0.32010E-07        -0.74644E-10         0.00000E+00
    0.32012E-07        -0.81503E-10         0.00000E+00
    0.32014E-07        -0.87949E-10         0.00000E+00
    0.32016E-07        -0.93983E-10         0.00000E+00
    0.32019E-07        -0.99603E-10         0.00000E+00
    0.32021E-07        -0.10481E-09         0.00000E+00
    0.32024E-07        -0.10959E-09         0.00000E+00
    0.32026E-07        -0.11396E-09         0.00000E+00
    0.32029E-07        -0.11791E-09         0.00000E+00
    0.32032E-07        -0.12144E-09         0.00000E+00
    0.32035E-07        -0.12455E-09         0.00000E+00
    0.32038E-07        -0.12723E-09         0.00000E+00
    0.32041E-07        -0.12949E-09         0.00000E+00
    0.32044E-07        -0.13133E-09         0.00000E+00
    0.32047E-07        -0.13273E-09         0.00000E+00
    0.32050E-07        -0.13371E-09         0.00000E+00
    0.32053E-07        -0.13426E-09         0.00000E+00
    0.32056E-07        -0.13438E-09         0.00000E+00
    0.32059E-07        -0.13407E-09         0.00000E+00
    0.32062E-07        -0.13333E-09         0.00000E+00
    0.32065E-07        -0.13215E-09         0.00000E+00
    0.32068E-07        -0.13054E-09         0.00000E+00
    0.32071E-07        -0.12850E-09         0.00000E+00
    0.32074E-07        -0.12601E-09         0.00000E+00
    0.32076E-07        -0.12309E-09         0.00000E+00
    0.32079E-07        -0.11973E-09         0.00000E+00
    0.32082E-07        -0.11593E-09         0.00000E+00
    0.32084E-07        -0.11169E-09         0.00000E+00
    0.32086E-07        -0.10700E-09         0.00000E+00
    0.32089E-07        -0.10188E-09         0.00000E+00
    0.32091E-07        -0.96304E-10         0.00000E+00
    0.32093E-07        -0.90287E-10         0.00000E+00
    0.32095E-07        -0.83824E-10         0.00000E+00
    0.32097E-07        -0.76914E-10         0.00000E+00
    0.32098E-07        -0.69556E-10         0.00000E+00
    0.32100E-07        -0.61750E-10         0.00000E+00
    0.32101E-07        -0.53493E-10         0.00000E+00
    0.32102E-07        -0.44787E-10         0.00000E+00
    0.32103E-07        -0.35629E-10         0.00000E+00
    0.32103E-07        -0.26020E-10         0.00000E+00
    0.32104E-07        -0.15959E-10         0.00000E+00
    0.32104E-07        -0.54455E-11         0.00000E+00
    0.33297E-07        -0.58489E-11         0.00000E+00
    0.33297E-07        -0.17236E-10         0.00000E+00
    0.33298E-07        -0.28158E-10         0.00000E+00
    0.33298E-07        -0.38612E-10         0.00000E+00
    0.33299E-07        -0.48600E-10         0.00000E+00
    0.33300E-07        -0.58119E-10         0.00000E+00
    0.33302E-07        -0.67169E-10         0.00000E+00
    0.33303E-07        -0.75751E-10         0.00000E+00
    0.33305E-07        -0.83863E-10         0.00000E+00
    0.33307E-07        -0.91506E-10         0.00000E+00
    0.33309E-07        -0.98678E-10         0.00000E+00
    0.33311E-07        -0.10538E-09         0.00000E+00
    0.33314E-07        -0.11161E-09         0.00000E+00
    0.33316E-07        -0.11737E-09         0.00000E+00
    0.33319E-07        -0.12266E-09         0.00000E+00
    0.33322E-07        -0.12748E-09         0.00000E+00
    0.33324E-07        -0.13182E-09         0.00000E+00
    0.33327E-07        -0.13569E-09         0.00000E+00
    0.33330E-07        -0.13909E-09         0.00000E+00
    0.33333E-07        -0.14202E-09         0.00000E+00
    0.33336E-07        -0.14447E-09         0.00000E+00
    0.33339E-07        -0.14645E-09         0.00000E+00
    0.33342E-07        -0.14795E-09         0.00000E+00
    0.33345E-07        -0.14898E-09         0.00000E+00
    0.33348E-07        -0.14953E-09         0.00000E+00
    0.33351E-07        -0.14960E-09         0.00000E+00
    0.33354E-07        -0.14920E-09         0.00000E+00
    0.33357E-07        -0.14832E-09         0.00000E+00
    0.33360E-07        -0.14695E-09         0.00000E+00
    0.33363E-07        -0.14511E-09         0.00000E+00
    0.33366E-07        -0.14279E-09         0.00000E+00
    0.33369E-07        -0.13999E-09         0.00000E+00
    0.33372E-07        -0.13670E-09         0.00000E+00
    0.33374E-07        -0.13293E-09         0.00000E+00
    0.33377E-07        -0.12867E-09         0.00000E+00
    0.33379E-07        -0.12393E-09         0.00000E+00
    0.33382E-07        -0.11870E-09         0.00000E+00
    0.33384E-07        -0.11299E-09         0.00000E+00
    0.33386E-07        -0.10679E-09         0.00000E+00
    0.33388E-07        -0.10009E-09         0.00000E+00
    0.33390E-07        -0.92908E-10         0.00000E+00
    0.33392E-07        -0.85232E-10         0.00000E+00
    0.33394E-07        -0.77064E-10         0.00000E+00
    0.33395E-07        -0.68403E-10         0.00000E+00
    0.33396E-07        -0.59247E-10         0.00000E+00
    0.33397E-07        -0.49596E-10         0.00000E+00
    0.33398E-07        -0.39449E-10         0.00000E+00
    0.33399E-07        -0.28806E-10         0.00000E+00
    0.33399E-07        -0.17665E-10         0.00000E+00
    0.33399E-07        -0.60269E-11         0.00000E+00
    0.34627E-07        -0.65284E-11         0.00000E+00
    0.34627E-07        -0.19226E-10         0.00000E+00
    0.34628E-07        -0.31385E-10         0.00000E+00
    0.34629E-07        -0.43007E-10         0.00000E+00
    0.34629E-07        -0.54093E-10         0.00000E+00
    0.34631E-07        -0.64644E-10         0.00000E+00
    0.34632E-07        -0.74661E-10         0.00000E+00
    0.34634E-07        -0.84145E-10         0.00000E+00
    0.34635E-07        -0.93098E-10         0.00000E+00
    0.34637E-07        -0.10152E-09         0.00000E+00
    0.34639E-07        -0.10941E-09         0.00000E+00
    0.34642E-07        -0.11678E-09         0.00000E+00
    0.34644E-07        -0.12362E-09         0.00000E+00
    0.34646E-07        -0.12993E-09         0.00000E+00
    0.34649E-07        -0.13571E-09         0.00000E+00
    0.34652E-07        -0.14097E-09         0.00000E+00
    0.34654E-07        -0.14571E-09         0.00000E+00
    0.34657E-07        -0.14992E-09         0.00000E+00
    0.34660E-07        -0.15361E-09         0.00000E+00
    0.34663E-07        -0.15677E-09         0.00000E+00
    0.34666E-07        -0.15941E-09         0.00000E+00
    0.34669E-07        -0.16153E-09         0.00000E+00
    0.34672E-07        -0.16313E-09         0.00000E+00
    0.34675E-07        -0.16420E-09         0.00000E+00
    0.34678E-07        -0.16475E-09         0.00000E+00
    0.34681E-07        -0.16478E-09         0.00000E+00
    0.34684E-07        -0.16428E-09         0.00000E+00
    0.34687E-07        -0.16326E-09         0.00000E+00
    0.34690E-07        -0.16171E-09         0.00000E+00
    0.34693E-07        -0.15964E-09         0.00000E+00
    0.34696E-07        -0.15705E-09         0.00000E+00
    0.34698E-07        -0.15393E-09         0.00000E+00
    0.34701E-07        -0.15028E-09         0.00000E+00
    0.34704E-07        -0.14610E-09         0.00000E+00
    0.34706E-07        -0.14139E-09         0.00000E+00
    0.34709E-07        -0.13616E-09         0.00000E+00
    0.34711E-07        -0.13039E-09         0.00000E+00
    0.34714E-07        -0.12409E-09         0.00000E+00
    0.34716E-07        -0.11726E-09         0.00000E+00
    0.34718E-07        -0.10989E-09         0.00000E+00
    0.34720E-07        -0.10199E-09         0.00000E+00
    0.34721E-07        -0.93552E-10         0.00000E+00
    0.34723E-07        -0.84576E-10         0.00000E+00
    0.34724E-07        -0.75062E-10         0.00000E+00
    0.34726E-07        -0.65008E-10         0.00000E+00
    0.34727E-07        -0.54414E-10         0.00000E+00
    0.34728E-07        -0.43278E-10         0.00000E+00
    0.34728E-07        -0.31599E-10         0.00000E+00
    0.34729E-07        -0.19377E-10         0.00000E+00
    0.34729E-07        -0.66105E-11         0.00000E+00
    0.35992E-07        -0.72020E-11         0.00000E+00
    0.35992E-07        -0.21196E-10         0.00000E+00
    0.35992E-07        -0.34579E-10         0.00000E+00
    0.35993E-07        -0.47352E-10         0.00000E+00
    0.35994E-07        -0.59520E-10         0.00000E+00
    0.35995E-07        -0.71086E-10         0.00000E+00
    0.35997E-07        -0.82053E-10         0.00000E+00
    0.35998E-07        -0.92423E-10         0.00000E+00
    0.36000E-07        -0.10220E-09         0.00000E+00
    0.36002E-07        -0.11139E-09         0.00000E+00
    0.36004E-07        -0.11998E-09         0.00000E+00
    0.36006E-07        -0.12799E-09         0.00000E+00
    0.36008E-07        -0.13542E-09         0.00000E+00
    0.36011E-07        -0.14227E-09         0.00000E+00
    0.36013E-07        -0.14854E-09         0.00000E+00
    0.36016E-07        -0.15423E-09         0.00000E+00
    0.36018E-07        -0.15934E-09         0.00000E+00
    0.36021E-07        -0.16388E-09         0.00000E+00
    0.36024E-07        -0.16785E-09         0.00000E+00
    0.36027E-07        -0.17125E-09         0.00000E+00
    0.36029E-07        -0.17407E-09         0.00000E+00
    0.36032E-07        -0.17633E-09         0.00000E+00
    0.36035E-07        -0.17802E-09         0.00000E+00
    0.36038E-07        -0.17914E-09         0.00000E+00
    0.36041E-07        -0.17969E-09         0.00000E+00
    0.36044E-07        -0.17967E-09         0.00000E+00
    0.36047E-07        -0.17908E-09         0.00000E+00
    0.36050E-07        -0.17793E-09         0.00000E+00
    0.36053E-07        -0.17620E-09         0.00000E+00
    0.36056E-07        -0.17391E-09         0.00000E+00
    0.36058E-07        -0.17105E-09         0.00000E+00
    0.36061E-07        -0.16762E-09         0.00000E+00
    0.36064E-07        -0.16362E-09         0.00000E+00
    0.36066E-07        -0.15905E-09         0.00000E+00
    0.36069E-07        -0.15390E-09         0.00000E+00
    0.36071E-07        -0.14819E-09         0.00000E+00
    0.36074E-07        -0.14189E-09         0.00000E+00
    0.36076E-07        -0.13502E-09         0.00000E+00
    0.36078E-07        -0.12758E-09         0.00000E+00
    0.36080E-07        -0.11955E-09         0.00000E+00
    0.36082E-07        -0.11095E-09         0.00000E+00
    0.36084E-07        -0.10176E-09         0.00000E+00
    0.36085E-07        -0.91994E-10         0.00000E+00
    0.36087E-07        -0.81642E-10         0.00000E+00
    0.36088E-07        -0.70705E-10         0.00000E+00
    0.36089E-07        -0.59181E-10         0.00000E+00
    0.36090E-07        -0.47068E-10         0.00000E+00
    0.36090E-07        -0.34367E-10         0.00000E+00
    0.36091E-07        -0.21074E-10         0.00000E+00
    0.36091E-07        -0.71894E-11         0.00000E+00
    0.37389E-07        -0.78566E-11         0.00000E+00
    0.37390E-07        -0.23110E-10         0.00000E+00
    0.37390E-07        -0.37677E-10         0.00000E+00
    0.37391E-07        -0.51564E-10         0.00000E+00
    0.37392E-07        -0.64776E-10         0.00000E+00
    0.37393E-07        -0.77320E-10         0.00000E+00
    0.37394E-07        -0.89199E-10         0.00000E+00
    0.37396E-07        -0.10042E-09         0.00000E+00
    0.37397E-07        -0.11099E-09         0.00000E+00
    0.37399E-07        -0.12090E-09         0.00000E+00
    0.37401E-07        -0.13017E-09         0.00000E+00
    0.37403E-07        -0.13880E-09         0.00000E+00
    0.37405E-07        -0.14680E-09         0.00000E+00
    0.37407E-07        -0.15416E-09         0.00000E+00
    0.37410E-07        -0.16089E-09         0.00000E+00
    0.37412E-07        -0.16699E-09         0.00000E+00
    0.37415E-07        -0.17247E-09         0.00000E+00
    0.37417E-07        -0.17732E-09         0.00000E+00
    0.37420E-07        -0.18156E-09         0.00000E+00
    0.37423E-07        -0.18518E-09         0.00000E+00
    0.37425E-07        -0.18818E-09         0.00000E+00
    0.37428E-07        -0.19057E-09         0.00000E+00
    0.37431E-07        -0.19234E-09         0.00000E+00
    0.37434E-07        -0.19350E-09         0.00000E+00
    0.37437E-07        -0.19406E-09         0.00000E+00
    0.37439E-07        -0.19400E-09         0.00000E+00
    0.37442E-07        -0.19333E-09         0.00000E+00
    0.37445E-07        -0.19205E-09         0.00000E+00
    0.37448E-07        -0.19016E-09         0.00000E+00
    0.37450E-07        -0.18766E-09         0.00000E+00
    0.37453E-07        -0.18455E-09         0.00000E+00
    0.37456E-07        -0.18083E-09         0.00000E+00
    0.37458E-07        -0.17650E-09         0.00000E+00
    0.37461E-07        -0.17155E-09         0.00000E+00
    0.37463E-07        -0.16599E-09         0.00000E+00
    0.37465E-07        -0.15981E-09         0.00000E+00
    0.37468E-07        -0.15302E-09         0.00000E+00
    0.37470E-07        -0.14561E-09         0.00000E+00
    0.37472E-07        -0.13757E-09         0.00000E+00
    0.37474E-07        -0.12892E-09         0.00000E+00
    0.37475E-07        -0.11964E-09         0.00000E+00
    0.37477E-07        -0.10974E-09         0.00000E+00
    0.37479E-07        -0.99205E-10         0.00000E+00
    0.37480E-07        -0.88044E-10         0.00000E+00
    0.37481E-07        -0.76252E-10         0.00000E+00
    0.37482E-07        -0.63826E-10         0.00000E+00
    0.37483E-07        -0.50766E-10         0.00000E+00
    0.37484E-07        -0.37069E-10         0.00000E+00
    0.37484E-07        -0.22733E-10         0.00000E+00
    0.37484E-07        -0.77559E-11         0.00000E+00
    0.38819E-07        -0.84767E-11         0.00000E+00
    0.38819E-07        -0.24920E-10         0.00000E+00
    0.38819E-07        -0.40605E-10         0.00000E+00
    0.38820E-07        -0.55541E-10         0.00000E+00
    0.38821E-07        -0.69734E-10         0.00000E+00
    0.38822E-07        -0.83194E-10         0.00000E+00
    0.38823E-07        -0.95928E-10         0.00000E+00
    0.38824E-07        -0.10794E-09         0.00000E+00
    0.38826E-07        -0.11925E-09         0.00000E+00
    0.38828E-07        -0.12985E-09         0.00000E+00
    0.38829E-07        -0.13974E-09         0.00000E+00
    0.38831E-07        -0.14895E-09         0.00000E+00
    0.38833E-07        -0.15747E-09         0.00000E+00
    0.38835E-07        -0.16530E-09         0.00000E+00
    0.38838E-07        -0.17246E-09         0.00000E+00
    0.38840E-07        -0.17895E-09         0.00000E+00
    0.38842E-07        -0.18476E-09         0.00000E+00
    0.38845E-07        -0.18991E-09         0.00000E+00
    0.38847E-07        -0.19440E-09         0.00000E+00
    0.38849E-07        -0.19822E-09         0.00000E+00
    0.38852E-07        -0.20139E-09         0.00000E+00
    0.38855E-07        -0.20391E-09         0.00000E+00
    0.38857E-07        -0.20577E-09         0.00000E+00
    0.38860E-07        -0.20698E-09         0.00000E+00
    0.38862E-07        -0.20754E-09         0.00000E+00
    0.38865E-07        -0.20745E-09         0.00000E+00
    0.38867E-07        -0.20671E-09         0.00000E+00
    0.38870E-07        -0.20532E-09         0.00000E+00
    0.38873E-07        -0.20329E-09         0.00000E+00
    0.38875E-07        -0.20060E-09         0.00000E+00
    0.38878E-07        -0.19727E-09         0.00000E+00
    0.38880E-07        -0.19328E-09         0.00000E+00
    0.38882E-07        -0.18864E-09         0.00000E+00
    0.38885E-07        -0.18335E-09         0.00000E+00
    0.38887E-07        -0.17741E-09         0.00000E+00
    0.38889E-07        -0.17081E-09         0.00000E+00
    0.38891E-07        -0.16355E-09         0.00000E+00
    0.38893E-07        -0.15564E-09         0.00000E+00
    0.38895E-07        -0.14706E-09         0.00000E+00
    0.38897E-07        -0.13782E-09         0.00000E+00
    0.38898E-07        -0.12791E-09         0.00000E+00
    0.38900E-07        -0.11733E-09         0.00000E+00
    0.38901E-07        -0.10608E-09         0.00000E+00
    0.38903E-07        -0.94153E-10         0.00000E+00
    0.38904E-07        -0.81552E-10         0.00000E+00
    0.38905E-07        -0.68271E-10         0.00000E+00
    0.38905E-07        -0.54308E-10         0.00000E+00
    0.38906E-07        -0.39661E-10         0.00000E+00
    0.38906E-07        -0.24326E-10         0.00000E+00
    0.38907E-07        -0.83009E-11         0.00000E+00
    0.40278E-07        -0.90443E-11         0.00000E+00
    0.40278E-07        -0.26575E-10         0.00000E+00
    0.40278E-07        -0.43279E-10         0.00000E+00
    0.40279E-07        -0.59166E-10         0.00000E+00
    0.40280E-07        -0.74249E-10         0.00000E+00
    0.40281E-07        -0.88538E-10         0.00000E+00
    0.40282E-07        -0.10204E-09         0.00000E+00
    0.40283E-07        -0.11477E-09         0.00000E+00
    0.40284E-07        -0.12674E-09         0.00000E+00
    0.40286E-07        -0.13795E-09         0.00000E+00
    0.40287E-07        -0.14841E-09         0.00000E+00
    0.40289E-07        -0.15814E-09         0.00000E+00
    0.40291E-07        -0.16712E-09         0.00000E+00
    0.40293E-07        -0.17539E-09         0.00000E+00
    0.40295E-07        -0.18293E-09         0.00000E+00
    0.40297E-07        -0.18976E-09         0.00000E+00
    0.40299E-07        -0.19588E-09         0.00000E+00
    0.40301E-07        -0.20129E-09         0.00000E+00
    0.40303E-07        -0.20601E-09         0.00000E+00
    0.40305E-07        -0.21003E-09         0.00000E+00
    0.40307E-07        -0.21335E-09         0.00000E+00
    0.40310E-07        -0.21598E-09         0.00000E+00
    0.40312E-07        -0.21793E-09         0.00000E+00
    0.40314E-07        -0.21919E-09         0.00000E+00
    0.40316E-07        -0.21976E-09         0.00000E+00
    0.40319E-07        -0.21965E-09         0.00000E+00
    0.40321E-07        -0.21886E-09         0.00000E+00
    0.40323E-07        -0.21739E-09         0.00000E+00
    0.40326E-07        -0.21523E-09         0.00000E+00
    0.40328E-07        -0.21238E-09         0.00000E+00
    0.40330E-07        -0.20886E-09         0.00000E+00
    0.40332E-07        -0.20465E-09         0.00000E+00
    0.40334E-07        -0.19975E-09         0.00000E+00
    0.40336E-07        -0.19416E-09         0.00000E+00
    0.40338E-07        -0.18788E-09         0.00000E+00
    0.40340E-07        -0.18091E-09         0.00000E+00
    0.40342E-07        -0.17324E-09         0.00000E+00
    0.40344E-07        -0.16488E-09         0.00000E+00
    0.40346E-07        -0.15581E-09         0.00000E+00
    0.40347E-07        -0.14604E-09         0.00000E+00
    0.40349E-07        -0.13556E-09         0.00000E+00
    0.40350E-07        -0.12437E-09         0.00000E+00
    0.40352E-07        -0.11246E-09         0.00000E+00
    0.40353E-07        -0.99840E-10         0.00000E+00
    0.40354E-07        -0.86495E-10         0.00000E+00
    0.40355E-07        -0.72425E-10         0.00000E+00
    0.40355E-07        -0.57625E-10         0.00000E+00
    0.40356E-07        -0.42093E-10         0.00000E+00
    0.40356E-07        -0.25824E-10         0.00000E+00
    0.40356E-07        -0.88144E-11         0.00000E+00
    0.41765E-07        -0.95385E-11         0.00000E+00
    0.41765E-07        -0.28014E-10         0.00000E+00
    0.41765E-07        -0.45598E-10         0.00000E+00
    0.41766E-07        -0.62307E-10         0.00000E+00
    0.41766E-07        -0.78154E-10         0.00000E+00
    0.41767E-07        -0.93153E-10         0.00000E+00
    0.41768E-07        -0.10732E-09         0.00000E+00
    0.41769E-07        -0.12066E-09         0.00000E+00
    0.41770E-07        -0.13319E-09         0.00000E+00
    0.41771E-07        -0.14492E-09         0.00000E+00
    0.41773E-07        -0.15586E-09         0.00000E+00
    0.41774E-07        -0.16602E-09         0.00000E+00
    0.41776E-07        -0.17541E-09         0.00000E+00
    0.41777E-07        -0.18404E-09         0.00000E+00
    0.41779E-07        -0.19191E-09         0.00000E+00
    0.41780E-07        -0.19904E-09         0.00000E+00
    0.41782E-07        -0.20542E-09         0.00000E+00
    0.41784E-07        -0.21106E-09         0.00000E+00
    0.41786E-07        -0.21598E-09         0.00000E+00
    0.41787E-07        -0.22016E-09         0.00000E+00
    0.41789E-07        -0.22363E-09         0.00000E+00
    0.41791E-07        -0.22637E-09         0.00000E+00
    0.41793E-07        -0.22840E-09         0.00000E+00
    0.41795E-07        -0.22971E-09         0.00000E+00
    0.41797E-07        -0.23031E-09         0.00000E+00
    0.41799E-07        -0.23020E-09         0.00000E+00
    0.41801E-07        -0.22938E-09         0.00000E+00
    0.41803E-07        -0.22784E-09         0.00000E+00
    0.41805E-07        -0.22559E-09         0.00000E+00
    0.41806E-07        -0.22263E-09         0.00000E+00
    0.41808E-07        -0.21896E-09         0.00000E+00
    0.41810E-07        -0.21457E-09         0.00000E+00
    0.41812E-07        -0.20946E-09         0.00000E+00
    0.41814E-07        -0.20363E-09         0.00000E+00
    0.41815E-07        -0.19708E-09         0.00000E+00
    0.41817E-07        -0.18981E-09         0.00000E+00
    0.41819E-07        -0.18180E-09         0.00000E+00
    0.41820E-07        -0.17306E-09         0.00000E+00
    0.41822E-07        -0.16358E-09         0.00000E+00
    0.41823E-07        -0.15336E-09         0.00000E+00
    0.41824E-07        -0.14239E-09         0.00000E+00
    0.41826E-07        -0.13067E-09         0.00000E+00
    0.41827E-07        -0.11820E-09         0.00000E+00
    0.41828E-07        -0.10496E-09         0.00000E+00
    0.41829E-07        -0.90958E-10         0.00000E+00
    0.41829E-07        -0.76186E-10         0.00000E+00
    0.41830E-07        -0.60637E-10         0.00000E+00
    0.41831E-07        -0.44308E-10         0.00000E+00
    0.41831E-07        -0.27192E-10         0.00000E+00
    0.41831E-07        -0.92850E-11         0.00000E+00
    0.43277E-07        -0.99361E-11         0.00000E+00
    0.43277E-07        -0.29168E-10         0.00000E+00
    0.43277E-07        -0.47455E-10         0.00000E+00
    0.43278E-07        -0.64815E-10         0.00000E+00
    0.43278E-07        -0.81265E-10         0.00000E+00
    0.43279E-07        -0.96822E-10         0.00000E+00
    0.43280E-07        -0.11150E-09         0.00000E+00
    0.43280E-07        -0.12532E-09         0.00000E+00
    0.43281E-07        -0.13829E-09         0.00000E+00
    0.43282E-07        -0.15043E-09         0.00000E+00
    0.43283E-07        -0.16174E-09         0.00000E+00
    0.43284E-07        -0.17225E-09         0.00000E+00
    0.43285E-07        -0.18195E-09         0.00000E+00
    0.43286E-07        -0.19086E-09         0.00000E+00
    0.43287E-07        -0.19899E-09         0.00000E+00
    0.43289E-07        -0.20635E-09         0.00000E+00
    0.43290E-07        -0.21294E-09         0.00000E+00
    0.43291E-07        -0.21877E-09         0.00000E+00
    0.43293E-07        -0.22385E-09         0.00000E+00
    0.43294E-07        -0.22818E-09         0.00000E+00
    0.43295E-07        -0.23176E-09         0.00000E+00
    0.43297E-07        -0.23461E-09         0.00000E+00
    0.43298E-07        -0.23672E-09         0.00000E+00
    0.43300E-07        -0.23809E-09         0.00000E+00
    0.43301E-07        -0.23873E-09         0.00000E+00
    0.43302E-07        -0.23863E-09         0.00000E+00
    0.43304E-07        -0.23781E-09         0.00000E+00
    0.43305E-07        -0.23625E-09         0.00000E+00
    0.43307E-07        -0.23395E-09         0.00000E+00
    0.43308E-07        -0.23092E-09         0.00000E+00
    0.43310E-07        -0.22716E-09         0.00000E+00
    0.43311E-07        -0.22265E-09         0.00000E+00
    0.43313E-07        -0.21740E-09         0.00000E+00
    0.43314E-07        -0.21141E-09         0.00000E+00
    0.43315E-07        -0.20467E-09         0.00000E+00
    0.43317E-07        -0.19717E-09         0.00000E+00
    0.43318E-07        -0.18891E-09         0.00000E+00
    0.43319E-07        -0.17988E-09         0.00000E+00
    0.43320E-07        -0.17009E-09         0.00000E+00
    0.43321E-07        -0.15952E-09         0.00000E+00
    0.43322E-07        -0.14816E-09         0.00000E+00
    0.43323E-07        -0.13602E-09         0.00000E+00
    0.43324E-07        -0.12309E-09         0.00000E+00
    0.43325E-07        -0.10935E-09         0.00000E+00
    0.43326E-07        -0.94801E-10         0.00000E+00
    0.43327E-07        -0.79439E-10         0.00000E+00
    0.43327E-07        -0.63255E-10         0.00000E+00
    0.43328E-07        -0.46242E-10         0.00000E+00
    0.43328E-07        -0.28392E-10         0.00000E+00
    0.43328E-07        -0.96999E-11         0.00000E+00
    0.44812E-07        -0.10212E-10         0.00000E+00
    0.44812E-07        -0.29965E-10         0.00000E+00
    0.44813E-07        -0.48731E-10         0.00000E+00
    0.44813E-07        -0.66530E-10         0.00000E+00
    0.44813E-07        -0.83383E-10         0.00000E+00
    0.44813E-07        -0.99312E-10         0.00000E+00
    0.44814E-07        -0.11433E-09         0.00000E+00
    0.44814E-07        -0.12846E-09         0.00000E+00
    0.44815E-07        -0.14172E-09         0.00000E+00
    0.44815E-07        -0.15412E-09         0.00000E+00
    0.44816E-07        -0.16568E-09         0.00000E+00
    0.44816E-07        -0.17641E-09         0.00000E+00
    0.44817E-07        -0.18631E-09         0.00000E+00
    0.44818E-07        -0.19542E-09         0.00000E+00
    0.44818E-07        -0.20372E-09         0.00000E+00
    0.44819E-07        -0.21124E-09         0.00000E+00
    0.44820E-07        -0.21797E-09         0.00000E+00
    0.44820E-07        -0.22394E-09         0.00000E+00
    0.44821E-07        -0.22914E-09         0.00000E+00
    0.44822E-07        -0.23357E-09         0.00000E+00
    0.44823E-07        -0.23726E-09         0.00000E+00
    0.44824E-07        -0.24019E-09         0.00000E+00
    0.44824E-07        -0.24237E-09         0.00000E+00
    0.44825E-07        -0.24381E-09         0.00000E+00
    0.44826E-07        -0.24450E-09         0.00000E+00
    0.44827E-07        -0.24445E-09         0.00000E+00
    0.44828E-07        -0.24365E-09         0.00000E+00
    0.44829E-07        -0.24211E-09         0.00000E+00
    0.44830E-07        -0.23982E-09         0.00000E+00
    0.44831E-07        -0.23679E-09         0.00000E+00
    0.44832E-07        -0.23300E-09         0.00000E+00
    0.44832E-07        -0.22845E-09         0.00000E+00
    0.44833E-07        -0.22314E-09         0.00000E+00
    0.44834E-07        -0.21707E-09         0.00000E+00
    0.44835E-07        -0.21023E-09         0.00000E+00
    0.44836E-07        -0.20261E-09         0.00000E+00
    0.44837E-07        -0.19421E-09         0.00000E+00
    0.44838E-07        -0.18501E-09         0.00000E+00
    0.44839E-07        -0.17502E-09         0.00000E+00
    0.44839E-07        -0.16423E-09         0.00000E+00
    0.44840E-07        -0.15262E-09         0.00000E+00
    0.44841E-07        -0.14018E-09         0.00000E+00
    0.44841E-07        -0.12692E-09         0.00000E+00
    0.44842E-07        -0.11282E-09         0.00000E+00
    0.44843E-07        -0.97865E-10         0.00000E+00
    0.44843E-07        -0.82055E-10         0.00000E+00
    0.44844E-07        -0.65377E-10         0.00000E+00
    0.44844E-07        -0.47822E-10         0.00000E+00
    0.44844E-07        -0.29381E-10         0.00000E+00
    0.44844E-07        -0.10045E-10         0.00000E+00
    0.46367E-07        -0.10339E-10         0.00000E+00
    0.46367E-07        -0.30328E-10         0.00000E+00
    0.46368E-07        -0.49303E-10         0.00000E+00
    0.46368E-07        -0.67287E-10         0.00000E+00
    0.46368E-07        -0.84305E-10         0.00000E+00
    0.46368E-07        -0.10038E-09         0.00000E+00
    0.46368E-07        -0.11553E-09         0.00000E+00
    0.46368E-07        -0.12978E-09         0.00000E+00
    0.46368E-07        -0.14315E-09         0.00000E+00
    0.46368E-07        -0.15565E-09         0.00000E+00
    0.46368E-07        -0.16729E-09         0.00000E+00
    0.46368E-07        -0.17810E-09         0.00000E+00
    0.46368E-07        -0.18809E-09         0.00000E+00
    0.46368E-07        -0.19726E-09         0.00000E+00
    0.46368E-07        -0.20564E-09         0.00000E+00
    0.46368E-07        -0.21322E-09         0.00000E+00
    0.46368E-07        -0.22003E-09         0.00000E+00
    0.46369E-07        -0.22606E-09         0.00000E+00
    0.46369E-07        -0.23132E-09         0.00000E+00
    0.46369E-07        -0.23583E-09         0.00000E+00
    0.46369E-07        -0.23958E-09         0.00000E+00
    0.46369E-07        -0.24258E-09         0.00000E+00
    0.46369E-07        -0.24483E-09         0.00000E+00
    0.46369E-07        -0.24634E-09         0.00000E+00
    0.46369E-07        -0.24710E-09         0.00000E+00
    0.46370E-07        -0.24711E-09         0.00000E+00
    0.46370E-07        -0.24639E-09         0.00000E+00
    0.46370E-07        -0.24491E-09         0.00000E+00
    0.46370E-07        -0.24268E-09         0.00000E+00
    0.46371E-07        -0.23970E-09         0.00000E+00
    0.46371E-07        -0.23596E-09         0.00000E+00
    0.46371E-07        -0.23146E-09         0.00000E+00
    0.46371E-07        -0.22620E-09         0.00000E+00
    0.46372E-07        -0.22015E-09         0.00000E+00
    0.46372E-07        -0.21333E-09         0.00000E+00
    0.46372E-07        -0.20571E-09         0.00000E+00
    0.46373E-07        -0.19729E-09         0.00000E+00
    0.46373E-07        -0.18807E-09         0.00000E+00
    0.46374E-07        -0.17803E-09         0.00000E+00
    0.46374E-07        -0.16716E-09         0.00000E+00
    0.46374E-07        -0.15544E-09         0.00000E+00
    0.46375E-07        -0.14288E-09         0.00000E+00
    0.46375E-07        -0.12946E-09         0.00000E+00
    0.46375E-07        -0.11516E-09         0.00000E+00
    0.46376E-07        -0.99972E-10         0.00000E+00
    0.46376E-07        -0.83886E-10         0.00000E+00
    0.46376E-07        -0.66889E-10         0.00000E+00
    0.46377E-07        -0.48968E-10         0.00000E+00
    0.46377E-07        -0.30110E-10         0.00000E+00
    0.46377E-07        -0.10303E-10         0.00000E+00
    0.47939E-07        -0.10293E-10         0.00000E+00
    0.47939E-07        -0.30184E-10         0.00000E+00
    0.47939E-07        -0.49053E-10         0.00000E+00
    0.47939E-07        -0.66927E-10         0.00000E+00
    0.47939E-07        -0.83834E-10         0.00000E+00
    0.47939E-07        -0.99797E-10         0.00000E+00
    0.47938E-07        -0.11484E-09         0.00000E+00
    0.47938E-07        -0.12898E-09         0.00000E+00
    0.47938E-07        -0.14225E-09         0.00000E+00
    0.47937E-07        -0.15465E-09         0.00000E+00
    0.47937E-07        -0.16620E-09         0.00000E+00
    0.47936E-07        -0.17693E-09         0.00000E+00
    0.47936E-07        -0.18685E-09         0.00000E+00
    0.47935E-07        -0.19596E-09         0.00000E+00
    0.47934E-07        -0.20429E-09         0.00000E+00
    0.47934E-07        -0.21183E-09         0.00000E+00
    0.47933E-07        -0.21861E-09         0.00000E+00
    0.47932E-07        -0.22463E-09         0.00000E+00
    0.47932E-07        -0.22990E-09         0.00000E+00
    0.47931E-07        -0.23441E-09         0.00000E+00
    0.47930E-07        -0.23819E-09         0.00000E+00
    0.47930E-07        -0.24123E-09         0.00000E+00
    0.47929E-07        -0.24354E-09         0.00000E+00
    0.47928E-07        -0.24511E-09         0.00000E+00
    0.47928E-07        -0.24595E-09         0.00000E+00
    0.47927E-07        -0.24605E-09         0.00000E+00
    0.47927E-07        -0.24543E-09         0.00000E+00
    0.47926E-07        -0.24406E-09         0.00000E+00
    0.47925E-07        -0.24196E-09         0.00000E+00
    0.47925E-07        -0.23911E-09         0.00000E+00
    0.47924E-07        -0.23551E-09         0.00000E+00
    0.47924E-07        -0.23115E-09         0.00000E+00
    0.47924E-07        -0.22603E-09         0.00000E+00
    0.47923E-07        -0.22014E-09         0.00000E+00
    0.47923E-07        -0.21346E-09         0.00000E+00
    0.47923E-07        -0.20599E-09         0.00000E+00
    0.47922E-07        -0.19771E-09         0.00000E+00
    0.47922E-07        -0.18862E-09         0.00000E+00
    0.47922E-07        -0.17869E-09         0.00000E+00
    0.47922E-07        -0.16793E-09         0.00000E+00
    0.47922E-07        -0.15630E-09         0.00000E+00
    0.47922E-07        -0.14380E-09         0.00000E+00
    0.47922E-07        -0.13041E-09         0.00000E+00
    0.47922E-07        -0.11612E-09         0.00000E+00
    0.47922E-07        -0.10091E-09         0.00000E+00
    0.47922E-07        -0.84759E-10         0.00000E+00
    0.47922E-07        -0.67655E-10         0.00000E+00
    0.47922E-07        -0.49582E-10         0.00000E+00
    0.47922E-07        -0.30521E-10         0.00000E+00
    0.47922E-07        -0.10456E-10         0.00000E+00
    0.49525E-07        -0.10051E-10         0.00000E+00
    0.49525E-07        -0.29468E-10         0.00000E+00
    0.49525E-07        -0.47880E-10         0.00000E+00
    0.49524E-07        -0.65316E-10         0.00000E+00
    0.49524E-07        -0.81803E-10         0.00000E+00
    0.49523E-07        -0.97366E-10         0.00000E+00
    0.49522E-07        -0.11203E-09         0.00000E+00
    0.49522E-07        -0.12581E-09         0.00000E+00
    0.49521E-07        -0.13874E-09         0.00000E+00
    0.49520E-07        -0.15083E-09         0.00000E+00
    0.49519E-07        -0.16210E-09         0.00000E+00
    0.49517E-07        -0.17256E-09         0.00000E+00
    0.49516E-07        -0.18224E-09         0.00000E+00
    0.49515E-07        -0.19113E-09         0.00000E+00
    0.49513E-07        -0.19927E-09         0.00000E+00
    0.49512E-07        -0.20665E-09         0.00000E+00
    0.49511E-07        -0.21329E-09         0.00000E+00
    0.49509E-07        -0.21919E-09         0.00000E+00
    0.49508E-07        -0.22437E-09         0.00000E+00
    0.49506E-07        -0.22883E-09         0.00000E+00
    0.49504E-07        -0.23257E-09         0.00000E+00
    0.49503E-07        -0.23561E-09         0.00000E+00
    0.49501E-07        -0.23793E-09         0.00000E+00
    0.49500E-07        -0.23955E-09         0.00000E+00
    0.49498E-07        -0.24047E-09         0.00000E+00
    0.49497E-07        -0.24067E-09         0.00000E+00
    0.49495E-07        -0.24017E-09         0.00000E+00
    0.49494E-07        -0.23896E-09         0.00000E+00
    0.49492E-07        -0.23704E-09         0.00000E+00
    0.49491E-07        -0.23439E-09         0.00000E+00
    0.49489E-07        -0.23102E-09         0.00000E+00
    0.49488E-07        -0.22690E-09         0.00000E+00
    0.49487E-07        -0.22205E-09         0.00000E+00
    0.49486E-07        -0.21643E-09         0.00000E+00
    0.49485E-07        -0.21005E-09         0.00000E+00
    0.49484E-07        -0.20288E-09         0.00000E+00
    0.49483E-07        -0.19492E-09         0.00000E+00
    0.49482E-07        -0.18614E-09         0.00000E+00
    0.49481E-07        -0.17653E-09         0.00000E+00
    0.49480E-07        -0.16608E-09         0.00000E+00
    0.49480E-07        -0.15476E-09         0.00000E+00
    0.49479E-07        -0.14256E-09         0.00000E+00
    0.49479E-07        -0.12944E-09         0.00000E+00
    0.49478E-07        -0.11541E-09         0.00000E+00
    0.49478E-07        -0.10042E-09         0.00000E+00
    0.49478E-07        -0.84462E-10         0.00000E+00
    0.49478E-07        -0.67512E-10         0.00000E+00
    0.49477E-07        -0.49547E-10         0.00000E+00
    0.49477E-07        -0.30544E-10         0.00000E+00
    0.49477E-07        -0.10481E-10         0.00000E+00
    0.51121E-07        -0.95989E-11         0.00000E+00
    0.51120E-07        -0.28140E-10         0.00000E+00
    0.51120E-07        -0.45720E-10         0.00000E+00
    0.51119E-07        -0.62366E-10         0.00000E+00
    0.51119E-07        -0.78104E-10         0.00000E+00
    0.51118E-07        -0.92961E-10         0.00000E+00
    0.51116E-07        -0.10696E-09         0.00000E+00
    0.51115E-07        -0.12012E-09         0.00000E+00
    0.51114E-07        -0.13246E-09         0.00000E+00
    0.51112E-07        -0.14400E-09         0.00000E+00
    0.51110E-07        -0.15476E-09         0.00000E+00
    0.51108E-07        -0.16475E-09         0.00000E+00
    0.51106E-07        -0.17399E-09         0.00000E+00
    0.51104E-07        -0.18250E-09         0.00000E+00
    0.51102E-07        -0.19028E-09         0.00000E+00
    0.51100E-07        -0.19734E-09         0.00000E+00
    0.51098E-07        -0.20370E-09         0.00000E+00
    0.51095E-07        -0.20936E-09         0.00000E+00
    0.51093E-07        -0.21434E-09         0.00000E+00
    0.51090E-07        -0.21864E-09         0.00000E+00
    0.51088E-07        -0.22226E-09         0.00000E+00
    0.51085E-07        -0.22522E-09         0.00000E+00
    0.51083E-07        -0.22751E-09         0.00000E+00
    0.51080E-07        -0.22913E-09         0.00000E+00
    0.51077E-07        -0.23009E-09         0.00000E+00
    0.51075E-07        -0.23039E-09         0.00000E+00
    0.51072E-07        -0.23002E-09         0.00000E+00
    0.51070E-07        -0.22898E-09         0.00000E+00
    0.51067E-07        -0.22727E-09         0.00000E+00
    0.51065E-07        -0.22488E-09         0.00000E+00
    0.51062E-07        -0.22180E-09         0.00000E+00
    0.51060E-07        -0.21803E-09         0.00000E+00
    0.51058E-07        -0.21355E-09         0.00000E+00
    0.51056E-07        -0.20834E-09         0.00000E+00
    0.51054E-07        -0.20240E-09         0.00000E+00
    0.51052E-07        -0.19571E-09         0.00000E+00
    0.51050E-07        -0.18825E-09         0.00000E+00
    0.51048E-07        -0.18000E-09         0.00000E+00
    0.51047E-07        -0.17094E-09         0.00000E+00
    0.51045E-07        -0.16105E-09         0.00000E+00
    0.51044E-07        -0.15030E-09         0.00000E+00
    0.51043E-07        -0.13866E-09         0.00000E+00
    0.51042E-07        -0.12611E-09         0.00000E+00
    0.51041E-07        -0.11263E-09         0.00000E+00
    0.51040E-07        -0.98175E-10         0.00000E+00
    0.51040E-07        -0.82725E-10         0.00000E+00
    0.51039E-07        -0.66247E-10         0.00000E+00
    0.51039E-07        -0.48712E-10         0.00000E+00
    0.51039E-07        -0.30089E-10         0.00000E+00
    0.51039E-07        -0.10348E-10         0.00000E+00
    0.52723E-07        -0.89348E-11         0.00000E+00
    0.52722E-07        -0.26197E-10         0.00000E+00
    0.52722E-07        -0.42567E-10         0.00000E+00
    0.52721E-07        -0.58071E-10         0.00000E+00
    0.52720E-07        -0.72733E-10         0.00000E+00
    0.52718E-07        -0.86573E-10         0.00000E+00
    0.52717E-07        -0.99613E-10         0.00000E+00
    0.52715E-07        -0.11187E-09         0.00000E+00
    0.52713E-07        -0.12337E-09         0.00000E+00
    0.52711E-07        -0.13412E-09         0.00000E+00
    0.52708E-07        -0.14414E-09         0.00000E+00
    0.52706E-07        -0.15344E-09         0.00000E+00
    0.52703E-07        -0.16204E-09         0.00000E+00
    0.52700E-07        -0.16995E-09         0.00000E+00
    0.52697E-07        -0.17719E-09         0.00000E+00
    0.52694E-07        -0.18376E-09         0.00000E+00
    0.52691E-07        -0.18967E-09         0.00000E+00
    0.52688E-07        -0.19494E-09         0.00000E+00
    0.52684E-07        -0.19957E-09         0.00000E+00
    0.52681E-07        -0.20357E-09         0.00000E+00
    0.52677E-07        -0.20694E-09         0.00000E+00
    0.52674E-07        -0.20970E-09         0.00000E+00
    0.52670E-07        -0.21185E-09         0.00000E+00
    0.52666E-07        -0.21339E-09         0.00000E+00
    0.52663E-07        -0.21432E-09         0.00000E+00
    0.52659E-07        -0.21464E-09         0.00000E+00
    0.52655E-07        -0.21436E-09         0.00000E+00
    0.52652E-07        -0.21348E-09         0.00000E+00
    0.52648E-07        -0.21198E-09         0.00000E+00
    0.52644E-07        -0.20986E-09         0.00000E+00
    0.52641E-07        -0.20712E-09         0.00000E+00
    0.52637E-07        -0.20375E-09         0.00000E+00
    0.52634E-07        -0.19973E-09         0.00000E+00
    0.52631E-07        -0.19505E-09         0.00000E+00
    0.52628E-07        -0.18970E-09         0.00000E+00
    0.52624E-07        -0.18366E-09         0.00000E+00
    0.52622E-07        -0.17690E-09         0.00000E+00
    0.52619E-07        -0.16940E-09         0.00000E+00
    0.52616E-07        -0.16114E-09         0.00000E+00
    0.52614E-07        -0.15208E-09         0.00000E+00
    0.52612E-07        -0.14220E-09         0.00000E+00
    0.52610E-07        -0.13146E-09         0.00000E+00
    0.52608E-07        -0.11983E-09         0.00000E+00
    0.52607E-07        -0.10726E-09         0.00000E+00
    0.52606E-07        -0.93722E-10         0.00000E+00
    0.52605E-07        -0.79172E-10         0.00000E+00
    0.52604E-07        -0.63568E-10         0.00000E+00
    0.52603E-07        -0.46868E-10         0.00000E+00
    0.52603E-07        -0.29031E-10         0.00000E+00
    0.52603E-07        -0.10015E-10         0.00000E+00
    0.54327E-07        -0.80766E-11         0.00000E+00
    0.54327E-07        -0.23689E-10         0.00000E+00
    0.54326E-07        -0.38506E-10         0.00000E+00
    0.54325E-07        -0.52546E-10         0.00000E+00
    0.54323E-07        -0.65827E-10         0.00000E+00
    0.54322E-07        -0.78365E-10         0.00000E+00
    0.54320E-07        -0.90177E-10         0.00000E+00
    0.54318E-07        -0.10128E-09         0.00000E+00
    0.54315E-07        -0.11168E-09         0.00000E+00
    0.54312E-07        -0.12140E-09         0.00000E+00
    0.54310E-07        -0.13045E-09         0.00000E+00
    0.54306E-07        -0.13884E-09         0.00000E+00
    0.54303E-07        -0.14658E-09         0.00000E+00
    0.54300E-07        -0.15369E-09         0.00000E+00
    0.54296E-07        -0.16018E-09         0.00000E+00
    0.54292E-07        -0.16605E-09         0.00000E+00
    0.54288E-07        -0.17132E-09         0.00000E+00
    0.54284E-07        -0.17599E-09         0.00000E+00
    0.54280E-07        -0.18008E-09         0.00000E+00
    0.54275E-07        -0.18360E-09         0.00000E+00
    0.54271E-07        -0.18655E-09         0.00000E+00
    0.54266E-07        -0.18894E-09         0.00000E+00
    0.54261E-07        -0.19078E-09         0.00000E+00
    0.54256E-07        -0.19207E-09         0.00000E+00
    0.54252E-07        -0.19283E-09         0.00000E+00
    0.54247E-07        -0.19305E-09         0.00000E+00
    0.54242E-07        -0.19274E-09         0.00000E+00
    0.54237E-07        -0.19190E-09         0.00000E+00
    0.54232E-07        -0.19052E-09         0.00000E+00
    0.54227E-07        -0.18862E-09         0.00000E+00
    0.54222E-07        -0.18618E-09         0.00000E+00
    0.54217E-07        -0.18320E-09         0.00000E+00
    0.54213E-07        -0.17968E-09         0.00000E+00
    0.54208E-07        -0.17558E-09         0.00000E+00
    0.54203E-07        -0.17092E-09         0.00000E+00
    0.54199E-07        -0.16565E-09         0.00000E+00
    0.54195E-07        -0.15977E-09         0.00000E+00
    0.54191E-07        -0.15324E-09         0.00000E+00
    0.54187E-07        -0.14604E-09         0.00000E+00
    0.54184E-07        -0.13813E-09         0.00000E+00
    0.54181E-07        -0.12946E-09         0.00000E+00
    0.54178E-07        -0.12001E-09         0.00000E+00
    0.54175E-07        -0.10971E-09         0.00000E+00
    0.54173E-07        -0.98516E-10         0.00000E+00
    0.54171E-07        -0.86376E-10         0.00000E+00
    0.54169E-07        -0.73233E-10         0.00000E+00
    0.54168E-07        -0.59028E-10         0.00000E+00
    0.54167E-07        -0.43699E-10         0.00000E+00
    0.54166E-07        -0.27186E-10         0.00000E+00
    0.54166E-07        -0.94215E-11         0.00000E+00
    0.55930E-07        -0.70666E-11         0.00000E+00
    0.55929E-07        -0.20740E-10         0.00000E+00
    0.55928E-07        -0.33733E-10         0.00000E+00
    0.55927E-07        -0.46053E-10         0.00000E+00
    0.55926E-07        -0.57711E-10         0.00000E+00
    0.55924E-07        -0.68716E-10         0.00000E+00
    0.55922E-07        -0.79077E-10         0.00000E+00
    0.55919E-07        -0.88802E-10         0.00000E+00
    0.55916E-07        -0.97900E-10         0.00000E+00
    0.55913E-07        -0.10638E-09         0.00000E+00
    0.55910E-07        -0.11425E-09         0.00000E+00
    0.55906E-07        -0.12152E-09         0.00000E+00
    0.55903E-07        -0.12820E-09         0.00000E+00
    0.55899E-07        -0.13430E-09         0.00000E+00
    0.55894E-07        -0.13982E-09         0.00000E+00
    0.55890E-07        -0.14478E-09         0.00000E+00
    0.55885E-07        -0.14918E-09         0.00000E+00
    0.55880E-07        -0.15304E-09         0.00000E+00
    0.55875E-07        -0.15636E-09         0.00000E+00
    0.55870E-07        -0.15916E-09         0.00000E+00
    0.55865E-07        -0.16145E-09         0.00000E+00
    0.55859E-07        -0.16323E-09         0.00000E+00
    0.55853E-07        -0.16452E-09         0.00000E+00
    0.55848E-07        -0.16533E-09         0.00000E+00
    0.55842E-07        -0.16567E-09         0.00000E+00
    0.55836E-07        -0.16554E-09         0.00000E+00
    0.55830E-07        -0.16496E-09         0.00000E+00
    0.55823E-07        -0.16394E-09         0.00000E+00
    0.55817E-07        -0.16248E-09         0.00000E+00
    0.55811E-07        -0.16059E-09         0.00000E+00
    0.55804E-07        -0.15828E-09         0.00000E+00
    0.55798E-07        -0.15555E-09         0.00000E+00
    0.55792E-07        -0.15239E-09         0.00000E+00
    0.55786E-07        -0.14881E-09         0.00000E+00
    0.55780E-07        -0.14479E-09         0.00000E+00
    0.55774E-07        -0.14034E-09         0.00000E+00
    0.55768E-07        -0.13542E-09         0.00000E+00
    0.55762E-07        -0.13001E-09         0.00000E+00
    0.55757E-07        -0.12409E-09         0.00000E+00
    0.55752E-07        -0.11761E-09         0.00000E+00
    0.55747E-07        -0.11054E-09         0.00000E+00
    0.55743E-07        -0.10280E-09         0.00000E+00
    0.55739E-07        -0.94356E-10         0.00000E+00
    0.55736E-07        -0.85121E-10         0.00000E+00
    0.55733E-07        -0.75022E-10         0.00000E+00
    0.55730E-07        -0.63975E-10         0.00000E+00
    0.55728E-07        -0.51885E-10         0.00000E+00
    0.55727E-07        -0.38662E-10         0.00000E+00
    0.55726E-07        -0.24217E-10         0.00000E+00
    0.55725E-07        -0.84662E-11         0.00000E+00
    0.57527E-07        -0.59737E-11         0.00000E+00
    0.57526E-07        -0.17549E-10         0.00000E+00
    0.57525E-07        -0.28566E-10         0.00000E+00
    0.57524E-07        -0.39022E-10         0.00000E+00
    0.57523E-07        -0.48916E-10         0.00000E+00
    0.57521E-07        -0.58248E-10         0.00000E+00
    0.57518E-07        -0.67018E-10         0.00000E+00
    0.57516E-07        -0.75228E-10         0.00000E+00
    0.57513E-07        -0.82879E-10         0.00000E+00
    0.57510E-07        -0.89973E-10         0.00000E+00
    0.57506E-07        -0.96515E-10         0.00000E+00
    0.57502E-07        -0.10251E-09         0.00000E+00
    0.57498E-07        -0.10795E-09         0.00000E+00
    0.57494E-07        -0.11286E-09         0.00000E+00
    0.57489E-07        -0.11723E-09         0.00000E+00
    0.57485E-07        -0.12108E-09         0.00000E+00
    0.57480E-07        -0.12441E-09         0.00000E+00
    0.57474E-07        -0.12722E-09         0.00000E+00
    0.57469E-07        -0.12954E-09         0.00000E+00
    0.57463E-07        -0.13137E-09         0.00000E+00
    0.57457E-07        -0.13272E-09         0.00000E+00
    0.57451E-07        -0.13360E-09         0.00000E+00
    0.57445E-07        -0.13403E-09         0.00000E+00
    0.57438E-07        -0.13402E-09         0.00000E+00
    0.57431E-07        -0.13359E-09         0.00000E+00
    0.57424E-07        -0.13276E-09         0.00000E+00
    0.57417E-07        -0.13153E-09         0.00000E+00
    0.57410E-07        -0.12994E-09         0.00000E+00
    0.57403E-07        -0.12800E-09         0.00000E+00
    0.57395E-07        -0.12573E-09         0.00000E+00
    0.57387E-07        -0.12315E-09         0.00000E+00
    0.57380E-07        -0.12027E-09         0.00000E+00
    0.57372E-07        -0.11711E-09         0.00000E+00
    0.57364E-07        -0.11370E-09         0.00000E+00
    0.57356E-07        -0.11004E-09         0.00000E+00
    0.57348E-07        -0.10614E-09         0.00000E+00
    0.57340E-07        -0.10201E-09         0.00000E+00
    0.57333E-07        -0.97637E-10         0.00000E+00
    0.57325E-07        -0.93019E-10         0.00000E+00
    0.57318E-07        -0.88131E-10         0.00000E+00
    0.57312E-07        -0.82933E-10         0.00000E+00
    0.57305E-07        -0.77367E-10         0.00000E+00
    0.57299E-07        -0.71354E-10         0.00000E+00
    0.57294E-07        -0.64800E-10         0.00000E+00
    0.57290E-07        -0.57589E-10         0.00000E+00
    0.57286E-07        -0.49601E-10         0.00000E+00
    0.57283E-07        -0.40710E-10         0.00000E+00
    0.57280E-07        -0.30758E-10         0.00000E+00
    0.57279E-07        -0.19570E-10         0.00000E+00
    0.57278E-07        -0.69465E-11         0.00000E+00
    0.59113E-07        -0.48892E-11         0.00000E+00
    0.59113E-07        -0.14380E-10         0.00000E+00
    0.59112E-07        -0.23429E-10         0.00000E+00
    0.59111E-07        -0.32022E-10         0.00000E+00
    0.59109E-07        -0.40147E-10         0.00000E+00
    0.59108E-07        -0.47796E-10         0.00000E+00
    0.59105E-07        -0.54958E-10         0.00000E+00
    0.59103E-07        -0.61627E-10         0.00000E+00
    0.59100E-07        -0.67797E-10         0.00000E+00
    0.59097E-07        -0.73462E-10         0.00000E+00
    0.59094E-07        -0.78620E-10         0.00000E+00
    0.59090E-07        -0.83267E-10         0.00000E+00
    0.59086E-07        -0.87403E-10         0.00000E+00
    0.59082E-07        -0.91027E-10         0.00000E+00
    0.59077E-07        -0.94140E-10         0.00000E+00
    0.59073E-07        -0.96746E-10         0.00000E+00
    0.59068E-07        -0.98848E-10         0.00000E+00
    0.59063E-07        -0.10045E-09         0.00000E+00
    0.59057E-07        -0.10156E-09         0.00000E+00
    0.59051E-07        -0.10219E-09         0.00000E+00
    0.59045E-07        -0.10235E-09         0.00000E+00
    0.59039E-07        -0.10204E-09         0.00000E+00
    0.59033E-07        -0.10130E-09         0.00000E+00
    0.59026E-07        -0.10012E-09         0.00000E+00
    0.59019E-07        -0.98533E-10         0.00000E+00
    0.59012E-07        -0.96559E-10         0.00000E+00
    0.59004E-07        -0.94219E-10         0.00000E+00
    0.58996E-07        -0.91542E-10         0.00000E+00
    0.58988E-07        -0.88556E-10         0.00000E+00
    0.58980E-07        -0.85293E-10         0.00000E+00
    0.58971E-07        -0.81788E-10         0.00000E+00
    0.58962E-07        -0.78079E-10         0.00000E+00
    0.58953E-07        -0.74207E-10         0.00000E+00
    0.58943E-07        -0.70216E-10         0.00000E+00
    0.58934E-07        -0.66151E-10         0.00000E+00
    0.58924E-07        -0.62060E-10         0.00000E+00
    0.58914E-07        -0.57988E-10         0.00000E+00
    0.58904E-07        -0.53975E-10         0.00000E+00
    0.58894E-07        -0.50066E-10         0.00000E+00
    0.58884E-07        -0.46293E-10         0.00000E+00
    0.58875E-07        -0.42686E-10         0.00000E+00
    0.58865E-07        -0.39266E-10         0.00000E+00
    0.58857E-07        -0.36034E-10         0.00000E+00
    0.58848E-07        -0.32922E-10         0.00000E+00
    0.58841E-07        -0.29804E-10         0.00000E+00
    0.58835E-07        -0.26448E-10         0.00000E+00
    0.58829E-07        -0.22513E-10         0.00000E+00
    0.58826E-07        -0.17689E-10         0.00000E+00
    0.58823E-07        -0.11704E-10         0.00000E+00
    0.58822E-07        -0.43742E-11         0.00000E+00
    0.60685E-07        -0.39140E-11         0.00000E+00
    0.60685E-07        -0.11524E-10         0.00000E+00
    0.60684E-07        -0.18791E-10         0.00000E+00
    0.60683E-07        -0.25692E-10         0.00000E+00
    0.60682E-07        -0.32206E-10         0.00000E+00
    0.60680E-07        -0.38316E-10         0.00000E+00
    0.60678E-07        -0.44003E-10         0.00000E+00
    0.60676E-07        -0.49254E-10         0.00000E+00
    0.60674E-07        -0.54054E-10         0.00000E+00
    0.60671E-07        -0.58391E-10         0.00000E+00
    0.60668E-07        -0.62254E-10         0.00000E+00
    0.60665E-07        -0.65633E-10         0.00000E+00
    0.60661E-07        -0.68518E-10         0.00000E+00
    0.60658E-07        -0.70904E-10         0.00000E+00
    0.60654E-07        -0.72785E-10         0.00000E+00
    0.60650E-07        -0.74157E-10         0.00000E+00
    0.60646E-07        -0.75018E-10         0.00000E+00
    0.60641E-07        -0.75367E-10         0.00000E+00
    0.60636E-07        -0.75207E-10         0.00000E+00
    0.60631E-07        -0.74541E-10         0.00000E+00
    0.60626E-07        -0.73376E-10         0.00000E+00
    0.60620E-07        -0.71720E-10         0.00000E+00
    0.60614E-07        -0.69584E-10         0.00000E+00
    0.60608E-07        -0.66984E-10         0.00000E+00
    0.60601E-07        -0.63935E-10         0.00000E+00
    0.60595E-07        -0.60460E-10         0.00000E+00
    0.60587E-07        -0.56583E-10         0.00000E+00
    0.60580E-07        -0.52332E-10         0.00000E+00
    0.60572E-07        -0.47742E-10         0.00000E+00
    0.60564E-07        -0.42849E-10         0.00000E+00
    0.60555E-07        -0.37698E-10         0.00000E+00
    0.60546E-07        -0.32333E-10         0.00000E+00
    0.60537E-07        -0.26810E-10         0.00000E+00
    0.60527E-07        -0.21190E-10         0.00000E+00
    0.60516E-07        -0.15542E-10         0.00000E+00
    0.60506E-07        -0.99508E-11         0.00000E+00
    0.60494E-07        -0.45144E-11         0.00000E+00
    0.60483E-07         0.64898E-12         0.00000E+00
    0.60471E-07         0.54292E-11         0.00000E+00
    0.60458E-07         0.97003E-11         0.00000E+00
    0.60445E-07         0.13348E-10         0.00000E+00
    0.60433E-07         0.16273E-10         0.00000E+00
    0.60419E-07         0.18383E-10         0.00000E+00
    0.60406E-07         0.19453E-10         0.00000E+00
    0.60393E-07         0.19228E-10         0.00000E+00
    0.60381E-07         0.17440E-10         0.00000E+00
    0.60370E-07         0.13842E-10         0.00000E+00
    0.60362E-07         0.88674E-11         0.00000E+00
    0.60356E-07         0.37698E-11         0.00000E+00
    0.60353E-07         0.39473E-12         0.00000E+00
    0.62236E-07        -0.31356E-11         0.00000E+00
    0.62236E-07        -0.92447E-11         0.00000E+00
    0.62235E-07        -0.15086E-10         0.00000E+00
    0.62234E-07        -0.20632E-10         0.00000E+00
    0.62233E-07        -0.25857E-10         0.00000E+00
    0.62232E-07        -0.30738E-10         0.00000E+00
    0.62231E-07        -0.35253E-10         0.00000E+00
    0.62229E-07        -0.39378E-10         0.00000E+00
    0.62227E-07        -0.43093E-10         0.00000E+00
    0.62226E-07        -0.46377E-10         0.00000E+00
    0.62223E-07        -0.49210E-10         0.00000E+00
    0.62221E-07        -0.51574E-10         0.00000E+00
    0.62219E-07        -0.53452E-10         0.00000E+00
    0.62216E-07        -0.54829E-10         0.00000E+00
    0.62213E-07        -0.55690E-10         0.00000E+00
    0.62210E-07        -0.56024E-10         0.00000E+00
    0.62207E-07        -0.55820E-10         0.00000E+00
    0.62204E-07        -0.55071E-10         0.00000E+00
    0.62200E-07        -0.53773E-10         0.00000E+00
    0.62197E-07        -0.51921E-10         0.00000E+00
    0.62193E-07        -0.49515E-10         0.00000E+00
    0.62189E-07        -0.46560E-10         0.00000E+00
    0.62184E-07        -0.43061E-10         0.00000E+00
    0.62179E-07        -0.39028E-10         0.00000E+00
    0.62174E-07        -0.34469E-10         0.00000E+00
    0.62169E-07        -0.29402E-10         0.00000E+00
    0.62164E-07        -0.23844E-10         0.00000E+00
    0.62158E-07        -0.17817E-10         0.00000E+00
    0.62151E-07        -0.11351E-10         0.00000E+00
    0.62145E-07        -0.44784E-11         0.00000E+00
    0.62137E-07         0.27593E-11         0.00000E+00
    0.62130E-07         0.10301E-10         0.00000E+00
    0.62122E-07         0.18097E-10         0.00000E+00
    0.62113E-07         0.26078E-10         0.00000E+00
    0.62104E-07         0.34173E-10         0.00000E+00
    0.62095E-07         0.42318E-10         0.00000E+00
    0.62084E-07         0.50447E-10         0.00000E+00
    0.62074E-07         0.58506E-10         0.00000E+00
    0.62062E-07         0.66318E-10         0.00000E+00
    0.62049E-07         0.73670E-10         0.00000E+00
    0.62036E-07         0.80279E-10         0.00000E+00
    0.62022E-07         0.85722E-10         0.00000E+00
    0.62007E-07         0.89471E-10         0.00000E+00
    0.61991E-07         0.91479E-10         0.00000E+00
    0.61975E-07         0.91747E-10         0.00000E+00
    0.61958E-07         0.89897E-10         0.00000E+00
    0.61940E-07         0.85645E-10         0.00000E+00
    0.61921E-07         0.76734E-10         0.00000E+00
    0.61902E-07         0.58869E-10         0.00000E+00
    0.61889E-07         0.23361E-10         0.00000E+00
    0.63760E-07        -0.26198E-11         0.00000E+00
    0.63760E-07        -0.77217E-11         0.00000E+00
    0.63759E-07        -0.12615E-10         0.00000E+00
    0.63759E-07        -0.17286E-10         0.00000E+00
    0.63758E-07        -0.21705E-10         0.00000E+00
    0.63758E-07        -0.25840E-10         0.00000E+00
    0.63757E-07        -0.29660E-10         0.00000E+00
    0.63756E-07        -0.33135E-10         0.00000E+00
    0.63755E-07        -0.36234E-10         0.00000E+00
    0.63755E-07        -0.38927E-10         0.00000E+00
    0.63754E-07        -0.41185E-10         0.00000E+00
    0.63752E-07        -0.42979E-10         0.00000E+00
    0.63751E-07        -0.44281E-10         0.00000E+00
    0.63750E-07        -0.45066E-10         0.00000E+00
    0.63749E-07        -0.45310E-10         0.00000E+00
    0.63748E-07        -0.44992E-10         0.00000E+00
    0.63746E-07        -0.44092E-10         0.00000E+00
    0.63745E-07        -0.42595E-10         0.00000E+00
    0.63743E-07        -0.40488E-10         0.00000E+00
    0.63741E-07        -0.37764E-10         0.00000E+00
    0.63739E-07        -0.34416E-10         0.00000E+00
    0.63737E-07        -0.30440E-10         0.00000E+00
    0.63735E-07        -0.25836E-10         0.00000E+00
    0.63733E-07        -0.20607E-10         0.00000E+00
    0.63730E-07        -0.14775E-10         0.00000E+00
    0.63727E-07        -0.83491E-11         0.00000E+00
    0.63724E-07        -0.13454E-11         0.00000E+00
    0.63721E-07         0.62115E-11         0.00000E+00
    0.63717E-07         0.14310E-10         0.00000E+00
    0.63713E-07         0.22926E-10         0.00000E+00
    0.63709E-07         0.32041E-10         0.00000E+00
    0.63704E-07         0.41676E-10         0.00000E+00
    0.63699E-07         0.51770E-10         0.00000E+00
    0.63694E-07         0.62256E-10         0.00000E+00
    0.63688E-07         0.73071E-10         0.00000E+00
    0.63681E-07         0.84083E-10         0.00000E+00
    0.63674E-07         0.95059E-10         0.00000E+00
    0.63667E-07         0.10568E-09         0.00000E+00
    0.63659E-07         0.11608E-09         0.00000E+00
    0.63651E-07         0.12642E-09         0.00000E+00
    0.63643E-07         0.13661E-09         0.00000E+00
    0.63634E-07         0.14689E-09         0.00000E+00
    0.63623E-07         0.15779E-09         0.00000E+00
    0.63609E-07         0.16753E-09         0.00000E+00
    0.63594E-07         0.17321E-09         0.00000E+00
    0.63578E-07         0.17009E-09         0.00000E+00
    0.63566E-07         0.15490E-09         0.00000E+00
    0.63562E-07         0.12761E-09         0.00000E+00
    0.63564E-07         0.88308E-10         0.00000E+00
    0.63569E-07         0.32990E-10         0.00000E+00
    0.65250E-07        -0.23256E-11         0.00000E+00
    0.65250E-07        -0.69820E-11         0.00000E+00
    0.65250E-07        -0.11561E-10         0.00000E+00
    0.65250E-07        -0.15987E-10         0.00000E+00
    0.65250E-07        -0.20231E-10         0.00000E+00
    0.65250E-07        -0.24265E-10         0.00000E+00
    0.65250E-07        -0.28054E-10         0.00000E+00
    0.65250E-07        -0.31554E-10         0.00000E+00
    0.65250E-07        -0.34717E-10         0.00000E+00
    0.65251E-07        -0.37492E-10         0.00000E+00
    0.65251E-07        -0.39827E-10         0.00000E+00
    0.65252E-07        -0.41674E-10         0.00000E+00
    0.65252E-07        -0.42986E-10         0.00000E+00
    0.65253E-07        -0.43724E-10         0.00000E+00
    0.65254E-07        -0.43853E-10         0.00000E+00
    0.65254E-07        -0.43351E-10         0.00000E+00
    0.65255E-07        -0.42197E-10         0.00000E+00
    0.65256E-07        -0.40371E-10         0.00000E+00
    0.65256E-07        -0.37864E-10         0.00000E+00
    0.65257E-07        -0.34658E-10         0.00000E+00
    0.65257E-07        -0.30743E-10         0.00000E+00
    0.65258E-07        -0.26124E-10         0.00000E+00
    0.65258E-07        -0.20810E-10         0.00000E+00
    0.65259E-07        -0.14803E-10         0.00000E+00
    0.65259E-07        -0.80614E-11         0.00000E+00
    0.65259E-07        -0.60960E-12         0.00000E+00
    0.65258E-07         0.75233E-11         0.00000E+00
    0.65258E-07         0.16342E-10         0.00000E+00
    0.65257E-07         0.25804E-10         0.00000E+00
    0.65256E-07         0.35872E-10         0.00000E+00
    0.65255E-07         0.46439E-10         0.00000E+00
    0.65254E-07         0.57240E-10         0.00000E+00
    0.65252E-07         0.68394E-10         0.00000E+00
    0.65251E-07         0.80052E-10         0.00000E+00
    0.65249E-07         0.92077E-10         0.00000E+00
    0.65248E-07         0.10450E-09         0.00000E+00
    0.65246E-07         0.11794E-09         0.00000E+00
    0.65244E-07         0.13329E-09         0.00000E+00
    0.65239E-07         0.14921E-09         0.00000E+00
    0.65233E-07         0.16443E-09         0.00000E+00
    0.65226E-07         0.17605E-09         0.00000E+00
    0.65220E-07         0.18056E-09         0.00000E+00
    0.65220E-07         0.18037E-09         0.00000E+00
    0.65228E-07         0.17457E-09         0.00000E+00
    0.65244E-07         0.16304E-09         0.00000E+00
    0.65266E-07         0.14462E-09         0.00000E+00
    0.65291E-07         0.11568E-09         0.00000E+00
    0.65313E-07         0.79845E-10         0.00000E+00
    0.65329E-07         0.43744E-10         0.00000E+00
    0.65337E-07         0.13510E-10         0.00000E+00
    0.66698E-07        -0.25086E-11         0.00000E+00
    0.66698E-07        -0.73268E-11         0.00000E+00
    0.66698E-07        -0.12077E-10         0.00000E+00
    0.66699E-07        -0.16921E-10         0.00000E+00
    0.66699E-07        -0.21833E-10         0.00000E+00
    0.66700E-07        -0.26732E-10         0.00000E+00
    0.66701E-07        -0.31521E-10         0.00000E+00
    0.66703E-07        -0.36093E-10         0.00000E+00
    0.66704E-07        -0.40334E-10         0.00000E+00
    0.66707E-07        -0.44134E-10         0.00000E+00
    0.66709E-07        -0.47394E-10         0.00000E+00
    0.66712E-07        -0.50031E-10         0.00000E+00
    0.66715E-07        -0.51978E-10         0.00000E+00
    0.66718E-07        -0.53188E-10         0.00000E+00
    0.66721E-07        -0.53625E-10         0.00000E+00
    0.66724E-07        -0.53249E-10         0.00000E+00
    0.66727E-07        -0.52055E-10         0.00000E+00
    0.66730E-07        -0.50061E-10         0.00000E+00
    0.66734E-07        -0.47271E-10         0.00000E+00
    0.66737E-07        -0.43708E-10         0.00000E+00
    0.66740E-07        -0.39383E-10         0.00000E+00
    0.66743E-07        -0.34274E-10         0.00000E+00
    0.66745E-07        -0.28359E-10         0.00000E+00
    0.66748E-07        -0.21670E-10         0.00000E+00
    0.66750E-07        -0.14401E-10         0.00000E+00
    0.66753E-07        -0.64749E-11         0.00000E+00
    0.66755E-07         0.22085E-11         0.00000E+00
    0.66758E-07         0.11442E-10         0.00000E+00
    0.66760E-07         0.21102E-10         0.00000E+00
    0.66763E-07         0.31289E-10         0.00000E+00
    0.66766E-07         0.42651E-10         0.00000E+00
    0.66769E-07         0.56319E-10         0.00000E+00
    0.66770E-07         0.71434E-10         0.00000E+00
    0.66769E-07         0.86946E-10         0.00000E+00
    0.66767E-07         0.10192E-09         0.00000E+00
    0.66765E-07         0.11387E-09         0.00000E+00
    0.66764E-07         0.12192E-09         0.00000E+00
    0.66766E-07         0.12838E-09         0.00000E+00
    0.66775E-07         0.13214E-09         0.00000E+00
    0.66791E-07         0.13277E-09         0.00000E+00
    0.66814E-07         0.12999E-09         0.00000E+00
    0.66841E-07         0.11937E-09         0.00000E+00
    0.66869E-07         0.10192E-09         0.00000E+00
    0.66896E-07         0.80109E-10         0.00000E+00
    0.66920E-07         0.57481E-10         0.00000E+00
    0.66940E-07         0.37503E-10         0.00000E+00
    0.66955E-07         0.20646E-10         0.00000E+00
    0.66967E-07         0.82235E-11         0.00000E+00
    0.66974E-07         0.13093E-11         0.00000E+00
    0.66977E-07        -0.20984E-12         0.00000E+00
    0.68095E-07        -0.20686E-11         0.00000E+00
    0.68095E-07        -0.74252E-11         0.00000E+00
    0.68095E-07        -0.13962E-10         0.00000E+00
    0.68096E-07        -0.21086E-10         0.00000E+00
    0.68098E-07        -0.28587E-10         0.00000E+00
    0.68100E-07        -0.36254E-10         0.00000E+00
    0.68104E-07        -0.43809E-10         0.00000E+00
    0.68108E-07        -0.50987E-10         0.00000E+00
    0.68112E-07        -0.57565E-10         0.00000E+00
    0.68117E-07        -0.63364E-10         0.00000E+00
    0.68123E-07        -0.68244E-10         0.00000E+00
    0.68129E-07        -0.72098E-10         0.00000E+00
    0.68135E-07        -0.74844E-10         0.00000E+00
    0.68141E-07        -0.76434E-10         0.00000E+00
    0.68147E-07        -0.76874E-10         0.00000E+00
    0.68153E-07        -0.76277E-10         0.00000E+00
    0.68159E-07        -0.74680E-10         0.00000E+00
    0.68165E-07        -0.72086E-10         0.00000E+00
    0.68170E-07        -0.68699E-10         0.00000E+00
    0.68176E-07        -0.64725E-10         0.00000E+00
    0.68181E-07        -0.60272E-10         0.00000E+00
    0.68187E-07        -0.55295E-10         0.00000E+00
    0.68192E-07        -0.49507E-10         0.00000E+00
    0.68198E-07        -0.42337E-10         0.00000E+00
    0.68203E-07        -0.32823E-10         0.00000E+00
    0.68208E-07        -0.21599E-10         0.00000E+00
    0.68211E-07        -0.95925E-11         0.00000E+00
    0.68212E-07         0.32790E-11         0.00000E+00
    0.68212E-07         0.15372E-10         0.00000E+00
    0.68212E-07         0.25637E-10         0.00000E+00
    0.68212E-07         0.34597E-10         0.00000E+00
    0.68213E-07         0.43570E-10         0.00000E+00
    0.68219E-07         0.52108E-10         0.00000E+00
    0.68229E-07         0.58632E-10         0.00000E+00
    0.68244E-07         0.63877E-10         0.00000E+00
    0.68264E-07         0.66415E-10         0.00000E+00
    0.68286E-07         0.62888E-10         0.00000E+00
    0.68310E-07         0.54181E-10         0.00000E+00
    0.68334E-07         0.41954E-10         0.00000E+00
    0.68357E-07         0.27814E-10         0.00000E+00
    0.68378E-07         0.14263E-10         0.00000E+00
    0.68398E-07         0.15264E-11         0.00000E+00
    0.68416E-07        -0.10342E-10         0.00000E+00
    0.68431E-07        -0.19945E-10         0.00000E+00
    0.68444E-07        -0.26677E-10         0.00000E+00
    0.68455E-07        -0.30413E-10         0.00000E+00
    0.68463E-07        -0.30489E-10         0.00000E+00
    0.68469E-07        -0.26681E-10         0.00000E+00
    0.68473E-07        -0.18928E-10         0.00000E+00
    0.68475E-07        -0.69503E-11         0.00000E+00
    0.69420E-07        -0.61353E-11         0.00000E+00
    0.69423E-07        -0.18195E-10         0.00000E+00
    0.69428E-07        -0.28678E-10         0.00000E+00
    0.69434E-07        -0.40305E-10         0.00000E+00
    0.69441E-07        -0.52832E-10         0.00000E+00
    0.69449E-07        -0.65091E-10         0.00000E+00
    0.69458E-07        -0.76434E-10         0.00000E+00
    0.69468E-07        -0.86517E-10         0.00000E+00
    0.69478E-07        -0.95172E-10         0.00000E+00
    0.69488E-07        -0.10233E-09         0.00000E+00
    0.69498E-07        -0.10798E-09         0.00000E+00
    0.69508E-07        -0.11212E-09         0.00000E+00
    0.69518E-07        -0.11473E-09         0.00000E+00
    0.69528E-07        -0.11575E-09         0.00000E+00
    0.69537E-07        -0.11501E-09         0.00000E+00
    0.69546E-07        -0.11214E-09         0.00000E+00
    0.69554E-07        -0.10747E-09         0.00000E+00
    0.69560E-07        -0.10160E-09         0.00000E+00
    0.69566E-07        -0.94607E-10         0.00000E+00
    0.69570E-07        -0.87381E-10         0.00000E+00
    0.69573E-07        -0.80416E-10         0.00000E+00
    0.69576E-07        -0.73183E-10         0.00000E+00
    0.69577E-07        -0.65433E-10         0.00000E+00
    0.69577E-07        -0.57101E-10         0.00000E+00
    0.69578E-07        -0.48039E-10         0.00000E+00
    0.69580E-07        -0.38536E-10         0.00000E+00
    0.69584E-07        -0.29869E-10         0.00000E+00
    0.69592E-07        -0.21284E-10         0.00000E+00
    0.69602E-07        -0.12671E-10         0.00000E+00
    0.69615E-07        -0.61908E-11         0.00000E+00
    0.69629E-07        -0.34257E-11         0.00000E+00
    0.69644E-07        -0.47863E-11         0.00000E+00
    0.69661E-07        -0.89274E-11         0.00000E+00
    0.69678E-07        -0.15453E-10         0.00000E+00
    0.69695E-07        -0.22997E-10         0.00000E+00
    0.69712E-07        -0.30393E-10         0.00000E+00
    0.69729E-07        -0.38667E-10         0.00000E+00
    0.69746E-07        -0.47725E-10         0.00000E+00
    0.69762E-07        -0.56356E-10         0.00000E+00
    0.69777E-07        -0.63911E-10         0.00000E+00
    0.69791E-07        -0.70258E-10         0.00000E+00
    0.69803E-07        -0.74778E-10         0.00000E+00
    0.69814E-07        -0.76940E-10         0.00000E+00
    0.69823E-07        -0.76625E-10         0.00000E+00
    0.69831E-07        -0.73620E-10         0.00000E+00
    0.69837E-07        -0.67621E-10         0.00000E+00
    0.69842E-07        -0.58492E-10         0.00000E+00
    0.69846E-07        -0.46048E-10         0.00000E+00
    0.69848E-07        -0.30105E-10         0.00000E+00
    0.69849E-07        -0.10577E-10         0.00000E+00
    0.70677E-07        -0.22081E-10         0.00000E+00
    0.70685E-07        -0.58384E-10         0.00000E+00
    0.70699E-07        -0.82623E-10         0.00000E+00
    0.70716E-07        -0.10168E-09         0.00000E+00
    0.70734E-07        -0.11766E-09         0.00000E+00
    0.70752E-07        -0.13083E-09         0.00000E+00
    0.70770E-07        -0.14135E-09         0.00000E+00
    0.70785E-07        -0.14940E-09         0.00000E+00
    0.70800E-07        -0.15513E-09         0.00000E+00
    0.70813E-07        -0.15867E-09         0.00000E+00
    0.70825E-07        -0.16016E-09         0.00000E+00
    0.70835E-07        -0.15971E-09         0.00000E+00
    0.70843E-07        -0.15743E-09         0.00000E+00
    0.70849E-07        -0.15338E-09         0.00000E+00
    0.70854E-07        -0.14760E-09         0.00000E+00
    0.70857E-07        -0.14005E-09         0.00000E+00
    0.70860E-07        -0.13216E-09         0.00000E+00
    0.70863E-07        -0.12452E-09         0.00000E+00
    0.70866E-07        -0.11680E-09         0.00000E+00
    0.70871E-07        -0.10877E-09         0.00000E+00
    0.70876E-07        -0.99793E-10         0.00000E+00
    0.70881E-07        -0.90373E-10         0.00000E+00
    0.70886E-07        -0.81386E-10         0.00000E+00
    0.70892E-07        -0.74012E-10         0.00000E+00
    0.70900E-07        -0.69664E-10         0.00000E+00
    0.70907E-07        -0.67484E-10         0.00000E+00
    0.70916E-07        -0.66967E-10         0.00000E+00
    0.70925E-07        -0.67788E-10         0.00000E+00
    0.70936E-07        -0.68644E-10         0.00000E+00
    0.70947E-07        -0.70274E-10         0.00000E+00
    0.70960E-07        -0.73717E-10         0.00000E+00
    0.70973E-07        -0.79107E-10         0.00000E+00
    0.70987E-07        -0.85626E-10         0.00000E+00
    0.71001E-07        -0.92428E-10         0.00000E+00
    0.71014E-07        -0.99401E-10         0.00000E+00
    0.71028E-07        -0.10632E-09         0.00000E+00
    0.71040E-07        -0.11249E-09         0.00000E+00
    0.71052E-07        -0.11751E-09         0.00000E+00
    0.71063E-07        -0.12124E-09         0.00000E+00
    0.71073E-07        -0.12342E-09         0.00000E+00
    0.71082E-07        -0.12370E-09         0.00000E+00
    0.71090E-07        -0.12186E-09         0.00000E+00
    0.71096E-07        -0.11774E-09         0.00000E+00
    0.71102E-07        -0.11114E-09         0.00000E+00
    0.71107E-07        -0.10191E-09         0.00000E+00
    0.71111E-07        -0.89972E-10         0.00000E+00
    0.71114E-07        -0.75191E-10         0.00000E+00
    0.71116E-07        -0.57455E-10         0.00000E+00
    0.71117E-07        -0.36664E-10         0.00000E+00
    0.71118E-07        -0.12719E-10         0.00000E+00
    0.71988E-07        -0.33802E-10         0.00000E+00
    0.71989E-07        -0.90638E-10         0.00000E+00
    0.71991E-07        -0.13246E-09         0.00000E+00
    0.71996E-07        -0.16254E-09         0.00000E+00
    0.72004E-07        -0.18359E-09         0.00000E+00
    0.72012E-07        -0.19769E-09         0.00000E+00
    0.72021E-07        -0.20631E-09         0.00000E+00
    0.72031E-07        -0.21050E-09         0.00000E+00
    0.72039E-07        -0.21105E-09         0.00000E+00
    0.72048E-07        -0.20856E-09         0.00000E+00
    0.72055E-07        -0.20351E-09         0.00000E+00
    0.72061E-07        -0.19636E-09         0.00000E+00
    0.72066E-07        -0.18753E-09         0.00000E+00
    0.72070E-07        -0.17753E-09         0.00000E+00
    0.72074E-07        -0.16700E-09         0.00000E+00
    0.72078E-07        -0.15683E-09         0.00000E+00
    0.72082E-07        -0.14841E-09         0.00000E+00
    0.72086E-07        -0.14154E-09         0.00000E+00
    0.72090E-07        -0.13559E-09         0.00000E+00
    0.72093E-07        -0.12983E-09         0.00000E+00
    0.72097E-07        -0.12356E-09         0.00000E+00
    0.72102E-07        -0.11773E-09         0.00000E+00
    0.72109E-07        -0.11322E-09         0.00000E+00
    0.72116E-07        -0.11067E-09         0.00000E+00
    0.72125E-07        -0.11037E-09         0.00000E+00
    0.72134E-07        -0.11190E-09         0.00000E+00
    0.72143E-07        -0.11453E-09         0.00000E+00
    0.72154E-07        -0.11816E-09         0.00000E+00
    0.72164E-07        -0.12292E-09         0.00000E+00
    0.72175E-07        -0.12843E-09         0.00000E+00
    0.72187E-07        -0.13426E-09         0.00000E+00
    0.72197E-07        -0.14013E-09         0.00000E+00
    0.72208E-07        -0.14590E-09         0.00000E+00
    0.72218E-07        -0.15136E-09         0.00000E+00
    0.72227E-07        -0.15617E-09         0.00000E+00
    0.72236E-07        -0.15997E-09         0.00000E+00
    0.72244E-07        -0.16258E-09         0.00000E+00
    0.72252E-07        -0.16376E-09         0.00000E+00
    0.72258E-07        -0.16333E-09         0.00000E+00
    0.72265E-07        -0.16111E-09         0.00000E+00
    0.72270E-07        -0.15701E-09         0.00000E+00
    0.72275E-07        -0.15089E-09         0.00000E+00
    0.72279E-07        -0.14261E-09         0.00000E+00
    0.72282E-07        -0.13202E-09         0.00000E+00
    0.72285E-07        -0.11901E-09         0.00000E+00
    0.72287E-07        -0.10345E-09         0.00000E+00
    0.72289E-07        -0.85243E-10         0.00000E+00
    0.72290E-07        -0.64312E-10         0.00000E+00
    0.72291E-07        -0.40581E-10         0.00000E+00
    0.72291E-07        -0.13981E-10         0.00000E+00
    0.73268E-07        -0.30628E-10         0.00000E+00
    0.73266E-07        -0.84200E-10         0.00000E+00
    0.73261E-07        -0.12843E-09         0.00000E+00
    0.73255E-07        -0.16323E-09         0.00000E+00
    0.73250E-07        -0.18917E-09         0.00000E+00
    0.73244E-07        -0.20717E-09         0.00000E+00
    0.73239E-07        -0.21835E-09         0.00000E+00
    0.73235E-07        -0.22381E-09         0.00000E+00
    0.73231E-07        -0.22462E-09         0.00000E+00
    0.73229E-07        -0.22175E-09         0.00000E+00
    0.73227E-07        -0.21609E-09         0.00000E+00
    0.73226E-07        -0.20847E-09         0.00000E+00
    0.73225E-07        -0.19966E-09         0.00000E+00
    0.73226E-07        -0.19041E-09         0.00000E+00
    0.73227E-07        -0.18138E-09         0.00000E+00
    0.73230E-07        -0.17319E-09         0.00000E+00
    0.73232E-07        -0.16620E-09         0.00000E+00
    0.73236E-07        -0.16037E-09         0.00000E+00
    0.73240E-07        -0.15542E-09         0.00000E+00
    0.73245E-07        -0.15155E-09         0.00000E+00
    0.73250E-07        -0.14904E-09         0.00000E+00
    0.73256E-07        -0.14781E-09         0.00000E+00
    0.73263E-07        -0.14780E-09         0.00000E+00
    0.73270E-07        -0.14894E-09         0.00000E+00
    0.73277E-07        -0.15112E-09         0.00000E+00
    0.73285E-07        -0.15427E-09         0.00000E+00
    0.73292E-07        -0.15831E-09         0.00000E+00
    0.73300E-07        -0.16297E-09         0.00000E+00
    0.73307E-07        -0.16791E-09         0.00000E+00
    0.73314E-07        -0.17292E-09         0.00000E+00
    0.73320E-07        -0.17774E-09         0.00000E+00
    0.73327E-07        -0.18216E-09         0.00000E+00
    0.73332E-07        -0.18596E-09         0.00000E+00
    0.73338E-07        -0.18897E-09         0.00000E+00
    0.73343E-07        -0.19104E-09         0.00000E+00
    0.73348E-07        -0.19203E-09         0.00000E+00
    0.73352E-07        -0.19177E-09         0.00000E+00
    0.73355E-07        -0.19012E-09         0.00000E+00
    0.73359E-07        -0.18690E-09         0.00000E+00
    0.73361E-07        -0.18199E-09         0.00000E+00
    0.73364E-07        -0.17523E-09         0.00000E+00
    0.73366E-07        -0.16652E-09         0.00000E+00
    0.73368E-07        -0.15574E-09         0.00000E+00
    0.73369E-07        -0.14279E-09         0.00000E+00
    0.73370E-07        -0.12758E-09         0.00000E+00
    0.73371E-07        -0.11003E-09         0.00000E+00
    0.73372E-07        -0.90024E-10         0.00000E+00
    0.73372E-07        -0.67494E-10         0.00000E+00
    0.73372E-07        -0.42358E-10         0.00000E+00
    0.73372E-07        -0.14541E-10         0.00000E+00
    0.74476E-07        -0.21622E-10         0.00000E+00
    0.74473E-07        -0.60289E-10         0.00000E+00
    0.74465E-07        -0.93698E-10         0.00000E+00
    0.74456E-07        -0.12182E-09         0.00000E+00
    0.74445E-07        -0.14467E-09         0.00000E+00
    0.74432E-07        -0.16240E-09         0.00000E+00
    0.74420E-07        -0.17534E-09         0.00000E+00
    0.74407E-07        -0.18399E-09         0.00000E+00
    0.74396E-07        -0.18892E-09         0.00000E+00
    0.74385E-07        -0.19080E-09         0.00000E+00
    0.74376E-07        -0.19032E-09         0.00000E+00
    0.74368E-07        -0.18814E-09         0.00000E+00
    0.74361E-07        -0.18488E-09         0.00000E+00
    0.74355E-07        -0.18106E-09         0.00000E+00
    0.74351E-07        -0.17715E-09         0.00000E+00
    0.74348E-07        -0.17346E-09         0.00000E+00
    0.74346E-07        -0.17024E-09         0.00000E+00
    0.74345E-07        -0.16773E-09         0.00000E+00
    0.74345E-07        -0.16613E-09         0.00000E+00
    0.74345E-07        -0.16548E-09         0.00000E+00
    0.74346E-07        -0.16574E-09         0.00000E+00
    0.74347E-07        -0.16687E-09         0.00000E+00
    0.74348E-07        -0.16878E-09         0.00000E+00
    0.74350E-07        -0.17135E-09         0.00000E+00
    0.74351E-07        -0.17448E-09         0.00000E+00
    0.74353E-07        -0.17803E-09         0.00000E+00
    0.74355E-07        -0.18186E-09         0.00000E+00
    0.74357E-07        -0.18583E-09         0.00000E+00
    0.74359E-07        -0.18982E-09         0.00000E+00
    0.74361E-07        -0.19366E-09         0.00000E+00
    0.74362E-07        -0.19717E-09         0.00000E+00
    0.74363E-07        -0.20018E-09         0.00000E+00
    0.74364E-07        -0.20252E-09         0.00000E+00
    0.74365E-07        -0.20404E-09         0.00000E+00
    0.74366E-07        -0.20459E-09         0.00000E+00
    0.74366E-07        -0.20401E-09         0.00000E+00
    0.74367E-07        -0.20219E-09         0.00000E+00
    0.74367E-07        -0.19900E-09         0.00000E+00
    0.74367E-07        -0.19433E-09         0.00000E+00
    0.74367E-07        -0.18804E-09         0.00000E+00
    0.74366E-07        -0.18004E-09         0.00000E+00
    0.74366E-07        -0.17022E-09         0.00000E+00
    0.74366E-07        -0.15846E-09         0.00000E+00
    0.74365E-07        -0.14467E-09         0.00000E+00
    0.74365E-07        -0.12875E-09         0.00000E+00
    0.74364E-07        -0.11064E-09         0.00000E+00
    0.74364E-07        -0.90226E-10         0.00000E+00
    0.74363E-07        -0.67445E-10         0.00000E+00
    0.74363E-07        -0.42216E-10         0.00000E+00
    0.74363E-07        -0.14464E-10         0.00000E+00
    0.75580E-07        -0.11861E-10         0.00000E+00
    0.75577E-07        -0.33461E-10         0.00000E+00
    0.75570E-07        -0.52743E-10         0.00000E+00
    0.75561E-07        -0.69746E-10         0.00000E+00
    0.75550E-07        -0.84524E-10         0.00000E+00
    0.75537E-07        -0.97141E-10         0.00000E+00
    0.75523E-07        -0.10768E-09         0.00000E+00
    0.75509E-07        -0.11628E-09         0.00000E+00
    0.75494E-07        -0.12311E-09         0.00000E+00
    0.75479E-07        -0.12838E-09         0.00000E+00
    0.75464E-07        -0.13235E-09         0.00000E+00
    0.75450E-07        -0.13528E-09         0.00000E+00
    0.75436E-07        -0.13742E-09         0.00000E+00
    0.75424E-07        -0.13904E-09         0.00000E+00
    0.75412E-07        -0.14036E-09         0.00000E+00
    0.75402E-07        -0.14159E-09         0.00000E+00
    0.75392E-07        -0.14292E-09         0.00000E+00
    0.75383E-07        -0.14451E-09         0.00000E+00
    0.75375E-07        -0.14644E-09         0.00000E+00
    0.75367E-07        -0.14879E-09         0.00000E+00
    0.75360E-07        -0.15160E-09         0.00000E+00
    0.75354E-07        -0.15484E-09         0.00000E+00
    0.75348E-07        -0.15848E-09         0.00000E+00
    0.75343E-07        -0.16244E-09         0.00000E+00
    0.75338E-07        -0.16665E-09         0.00000E+00
    0.75333E-07        -0.17100E-09         0.00000E+00
    0.75328E-07        -0.17538E-09         0.00000E+00
    0.75324E-07        -0.17967E-09         0.00000E+00
    0.75320E-07        -0.18376E-09         0.00000E+00
    0.75315E-07        -0.18753E-09         0.00000E+00
    0.75311E-07        -0.19087E-09         0.00000E+00
    0.75308E-07        -0.19364E-09         0.00000E+00
    0.75304E-07        -0.19573E-09         0.00000E+00
    0.75300E-07        -0.19700E-09         0.00000E+00
    0.75297E-07        -0.19733E-09         0.00000E+00
    0.75293E-07        -0.19658E-09         0.00000E+00
    0.75290E-07        -0.19465E-09         0.00000E+00
    0.75287E-07        -0.19140E-09         0.00000E+00
    0.75284E-07        -0.18673E-09         0.00000E+00
    0.75281E-07        -0.18054E-09         0.00000E+00
    0.75278E-07        -0.17271E-09         0.00000E+00
    0.75276E-07        -0.16316E-09         0.00000E+00
    0.75273E-07        -0.15179E-09         0.00000E+00
    0.75271E-07        -0.13851E-09         0.00000E+00
    0.75269E-07        -0.12322E-09         0.00000E+00
    0.75268E-07        -0.10583E-09         0.00000E+00
    0.75266E-07        -0.86282E-10         0.00000E+00
    0.75265E-07        -0.64478E-10         0.00000E+00
    0.75265E-07        -0.40348E-10         0.00000E+00
    0.75264E-07        -0.13816E-10         0.00000E+00
    0.76556E-07        -0.33789E-11         0.00000E+00
    0.76553E-07        -0.95290E-11         0.00000E+00
    0.76547E-07        -0.15263E-10         0.00000E+00
    0.76539E-07        -0.20651E-10         0.00000E+00
    0.76528E-07        -0.25755E-10         0.00000E+00
    0.76516E-07        -0.30632E-10         0.00000E+00
    0.76502E-07        -0.35328E-10         0.00000E+00
    0.76487E-07        -0.39881E-10         0.00000E+00
    0.76471E-07        -0.44323E-10         0.00000E+00
    0.76454E-07        -0.48682E-10         0.00000E+00
    0.76437E-07        -0.52989E-10         0.00000E+00
    0.76420E-07        -0.57277E-10         0.00000E+00
    0.76402E-07        -0.61583E-10         0.00000E+00
    0.76385E-07        -0.65951E-10         0.00000E+00
    0.76368E-07        -0.70428E-10         0.00000E+00
    0.76352E-07        -0.75056E-10         0.00000E+00
    0.76335E-07        -0.79867E-10         0.00000E+00
    0.76320E-07        -0.84888E-10         0.00000E+00
    0.76305E-07        -0.90134E-10         0.00000E+00
    0.76290E-07        -0.95609E-10         0.00000E+00
    0.76277E-07        -0.10130E-09         0.00000E+00
    0.76263E-07        -0.10720E-09         0.00000E+00
    0.76251E-07        -0.11326E-09         0.00000E+00
    0.76238E-07        -0.11944E-09         0.00000E+00
    0.76227E-07        -0.12567E-09         0.00000E+00
    0.76216E-07        -0.13188E-09         0.00000E+00
    0.76205E-07        -0.13798E-09         0.00000E+00
    0.76195E-07        -0.14388E-09         0.00000E+00
    0.76185E-07        -0.14948E-09         0.00000E+00
    0.76176E-07        -0.15468E-09         0.00000E+00
    0.76167E-07        -0.15938E-09         0.00000E+00
    0.76158E-07        -0.16345E-09         0.00000E+00
    0.76150E-07        -0.16681E-09         0.00000E+00
    0.76142E-07        -0.16934E-09         0.00000E+00
    0.76135E-07        -0.17092E-09         0.00000E+00
    0.76128E-07        -0.17146E-09         0.00000E+00
    0.76122E-07        -0.17083E-09         0.00000E+00
    0.76116E-07        -0.16895E-09         0.00000E+00
    0.76110E-07        -0.16569E-09         0.00000E+00
    0.76105E-07        -0.16095E-09         0.00000E+00
    0.76100E-07        -0.15465E-09         0.00000E+00
    0.76096E-07        -0.14668E-09         0.00000E+00
    0.76092E-07        -0.13695E-09         0.00000E+00
    0.76088E-07        -0.12538E-09         0.00000E+00
    0.76085E-07        -0.11187E-09         0.00000E+00
    0.76083E-07        -0.96357E-10         0.00000E+00
    0.76080E-07        -0.78754E-10         0.00000E+00
    0.76079E-07        -0.58986E-10         0.00000E+00
    0.76078E-07        -0.36983E-10         0.00000E+00
    0.76077E-07        -0.12670E-10         0.00000E+00
    0.77387E-07         0.43190E-11         0.00000E+00
    0.77384E-07         0.12434E-10         0.00000E+00
    0.77378E-07         0.19485E-10         0.00000E+00
    0.77371E-07         0.25447E-10         0.00000E+00
    0.77361E-07         0.30298E-10         0.00000E+00
    0.77349E-07         0.34035E-10         0.00000E+00
    0.77335E-07         0.36657E-10         0.00000E+00
    0.77320E-07         0.38171E-10         0.00000E+00
    0.77304E-07         0.38600E-10         0.00000E+00
    0.77287E-07         0.37975E-10         0.00000E+00
    0.77269E-07         0.36342E-10         0.00000E+00
    0.77250E-07         0.33752E-10         0.00000E+00
    0.77231E-07         0.30263E-10         0.00000E+00
    0.77211E-07         0.25936E-10         0.00000E+00
    0.77192E-07         0.20839E-10         0.00000E+00
    0.77172E-07         0.15038E-10         0.00000E+00
    0.77152E-07         0.86019E-11         0.00000E+00
    0.77133E-07         0.15975E-11         0.00000E+00
    0.77114E-07        -0.59061E-11         0.00000E+00
    0.77095E-07        -0.13839E-10         0.00000E+00
    0.77077E-07        -0.22129E-10         0.00000E+00
    0.77059E-07        -0.30701E-10         0.00000E+00
    0.77042E-07        -0.39482E-10         0.00000E+00
    0.77025E-07        -0.48391E-10         0.00000E+00
    0.77009E-07        -0.57346E-10         0.00000E+00
    0.76993E-07        -0.66259E-10         0.00000E+00
    0.76978E-07        -0.75043E-10         0.00000E+00
    0.76963E-07        -0.83603E-10         0.00000E+00
    0.76950E-07        -0.91841E-10         0.00000E+00
    0.76936E-07        -0.99658E-10         0.00000E+00
    0.76924E-07        -0.10695E-09         0.00000E+00
    0.76912E-07        -0.11361E-09         0.00000E+00
    0.76901E-07        -0.11954E-09         0.00000E+00
    0.76890E-07        -0.12462E-09         0.00000E+00
    0.76880E-07        -0.12876E-09         0.00000E+00
    0.76870E-07        -0.13186E-09         0.00000E+00
    0.76862E-07        -0.13380E-09         0.00000E+00
    0.76853E-07        -0.13448E-09         0.00000E+00
    0.76846E-07        -0.13381E-09         0.00000E+00
    0.76839E-07        -0.13169E-09         0.00000E+00
    0.76832E-07        -0.12801E-09         0.00000E+00
    0.76827E-07        -0.12270E-09         0.00000E+00
    0.76821E-07        -0.11565E-09         0.00000E+00
    0.76817E-07        -0.10679E-09         0.00000E+00
    0.76813E-07        -0.96024E-10         0.00000E+00
    0.76810E-07        -0.83286E-10         0.00000E+00
    0.76807E-07        -0.68501E-10         0.00000E+00
    0.76805E-07        -0.51595E-10         0.00000E+00
    0.76804E-07        -0.32503E-10         0.00000E+00
    0.76803E-07        -0.11159E-10         0.00000E+00
    0.78060E-07         0.11627E-10         0.00000E+00
    0.78058E-07         0.33429E-10         0.00000E+00
    0.78052E-07         0.52831E-10         0.00000E+00
    0.78045E-07         0.69877E-10         0.00000E+00
    0.78035E-07         0.84618E-10         0.00000E+00
    0.78023E-07         0.97091E-10         0.00000E+00
    0.78010E-07         0.10735E-09         0.00000E+00
    0.77996E-07         0.11547E-09         0.00000E+00
    0.77980E-07         0.12153E-09         0.00000E+00
    0.77963E-07         0.12562E-09         0.00000E+00
    0.77945E-07         0.12784E-09         0.00000E+00
    0.77927E-07         0.12828E-09         0.00000E+00
    0.77907E-07         0.12705E-09         0.00000E+00
    0.77888E-07         0.12426E-09         0.00000E+00
    0.77868E-07         0.12004E-09         0.00000E+00
    0.77848E-07         0.11450E-09         0.00000E+00
    0.77828E-07         0.10777E-09         0.00000E+00
    0.77808E-07         0.99966E-10         0.00000E+00
    0.77788E-07         0.91230E-10         0.00000E+00
    0.77768E-07         0.81686E-10         0.00000E+00
    0.77748E-07         0.71460E-10         0.00000E+00
    0.77729E-07         0.60676E-10         0.00000E+00
    0.77711E-07         0.49459E-10         0.00000E+00
    0.77692E-07         0.37928E-10         0.00000E+00
    0.77675E-07         0.26204E-10         0.00000E+00
    0.77657E-07         0.14403E-10         0.00000E+00
    0.77641E-07         0.26395E-11         0.00000E+00
    0.77625E-07        -0.89729E-11         0.00000E+00
    0.77609E-07        -0.20322E-10         0.00000E+00
    0.77595E-07        -0.31296E-10         0.00000E+00
    0.77580E-07        -0.41784E-10         0.00000E+00
    0.77567E-07        -0.51676E-10         0.00000E+00
    0.77554E-07        -0.60863E-10         0.00000E+00
    0.77542E-07        -0.69235E-10         0.00000E+00
    0.77531E-07        -0.76684E-10         0.00000E+00
    0.77520E-07        -0.83101E-10         0.00000E+00
    0.77510E-07        -0.88378E-10         0.00000E+00
    0.77501E-07        -0.92410E-10         0.00000E+00
    0.77492E-07        -0.95093E-10         0.00000E+00
    0.77484E-07        -0.96326E-10         0.00000E+00
    0.77477E-07        -0.96013E-10         0.00000E+00
    0.77471E-07        -0.94061E-10         0.00000E+00
    0.77465E-07        -0.90378E-10         0.00000E+00
    0.77460E-07        -0.84881E-10         0.00000E+00
    0.77456E-07        -0.77485E-10         0.00000E+00
    0.77452E-07        -0.68113E-10         0.00000E+00
    0.77450E-07        -0.56688E-10         0.00000E+00
    0.77448E-07        -0.43142E-10         0.00000E+00
    0.77446E-07        -0.27413E-10         0.00000E+00
    0.77445E-07        -0.94479E-11         0.00000E+00
    0.78564E-07         0.18698E-10         0.00000E+00
    0.78561E-07         0.53666E-10         0.00000E+00
    0.78556E-07         0.84900E-10         0.00000E+00
    0.78549E-07         0.11247E-09         0.00000E+00
    0.78540E-07         0.13644E-09         0.00000E+00
    0.78529E-07         0.15699E-09         0.00000E+00
    0.78517E-07         0.17429E-09         0.00000E+00
    0.78503E-07         0.18850E-09         0.00000E+00
    0.78489E-07         0.19976E-09         0.00000E+00
    0.78474E-07         0.20822E-09         0.00000E+00
    0.78458E-07         0.21403E-09         0.00000E+00
    0.78441E-07         0.21733E-09         0.00000E+00
    0.78424E-07         0.21829E-09         0.00000E+00
    0.78407E-07         0.21706E-09         0.00000E+00
    0.78389E-07         0.21383E-09         0.00000E+00
    0.78372E-07         0.20877E-09         0.00000E+00
    0.78354E-07         0.20203E-09         0.00000E+00
    0.78337E-07         0.19382E-09         0.00000E+00
    0.78319E-07         0.18429E-09         0.00000E+00
    0.78302E-07         0.17361E-09         0.00000E+00
    0.78285E-07         0.16197E-09         0.00000E+00
    0.78268E-07         0.14951E-09         0.00000E+00
    0.78252E-07         0.13639E-09         0.00000E+00
    0.78236E-07         0.12276E-09         0.00000E+00
    0.78220E-07         0.10877E-09         0.00000E+00
    0.78205E-07         0.94555E-10         0.00000E+00
    0.78190E-07         0.80248E-10         0.00000E+00
    0.78175E-07         0.65979E-10         0.00000E+00
    0.78161E-07         0.51871E-10         0.00000E+00
    0.78148E-07         0.38043E-10         0.00000E+00
    0.78135E-07         0.24612E-10         0.00000E+00
    0.78122E-07         0.11694E-10         0.00000E+00
    0.78110E-07        -0.59902E-12         0.00000E+00
    0.78099E-07        -0.12153E-10         0.00000E+00
    0.78088E-07        -0.22855E-10         0.00000E+00
    0.78078E-07        -0.32592E-10         0.00000E+00
    0.78069E-07        -0.41250E-10         0.00000E+00
    0.78060E-07        -0.48719E-10         0.00000E+00
    0.78051E-07        -0.54886E-10         0.00000E+00
    0.78044E-07        -0.59641E-10         0.00000E+00
    0.78037E-07        -0.62876E-10         0.00000E+00
    0.78031E-07        -0.64485E-10         0.00000E+00
    0.78025E-07        -0.64367E-10         0.00000E+00
    0.78021E-07        -0.62422E-10         0.00000E+00
    0.78017E-07        -0.58559E-10         0.00000E+00
    0.78013E-07        -0.52691E-10         0.00000E+00
    0.78011E-07        -0.44740E-10         0.00000E+00
    0.78009E-07        -0.34637E-10         0.00000E+00
    0.78007E-07        -0.22321E-10         0.00000E+00
    0.78007E-07        -0.77415E-11         0.00000E+00
    0.78881E-07         0.25399E-10         0.00000E+00
    0.78879E-07         0.72541E-10         0.00000E+00
    0.78874E-07         0.11401E-09         0.00000E+00
    0.78868E-07         0.15023E-09         0.00000E+00
    0.78861E-07         0.18180E-09         0.00000E+00
    0.78852E-07         0.20889E-09         0.00000E+00
    0.78842E-07         0.23166E-09         0.00000E+00
    0.78832E-07         0.25031E-09         0.00000E+00
    0.78821E-07         0.26506E-09         0.00000E+00
    0.78810E-07         0.27617E-09         0.00000E+00
    0.78798E-07         0.28389E-09         0.00000E+00
    0.78786E-07         0.28848E-09         0.00000E+00
    0.78775E-07         0.29021E-09         0.00000E+00
    0.78763E-07         0.28934E-09         0.00000E+00
    0.78752E-07         0.28612E-09         0.00000E+00
    0.78740E-07         0.28078E-09         0.00000E+00
    0.78729E-07         0.27356E-09         0.00000E+00
    0.78718E-07         0.26468E-09         0.00000E+00
    0.78707E-07         0.25435E-09         0.00000E+00
    0.78697E-07         0.24276E-09         0.00000E+00
    0.78686E-07         0.23010E-09         0.00000E+00
    0.78676E-07         0.21656E-09         0.00000E+00
    0.78666E-07         0.20228E-09         0.00000E+00
    0.78656E-07         0.18743E-09         0.00000E+00
    0.78646E-07         0.17214E-09         0.00000E+00
    0.78636E-07         0.15657E-09         0.00000E+00
    0.78627E-07         0.14084E-09         0.00000E+00
    0.78617E-07         0.12507E-09         0.00000E+00
    0.78608E-07         0.10938E-09         0.00000E+00
    0.78599E-07         0.93880E-10         0.00000E+00
    0.78590E-07         0.78681E-10         0.00000E+00
    0.78581E-07         0.63890E-10         0.00000E+00
    0.78572E-07         0.49609E-10         0.00000E+00
    0.78564E-07         0.35946E-10         0.00000E+00
    0.78556E-07         0.23003E-10         0.00000E+00
    0.78548E-07         0.10889E-10         0.00000E+00
    0.78541E-07        -0.28847E-12         0.00000E+00
    0.78534E-07        -0.10418E-10         0.00000E+00
    0.78528E-07        -0.19381E-10         0.00000E+00
    0.78521E-07        -0.27058E-10         0.00000E+00
    0.78516E-07        -0.33323E-10         0.00000E+00
    0.78511E-07        -0.38048E-10         0.00000E+00
    0.78506E-07        -0.41106E-10         0.00000E+00
    0.78502E-07        -0.42369E-10         0.00000E+00
    0.78499E-07        -0.41714E-10         0.00000E+00
    0.78496E-07        -0.39031E-10         0.00000E+00
    0.78494E-07        -0.34222E-10         0.00000E+00
    0.78493E-07        -0.27205E-10         0.00000E+00
    0.78492E-07        -0.17907E-10         0.00000E+00
    0.78491E-07        -0.62570E-11         0.00000E+00
    0.78994E-07         0.30100E-10         0.00000E+00
    0.78993E-07         0.85678E-10         0.00000E+00
    0.78990E-07         0.13498E-09         0.00000E+00
    0.78987E-07         0.17836E-09         0.00000E+00
    0.78982E-07         0.21472E-09         0.00000E+00
    0.78977E-07         0.24453E-09         0.00000E+00
    0.78972E-07         0.26850E-09         0.00000E+00
    0.78968E-07         0.28728E-09         0.00000E+00
    0.78964E-07         0.30141E-09         0.00000E+00
    0.78961E-07         0.31141E-09         0.00000E+00
    0.78959E-07         0.31775E-09         0.00000E+00
    0.78957E-07         0.32085E-09         0.00000E+00
    0.78956E-07         0.32109E-09         0.00000E+00
    0.78956E-07         0.31881E-09         0.00000E+00
    0.78956E-07         0.31431E-09         0.00000E+00
    0.78956E-07         0.30788E-09         0.00000E+00
    0.78957E-07         0.29977E-09         0.00000E+00
    0.78957E-07         0.29020E-09         0.00000E+00
    0.78958E-07         0.27938E-09         0.00000E+00
    0.78959E-07         0.26750E-09         0.00000E+00
    0.78959E-07         0.25473E-09         0.00000E+00
    0.78960E-07         0.24122E-09         0.00000E+00
    0.78960E-07         0.22711E-09         0.00000E+00
    0.78960E-07         0.21253E-09         0.00000E+00
    0.78960E-07         0.19761E-09         0.00000E+00
    0.78959E-07         0.18245E-09         0.00000E+00
    0.78958E-07         0.16716E-09         0.00000E+00
    0.78957E-07         0.15184E-09         0.00000E+00
    0.78956E-07         0.13657E-09         0.00000E+00
    0.78954E-07         0.12145E-09         0.00000E+00
    0.78952E-07         0.10656E-09         0.00000E+00
    0.78949E-07         0.91970E-10         0.00000E+00
    0.78947E-07         0.77773E-10         0.00000E+00
    0.78944E-07         0.64045E-10         0.00000E+00
    0.78940E-07         0.50867E-10         0.00000E+00
    0.78937E-07         0.38321E-10         0.00000E+00
    0.78934E-07         0.26495E-10         0.00000E+00
    0.78930E-07         0.15481E-10         0.00000E+00
    0.78926E-07         0.53824E-11         0.00000E+00
    0.78923E-07        -0.36878E-11         0.00000E+00
    0.78919E-07        -0.11605E-10         0.00000E+00
    0.78916E-07        -0.18230E-10         0.00000E+00
    0.78913E-07        -0.23413E-10         0.00000E+00
    0.78910E-07        -0.26992E-10         0.00000E+00
    0.78908E-07        -0.28796E-10         0.00000E+00
    0.78906E-07        -0.28644E-10         0.00000E+00
    0.78905E-07        -0.26350E-10         0.00000E+00
    0.78904E-07        -0.21748E-10         0.00000E+00
    0.78903E-07        -0.14713E-10         0.00000E+00
    0.78903E-07        -0.51974E-11         0.00000E+00
    0.78882E-07         0.37104E-10         0.00000E+00
    0.78878E-07         0.10490E-09         0.00000E+00
    0.78872E-07         0.15645E-09         0.00000E+00
    0.78869E-07         0.19112E-09         0.00000E+00
    0.78871E-07         0.21754E-09         0.00000E+00
    0.78876E-07         0.23827E-09         0.00000E+00
    0.78885E-07         0.25402E-09         0.00000E+00
    0.78897E-07         0.26549E-09         0.00000E+00
    0.78910E-07         0.27332E-09         0.00000E+00
    0.78926E-07         0.27802E-09         0.00000E+00
    0.78942E-07         0.27999E-09         0.00000E+00
    0.78960E-07         0.27962E-09         0.00000E+00
    0.78978E-07         0.27724E-09         0.00000E+00
    0.78996E-07         0.27315E-09         0.00000E+00
    0.79014E-07         0.26759E-09         0.00000E+00
    0.79033E-07         0.26077E-09         0.00000E+00
    0.79051E-07         0.25289E-09         0.00000E+00
    0.79069E-07         0.24411E-09         0.00000E+00
    0.79087E-07         0.23457E-09         0.00000E+00
    0.79104E-07         0.22440E-09         0.00000E+00
    0.79120E-07         0.21370E-09         0.00000E+00
    0.79135E-07         0.20259E-09         0.00000E+00
    0.79150E-07         0.19114E-09         0.00000E+00
    0.79164E-07         0.17945E-09         0.00000E+00
    0.79177E-07         0.16759E-09         0.00000E+00
    0.79189E-07         0.15562E-09         0.00000E+00
    0.79200E-07         0.14360E-09         0.00000E+00
    0.79209E-07         0.13160E-09         0.00000E+00
    0.79218E-07         0.11966E-09         0.00000E+00
    0.79226E-07         0.10785E-09         0.00000E+00
    0.79233E-07         0.96202E-10         0.00000E+00
    0.79239E-07         0.84770E-10         0.00000E+00
    0.79244E-07         0.73598E-10         0.00000E+00
    0.79248E-07         0.62734E-10         0.00000E+00
    0.79251E-07         0.52222E-10         0.00000E+00
    0.79254E-07         0.42113E-10         0.00000E+00
    0.79255E-07         0.32457E-10         0.00000E+00
    0.79256E-07         0.23309E-10         0.00000E+00
    0.79256E-07         0.14733E-10         0.00000E+00
    0.79256E-07         0.68038E-11         0.00000E+00
    0.79255E-07        -0.39066E-12         0.00000E+00
    0.79254E-07        -0.67453E-11         0.00000E+00
    0.79252E-07        -0.12133E-10         0.00000E+00
    0.79250E-07        -0.16401E-10         0.00000E+00
    0.79249E-07        -0.19363E-10         0.00000E+00
    0.79247E-07        -0.20791E-10         0.00000E+00
    0.79246E-07        -0.20404E-10         0.00000E+00
    0.79245E-07        -0.17856E-10         0.00000E+00
    0.79244E-07        -0.12723E-10         0.00000E+00
    0.79244E-07        -0.45232E-11         0.00000E+00
    0.78377E-07         0.21314E-10         0.00000E+00
    0.78394E-07         0.59981E-10         0.00000E+00
    0.78423E-07         0.85212E-10         0.00000E+00
    0.78459E-07         0.96401E-10         0.00000E+00
    0.78499E-07         0.10388E-09         0.00000E+00
    0.78542E-07         0.10974E-09         0.00000E+00
    0.78587E-07         0.11401E-09         0.00000E+00
    0.78633E-07         0.11685E-09         0.00000E+00
    0.78680E-07         0.11850E-09         0.00000E+00
    0.78727E-07         0.11909E-09         0.00000E+00
    0.78775E-07         0.11875E-09         0.00000E+00
    0.78822E-07         0.11761E-09         0.00000E+00
    0.78869E-07         0.11580E-09         0.00000E+00
    0.78915E-07         0.11342E-09         0.00000E+00
    0.78960E-07         0.11056E-09         0.00000E+00
    0.79003E-07         0.10730E-09         0.00000E+00
    0.79045E-07         0.10371E-09         0.00000E+00
    0.79086E-07         0.99838E-10         0.00000E+00
    0.79125E-07         0.95735E-10         0.00000E+00
    0.79163E-07         0.91442E-10         0.00000E+00
    0.79198E-07         0.86999E-10         0.00000E+00
    0.79232E-07         0.82437E-10         0.00000E+00
    0.79264E-07         0.77786E-10         0.00000E+00
    0.79294E-07         0.73073E-10         0.00000E+00
    0.79323E-07         0.68320E-10         0.00000E+00
    0.79349E-07         0.63550E-10         0.00000E+00
    0.79373E-07         0.58781E-10         0.00000E+00
    0.79396E-07         0.54034E-10         0.00000E+00
    0.79417E-07         0.49324E-10         0.00000E+00
    0.79436E-07         0.44666E-10         0.00000E+00
    0.79452E-07         0.40077E-10         0.00000E+00
    0.79468E-07         0.35570E-10         0.00000E+00
    0.79481E-07         0.31160E-10         0.00000E+00
    0.79493E-07         0.26860E-10         0.00000E+00
    0.79502E-07         0.22686E-10         0.00000E+00
    0.79511E-07         0.18651E-10         0.00000E+00
    0.79517E-07         0.14772E-10         0.00000E+00
    0.79523E-07         0.11065E-10         0.00000E+00
    0.79526E-07         0.75499E-11         0.00000E+00
    0.79529E-07         0.42502E-11         0.00000E+00
    0.79530E-07         0.11958E-11         0.00000E+00
    0.79530E-07        -0.15759E-11         0.00000E+00
    0.79529E-07        -0.40165E-11         0.00000E+00
    0.79527E-07        -0.60615E-11         0.00000E+00
    0.79524E-07        -0.76250E-11         0.00000E+00
    0.79521E-07        -0.85936E-11         0.00000E+00
    0.79517E-07        -0.88141E-11         0.00000E+00
    0.79514E-07        -0.80573E-11         0.00000E+00
    0.79511E-07        -0.59877E-11         0.00000E+00
    0.79509E-07        -0.21234E-11         0.00000E+00
POINT_DATA       5151
VECTORS vDarcyNodal double 
    0.45775E-08         0.00000E+00         0.00000E+00
    0.45768E-08         0.00000E+00         0.00000E+00
    0.45748E-08         0.00000E+00         0.00000E+00
    0.45719E-08         0.00000E+00         0.00000E+00
    0.45681E-08         0.00000E+00         0.00000E+00
    0.45637E-08         0.00000E+00         0.00000E+00
    0.45587E-08         0.00000E+00         0.00000E+00
    0.45532E-08         0.00000E+00         0.00000E+00
    0.45473E-08         0.00000E+00         0.00000E+00
    0.45412E-08         0.00000E+00         0.00000E+00
    0.45347E-08         0.00000E+00         0.00000E+00
    0.45280E-08         0.00000E+00         0.00000E+00
    0.45211E-08         0.00000E+00         0.00000E+00
    0.45140E-08        -0.18626E-20         0.00000E+00
    0.45068E-08         0.00000E+00         0.00000E+00
    0.44995E-08         0.18626E-20         0.00000E+00
    0.44921E-08         0.00000E+00         0.00000E+00
    0.44846E-08         0.00000E+00         0.00000E+00
    0.44771E-08         0.00000E+00         0.00000E+00
    0.44695E-08         0.00000E+00         0.00000E+00
    0.44620E-08         0.00000E+00         0.00000E+00
    0.44544E-08         0.00000E+00         0.00000E+00
    0.44469E-08         0.00000E+00         0.00000E+00
    0.44393E-08         0.00000E+00         0.00000E+00
    0.44318E-08         0.00000E+00         0.00000E+00
    0.44244E-08         0.00000E+00         0.00000E+00
    0.44170E-08         0.00000E+00         0.00000E+00
    0.44097E-08         0.00000E+00         0.00000E+00
    0.44025E-08         0.00000E+00         0.00000E+00
    0.43954E-08         0.00000E+00         0.00000E+00
    0.43884E-08         0.00000E+00         0.00000E+00
    0.43815E-08         0.00000E+00         0.00000E+00
    0.43748E-08         0.00000E+00         0.00000E+00
    0.43682E-08         0.00000E+00         0.00000E+00
    0.43617E-08         0.00000E+00         0.00000E+00
    0.43555E-08         0.00000E+00         0.00000E+00
    0.43494E-08         0.00000E+00         0.00000E+00
    0.43435E-08         0.00000E+00         0.00000E+00
    0.43379E-08         0.00000E+00         0.00000E+00
    0.43325E-08         0.00000E+00         0.00000E+00
    0.43273E-08         0.00000E+00         0.00000E+00
    0.43225E-08         0.00000E+00         0.00000E+00
    0.43179E-08         0.00000E+00         0.00000E+00
    0.43137E-08         0.00000E+00         0.00000E+00
    0.43099E-08         0.00000E+00         0.00000E+00
    0.43065E-08         0.00000E+00         0.00000E+00
    0.43035E-08         0.00000E+00         0.00000E+00
    0.43010E-08         0.00000E+00         0.00000E+00
    0.42992E-08         0.00000E+00         0.00000E+00
    0.42979E-08         0.18626E-20         0.00000E+00
    0.42975E-08         0.37253E-20         0.00000E+00
    0.44998E-08         0.35917E-11         0.00000E+00
    0.44994E-08         0.66850E-11         0.00000E+00
    0.44982E-08         0.12271E-10         0.00000E+00
    0.44964E-08         0.16798E-10         0.00000E+00
    0.44940E-08         0.20510E-10         0.00000E+00
    0.44911E-08         0.23584E-10         0.00000E+00
    0.44876E-08         0.26149E-10         0.00000E+00
    0.44838E-08         0.28300E-10         0.00000E+00
    0.44795E-08         0.30112E-10         0.00000E+00
    0.44750E-08         0.31641E-10         0.00000E+00
    0.44701E-08         0.32930E-10         0.00000E+00
    0.44650E-08         0.34015E-10         0.00000E+00
    0.44597E-08         0.34924E-10         0.00000E+00
    0.44542E-08         0.35678E-10         0.00000E+00
    0.44486E-08         0.36297E-10         0.00000E+00
    0.44428E-08         0.36795E-10         0.00000E+00
    0.44369E-08         0.37185E-10         0.00000E+00
    0.44309E-08         0.37477E-10         0.00000E+00
    0.44248E-08         0.37679E-10         0.00000E+00
    0.44186E-08         0.37798E-10         0.00000E+00
    0.44125E-08         0.37840E-10         0.00000E+00
    0.44062E-08         0.37810E-10         0.00000E+00
    0.44000E-08         0.37712E-10         0.00000E+00
    0.43938E-08         0.37549E-10         0.00000E+00
    0.43876E-08         0.37323E-10         0.00000E+00
    0.43814E-08         0.37036E-10         0.00000E+00
    0.43753E-08         0.36690E-10         0.00000E+00
    0.43692E-08         0.36284E-10         0.00000E+00
    0.43632E-08         0.35820E-10         0.00000E+00
    0.43573E-08         0.35297E-10         0.00000E+00
    0.43515E-08         0.34714E-10         0.00000E+00
    0.43458E-08         0.34070E-10         0.00000E+00
    0.43401E-08         0.33363E-10         0.00000E+00
    0.43347E-08         0.32590E-10         0.00000E+00
    0.43293E-08         0.31750E-10         0.00000E+00
    0.43242E-08         0.30837E-10         0.00000E+00
    0.43192E-08         0.29848E-10         0.00000E+00
    0.43144E-08         0.28776E-10         0.00000E+00
    0.43098E-08         0.27615E-10         0.00000E+00
    0.43054E-08         0.26357E-10         0.00000E+00
    0.43013E-08         0.24991E-10         0.00000E+00
    0.42974E-08         0.23505E-10         0.00000E+00
    0.42938E-08         0.21884E-10         0.00000E+00
    0.42905E-08         0.20108E-10         0.00000E+00
    0.42876E-08         0.18153E-10         0.00000E+00
    0.42850E-08         0.15988E-10         0.00000E+00
    0.42828E-08         0.13571E-10         0.00000E+00
    0.42810E-08         0.10849E-10         0.00000E+00
    0.42797E-08         0.77442E-11         0.00000E+00
    0.42789E-08         0.41542E-11         0.00000E+00
    0.42786E-08         0.22225E-11         0.00000E+00
    0.43640E-08         0.39452E-11         0.00000E+00
    0.43639E-08         0.76700E-11         0.00000E+00
    0.43638E-08         0.14770E-10         0.00000E+00
    0.43634E-08         0.21169E-10         0.00000E+00
    0.43627E-08         0.26886E-10         0.00000E+00
    0.43618E-08         0.31965E-10         0.00000E+00
    0.43606E-08         0.36461E-10         0.00000E+00
    0.43591E-08         0.40427E-10         0.00000E+00
    0.43573E-08         0.43920E-10         0.00000E+00
    0.43553E-08         0.46986E-10         0.00000E+00
    0.43530E-08         0.49670E-10         0.00000E+00
    0.43506E-08         0.52010E-10         0.00000E+00
    0.43479E-08         0.54041E-10         0.00000E+00
    0.43450E-08         0.55792E-10         0.00000E+00
    0.43420E-08         0.57287E-10         0.00000E+00
    0.43388E-08         0.58550E-10         0.00000E+00
    0.43354E-08         0.59600E-10         0.00000E+00
    0.43320E-08         0.60452E-10         0.00000E+00
    0.43284E-08         0.61121E-10         0.00000E+00
    0.43247E-08         0.61619E-10         0.00000E+00
    0.43210E-08         0.61957E-10         0.00000E+00
    0.43172E-08         0.62142E-10         0.00000E+00
    0.43134E-08         0.62181E-10         0.00000E+00
    0.43096E-08         0.62082E-10         0.00000E+00
    0.43057E-08         0.61849E-10         0.00000E+00
    0.43018E-08         0.61486E-10         0.00000E+00
    0.42979E-08         0.60994E-10         0.00000E+00
    0.42941E-08         0.60377E-10         0.00000E+00
    0.42903E-08         0.59635E-10         0.00000E+00
    0.42865E-08         0.58767E-10         0.00000E+00
    0.42828E-08         0.57774E-10         0.00000E+00
    0.42791E-08         0.56654E-10         0.00000E+00
    0.42756E-08         0.55403E-10         0.00000E+00
    0.42721E-08         0.54018E-10         0.00000E+00
    0.42687E-08         0.52495E-10         0.00000E+00
    0.42655E-08         0.50828E-10         0.00000E+00
    0.42624E-08         0.49010E-10         0.00000E+00
    0.42595E-08         0.47033E-10         0.00000E+00
    0.42567E-08         0.44888E-10         0.00000E+00
    0.42540E-08         0.42562E-10         0.00000E+00
    0.42516E-08         0.40043E-10         0.00000E+00
    0.42494E-08         0.37316E-10         0.00000E+00
    0.42473E-08         0.34363E-10         0.00000E+00
    0.42455E-08         0.31165E-10         0.00000E+00
    0.42440E-08         0.27699E-10         0.00000E+00
    0.42426E-08         0.23941E-10         0.00000E+00
    0.42416E-08         0.19865E-10         0.00000E+00
    0.42407E-08         0.15446E-10         0.00000E+00
    0.42402E-08         0.10661E-10         0.00000E+00
    0.42399E-08         0.54995E-11         0.00000E+00
    0.42398E-08         0.28242E-11         0.00000E+00
    0.42628E-08         0.40202E-11         0.00000E+00
    0.42628E-08         0.78530E-11         0.00000E+00
    0.42629E-08         0.15248E-10         0.00000E+00
    0.42629E-08         0.22110E-10         0.00000E+00
    0.42628E-08         0.28454E-10         0.00000E+00
    0.42627E-08         0.34293E-10         0.00000E+00
    0.42624E-08         0.39644E-10         0.00000E+00
    0.42620E-08         0.44527E-10         0.00000E+00
    0.42616E-08         0.48965E-10         0.00000E+00
    0.42609E-08         0.52979E-10         0.00000E+00
    0.42602E-08         0.56596E-10         0.00000E+00
    0.42593E-08         0.59836E-10         0.00000E+00
    0.42582E-08         0.62725E-10         0.00000E+00
    0.42570E-08         0.65282E-10         0.00000E+00
    0.42557E-08         0.67527E-10         0.00000E+00
    0.42543E-08         0.69480E-10         0.00000E+00
    0.42528E-08         0.71156E-10         0.00000E+00
    0.42511E-08         0.72571E-10         0.00000E+00
    0.42494E-08         0.73738E-10         0.00000E+00
    0.42476E-08         0.74669E-10         0.00000E+00
    0.42457E-08         0.75375E-10         0.00000E+00
    0.42438E-08         0.75865E-10         0.00000E+00
    0.42417E-08         0.76147E-10         0.00000E+00
    0.42397E-08         0.76227E-10         0.00000E+00
    0.42376E-08         0.76112E-10         0.00000E+00
    0.42355E-08         0.75806E-10         0.00000E+00
    0.42334E-08         0.75313E-10         0.00000E+00
    0.42313E-08         0.74634E-10         0.00000E+00
    0.42292E-08         0.73771E-10         0.00000E+00
    0.42271E-08         0.72725E-10         0.00000E+00
    0.42250E-08         0.71496E-10         0.00000E+00
    0.42230E-08         0.70082E-10         0.00000E+00
    0.42210E-08         0.68481E-10         0.00000E+00
    0.42190E-08         0.66691E-10         0.00000E+00
    0.42172E-08         0.64706E-10         0.00000E+00
    0.42154E-08         0.62522E-10         0.00000E+00
    0.42137E-08         0.60133E-10         0.00000E+00
    0.42121E-08         0.57532E-10         0.00000E+00
    0.42106E-08         0.54711E-10         0.00000E+00
    0.42092E-08         0.51662E-10         0.00000E+00
    0.42079E-08         0.48375E-10         0.00000E+00
    0.42067E-08         0.44839E-10         0.00000E+00
    0.42057E-08         0.41043E-10         0.00000E+00
    0.42048E-08         0.36975E-10         0.00000E+00
    0.42040E-08         0.32624E-10         0.00000E+00
    0.42033E-08         0.27979E-10         0.00000E+00
    0.42028E-08         0.23028E-10         0.00000E+00
    0.42024E-08         0.17762E-10         0.00000E+00
    0.42022E-08         0.12171E-10         0.00000E+00
    0.42020E-08         0.62451E-11         0.00000E+00
    0.42020E-08         0.31971E-11         0.00000E+00
    0.41896E-08         0.38320E-11         0.00000E+00
    0.41896E-08         0.75321E-11         0.00000E+00
    0.41897E-08         0.14731E-10         0.00000E+00
    0.41899E-08         0.21527E-10         0.00000E+00
    0.41901E-08         0.27917E-10         0.00000E+00
    0.41903E-08         0.33906E-10         0.00000E+00
    0.41905E-08         0.39496E-10         0.00000E+00
    0.41907E-08         0.44695E-10         0.00000E+00
    0.41909E-08         0.49511E-10         0.00000E+00
    0.41910E-08         0.53951E-10         0.00000E+00
    0.41910E-08         0.58027E-10         0.00000E+00
    0.41910E-08         0.61750E-10         0.00000E+00
    0.41909E-08         0.65130E-10         0.00000E+00
    0.41908E-08         0.68179E-10         0.00000E+00
    0.41905E-08         0.70909E-10         0.00000E+00
    0.41902E-08         0.73330E-10         0.00000E+00
    0.41899E-08         0.75454E-10         0.00000E+00
    0.41894E-08         0.77291E-10         0.00000E+00
    0.41889E-08         0.78849E-10         0.00000E+00
    0.41883E-08         0.80138E-10         0.00000E+00
    0.41877E-08         0.81166E-10         0.00000E+00
    0.41870E-08         0.81939E-10         0.00000E+00
    0.41863E-08         0.82466E-10         0.00000E+00
    0.41855E-08         0.82750E-10         0.00000E+00
    0.41847E-08         0.82797E-10         0.00000E+00
    0.41839E-08         0.82611E-10         0.00000E+00
    0.41830E-08         0.82196E-10         0.00000E+00
    0.41822E-08         0.81552E-10         0.00000E+00
    0.41813E-08         0.80684E-10         0.00000E+00
    0.41804E-08         0.79590E-10         0.00000E+00
    0.41795E-08         0.78272E-10         0.00000E+00
    0.41787E-08         0.76729E-10         0.00000E+00
    0.41778E-08         0.74959E-10         0.00000E+00
    0.41770E-08         0.72962E-10         0.00000E+00
    0.41762E-08         0.70734E-10         0.00000E+00
    0.41754E-08         0.68272E-10         0.00000E+00
    0.41747E-08         0.65573E-10         0.00000E+00
    0.41740E-08         0.62632E-10         0.00000E+00
    0.41734E-08         0.59445E-10         0.00000E+00
    0.41728E-08         0.56005E-10         0.00000E+00
    0.41723E-08         0.52309E-10         0.00000E+00
    0.41718E-08         0.48350E-10         0.00000E+00
    0.41714E-08         0.44122E-10         0.00000E+00
    0.41710E-08         0.39620E-10         0.00000E+00
    0.41707E-08         0.34837E-10         0.00000E+00
    0.41705E-08         0.29769E-10         0.00000E+00
    0.41703E-08         0.24409E-10         0.00000E+00
    0.41702E-08         0.18754E-10         0.00000E+00
    0.41701E-08         0.12798E-10         0.00000E+00
    0.41700E-08         0.65385E-11         0.00000E+00
    0.41700E-08         0.33325E-11         0.00000E+00
    0.41406E-08         0.35541E-11         0.00000E+00
    0.41406E-08         0.70091E-11         0.00000E+00
    0.41408E-08         0.13768E-10         0.00000E+00
    0.41411E-08         0.20220E-10         0.00000E+00
    0.41414E-08         0.26358E-10         0.00000E+00
    0.41418E-08         0.32179E-10         0.00000E+00
    0.41422E-08         0.37678E-10         0.00000E+00
    0.41427E-08         0.42855E-10         0.00000E+00
    0.41431E-08         0.47708E-10         0.00000E+00
    0.41436E-08         0.52240E-10         0.00000E+00
    0.41441E-08         0.56453E-10         0.00000E+00
    0.41446E-08         0.60349E-10         0.00000E+00
    0.41450E-08         0.63932E-10         0.00000E+00
    0.41454E-08         0.67208E-10         0.00000E+00
    0.41458E-08         0.70179E-10         0.00000E+00
    0.41462E-08         0.72852E-10         0.00000E+00
    0.41465E-08         0.75232E-10         0.00000E+00
    0.41468E-08         0.77324E-10         0.00000E+00
    0.41470E-08         0.79133E-10         0.00000E+00
    0.41472E-08         0.80663E-10         0.00000E+00
    0.41474E-08         0.81920E-10         0.00000E+00
    0.41476E-08         0.82909E-10         0.00000E+00
    0.41477E-08         0.83632E-10         0.00000E+00
    0.41477E-08         0.84093E-10         0.00000E+00
    0.41478E-08         0.84297E-10         0.00000E+00
    0.41478E-08         0.84245E-10         0.00000E+00
    0.41478E-08         0.83941E-10         0.00000E+00
    0.41477E-08         0.83385E-10         0.00000E+00
    0.41477E-08         0.82580E-10         0.00000E+00
    0.41476E-08         0.81526E-10         0.00000E+00
    0.41476E-08         0.80223E-10         0.00000E+00
    0.41475E-08         0.78673E-10         0.00000E+00
    0.41474E-08         0.76874E-10         0.00000E+00
    0.41473E-08         0.74826E-10         0.00000E+00
    0.41472E-08         0.72528E-10         0.00000E+00
    0.41471E-08         0.69977E-10         0.00000E+00
    0.41471E-08         0.67173E-10         0.00000E+00
    0.41470E-08         0.64114E-10         0.00000E+00
    0.41469E-08         0.60796E-10         0.00000E+00
    0.41469E-08         0.57218E-10         0.00000E+00
    0.41468E-08         0.53376E-10         0.00000E+00
    0.41468E-08         0.49269E-10         0.00000E+00
    0.41468E-08         0.44894E-10         0.00000E+00
    0.41468E-08         0.40248E-10         0.00000E+00
    0.41468E-08         0.35329E-10         0.00000E+00
    0.41468E-08         0.30134E-10         0.00000E+00
    0.41468E-08         0.24662E-10         0.00000E+00
    0.41469E-08         0.18911E-10         0.00000E+00
    0.41469E-08         0.12880E-10         0.00000E+00
    0.41469E-08         0.65688E-11         0.00000E+00
    0.41469E-08         0.33431E-11         0.00000E+00
    0.41134E-08         0.32406E-11         0.00000E+00
    0.41134E-08         0.64081E-11         0.00000E+00
    0.41136E-08         0.12629E-10         0.00000E+00
    0.41139E-08         0.18616E-10         0.00000E+00
    0.41143E-08         0.24359E-10         0.00000E+00
    0.41147E-08         0.29851E-10         0.00000E+00
    0.41152E-08         0.35084E-10         0.00000E+00
    0.41158E-08         0.40052E-10         0.00000E+00
    0.41164E-08         0.44751E-10         0.00000E+00
    0.41171E-08         0.49176E-10         0.00000E+00
    0.41177E-08         0.53327E-10         0.00000E+00
    0.41184E-08         0.57200E-10         0.00000E+00
    0.41192E-08         0.60795E-10         0.00000E+00
    0.41199E-08         0.64112E-10         0.00000E+00
    0.41206E-08         0.67151E-10         0.00000E+00
    0.41213E-08         0.69912E-10         0.00000E+00
    0.41220E-08         0.72397E-10         0.00000E+00
    0.41227E-08         0.74607E-10         0.00000E+00
    0.41234E-08         0.76544E-10         0.00000E+00
    0.41241E-08         0.78208E-10         0.00000E+00
    0.41247E-08         0.79603E-10         0.00000E+00
    0.41253E-08         0.80730E-10         0.00000E+00
    0.41259E-08         0.81591E-10         0.00000E+00
    0.41265E-08         0.82186E-10         0.00000E+00
    0.41270E-08         0.82519E-10         0.00000E+00
    0.41276E-08         0.82590E-10         0.00000E+00
    0.41281E-08         0.82400E-10         0.00000E+00
    0.41286E-08         0.81951E-10         0.00000E+00
    0.41290E-08         0.81243E-10         0.00000E+00
    0.41295E-08         0.80277E-10         0.00000E+00
    0.41299E-08         0.79054E-10         0.00000E+00
    0.41303E-08         0.77573E-10         0.00000E+00
    0.41307E-08         0.75835E-10         0.00000E+00
    0.41311E-08         0.73840E-10         0.00000E+00
    0.41315E-08         0.71587E-10         0.00000E+00
    0.41318E-08         0.69076E-10         0.00000E+00
    0.41321E-08         0.66306E-10         0.00000E+00
    0.41324E-08         0.63277E-10         0.00000E+00
    0.41327E-08         0.59987E-10         0.00000E+00
    0.41330E-08         0.56436E-10         0.00000E+00
    0.41333E-08         0.52623E-10         0.00000E+00
    0.41335E-08         0.48548E-10         0.00000E+00
    0.41338E-08         0.44209E-10         0.00000E+00
    0.41340E-08         0.39606E-10         0.00000E+00
    0.41342E-08         0.34739E-10         0.00000E+00
    0.41343E-08         0.29606E-10         0.00000E+00
    0.41345E-08         0.24209E-10         0.00000E+00
    0.41346E-08         0.18547E-10         0.00000E+00
    0.41347E-08         0.12621E-10         0.00000E+00
    0.41348E-08         0.64307E-11         0.00000E+00
    0.41348E-08         0.32699E-11         0.00000E+00
    0.41060E-08         0.29302E-11         0.00000E+00
    0.41061E-08         0.58059E-11         0.00000E+00
    0.41063E-08         0.11471E-10         0.00000E+00
    0.41065E-08         0.16957E-10         0.00000E+00
    0.41069E-08         0.22253E-10         0.00000E+00
    0.41074E-08         0.27349E-10         0.00000E+00
    0.41079E-08         0.32235E-10         0.00000E+00
    0.41085E-08         0.36903E-10         0.00000E+00
    0.41092E-08         0.41347E-10         0.00000E+00
    0.41099E-08         0.45560E-10         0.00000E+00
    0.41106E-08         0.49537E-10         0.00000E+00
    0.41114E-08         0.53273E-10         0.00000E+00
    0.41122E-08         0.56764E-10         0.00000E+00
    0.41131E-08         0.60008E-10         0.00000E+00
    0.41139E-08         0.63001E-10         0.00000E+00
    0.41148E-08         0.65742E-10         0.00000E+00
    0.41157E-08         0.68228E-10         0.00000E+00
    0.41166E-08         0.70459E-10         0.00000E+00
    0.41174E-08         0.72433E-10         0.00000E+00
    0.41183E-08         0.74151E-10         0.00000E+00
    0.41192E-08         0.75611E-10         0.00000E+00
    0.41201E-08         0.76813E-10         0.00000E+00
    0.41209E-08         0.77757E-10         0.00000E+00
    0.41218E-08         0.78443E-10         0.00000E+00
    0.41226E-08         0.78872E-10         0.00000E+00
    0.41234E-08         0.79043E-10         0.00000E+00
    0.41242E-08         0.78956E-10         0.00000E+00
    0.41250E-08         0.78613E-10         0.00000E+00
    0.41257E-08         0.78012E-10         0.00000E+00
    0.41264E-08         0.77155E-10         0.00000E+00
    0.41272E-08         0.76041E-10         0.00000E+00
    0.41278E-08         0.74670E-10         0.00000E+00
    0.41285E-08         0.73043E-10         0.00000E+00
    0.41291E-08         0.71159E-10         0.00000E+00
    0.41297E-08         0.69019E-10         0.00000E+00
    0.41303E-08         0.66622E-10         0.00000E+00
    0.41309E-08         0.63968E-10         0.00000E+00
    0.41314E-08         0.61058E-10         0.00000E+00
    0.41319E-08         0.57892E-10         0.00000E+00
    0.41324E-08         0.54469E-10         0.00000E+00
    0.41328E-08         0.50789E-10         0.00000E+00
    0.41332E-08         0.46853E-10         0.00000E+00
    0.41336E-08         0.42661E-10         0.00000E+00
    0.41339E-08         0.38213E-10         0.00000E+00
    0.41342E-08         0.33510E-10         0.00000E+00
    0.41345E-08         0.28552E-10         0.00000E+00
    0.41347E-08         0.23341E-10         0.00000E+00
    0.41349E-08         0.17877E-10         0.00000E+00
    0.41350E-08         0.12161E-10         0.00000E+00
    0.41351E-08         0.61944E-11         0.00000E+00
    0.41351E-08         0.31489E-11         0.00000E+00
    0.41172E-08         0.26432E-11         0.00000E+00
    0.41172E-08         0.52455E-11         0.00000E+00
    0.41174E-08         0.10384E-10         0.00000E+00
    0.41176E-08         0.15384E-10         0.00000E+00
    0.41180E-08         0.20234E-10         0.00000E+00
    0.41184E-08         0.24922E-10         0.00000E+00
    0.41189E-08         0.29440E-10         0.00000E+00
    0.41195E-08         0.33778E-10         0.00000E+00
    0.41201E-08         0.37926E-10         0.00000E+00
    0.41208E-08         0.41879E-10         0.00000E+00
    0.41215E-08         0.45629E-10         0.00000E+00
    0.41223E-08         0.49170E-10         0.00000E+00
    0.41231E-08         0.52496E-10         0.00000E+00
    0.41240E-08         0.55602E-10         0.00000E+00
    0.41249E-08         0.58485E-10         0.00000E+00
    0.41258E-08         0.61139E-10         0.00000E+00
    0.41267E-08         0.63563E-10         0.00000E+00
    0.41276E-08         0.65752E-10         0.00000E+00
    0.41286E-08         0.67705E-10         0.00000E+00
    0.41295E-08         0.69418E-10         0.00000E+00
    0.41305E-08         0.70891E-10         0.00000E+00
    0.41314E-08         0.72121E-10         0.00000E+00
    0.41324E-08         0.73106E-10         0.00000E+00
    0.41333E-08         0.73847E-10         0.00000E+00
    0.41343E-08         0.74341E-10         0.00000E+00
    0.41352E-08         0.74588E-10         0.00000E+00
    0.41361E-08         0.74588E-10         0.00000E+00
    0.41370E-08         0.74339E-10         0.00000E+00
    0.41379E-08         0.73841E-10         0.00000E+00
    0.41387E-08         0.73094E-10         0.00000E+00
    0.41396E-08         0.72097E-10         0.00000E+00
    0.41404E-08         0.70850E-10         0.00000E+00
    0.41412E-08         0.69354E-10         0.00000E+00
    0.41419E-08         0.67608E-10         0.00000E+00
    0.41426E-08         0.65611E-10         0.00000E+00
    0.41433E-08         0.63365E-10         0.00000E+00
    0.41440E-08         0.60869E-10         0.00000E+00
    0.41446E-08         0.58123E-10         0.00000E+00
    0.41452E-08         0.55129E-10         0.00000E+00
    0.41458E-08         0.51885E-10         0.00000E+00
    0.41463E-08         0.48393E-10         0.00000E+00
    0.41468E-08         0.44652E-10         0.00000E+00
    0.41472E-08         0.40665E-10         0.00000E+00
    0.41476E-08         0.36431E-10         0.00000E+00
    0.41480E-08         0.31951E-10         0.00000E+00
    0.41483E-08         0.27227E-10         0.00000E+00
    0.41485E-08         0.22259E-10         0.00000E+00
    0.41487E-08         0.17049E-10         0.00000E+00
    0.41488E-08         0.11598E-10         0.00000E+00
    0.41489E-08         0.59081E-11         0.00000E+00
    0.41490E-08         0.30034E-11         0.00000E+00
    0.41457E-08         0.23909E-11         0.00000E+00
    0.41457E-08         0.47504E-11         0.00000E+00
    0.41458E-08         0.94177E-11         0.00000E+00
    0.41461E-08         0.13975E-10         0.00000E+00
    0.41464E-08         0.18412E-10         0.00000E+00
    0.41467E-08         0.22717E-10         0.00000E+00
    0.41472E-08         0.26879E-10         0.00000E+00
    0.41477E-08         0.30891E-10         0.00000E+00
    0.41483E-08         0.34742E-10         0.00000E+00
    0.41489E-08         0.38424E-10         0.00000E+00
    0.41496E-08         0.41931E-10         0.00000E+00
    0.41503E-08         0.45256E-10         0.00000E+00
    0.41511E-08         0.48391E-10         0.00000E+00
    0.41519E-08         0.51331E-10         0.00000E+00
    0.41527E-08         0.54071E-10         0.00000E+00
    0.41535E-08         0.56606E-10         0.00000E+00
    0.41544E-08         0.58931E-10         0.00000E+00
    0.41553E-08         0.61043E-10         0.00000E+00
    0.41562E-08         0.62937E-10         0.00000E+00
    0.41572E-08         0.64612E-10         0.00000E+00
    0.41581E-08         0.66063E-10         0.00000E+00
    0.41590E-08         0.67288E-10         0.00000E+00
    0.41600E-08         0.68285E-10         0.00000E+00
    0.41609E-08         0.69051E-10         0.00000E+00
    0.41619E-08         0.69586E-10         0.00000E+00
    0.41628E-08         0.69887E-10         0.00000E+00
    0.41637E-08         0.69952E-10         0.00000E+00
    0.41646E-08         0.69782E-10         0.00000E+00
    0.41655E-08         0.69374E-10         0.00000E+00
    0.41664E-08         0.68728E-10         0.00000E+00
    0.41672E-08         0.67843E-10         0.00000E+00
    0.41681E-08         0.66718E-10         0.00000E+00
    0.41689E-08         0.65354E-10         0.00000E+00
    0.41696E-08         0.63750E-10         0.00000E+00
    0.41704E-08         0.61905E-10         0.00000E+00
    0.41711E-08         0.59819E-10         0.00000E+00
    0.41718E-08         0.57494E-10         0.00000E+00
    0.41725E-08         0.54928E-10         0.00000E+00
    0.41731E-08         0.52122E-10         0.00000E+00
    0.41737E-08         0.49076E-10         0.00000E+00
    0.41742E-08         0.45792E-10         0.00000E+00
    0.41747E-08         0.42269E-10         0.00000E+00
    0.41751E-08         0.38508E-10         0.00000E+00
    0.41755E-08         0.34510E-10         0.00000E+00
    0.41759E-08         0.30276E-10         0.00000E+00
    0.41762E-08         0.25807E-10         0.00000E+00
    0.41765E-08         0.21104E-10         0.00000E+00
    0.41767E-08         0.16169E-10         0.00000E+00
    0.41768E-08         0.11002E-10         0.00000E+00
    0.41769E-08         0.56057E-11         0.00000E+00
    0.41769E-08         0.28503E-11         0.00000E+00
    0.41906E-08         0.21782E-11         0.00000E+00
    0.41906E-08         0.43312E-11         0.00000E+00
    0.41907E-08         0.85952E-11         0.00000E+00
    0.41909E-08         0.12769E-10         0.00000E+00
    0.41912E-08         0.16843E-10         0.00000E+00
    0.41915E-08         0.20805E-10         0.00000E+00
    0.41919E-08         0.24647E-10         0.00000E+00
    0.41923E-08         0.28358E-10         0.00000E+00
    0.41928E-08         0.31931E-10         0.00000E+00
    0.41933E-08         0.35357E-10         0.00000E+00
    0.41939E-08         0.38629E-10         0.00000E+00
    0.41946E-08         0.41739E-10         0.00000E+00
    0.41952E-08         0.44681E-10         0.00000E+00
    0.41959E-08         0.47449E-10         0.00000E+00
    0.41967E-08         0.50036E-10         0.00000E+00
    0.41975E-08         0.52438E-10         0.00000E+00
    0.41983E-08         0.54650E-10         0.00000E+00
    0.41991E-08         0.56667E-10         0.00000E+00
    0.41999E-08         0.58485E-10         0.00000E+00
    0.42007E-08         0.60100E-10         0.00000E+00
    0.42016E-08         0.61509E-10         0.00000E+00
    0.42025E-08         0.62708E-10         0.00000E+00
    0.42033E-08         0.63695E-10         0.00000E+00
    0.42042E-08         0.64467E-10         0.00000E+00
    0.42051E-08         0.65022E-10         0.00000E+00
    0.42059E-08         0.65357E-10         0.00000E+00
    0.42068E-08         0.65471E-10         0.00000E+00
    0.42077E-08         0.65361E-10         0.00000E+00
    0.42085E-08         0.65028E-10         0.00000E+00
    0.42093E-08         0.64468E-10         0.00000E+00
    0.42101E-08         0.63682E-10         0.00000E+00
    0.42109E-08         0.62668E-10         0.00000E+00
    0.42117E-08         0.61426E-10         0.00000E+00
    0.42124E-08         0.59955E-10         0.00000E+00
    0.42131E-08         0.58254E-10         0.00000E+00
    0.42138E-08         0.56323E-10         0.00000E+00
    0.42145E-08         0.54163E-10         0.00000E+00
    0.42151E-08         0.51772E-10         0.00000E+00
    0.42157E-08         0.49152E-10         0.00000E+00
    0.42163E-08         0.46302E-10         0.00000E+00
    0.42168E-08         0.43223E-10         0.00000E+00
    0.42173E-08         0.39915E-10         0.00000E+00
    0.42177E-08         0.36379E-10         0.00000E+00
    0.42181E-08         0.32616E-10         0.00000E+00
    0.42184E-08         0.28626E-10         0.00000E+00
    0.42187E-08         0.24410E-10         0.00000E+00
    0.42190E-08         0.19969E-10         0.00000E+00
    0.42192E-08         0.15305E-10         0.00000E+00
    0.42193E-08         0.10418E-10         0.00000E+00
    0.42194E-08         0.53099E-11         0.00000E+00
    0.42194E-08         0.27006E-11         0.00000E+00
    0.42512E-08         0.20057E-11         0.00000E+00
    0.42513E-08         0.39901E-11         0.00000E+00
    0.42514E-08         0.79226E-11         0.00000E+00
    0.42515E-08         0.11778E-10         0.00000E+00
    0.42517E-08         0.15546E-10         0.00000E+00
    0.42520E-08         0.19216E-10         0.00000E+00
    0.42523E-08         0.22781E-10         0.00000E+00
    0.42527E-08         0.26231E-10         0.00000E+00
    0.42531E-08         0.29558E-10         0.00000E+00
    0.42535E-08         0.32754E-10         0.00000E+00
    0.42540E-08         0.35812E-10         0.00000E+00
    0.42545E-08         0.38724E-10         0.00000E+00
    0.42551E-08         0.41485E-10         0.00000E+00
    0.42557E-08         0.44088E-10         0.00000E+00
    0.42563E-08         0.46528E-10         0.00000E+00
    0.42570E-08         0.48798E-10         0.00000E+00
    0.42577E-08         0.50894E-10         0.00000E+00
    0.42584E-08         0.52811E-10         0.00000E+00
    0.42591E-08         0.54545E-10         0.00000E+00
    0.42598E-08         0.56092E-10         0.00000E+00
    0.42606E-08         0.57448E-10         0.00000E+00
    0.42613E-08         0.58609E-10         0.00000E+00
    0.42621E-08         0.59572E-10         0.00000E+00
    0.42629E-08         0.60335E-10         0.00000E+00
    0.42636E-08         0.60894E-10         0.00000E+00
    0.42644E-08         0.61248E-10         0.00000E+00
    0.42652E-08         0.61393E-10         0.00000E+00
    0.42659E-08         0.61329E-10         0.00000E+00
    0.42667E-08         0.61053E-10         0.00000E+00
    0.42674E-08         0.60564E-10         0.00000E+00
    0.42681E-08         0.59860E-10         0.00000E+00
    0.42689E-08         0.58940E-10         0.00000E+00
    0.42695E-08         0.57803E-10         0.00000E+00
    0.42702E-08         0.56449E-10         0.00000E+00
    0.42709E-08         0.54876E-10         0.00000E+00
    0.42715E-08         0.53085E-10         0.00000E+00
    0.42721E-08         0.51074E-10         0.00000E+00
    0.42726E-08         0.48844E-10         0.00000E+00
    0.42732E-08         0.46394E-10         0.00000E+00
    0.42737E-08         0.43724E-10         0.00000E+00
    0.42742E-08         0.40835E-10         0.00000E+00
    0.42746E-08         0.37727E-10         0.00000E+00
    0.42750E-08         0.34399E-10         0.00000E+00
    0.42753E-08         0.30854E-10         0.00000E+00
    0.42757E-08         0.27091E-10         0.00000E+00
    0.42759E-08         0.23110E-10         0.00000E+00
    0.42761E-08         0.18914E-10         0.00000E+00
    0.42763E-08         0.14502E-10         0.00000E+00
    0.42764E-08         0.98751E-11         0.00000E+00
    0.42765E-08         0.50350E-11         0.00000E+00
    0.42766E-08         0.25617E-11         0.00000E+00
    0.43271E-08         0.18718E-11         0.00000E+00
    0.43271E-08         0.37239E-11         0.00000E+00
    0.43272E-08         0.73952E-11         0.00000E+00
    0.43273E-08         0.10996E-10         0.00000E+00
    0.43275E-08         0.14517E-10         0.00000E+00
    0.43277E-08         0.17949E-10         0.00000E+00
    0.43279E-08         0.21285E-10         0.00000E+00
    0.43282E-08         0.24516E-10         0.00000E+00
    0.43285E-08         0.27634E-10         0.00000E+00
    0.43289E-08         0.30633E-10         0.00000E+00
    0.43293E-08         0.33506E-10         0.00000E+00
    0.43297E-08         0.36245E-10         0.00000E+00
    0.43302E-08         0.38845E-10         0.00000E+00
    0.43306E-08         0.41300E-10         0.00000E+00
    0.43312E-08         0.43604E-10         0.00000E+00
    0.43317E-08         0.45751E-10         0.00000E+00
    0.43323E-08         0.47738E-10         0.00000E+00
    0.43328E-08         0.49559E-10         0.00000E+00
    0.43334E-08         0.51210E-10         0.00000E+00
    0.43340E-08         0.52686E-10         0.00000E+00
    0.43347E-08         0.53984E-10         0.00000E+00
    0.43353E-08         0.55101E-10         0.00000E+00
    0.43359E-08         0.56033E-10         0.00000E+00
    0.43366E-08         0.56777E-10         0.00000E+00
    0.43372E-08         0.57330E-10         0.00000E+00
    0.43379E-08         0.57689E-10         0.00000E+00
    0.43385E-08         0.57853E-10         0.00000E+00
    0.43392E-08         0.57819E-10         0.00000E+00
    0.43398E-08         0.57584E-10         0.00000E+00
    0.43405E-08         0.57148E-10         0.00000E+00
    0.43411E-08         0.56509E-10         0.00000E+00
    0.43417E-08         0.55665E-10         0.00000E+00
    0.43423E-08         0.54616E-10         0.00000E+00
    0.43429E-08         0.53359E-10         0.00000E+00
    0.43434E-08         0.51894E-10         0.00000E+00
    0.43440E-08         0.50221E-10         0.00000E+00
    0.43445E-08         0.48339E-10         0.00000E+00
    0.43450E-08         0.46247E-10         0.00000E+00
    0.43455E-08         0.43945E-10         0.00000E+00
    0.43459E-08         0.41433E-10         0.00000E+00
    0.43463E-08         0.38711E-10         0.00000E+00
    0.43467E-08         0.35779E-10         0.00000E+00
    0.43470E-08         0.32636E-10         0.00000E+00
    0.43473E-08         0.29284E-10         0.00000E+00
    0.43476E-08         0.25722E-10         0.00000E+00
    0.43479E-08         0.21951E-10         0.00000E+00
    0.43481E-08         0.17972E-10         0.00000E+00
    0.43482E-08         0.13785E-10         0.00000E+00
    0.43483E-08         0.93902E-11         0.00000E+00
    0.43484E-08         0.47894E-11         0.00000E+00
    0.43484E-08         0.24375E-11         0.00000E+00
    0.44177E-08         0.17731E-11         0.00000E+00
    0.44177E-08         0.35267E-11         0.00000E+00
    0.44178E-08         0.70019E-11         0.00000E+00
    0.44178E-08         0.10409E-10         0.00000E+00
    0.44180E-08         0.13739E-10         0.00000E+00
    0.44181E-08         0.16985E-10         0.00000E+00
    0.44183E-08         0.20139E-10         0.00000E+00
    0.44185E-08         0.23194E-10         0.00000E+00
    0.44187E-08         0.26144E-10         0.00000E+00
    0.44190E-08         0.28981E-10         0.00000E+00
    0.44193E-08         0.31700E-10         0.00000E+00
    0.44196E-08         0.34293E-10         0.00000E+00
    0.44200E-08         0.36756E-10         0.00000E+00
    0.44204E-08         0.39083E-10         0.00000E+00
    0.44208E-08         0.41269E-10         0.00000E+00
    0.44212E-08         0.43308E-10         0.00000E+00
    0.44216E-08         0.45196E-10         0.00000E+00
    0.44221E-08         0.46928E-10         0.00000E+00
    0.44226E-08         0.48501E-10         0.00000E+00
    0.44231E-08         0.49910E-10         0.00000E+00
    0.44236E-08         0.51151E-10         0.00000E+00
    0.44241E-08         0.52222E-10         0.00000E+00
    0.44246E-08         0.53118E-10         0.00000E+00
    0.44251E-08         0.53836E-10         0.00000E+00
    0.44256E-08         0.54375E-10         0.00000E+00
    0.44262E-08         0.54731E-10         0.00000E+00
    0.44267E-08         0.54901E-10         0.00000E+00
    0.44272E-08         0.54884E-10         0.00000E+00
    0.44278E-08         0.54678E-10         0.00000E+00
    0.44283E-08         0.54279E-10         0.00000E+00
    0.44288E-08         0.53688E-10         0.00000E+00
    0.44293E-08         0.52902E-10         0.00000E+00
    0.44298E-08         0.51920E-10         0.00000E+00
    0.44303E-08         0.50741E-10         0.00000E+00
    0.44308E-08         0.49364E-10         0.00000E+00
    0.44312E-08         0.47787E-10         0.00000E+00
    0.44316E-08         0.46010E-10         0.00000E+00
    0.44321E-08         0.44033E-10         0.00000E+00
    0.44324E-08         0.41854E-10         0.00000E+00
    0.44328E-08         0.39474E-10         0.00000E+00
    0.44332E-08         0.36892E-10         0.00000E+00
    0.44335E-08         0.34108E-10         0.00000E+00
    0.44338E-08         0.31122E-10         0.00000E+00
    0.44340E-08         0.27934E-10         0.00000E+00
    0.44343E-08         0.24544E-10         0.00000E+00
    0.44345E-08         0.20953E-10         0.00000E+00
    0.44346E-08         0.17160E-10         0.00000E+00
    0.44348E-08         0.13166E-10         0.00000E+00
    0.44349E-08         0.89717E-11         0.00000E+00
    0.44349E-08         0.45773E-11         0.00000E+00
    0.44349E-08         0.23301E-11         0.00000E+00
    0.45227E-08         0.17055E-11         0.00000E+00
    0.45227E-08         0.33908E-11         0.00000E+00
    0.45227E-08         0.67282E-11         0.00000E+00
    0.45228E-08         0.99960E-11         0.00000E+00
    0.45229E-08         0.13187E-10         0.00000E+00
    0.45230E-08         0.16295E-10         0.00000E+00
    0.45231E-08         0.19312E-10         0.00000E+00
    0.45233E-08         0.22233E-10         0.00000E+00
    0.45234E-08         0.25052E-10         0.00000E+00
    0.45236E-08         0.27762E-10         0.00000E+00
    0.45238E-08         0.30357E-10         0.00000E+00
    0.45241E-08         0.32833E-10         0.00000E+00
    0.45243E-08         0.35184E-10         0.00000E+00
    0.45246E-08         0.37405E-10         0.00000E+00
    0.45249E-08         0.39491E-10         0.00000E+00
    0.45252E-08         0.41438E-10         0.00000E+00
    0.45256E-08         0.43240E-10         0.00000E+00
    0.45259E-08         0.44895E-10         0.00000E+00
    0.45263E-08         0.46398E-10         0.00000E+00
    0.45266E-08         0.47745E-10         0.00000E+00
    0.45270E-08         0.48932E-10         0.00000E+00
    0.45274E-08         0.49958E-10         0.00000E+00
    0.45278E-08         0.50817E-10         0.00000E+00
    0.45282E-08         0.51507E-10         0.00000E+00
    0.45286E-08         0.52026E-10         0.00000E+00
    0.45290E-08         0.52371E-10         0.00000E+00
    0.45294E-08         0.52539E-10         0.00000E+00
    0.45299E-08         0.52529E-10         0.00000E+00
    0.45303E-08         0.52337E-10         0.00000E+00
    0.45307E-08         0.51963E-10         0.00000E+00
    0.45311E-08         0.51404E-10         0.00000E+00
    0.45315E-08         0.50660E-10         0.00000E+00
    0.45319E-08         0.49727E-10         0.00000E+00
    0.45323E-08         0.48606E-10         0.00000E+00
    0.45327E-08         0.47295E-10         0.00000E+00
    0.45330E-08         0.45792E-10         0.00000E+00
    0.45334E-08         0.44098E-10         0.00000E+00
    0.45337E-08         0.42211E-10         0.00000E+00
    0.45340E-08         0.40131E-10         0.00000E+00
    0.45343E-08         0.37856E-10         0.00000E+00
    0.45346E-08         0.35388E-10         0.00000E+00
    0.45349E-08         0.32725E-10         0.00000E+00
    0.45351E-08         0.29866E-10         0.00000E+00
    0.45353E-08         0.26813E-10         0.00000E+00
    0.45355E-08         0.23565E-10         0.00000E+00
    0.45357E-08         0.20121E-10         0.00000E+00
    0.45358E-08         0.16483E-10         0.00000E+00
    0.45359E-08         0.12649E-10         0.00000E+00
    0.45360E-08         0.86217E-11         0.00000E+00
    0.45360E-08         0.43997E-11         0.00000E+00
    0.45361E-08         0.22402E-11         0.00000E+00
    0.46419E-08         0.16648E-11         0.00000E+00
    0.46419E-08         0.33078E-11         0.00000E+00
    0.46419E-08         0.65584E-11         0.00000E+00
    0.46420E-08         0.97356E-11         0.00000E+00
    0.46420E-08         0.12833E-10         0.00000E+00
    0.46421E-08         0.15846E-10         0.00000E+00
    0.46421E-08         0.18767E-10         0.00000E+00
    0.46422E-08         0.21591E-10         0.00000E+00
    0.46423E-08         0.24313E-10         0.00000E+00
    0.46425E-08         0.26928E-10         0.00000E+00
    0.46426E-08         0.29431E-10         0.00000E+00
    0.46428E-08         0.31816E-10         0.00000E+00
    0.46429E-08         0.34079E-10         0.00000E+00
    0.46431E-08         0.36215E-10         0.00000E+00
    0.46433E-08         0.38221E-10         0.00000E+00
    0.46435E-08         0.40092E-10         0.00000E+00
    0.46438E-08         0.41823E-10         0.00000E+00
    0.46440E-08         0.43412E-10         0.00000E+00
    0.46443E-08         0.44854E-10         0.00000E+00
    0.46445E-08         0.46146E-10         0.00000E+00
    0.46448E-08         0.47285E-10         0.00000E+00
    0.46451E-08         0.48267E-10         0.00000E+00
    0.46454E-08         0.49090E-10         0.00000E+00
    0.46457E-08         0.49751E-10         0.00000E+00
    0.46460E-08         0.50247E-10         0.00000E+00
    0.46463E-08         0.50576E-10         0.00000E+00
    0.46466E-08         0.50735E-10         0.00000E+00
    0.46469E-08         0.50722E-10         0.00000E+00
    0.46472E-08         0.50536E-10         0.00000E+00
    0.46475E-08         0.50174E-10         0.00000E+00
    0.46478E-08         0.49634E-10         0.00000E+00
    0.46481E-08         0.48915E-10         0.00000E+00
    0.46484E-08         0.48016E-10         0.00000E+00
    0.46487E-08         0.46935E-10         0.00000E+00
    0.46490E-08         0.45671E-10         0.00000E+00
    0.46493E-08         0.44223E-10         0.00000E+00
    0.46496E-08         0.42589E-10         0.00000E+00
    0.46498E-08         0.40770E-10         0.00000E+00
    0.46501E-08         0.38764E-10         0.00000E+00
    0.46503E-08         0.36571E-10         0.00000E+00
    0.46505E-08         0.34189E-10         0.00000E+00
    0.46507E-08         0.31620E-10         0.00000E+00
    0.46509E-08         0.28861E-10         0.00000E+00
    0.46511E-08         0.25914E-10         0.00000E+00
    0.46512E-08         0.22778E-10         0.00000E+00
    0.46514E-08         0.19452E-10         0.00000E+00
    0.46515E-08         0.15937E-10         0.00000E+00
    0.46516E-08         0.12232E-10         0.00000E+00
    0.46516E-08         0.83385E-11         0.00000E+00
    0.46517E-08         0.42558E-11         0.00000E+00
    0.46517E-08         0.21672E-11         0.00000E+00
    0.47751E-08         0.16469E-11         0.00000E+00
    0.47751E-08         0.32696E-11         0.00000E+00
    0.47751E-08         0.64768E-11         0.00000E+00
    0.47751E-08         0.96048E-11         0.00000E+00
    0.47751E-08         0.12649E-10         0.00000E+00
    0.47752E-08         0.15603E-10         0.00000E+00
    0.47752E-08         0.18463E-10         0.00000E+00
    0.47753E-08         0.21224E-10         0.00000E+00
    0.47753E-08         0.23881E-10         0.00000E+00
    0.47754E-08         0.26430E-10         0.00000E+00
    0.47755E-08         0.28866E-10         0.00000E+00
    0.47755E-08         0.31185E-10         0.00000E+00
    0.47756E-08         0.33383E-10         0.00000E+00
    0.47757E-08         0.35456E-10         0.00000E+00
    0.47759E-08         0.37399E-10         0.00000E+00
    0.47760E-08         0.39210E-10         0.00000E+00
    0.47761E-08         0.40884E-10         0.00000E+00
    0.47763E-08         0.42418E-10         0.00000E+00
    0.47765E-08         0.43810E-10         0.00000E+00
    0.47766E-08         0.45055E-10         0.00000E+00
    0.47768E-08         0.46150E-10         0.00000E+00
    0.47770E-08         0.47094E-10         0.00000E+00
    0.47772E-08         0.47883E-10         0.00000E+00
    0.47774E-08         0.48514E-10         0.00000E+00
    0.47776E-08         0.48985E-10         0.00000E+00
    0.47778E-08         0.49294E-10         0.00000E+00
    0.47780E-08         0.49439E-10         0.00000E+00
    0.47782E-08         0.49417E-10         0.00000E+00
    0.47784E-08         0.49227E-10         0.00000E+00
    0.47787E-08         0.48867E-10         0.00000E+00
    0.47789E-08         0.48335E-10         0.00000E+00
    0.47791E-08         0.47629E-10         0.00000E+00
    0.47793E-08         0.46749E-10         0.00000E+00
    0.47795E-08         0.45692E-10         0.00000E+00
    0.47797E-08         0.44458E-10         0.00000E+00
    0.47799E-08         0.43046E-10         0.00000E+00
    0.47801E-08         0.41454E-10         0.00000E+00
    0.47803E-08         0.39682E-10         0.00000E+00
    0.47805E-08         0.37728E-10         0.00000E+00
    0.47807E-08         0.35593E-10         0.00000E+00
    0.47808E-08         0.33275E-10         0.00000E+00
    0.47810E-08         0.30775E-10         0.00000E+00
    0.47811E-08         0.28090E-10         0.00000E+00
    0.47813E-08         0.25222E-10         0.00000E+00
    0.47814E-08         0.22170E-10         0.00000E+00
    0.47815E-08         0.18934E-10         0.00000E+00
    0.47815E-08         0.15513E-10         0.00000E+00
    0.47816E-08         0.11908E-10         0.00000E+00
    0.47817E-08         0.81179E-11         0.00000E+00
    0.47817E-08         0.41435E-11         0.00000E+00
    0.47817E-08         0.21101E-11         0.00000E+00
    0.49222E-08         0.16478E-11         0.00000E+00
    0.49222E-08         0.32687E-11         0.00000E+00
    0.49222E-08         0.64685E-11         0.00000E+00
    0.49222E-08         0.95823E-11         0.00000E+00
    0.49222E-08         0.12606E-10         0.00000E+00
    0.49222E-08         0.15534E-10         0.00000E+00
    0.49222E-08         0.18364E-10         0.00000E+00
    0.49222E-08         0.21090E-10         0.00000E+00
    0.49222E-08         0.23709E-10         0.00000E+00
    0.49223E-08         0.26217E-10         0.00000E+00
    0.49223E-08         0.28611E-10         0.00000E+00
    0.49223E-08         0.30886E-10         0.00000E+00
    0.49224E-08         0.33038E-10         0.00000E+00
    0.49224E-08         0.35065E-10         0.00000E+00
    0.49224E-08         0.36963E-10         0.00000E+00
    0.49225E-08         0.38728E-10         0.00000E+00
    0.49226E-08         0.40358E-10         0.00000E+00
    0.49226E-08         0.41849E-10         0.00000E+00
    0.49227E-08         0.43199E-10         0.00000E+00
    0.49228E-08         0.44405E-10         0.00000E+00
    0.49229E-08         0.45463E-10         0.00000E+00
    0.49230E-08         0.46373E-10         0.00000E+00
    0.49231E-08         0.47130E-10         0.00000E+00
    0.49232E-08         0.47732E-10         0.00000E+00
    0.49234E-08         0.48178E-10         0.00000E+00
    0.49235E-08         0.48465E-10         0.00000E+00
    0.49236E-08         0.48592E-10         0.00000E+00
    0.49237E-08         0.48556E-10         0.00000E+00
    0.49239E-08         0.48356E-10         0.00000E+00
    0.49240E-08         0.47989E-10         0.00000E+00
    0.49242E-08         0.47455E-10         0.00000E+00
    0.49243E-08         0.46751E-10         0.00000E+00
    0.49244E-08         0.45878E-10         0.00000E+00
    0.49246E-08         0.44832E-10         0.00000E+00
    0.49247E-08         0.43614E-10         0.00000E+00
    0.49248E-08         0.42221E-10         0.00000E+00
    0.49250E-08         0.40654E-10         0.00000E+00
    0.49251E-08         0.38911E-10         0.00000E+00
    0.49252E-08         0.36991E-10         0.00000E+00
    0.49254E-08         0.34893E-10         0.00000E+00
    0.49255E-08         0.32618E-10         0.00000E+00
    0.49256E-08         0.30164E-10         0.00000E+00
    0.49257E-08         0.27531E-10         0.00000E+00
    0.49258E-08         0.24718E-10         0.00000E+00
    0.49258E-08         0.21726E-10         0.00000E+00
    0.49259E-08         0.18554E-10         0.00000E+00
    0.49260E-08         0.15201E-10         0.00000E+00
    0.49260E-08         0.11668E-10         0.00000E+00
    0.49260E-08         0.79540E-11         0.00000E+00
    0.49261E-08         0.40598E-11         0.00000E+00
    0.49261E-08         0.20675E-11         0.00000E+00
    0.50833E-08         0.16639E-11         0.00000E+00
    0.50833E-08         0.32980E-11         0.00000E+00
    0.50833E-08         0.65201E-11         0.00000E+00
    0.50833E-08         0.96482E-11         0.00000E+00
    0.50832E-08         0.12679E-10         0.00000E+00
    0.50832E-08         0.15608E-10         0.00000E+00
    0.50832E-08         0.18432E-10         0.00000E+00
    0.50832E-08         0.21148E-10         0.00000E+00
    0.50831E-08         0.23752E-10         0.00000E+00
    0.50831E-08         0.26242E-10         0.00000E+00
    0.50831E-08         0.28613E-10         0.00000E+00
    0.50831E-08         0.30862E-10         0.00000E+00
    0.50830E-08         0.32987E-10         0.00000E+00
    0.50830E-08         0.34984E-10         0.00000E+00
    0.50830E-08         0.36851E-10         0.00000E+00
    0.50830E-08         0.38585E-10         0.00000E+00
    0.50830E-08         0.40182E-10         0.00000E+00
    0.50830E-08         0.41641E-10         0.00000E+00
    0.50830E-08         0.42958E-10         0.00000E+00
    0.50831E-08         0.44131E-10         0.00000E+00
    0.50831E-08         0.45159E-10         0.00000E+00
    0.50831E-08         0.46038E-10         0.00000E+00
    0.50832E-08         0.46766E-10         0.00000E+00
    0.50832E-08         0.47342E-10         0.00000E+00
    0.50833E-08         0.47762E-10         0.00000E+00
    0.50833E-08         0.48027E-10         0.00000E+00
    0.50834E-08         0.48133E-10         0.00000E+00
    0.50834E-08         0.48078E-10         0.00000E+00
    0.50835E-08         0.47862E-10         0.00000E+00
    0.50836E-08         0.47483E-10         0.00000E+00
    0.50836E-08         0.46939E-10         0.00000E+00
    0.50837E-08         0.46229E-10         0.00000E+00
    0.50838E-08         0.45352E-10         0.00000E+00
    0.50839E-08         0.44306E-10         0.00000E+00
    0.50839E-08         0.43091E-10         0.00000E+00
    0.50840E-08         0.41705E-10         0.00000E+00
    0.50841E-08         0.40147E-10         0.00000E+00
    0.50842E-08         0.38417E-10         0.00000E+00
    0.50842E-08         0.36514E-10         0.00000E+00
    0.50843E-08         0.34437E-10         0.00000E+00
    0.50844E-08         0.32186E-10         0.00000E+00
    0.50844E-08         0.29760E-10         0.00000E+00
    0.50845E-08         0.27158E-10         0.00000E+00
    0.50846E-08         0.24380E-10         0.00000E+00
    0.50846E-08         0.21426E-10         0.00000E+00
    0.50847E-08         0.18295E-10         0.00000E+00
    0.50847E-08         0.14987E-10         0.00000E+00
    0.50847E-08         0.11502E-10         0.00000E+00
    0.50847E-08         0.78406E-11         0.00000E+00
    0.50848E-08         0.40015E-11         0.00000E+00
    0.50848E-08         0.20377E-11         0.00000E+00
    0.52583E-08         0.16922E-11         0.00000E+00
    0.52583E-08         0.33515E-11         0.00000E+00
    0.52582E-08         0.66195E-11         0.00000E+00
    0.52582E-08         0.97851E-11         0.00000E+00
    0.52582E-08         0.12845E-10         0.00000E+00
    0.52581E-08         0.15797E-10         0.00000E+00
    0.52581E-08         0.18637E-10         0.00000E+00
    0.52580E-08         0.21362E-10         0.00000E+00
    0.52580E-08         0.23971E-10         0.00000E+00
    0.52579E-08         0.26459E-10         0.00000E+00
    0.52579E-08         0.28825E-10         0.00000E+00
    0.52578E-08         0.31065E-10         0.00000E+00
    0.52577E-08         0.33177E-10         0.00000E+00
    0.52577E-08         0.35159E-10         0.00000E+00
    0.52576E-08         0.37008E-10         0.00000E+00
    0.52576E-08         0.38721E-10         0.00000E+00
    0.52575E-08         0.40296E-10         0.00000E+00
    0.52575E-08         0.41731E-10         0.00000E+00
    0.52574E-08         0.43023E-10         0.00000E+00
    0.52574E-08         0.44171E-10         0.00000E+00
    0.52574E-08         0.45173E-10         0.00000E+00
    0.52574E-08         0.46026E-10         0.00000E+00
    0.52573E-08         0.46729E-10         0.00000E+00
    0.52573E-08         0.47279E-10         0.00000E+00
    0.52573E-08         0.47676E-10         0.00000E+00
    0.52573E-08         0.47917E-10         0.00000E+00
    0.52573E-08         0.48000E-10         0.00000E+00
    0.52573E-08         0.47925E-10         0.00000E+00
    0.52573E-08         0.47690E-10         0.00000E+00
    0.52573E-08         0.47293E-10         0.00000E+00
    0.52573E-08         0.46733E-10         0.00000E+00
    0.52573E-08         0.46009E-10         0.00000E+00
    0.52574E-08         0.45120E-10         0.00000E+00
    0.52574E-08         0.44065E-10         0.00000E+00
    0.52574E-08         0.42842E-10         0.00000E+00
    0.52574E-08         0.41451E-10         0.00000E+00
    0.52575E-08         0.39892E-10         0.00000E+00
    0.52575E-08         0.38162E-10         0.00000E+00
    0.52575E-08         0.36262E-10         0.00000E+00
    0.52576E-08         0.34191E-10         0.00000E+00
    0.52576E-08         0.31948E-10         0.00000E+00
    0.52576E-08         0.29533E-10         0.00000E+00
    0.52577E-08         0.26945E-10         0.00000E+00
    0.52577E-08         0.24184E-10         0.00000E+00
    0.52577E-08         0.21249E-10         0.00000E+00
    0.52577E-08         0.18141E-10         0.00000E+00
    0.52578E-08         0.14858E-10         0.00000E+00
    0.52578E-08         0.11402E-10         0.00000E+00
    0.52578E-08         0.77707E-11         0.00000E+00
    0.52578E-08         0.39653E-11         0.00000E+00
    0.52578E-08         0.20190E-11         0.00000E+00
    0.54473E-08         0.17299E-11         0.00000E+00
    0.54473E-08         0.34237E-11         0.00000E+00
    0.54472E-08         0.67563E-11         0.00000E+00
    0.54472E-08         0.99775E-11         0.00000E+00
    0.54472E-08         0.13085E-10         0.00000E+00
    0.54471E-08         0.16076E-10         0.00000E+00
    0.54470E-08         0.18949E-10         0.00000E+00
    0.54470E-08         0.21700E-10         0.00000E+00
    0.54469E-08         0.24328E-10         0.00000E+00
    0.54468E-08         0.26831E-10         0.00000E+00
    0.54467E-08         0.29205E-10         0.00000E+00
    0.54466E-08         0.31449E-10         0.00000E+00
    0.54465E-08         0.33561E-10         0.00000E+00
    0.54464E-08         0.35539E-10         0.00000E+00
    0.54463E-08         0.37380E-10         0.00000E+00
    0.54463E-08         0.39082E-10         0.00000E+00
    0.54462E-08         0.40644E-10         0.00000E+00
    0.54461E-08         0.42063E-10         0.00000E+00
    0.54460E-08         0.43338E-10         0.00000E+00
    0.54459E-08         0.44467E-10         0.00000E+00
    0.54458E-08         0.45448E-10         0.00000E+00
    0.54458E-08         0.46279E-10         0.00000E+00
    0.54457E-08         0.46959E-10         0.00000E+00
    0.54456E-08         0.47486E-10         0.00000E+00
    0.54456E-08         0.47859E-10         0.00000E+00
    0.54455E-08         0.48077E-10         0.00000E+00
    0.54455E-08         0.48137E-10         0.00000E+00
    0.54454E-08         0.48039E-10         0.00000E+00
    0.54454E-08         0.47782E-10         0.00000E+00
    0.54453E-08         0.47363E-10         0.00000E+00
    0.54453E-08         0.46783E-10         0.00000E+00
    0.54453E-08         0.46039E-10         0.00000E+00
    0.54452E-08         0.45132E-10         0.00000E+00
    0.54452E-08         0.44060E-10         0.00000E+00
    0.54452E-08         0.42822E-10         0.00000E+00
    0.54452E-08         0.41418E-10         0.00000E+00
    0.54452E-08         0.39846E-10         0.00000E+00
    0.54452E-08         0.38106E-10         0.00000E+00
    0.54452E-08         0.36198E-10         0.00000E+00
    0.54452E-08         0.34120E-10         0.00000E+00
    0.54452E-08         0.31873E-10         0.00000E+00
    0.54452E-08         0.29455E-10         0.00000E+00
    0.54452E-08         0.26867E-10         0.00000E+00
    0.54452E-08         0.24108E-10         0.00000E+00
    0.54452E-08         0.21177E-10         0.00000E+00
    0.54452E-08         0.18075E-10         0.00000E+00
    0.54452E-08         0.14801E-10         0.00000E+00
    0.54452E-08         0.11356E-10         0.00000E+00
    0.54452E-08         0.77377E-11         0.00000E+00
    0.54452E-08         0.39477E-11         0.00000E+00
    0.54452E-08         0.20097E-11         0.00000E+00
    0.56505E-08         0.17747E-11         0.00000E+00
    0.56504E-08         0.35102E-11         0.00000E+00
    0.56504E-08         0.69214E-11         0.00000E+00
    0.56504E-08         0.10212E-10         0.00000E+00
    0.56503E-08         0.13381E-10         0.00000E+00
    0.56502E-08         0.16425E-10         0.00000E+00
    0.56502E-08         0.19343E-10         0.00000E+00
    0.56501E-08         0.22133E-10         0.00000E+00
    0.56500E-08         0.24793E-10         0.00000E+00
    0.56499E-08         0.27321E-10         0.00000E+00
    0.56498E-08         0.29716E-10         0.00000E+00
    0.56496E-08         0.31975E-10         0.00000E+00
    0.56495E-08         0.34096E-10         0.00000E+00
    0.56494E-08         0.36079E-10         0.00000E+00
    0.56493E-08         0.37921E-10         0.00000E+00
    0.56492E-08         0.39621E-10         0.00000E+00
    0.56490E-08         0.41177E-10         0.00000E+00
    0.56489E-08         0.42587E-10         0.00000E+00
    0.56488E-08         0.43850E-10         0.00000E+00
    0.56487E-08         0.44965E-10         0.00000E+00
    0.56486E-08         0.45929E-10         0.00000E+00
    0.56485E-08         0.46742E-10         0.00000E+00
    0.56484E-08         0.47402E-10         0.00000E+00
    0.56483E-08         0.47909E-10         0.00000E+00
    0.56482E-08         0.48260E-10         0.00000E+00
    0.56481E-08         0.48454E-10         0.00000E+00
    0.56480E-08         0.48491E-10         0.00000E+00
    0.56479E-08         0.48369E-10         0.00000E+00
    0.56478E-08         0.48087E-10         0.00000E+00
    0.56477E-08         0.47644E-10         0.00000E+00
    0.56477E-08         0.47040E-10         0.00000E+00
    0.56476E-08         0.46273E-10         0.00000E+00
    0.56475E-08         0.45342E-10         0.00000E+00
    0.56475E-08         0.44248E-10         0.00000E+00
    0.56474E-08         0.42988E-10         0.00000E+00
    0.56474E-08         0.41563E-10         0.00000E+00
    0.56473E-08         0.39971E-10         0.00000E+00
    0.56473E-08         0.38213E-10         0.00000E+00
    0.56473E-08         0.36287E-10         0.00000E+00
    0.56473E-08         0.34193E-10         0.00000E+00
    0.56472E-08         0.31931E-10         0.00000E+00
    0.56472E-08         0.29500E-10         0.00000E+00
    0.56472E-08         0.26900E-10         0.00000E+00
    0.56472E-08         0.24130E-10         0.00000E+00
    0.56472E-08         0.21191E-10         0.00000E+00
    0.56472E-08         0.18082E-10         0.00000E+00
    0.56472E-08         0.14803E-10         0.00000E+00
    0.56471E-08         0.11354E-10         0.00000E+00
    0.56471E-08         0.77351E-11         0.00000E+00
    0.56471E-08         0.39456E-11         0.00000E+00
    0.56471E-08         0.20083E-11         0.00000E+00
    0.58680E-08         0.18247E-11         0.00000E+00
    0.58680E-08         0.36068E-11         0.00000E+00
    0.58679E-08         0.71069E-11         0.00000E+00
    0.58679E-08         0.10478E-10         0.00000E+00
    0.58678E-08         0.13717E-10         0.00000E+00
    0.58678E-08         0.16825E-10         0.00000E+00
    0.58677E-08         0.19798E-10         0.00000E+00
    0.58676E-08         0.22636E-10         0.00000E+00
    0.58675E-08         0.25338E-10         0.00000E+00
    0.58673E-08         0.27901E-10         0.00000E+00
    0.58672E-08         0.30324E-10         0.00000E+00
    0.58671E-08         0.32606E-10         0.00000E+00
    0.58669E-08         0.34745E-10         0.00000E+00
    0.58668E-08         0.36741E-10         0.00000E+00
    0.58667E-08         0.38591E-10         0.00000E+00
    0.58665E-08         0.40295E-10         0.00000E+00
    0.58664E-08         0.41850E-10         0.00000E+00
    0.58662E-08         0.43257E-10         0.00000E+00
    0.58661E-08         0.44513E-10         0.00000E+00
    0.58659E-08         0.45618E-10         0.00000E+00
    0.58658E-08         0.46569E-10         0.00000E+00
    0.58657E-08         0.47367E-10         0.00000E+00
    0.58655E-08         0.48010E-10         0.00000E+00
    0.58654E-08         0.48497E-10         0.00000E+00
    0.58653E-08         0.48827E-10         0.00000E+00
    0.58651E-08         0.48999E-10         0.00000E+00
    0.58650E-08         0.49012E-10         0.00000E+00
    0.58649E-08         0.48866E-10         0.00000E+00
    0.58648E-08         0.48558E-10         0.00000E+00
    0.58647E-08         0.48090E-10         0.00000E+00
    0.58646E-08         0.47459E-10         0.00000E+00
    0.58645E-08         0.46665E-10         0.00000E+00
    0.58644E-08         0.45708E-10         0.00000E+00
    0.58643E-08         0.44586E-10         0.00000E+00
    0.58643E-08         0.43300E-10         0.00000E+00
    0.58642E-08         0.41848E-10         0.00000E+00
    0.58641E-08         0.40231E-10         0.00000E+00
    0.58641E-08         0.38447E-10         0.00000E+00
    0.58640E-08         0.36497E-10         0.00000E+00
    0.58640E-08         0.34379E-10         0.00000E+00
    0.58639E-08         0.32094E-10         0.00000E+00
    0.58639E-08         0.29641E-10         0.00000E+00
    0.58638E-08         0.27020E-10         0.00000E+00
    0.58638E-08         0.24231E-10         0.00000E+00
    0.58638E-08         0.21274E-10         0.00000E+00
    0.58638E-08         0.18148E-10         0.00000E+00
    0.58638E-08         0.14853E-10         0.00000E+00
    0.58637E-08         0.11389E-10         0.00000E+00
    0.58637E-08         0.77569E-11         0.00000E+00
    0.58637E-08         0.39558E-11         0.00000E+00
    0.58637E-08         0.20131E-11         0.00000E+00
    0.61001E-08         0.18780E-11         0.00000E+00
    0.61001E-08         0.37103E-11         0.00000E+00
    0.61001E-08         0.73062E-11         0.00000E+00
    0.61000E-08         0.10764E-10         0.00000E+00
    0.60999E-08         0.14082E-10         0.00000E+00
    0.60999E-08         0.17259E-10         0.00000E+00
    0.60998E-08         0.20295E-10         0.00000E+00
    0.60997E-08         0.23189E-10         0.00000E+00
    0.60995E-08         0.25938E-10         0.00000E+00
    0.60994E-08         0.28542E-10         0.00000E+00
    0.60993E-08         0.31001E-10         0.00000E+00
    0.60991E-08         0.33312E-10         0.00000E+00
    0.60990E-08         0.35475E-10         0.00000E+00
    0.60988E-08         0.37489E-10         0.00000E+00
    0.60987E-08         0.39353E-10         0.00000E+00
    0.60985E-08         0.41065E-10         0.00000E+00
    0.60983E-08         0.42625E-10         0.00000E+00
    0.60982E-08         0.44032E-10         0.00000E+00
    0.60980E-08         0.45285E-10         0.00000E+00
    0.60979E-08         0.46383E-10         0.00000E+00
    0.60977E-08         0.47325E-10         0.00000E+00
    0.60975E-08         0.48111E-10         0.00000E+00
    0.60974E-08         0.48738E-10         0.00000E+00
    0.60972E-08         0.49208E-10         0.00000E+00
    0.60971E-08         0.49518E-10         0.00000E+00
    0.60969E-08         0.49668E-10         0.00000E+00
    0.60968E-08         0.49658E-10         0.00000E+00
    0.60967E-08         0.49487E-10         0.00000E+00
    0.60965E-08         0.49153E-10         0.00000E+00
    0.60964E-08         0.48657E-10         0.00000E+00
    0.60963E-08         0.47999E-10         0.00000E+00
    0.60962E-08         0.47176E-10         0.00000E+00
    0.60961E-08         0.46189E-10         0.00000E+00
    0.60960E-08         0.45038E-10         0.00000E+00
    0.60959E-08         0.43722E-10         0.00000E+00
    0.60958E-08         0.42240E-10         0.00000E+00
    0.60957E-08         0.40592E-10         0.00000E+00
    0.60956E-08         0.38778E-10         0.00000E+00
    0.60956E-08         0.36798E-10         0.00000E+00
    0.60955E-08         0.34651E-10         0.00000E+00
    0.60954E-08         0.32337E-10         0.00000E+00
    0.60954E-08         0.29856E-10         0.00000E+00
    0.60953E-08         0.27207E-10         0.00000E+00
    0.60953E-08         0.24392E-10         0.00000E+00
    0.60953E-08         0.21408E-10         0.00000E+00
    0.60952E-08         0.18257E-10         0.00000E+00
    0.60952E-08         0.14938E-10         0.00000E+00
    0.60952E-08         0.11451E-10         0.00000E+00
    0.60952E-08         0.77972E-11         0.00000E+00
    0.60952E-08         0.39754E-11         0.00000E+00
    0.60952E-08         0.20226E-11         0.00000E+00
    0.63471E-08         0.19333E-11         0.00000E+00
    0.63471E-08         0.38178E-11         0.00000E+00
    0.63470E-08         0.75135E-11         0.00000E+00
    0.63470E-08         0.11062E-10         0.00000E+00
    0.63469E-08         0.14463E-10         0.00000E+00
    0.63468E-08         0.17715E-10         0.00000E+00
    0.63467E-08         0.20818E-10         0.00000E+00
    0.63466E-08         0.23771E-10         0.00000E+00
    0.63465E-08         0.26573E-10         0.00000E+00
    0.63464E-08         0.29223E-10         0.00000E+00
    0.63462E-08         0.31721E-10         0.00000E+00
    0.63461E-08         0.34066E-10         0.00000E+00
    0.63459E-08         0.36257E-10         0.00000E+00
    0.63458E-08         0.38293E-10         0.00000E+00
    0.63456E-08         0.40174E-10         0.00000E+00
    0.63454E-08         0.41899E-10         0.00000E+00
    0.63453E-08         0.43467E-10         0.00000E+00
    0.63451E-08         0.44878E-10         0.00000E+00
    0.63449E-08         0.46130E-10         0.00000E+00
    0.63447E-08         0.47224E-10         0.00000E+00
    0.63446E-08         0.48159E-10         0.00000E+00
    0.63444E-08         0.48934E-10         0.00000E+00
    0.63442E-08         0.49548E-10         0.00000E+00
    0.63441E-08         0.50001E-10         0.00000E+00
    0.63439E-08         0.50293E-10         0.00000E+00
    0.63437E-08         0.50422E-10         0.00000E+00
    0.63436E-08         0.50389E-10         0.00000E+00
    0.63434E-08         0.50193E-10         0.00000E+00
    0.63433E-08         0.49833E-10         0.00000E+00
    0.63432E-08         0.49310E-10         0.00000E+00
    0.63430E-08         0.48622E-10         0.00000E+00
    0.63429E-08         0.47769E-10         0.00000E+00
    0.63428E-08         0.46751E-10         0.00000E+00
    0.63427E-08         0.45568E-10         0.00000E+00
    0.63426E-08         0.44220E-10         0.00000E+00
    0.63425E-08         0.42705E-10         0.00000E+00
    0.63424E-08         0.41024E-10         0.00000E+00
    0.63423E-08         0.39177E-10         0.00000E+00
    0.63422E-08         0.37164E-10         0.00000E+00
    0.63421E-08         0.34983E-10         0.00000E+00
    0.63421E-08         0.32636E-10         0.00000E+00
    0.63420E-08         0.30123E-10         0.00000E+00
    0.63419E-08         0.27442E-10         0.00000E+00
    0.63419E-08         0.24594E-10         0.00000E+00
    0.63419E-08         0.21579E-10         0.00000E+00
    0.63418E-08         0.18397E-10         0.00000E+00
    0.63418E-08         0.15049E-10         0.00000E+00
    0.63418E-08         0.11533E-10         0.00000E+00
    0.63418E-08         0.78507E-11         0.00000E+00
    0.63417E-08         0.40017E-11         0.00000E+00
    0.63417E-08         0.20355E-11         0.00000E+00
    0.66093E-08         0.19892E-11         0.00000E+00
    0.66093E-08         0.39267E-11         0.00000E+00
    0.66092E-08         0.77239E-11         0.00000E+00
    0.66092E-08         0.11366E-10         0.00000E+00
    0.66091E-08         0.14851E-10         0.00000E+00
    0.66090E-08         0.18180E-10         0.00000E+00
    0.66089E-08         0.21352E-10         0.00000E+00
    0.66088E-08         0.24367E-10         0.00000E+00
    0.66087E-08         0.27224E-10         0.00000E+00
    0.66085E-08         0.29923E-10         0.00000E+00
    0.66084E-08         0.32463E-10         0.00000E+00
    0.66082E-08         0.34843E-10         0.00000E+00
    0.66081E-08         0.37064E-10         0.00000E+00
    0.66079E-08         0.39126E-10         0.00000E+00
    0.66077E-08         0.41026E-10         0.00000E+00
    0.66076E-08         0.42766E-10         0.00000E+00
    0.66074E-08         0.44344E-10         0.00000E+00
    0.66072E-08         0.45761E-10         0.00000E+00
    0.66070E-08         0.47015E-10         0.00000E+00
    0.66069E-08         0.48107E-10         0.00000E+00
    0.66067E-08         0.49036E-10         0.00000E+00
    0.66065E-08         0.49802E-10         0.00000E+00
    0.66063E-08         0.50404E-10         0.00000E+00
    0.66062E-08         0.50842E-10         0.00000E+00
    0.66060E-08         0.51116E-10         0.00000E+00
    0.66058E-08         0.51225E-10         0.00000E+00
    0.66057E-08         0.51170E-10         0.00000E+00
    0.66055E-08         0.50949E-10         0.00000E+00
    0.66054E-08         0.50563E-10         0.00000E+00
    0.66052E-08         0.50012E-10         0.00000E+00
    0.66051E-08         0.49294E-10         0.00000E+00
    0.66050E-08         0.48411E-10         0.00000E+00
    0.66048E-08         0.47362E-10         0.00000E+00
    0.66047E-08         0.46146E-10         0.00000E+00
    0.66046E-08         0.44764E-10         0.00000E+00
    0.66045E-08         0.43215E-10         0.00000E+00
    0.66044E-08         0.41499E-10         0.00000E+00
    0.66043E-08         0.39617E-10         0.00000E+00
    0.66042E-08         0.37568E-10         0.00000E+00
    0.66041E-08         0.35353E-10         0.00000E+00
    0.66041E-08         0.32970E-10         0.00000E+00
    0.66040E-08         0.30421E-10         0.00000E+00
    0.66039E-08         0.27705E-10         0.00000E+00
    0.66039E-08         0.24822E-10         0.00000E+00
    0.66038E-08         0.21773E-10         0.00000E+00
    0.66038E-08         0.18557E-10         0.00000E+00
    0.66038E-08         0.15175E-10         0.00000E+00
    0.66038E-08         0.11627E-10         0.00000E+00
    0.66037E-08         0.79124E-11         0.00000E+00
    0.66037E-08         0.40321E-11         0.00000E+00
    0.66037E-08         0.20506E-11         0.00000E+00
    0.68870E-08         0.20447E-11         0.00000E+00
    0.68870E-08         0.40348E-11         0.00000E+00
    0.68870E-08         0.79330E-11         0.00000E+00
    0.68869E-08         0.11667E-10         0.00000E+00
    0.68868E-08         0.15238E-10         0.00000E+00
    0.68867E-08         0.18644E-10         0.00000E+00
    0.68866E-08         0.21885E-10         0.00000E+00
    0.68865E-08         0.24963E-10         0.00000E+00
    0.68864E-08         0.27875E-10         0.00000E+00
    0.68863E-08         0.30623E-10         0.00000E+00
    0.68861E-08         0.33206E-10         0.00000E+00
    0.68860E-08         0.35624E-10         0.00000E+00
    0.68858E-08         0.37876E-10         0.00000E+00
    0.68857E-08         0.39963E-10         0.00000E+00
    0.68855E-08         0.41884E-10         0.00000E+00
    0.68853E-08         0.43640E-10         0.00000E+00
    0.68852E-08         0.45229E-10         0.00000E+00
    0.68850E-08         0.46653E-10         0.00000E+00
    0.68848E-08         0.47910E-10         0.00000E+00
    0.68846E-08         0.49001E-10         0.00000E+00
    0.68844E-08         0.49925E-10         0.00000E+00
    0.68843E-08         0.50683E-10         0.00000E+00
    0.68841E-08         0.51274E-10         0.00000E+00
    0.68839E-08         0.51698E-10         0.00000E+00
    0.68838E-08         0.51955E-10         0.00000E+00
    0.68836E-08         0.52045E-10         0.00000E+00
    0.68834E-08         0.51967E-10         0.00000E+00
    0.68833E-08         0.51723E-10         0.00000E+00
    0.68831E-08         0.51311E-10         0.00000E+00
    0.68830E-08         0.50732E-10         0.00000E+00
    0.68828E-08         0.49985E-10         0.00000E+00
    0.68827E-08         0.49071E-10         0.00000E+00
    0.68826E-08         0.47990E-10         0.00000E+00
    0.68825E-08         0.46741E-10         0.00000E+00
    0.68823E-08         0.45325E-10         0.00000E+00
    0.68822E-08         0.43742E-10         0.00000E+00
    0.68821E-08         0.41991E-10         0.00000E+00
    0.68820E-08         0.40074E-10         0.00000E+00
    0.68819E-08         0.37989E-10         0.00000E+00
    0.68819E-08         0.35737E-10         0.00000E+00
    0.68818E-08         0.33318E-10         0.00000E+00
    0.68817E-08         0.30732E-10         0.00000E+00
    0.68817E-08         0.27980E-10         0.00000E+00
    0.68816E-08         0.25061E-10         0.00000E+00
    0.68816E-08         0.21976E-10         0.00000E+00
    0.68815E-08         0.18725E-10         0.00000E+00
    0.68815E-08         0.15308E-10         0.00000E+00
    0.68815E-08         0.11725E-10         0.00000E+00
    0.68815E-08         0.79775E-11         0.00000E+00
    0.68815E-08         0.40643E-11         0.00000E+00
    0.68815E-08         0.20665E-11         0.00000E+00
    0.71807E-08         0.20987E-11         0.00000E+00
    0.71807E-08         0.41400E-11         0.00000E+00
    0.71806E-08         0.81367E-11         0.00000E+00
    0.71806E-08         0.11961E-10         0.00000E+00
    0.71805E-08         0.15614E-10         0.00000E+00
    0.71804E-08         0.19096E-10         0.00000E+00
    0.71803E-08         0.22406E-10         0.00000E+00
    0.71802E-08         0.25544E-10         0.00000E+00
    0.71801E-08         0.28511E-10         0.00000E+00
    0.71800E-08         0.31308E-10         0.00000E+00
    0.71798E-08         0.33933E-10         0.00000E+00
    0.71797E-08         0.36387E-10         0.00000E+00
    0.71796E-08         0.38670E-10         0.00000E+00
    0.71794E-08         0.40783E-10         0.00000E+00
    0.71792E-08         0.42725E-10         0.00000E+00
    0.71791E-08         0.44496E-10         0.00000E+00
    0.71789E-08         0.46097E-10         0.00000E+00
    0.71787E-08         0.47528E-10         0.00000E+00
    0.71786E-08         0.48788E-10         0.00000E+00
    0.71784E-08         0.49879E-10         0.00000E+00
    0.71782E-08         0.50799E-10         0.00000E+00
    0.71780E-08         0.51549E-10         0.00000E+00
    0.71779E-08         0.52129E-10         0.00000E+00
    0.71777E-08         0.52539E-10         0.00000E+00
    0.71775E-08         0.52779E-10         0.00000E+00
    0.71774E-08         0.52850E-10         0.00000E+00
    0.71772E-08         0.52752E-10         0.00000E+00
    0.71771E-08         0.52484E-10         0.00000E+00
    0.71769E-08         0.52047E-10         0.00000E+00
    0.71768E-08         0.51441E-10         0.00000E+00
    0.71767E-08         0.50666E-10         0.00000E+00
    0.71765E-08         0.49722E-10         0.00000E+00
    0.71764E-08         0.48609E-10         0.00000E+00
    0.71763E-08         0.47328E-10         0.00000E+00
    0.71762E-08         0.45879E-10         0.00000E+00
    0.71761E-08         0.44262E-10         0.00000E+00
    0.71760E-08         0.42476E-10         0.00000E+00
    0.71759E-08         0.40523E-10         0.00000E+00
    0.71758E-08         0.38403E-10         0.00000E+00
    0.71757E-08         0.36115E-10         0.00000E+00
    0.71757E-08         0.33660E-10         0.00000E+00
    0.71756E-08         0.31039E-10         0.00000E+00
    0.71755E-08         0.28251E-10         0.00000E+00
    0.71755E-08         0.25297E-10         0.00000E+00
    0.71754E-08         0.22176E-10         0.00000E+00
    0.71754E-08         0.18890E-10         0.00000E+00
    0.71754E-08         0.15439E-10         0.00000E+00
    0.71754E-08         0.11823E-10         0.00000E+00
    0.71753E-08         0.80415E-11         0.00000E+00
    0.71753E-08         0.40960E-11         0.00000E+00
    0.71753E-08         0.20821E-11         0.00000E+00
    0.74908E-08         0.21504E-11         0.00000E+00
    0.74907E-08         0.42407E-11         0.00000E+00
    0.74907E-08         0.83315E-11         0.00000E+00
    0.74907E-08         0.12243E-10         0.00000E+00
    0.74906E-08         0.15975E-10         0.00000E+00
    0.74905E-08         0.19528E-10         0.00000E+00
    0.74904E-08         0.22903E-10         0.00000E+00
    0.74903E-08         0.26100E-10         0.00000E+00
    0.74902E-08         0.29119E-10         0.00000E+00
    0.74901E-08         0.31961E-10         0.00000E+00
    0.74900E-08         0.34627E-10         0.00000E+00
    0.74898E-08         0.37116E-10         0.00000E+00
    0.74897E-08         0.39428E-10         0.00000E+00
    0.74895E-08         0.41565E-10         0.00000E+00
    0.74894E-08         0.43527E-10         0.00000E+00
    0.74892E-08         0.45313E-10         0.00000E+00
    0.74891E-08         0.46925E-10         0.00000E+00
    0.74889E-08         0.48362E-10         0.00000E+00
    0.74888E-08         0.49625E-10         0.00000E+00
    0.74886E-08         0.50714E-10         0.00000E+00
    0.74884E-08         0.51629E-10         0.00000E+00
    0.74883E-08         0.52372E-10         0.00000E+00
    0.74881E-08         0.52941E-10         0.00000E+00
    0.74880E-08         0.53338E-10         0.00000E+00
    0.74878E-08         0.53562E-10         0.00000E+00
    0.74877E-08         0.53615E-10         0.00000E+00
    0.74875E-08         0.53496E-10         0.00000E+00
    0.74874E-08         0.53205E-10         0.00000E+00
    0.74872E-08         0.52744E-10         0.00000E+00
    0.74871E-08         0.52111E-10         0.00000E+00
    0.74870E-08         0.51309E-10         0.00000E+00
    0.74869E-08         0.50336E-10         0.00000E+00
    0.74868E-08         0.49193E-10         0.00000E+00
    0.74866E-08         0.47881E-10         0.00000E+00
    0.74865E-08         0.46400E-10         0.00000E+00
    0.74864E-08         0.44750E-10         0.00000E+00
    0.74864E-08         0.42931E-10         0.00000E+00
    0.74863E-08         0.40945E-10         0.00000E+00
    0.74862E-08         0.38790E-10         0.00000E+00
    0.74861E-08         0.36469E-10         0.00000E+00
    0.74861E-08         0.33980E-10         0.00000E+00
    0.74860E-08         0.31324E-10         0.00000E+00
    0.74860E-08         0.28503E-10         0.00000E+00
    0.74859E-08         0.25515E-10         0.00000E+00
    0.74859E-08         0.22361E-10         0.00000E+00
    0.74858E-08         0.19043E-10         0.00000E+00
    0.74858E-08         0.15560E-10         0.00000E+00
    0.74858E-08         0.11912E-10         0.00000E+00
    0.74858E-08         0.81002E-11         0.00000E+00
    0.74858E-08         0.41249E-11         0.00000E+00
    0.74858E-08         0.20964E-11         0.00000E+00
    0.78177E-08         0.21988E-11         0.00000E+00
    0.78177E-08         0.43350E-11         0.00000E+00
    0.78177E-08         0.85138E-11         0.00000E+00
    0.78176E-08         0.12506E-10         0.00000E+00
    0.78176E-08         0.16311E-10         0.00000E+00
    0.78175E-08         0.19932E-10         0.00000E+00
    0.78174E-08         0.23367E-10         0.00000E+00
    0.78173E-08         0.26618E-10         0.00000E+00
    0.78172E-08         0.29685E-10         0.00000E+00
    0.78171E-08         0.32570E-10         0.00000E+00
    0.78170E-08         0.35272E-10         0.00000E+00
    0.78168E-08         0.37793E-10         0.00000E+00
    0.78167E-08         0.40132E-10         0.00000E+00
    0.78166E-08         0.42291E-10         0.00000E+00
    0.78164E-08         0.44269E-10         0.00000E+00
    0.78163E-08         0.46069E-10         0.00000E+00
    0.78162E-08         0.47689E-10         0.00000E+00
    0.78160E-08         0.49131E-10         0.00000E+00
    0.78159E-08         0.50395E-10         0.00000E+00
    0.78157E-08         0.51483E-10         0.00000E+00
    0.78156E-08         0.52393E-10         0.00000E+00
    0.78154E-08         0.53127E-10         0.00000E+00
    0.78153E-08         0.53685E-10         0.00000E+00
    0.78152E-08         0.54069E-10         0.00000E+00
    0.78150E-08         0.54277E-10         0.00000E+00
    0.78149E-08         0.54311E-10         0.00000E+00
    0.78148E-08         0.54172E-10         0.00000E+00
    0.78146E-08         0.53860E-10         0.00000E+00
    0.78145E-08         0.53374E-10         0.00000E+00
    0.78144E-08         0.52717E-10         0.00000E+00
    0.78143E-08         0.51888E-10         0.00000E+00
    0.78142E-08         0.50888E-10         0.00000E+00
    0.78141E-08         0.49717E-10         0.00000E+00
    0.78140E-08         0.48375E-10         0.00000E+00
    0.78139E-08         0.46864E-10         0.00000E+00
    0.78138E-08         0.45184E-10         0.00000E+00
    0.78137E-08         0.43335E-10         0.00000E+00
    0.78137E-08         0.41317E-10         0.00000E+00
    0.78136E-08         0.39132E-10         0.00000E+00
    0.78136E-08         0.36779E-10         0.00000E+00
    0.78135E-08         0.34259E-10         0.00000E+00
    0.78135E-08         0.31573E-10         0.00000E+00
    0.78134E-08         0.28721E-10         0.00000E+00
    0.78134E-08         0.25703E-10         0.00000E+00
    0.78133E-08         0.22520E-10         0.00000E+00
    0.78133E-08         0.19173E-10         0.00000E+00
    0.78133E-08         0.15662E-10         0.00000E+00
    0.78133E-08         0.11987E-10         0.00000E+00
    0.78133E-08         0.81495E-11         0.00000E+00
    0.78133E-08         0.41491E-11         0.00000E+00
    0.78133E-08         0.21083E-11         0.00000E+00
    0.81620E-08         0.22431E-11         0.00000E+00
    0.81620E-08         0.44212E-11         0.00000E+00
    0.81620E-08         0.86803E-11         0.00000E+00
    0.81619E-08         0.12746E-10         0.00000E+00
    0.81619E-08         0.16618E-10         0.00000E+00
    0.81618E-08         0.20299E-10         0.00000E+00
    0.81618E-08         0.23788E-10         0.00000E+00
    0.81617E-08         0.27088E-10         0.00000E+00
    0.81616E-08         0.30198E-10         0.00000E+00
    0.81615E-08         0.33120E-10         0.00000E+00
    0.81614E-08         0.35854E-10         0.00000E+00
    0.81613E-08         0.38402E-10         0.00000E+00
    0.81612E-08         0.40764E-10         0.00000E+00
    0.81610E-08         0.42941E-10         0.00000E+00
    0.81609E-08         0.44933E-10         0.00000E+00
    0.81608E-08         0.46743E-10         0.00000E+00
    0.81607E-08         0.48369E-10         0.00000E+00
    0.81605E-08         0.49814E-10         0.00000E+00
    0.81604E-08         0.51078E-10         0.00000E+00
    0.81603E-08         0.52161E-10         0.00000E+00
    0.81602E-08         0.53065E-10         0.00000E+00
    0.81600E-08         0.53790E-10         0.00000E+00
    0.81599E-08         0.54336E-10         0.00000E+00
    0.81598E-08         0.54706E-10         0.00000E+00
    0.81597E-08         0.54898E-10         0.00000E+00
    0.81596E-08         0.54914E-10         0.00000E+00
    0.81595E-08         0.54755E-10         0.00000E+00
    0.81594E-08         0.54422E-10         0.00000E+00
    0.81593E-08         0.53914E-10         0.00000E+00
    0.81592E-08         0.53233E-10         0.00000E+00
    0.81591E-08         0.52379E-10         0.00000E+00
    0.81590E-08         0.51353E-10         0.00000E+00
    0.81589E-08         0.50156E-10         0.00000E+00
    0.81588E-08         0.48788E-10         0.00000E+00
    0.81588E-08         0.47250E-10         0.00000E+00
    0.81587E-08         0.45542E-10         0.00000E+00
    0.81587E-08         0.43665E-10         0.00000E+00
    0.81586E-08         0.41620E-10         0.00000E+00
    0.81585E-08         0.39407E-10         0.00000E+00
    0.81585E-08         0.37027E-10         0.00000E+00
    0.81585E-08         0.34481E-10         0.00000E+00
    0.81584E-08         0.31769E-10         0.00000E+00
    0.81584E-08         0.28891E-10         0.00000E+00
    0.81584E-08         0.25849E-10         0.00000E+00
    0.81584E-08         0.22642E-10         0.00000E+00
    0.81583E-08         0.19272E-10         0.00000E+00
    0.81583E-08         0.15739E-10         0.00000E+00
    0.81583E-08         0.12043E-10         0.00000E+00
    0.81583E-08         0.81853E-11         0.00000E+00
    0.81583E-08         0.41663E-11         0.00000E+00
    0.81583E-08         0.21166E-11         0.00000E+00
    0.85243E-08         0.22825E-11         0.00000E+00
    0.85243E-08         0.44977E-11         0.00000E+00
    0.85242E-08         0.88277E-11         0.00000E+00
    0.85242E-08         0.12957E-10         0.00000E+00
    0.85242E-08         0.16888E-10         0.00000E+00
    0.85241E-08         0.20621E-10         0.00000E+00
    0.85240E-08         0.24157E-10         0.00000E+00
    0.85240E-08         0.27498E-10         0.00000E+00
    0.85239E-08         0.30644E-10         0.00000E+00
    0.85238E-08         0.33597E-10         0.00000E+00
    0.85237E-08         0.36357E-10         0.00000E+00
    0.85236E-08         0.38927E-10         0.00000E+00
    0.85235E-08         0.41306E-10         0.00000E+00
    0.85234E-08         0.43497E-10         0.00000E+00
    0.85233E-08         0.45499E-10         0.00000E+00
    0.85232E-08         0.47314E-10         0.00000E+00
    0.85231E-08         0.48944E-10         0.00000E+00
    0.85230E-08         0.50388E-10         0.00000E+00
    0.85229E-08         0.51649E-10         0.00000E+00
    0.85228E-08         0.52726E-10         0.00000E+00
    0.85227E-08         0.53622E-10         0.00000E+00
    0.85226E-08         0.54336E-10         0.00000E+00
    0.85225E-08         0.54870E-10         0.00000E+00
    0.85224E-08         0.55224E-10         0.00000E+00
    0.85224E-08         0.55400E-10         0.00000E+00
    0.85223E-08         0.55399E-10         0.00000E+00
    0.85222E-08         0.55221E-10         0.00000E+00
    0.85221E-08         0.54867E-10         0.00000E+00
    0.85220E-08         0.54338E-10         0.00000E+00
    0.85220E-08         0.53634E-10         0.00000E+00
    0.85219E-08         0.52758E-10         0.00000E+00
    0.85218E-08         0.51709E-10         0.00000E+00
    0.85218E-08         0.50488E-10         0.00000E+00
    0.85217E-08         0.49096E-10         0.00000E+00
    0.85217E-08         0.47534E-10         0.00000E+00
    0.85217E-08         0.45802E-10         0.00000E+00
    0.85216E-08         0.43902E-10         0.00000E+00
    0.85216E-08         0.41834E-10         0.00000E+00
    0.85216E-08         0.39599E-10         0.00000E+00
    0.85215E-08         0.37197E-10         0.00000E+00
    0.85215E-08         0.34629E-10         0.00000E+00
    0.85215E-08         0.31897E-10         0.00000E+00
    0.85215E-08         0.29000E-10         0.00000E+00
    0.85215E-08         0.25939E-10         0.00000E+00
    0.85214E-08         0.22715E-10         0.00000E+00
    0.85214E-08         0.19329E-10         0.00000E+00
    0.85214E-08         0.15781E-10         0.00000E+00
    0.85214E-08         0.12073E-10         0.00000E+00
    0.85214E-08         0.82036E-11         0.00000E+00
    0.85214E-08         0.41748E-11         0.00000E+00
    0.85214E-08         0.21205E-11         0.00000E+00
    0.89050E-08         0.23160E-11         0.00000E+00
    0.89050E-08         0.45627E-11         0.00000E+00
    0.89050E-08         0.89525E-11         0.00000E+00
    0.89050E-08         0.13136E-10         0.00000E+00
    0.89049E-08         0.17115E-10         0.00000E+00
    0.89049E-08         0.20891E-10         0.00000E+00
    0.89048E-08         0.24464E-10         0.00000E+00
    0.89048E-08         0.27837E-10         0.00000E+00
    0.89047E-08         0.31011E-10         0.00000E+00
    0.89047E-08         0.33987E-10         0.00000E+00
    0.89046E-08         0.36767E-10         0.00000E+00
    0.89045E-08         0.39352E-10         0.00000E+00
    0.89044E-08         0.41742E-10         0.00000E+00
    0.89044E-08         0.43940E-10         0.00000E+00
    0.89043E-08         0.45947E-10         0.00000E+00
    0.89042E-08         0.47764E-10         0.00000E+00
    0.89041E-08         0.49392E-10         0.00000E+00
    0.89041E-08         0.50832E-10         0.00000E+00
    0.89040E-08         0.52086E-10         0.00000E+00
    0.89039E-08         0.53155E-10         0.00000E+00
    0.89039E-08         0.54039E-10         0.00000E+00
    0.89038E-08         0.54741E-10         0.00000E+00
    0.89037E-08         0.55261E-10         0.00000E+00
    0.89037E-08         0.55600E-10         0.00000E+00
    0.89036E-08         0.55759E-10         0.00000E+00
    0.89036E-08         0.55739E-10         0.00000E+00
    0.89035E-08         0.55542E-10         0.00000E+00
    0.89035E-08         0.55169E-10         0.00000E+00
    0.89034E-08         0.54620E-10         0.00000E+00
    0.89034E-08         0.53896E-10         0.00000E+00
    0.89033E-08         0.52999E-10         0.00000E+00
    0.89033E-08         0.51929E-10         0.00000E+00
    0.89033E-08         0.50688E-10         0.00000E+00
    0.89033E-08         0.49276E-10         0.00000E+00
    0.89032E-08         0.47694E-10         0.00000E+00
    0.89032E-08         0.45943E-10         0.00000E+00
    0.89032E-08         0.44025E-10         0.00000E+00
    0.89032E-08         0.41939E-10         0.00000E+00
    0.89032E-08         0.39687E-10         0.00000E+00
    0.89032E-08         0.37269E-10         0.00000E+00
    0.89032E-08         0.34687E-10         0.00000E+00
    0.89032E-08         0.31941E-10         0.00000E+00
    0.89032E-08         0.29033E-10         0.00000E+00
    0.89032E-08         0.25962E-10         0.00000E+00
    0.89032E-08         0.22729E-10         0.00000E+00
    0.89032E-08         0.19336E-10         0.00000E+00
    0.89032E-08         0.15783E-10         0.00000E+00
    0.89032E-08         0.12071E-10         0.00000E+00
    0.89032E-08         0.82006E-11         0.00000E+00
    0.89032E-08         0.41723E-11         0.00000E+00
    0.89032E-08         0.21188E-11         0.00000E+00
    0.93049E-08         0.23429E-11         0.00000E+00
    0.93049E-08         0.46144E-11         0.00000E+00
    0.93049E-08         0.90513E-11         0.00000E+00
    0.93049E-08         0.13277E-10         0.00000E+00
    0.93048E-08         0.17292E-10         0.00000E+00
    0.93048E-08         0.21099E-10         0.00000E+00
    0.93048E-08         0.24699E-10         0.00000E+00
    0.93047E-08         0.28095E-10         0.00000E+00
    0.93047E-08         0.31287E-10         0.00000E+00
    0.93046E-08         0.34277E-10         0.00000E+00
    0.93046E-08         0.37068E-10         0.00000E+00
    0.93045E-08         0.39659E-10         0.00000E+00
    0.93045E-08         0.42054E-10         0.00000E+00
    0.93044E-08         0.44253E-10         0.00000E+00
    0.93044E-08         0.46258E-10         0.00000E+00
    0.93044E-08         0.48071E-10         0.00000E+00
    0.93043E-08         0.49692E-10         0.00000E+00
    0.93043E-08         0.51124E-10         0.00000E+00
    0.93042E-08         0.52367E-10         0.00000E+00
    0.93042E-08         0.53424E-10         0.00000E+00
    0.93042E-08         0.54295E-10         0.00000E+00
    0.93041E-08         0.54981E-10         0.00000E+00
    0.93041E-08         0.55485E-10         0.00000E+00
    0.93041E-08         0.55807E-10         0.00000E+00
    0.93041E-08         0.55948E-10         0.00000E+00
    0.93040E-08         0.55911E-10         0.00000E+00
    0.93040E-08         0.55696E-10         0.00000E+00
    0.93040E-08         0.55304E-10         0.00000E+00
    0.93040E-08         0.54736E-10         0.00000E+00
    0.93040E-08         0.53994E-10         0.00000E+00
    0.93040E-08         0.53079E-10         0.00000E+00
    0.93040E-08         0.51992E-10         0.00000E+00
    0.93040E-08         0.50734E-10         0.00000E+00
    0.93040E-08         0.49305E-10         0.00000E+00
    0.93040E-08         0.47709E-10         0.00000E+00
    0.93041E-08         0.45944E-10         0.00000E+00
    0.93041E-08         0.44012E-10         0.00000E+00
    0.93041E-08         0.41915E-10         0.00000E+00
    0.93041E-08         0.39653E-10         0.00000E+00
    0.93041E-08         0.37227E-10         0.00000E+00
    0.93042E-08         0.34639E-10         0.00000E+00
    0.93042E-08         0.31888E-10         0.00000E+00
    0.93042E-08         0.28976E-10         0.00000E+00
    0.93042E-08         0.25904E-10         0.00000E+00
    0.93042E-08         0.22673E-10         0.00000E+00
    0.93043E-08         0.19283E-10         0.00000E+00
    0.93043E-08         0.15736E-10         0.00000E+00
    0.93043E-08         0.12032E-10         0.00000E+00
    0.93043E-08         0.81721E-11         0.00000E+00
    0.93043E-08         0.41569E-11         0.00000E+00
    0.93043E-08         0.21106E-11         0.00000E+00
    0.97245E-08         0.23620E-11         0.00000E+00
    0.97245E-08         0.46511E-11         0.00000E+00
    0.97245E-08         0.91204E-11         0.00000E+00
    0.97245E-08         0.13373E-10         0.00000E+00
    0.97245E-08         0.17411E-10         0.00000E+00
    0.97245E-08         0.21237E-10         0.00000E+00
    0.97245E-08         0.24852E-10         0.00000E+00
    0.97244E-08         0.28259E-10         0.00000E+00
    0.97244E-08         0.31458E-10         0.00000E+00
    0.97244E-08         0.34452E-10         0.00000E+00
    0.97244E-08         0.37244E-10         0.00000E+00
    0.97244E-08         0.39833E-10         0.00000E+00
    0.97243E-08         0.42224E-10         0.00000E+00
    0.97243E-08         0.44416E-10         0.00000E+00
    0.97243E-08         0.46412E-10         0.00000E+00
    0.97243E-08         0.48214E-10         0.00000E+00
    0.97243E-08         0.49822E-10         0.00000E+00
    0.97243E-08         0.51240E-10         0.00000E+00
    0.97243E-08         0.52468E-10         0.00000E+00
    0.97243E-08         0.53508E-10         0.00000E+00
    0.97243E-08         0.54362E-10         0.00000E+00
    0.97243E-08         0.55031E-10         0.00000E+00
    0.97243E-08         0.55516E-10         0.00000E+00
    0.97243E-08         0.55820E-10         0.00000E+00
    0.97244E-08         0.55943E-10         0.00000E+00
    0.97244E-08         0.55887E-10         0.00000E+00
    0.97244E-08         0.55654E-10         0.00000E+00
    0.97244E-08         0.55244E-10         0.00000E+00
    0.97245E-08         0.54660E-10         0.00000E+00
    0.97245E-08         0.53902E-10         0.00000E+00
    0.97246E-08         0.52972E-10         0.00000E+00
    0.97246E-08         0.51871E-10         0.00000E+00
    0.97246E-08         0.50600E-10         0.00000E+00
    0.97247E-08         0.49161E-10         0.00000E+00
    0.97247E-08         0.47554E-10         0.00000E+00
    0.97248E-08         0.45781E-10         0.00000E+00
    0.97248E-08         0.43844E-10         0.00000E+00
    0.97249E-08         0.41742E-10         0.00000E+00
    0.97250E-08         0.39478E-10         0.00000E+00
    0.97250E-08         0.37052E-10         0.00000E+00
    0.97251E-08         0.34466E-10         0.00000E+00
    0.97251E-08         0.31720E-10         0.00000E+00
    0.97251E-08         0.28816E-10         0.00000E+00
    0.97252E-08         0.25754E-10         0.00000E+00
    0.97252E-08         0.22536E-10         0.00000E+00
    0.97253E-08         0.19161E-10         0.00000E+00
    0.97253E-08         0.15633E-10         0.00000E+00
    0.97253E-08         0.11950E-10         0.00000E+00
    0.97253E-08         0.81143E-11         0.00000E+00
    0.97253E-08         0.41265E-11         0.00000E+00
    0.97253E-08         0.20947E-11         0.00000E+00
    0.10165E-07         0.23726E-11         0.00000E+00
    0.10165E-07         0.46706E-11         0.00000E+00
    0.10165E-07         0.91559E-11         0.00000E+00
    0.10165E-07         0.13420E-10         0.00000E+00
    0.10165E-07         0.17466E-10         0.00000E+00
    0.10165E-07         0.21296E-10         0.00000E+00
    0.10165E-07         0.24912E-10         0.00000E+00
    0.10165E-07         0.28316E-10         0.00000E+00
    0.10165E-07         0.31510E-10         0.00000E+00
    0.10165E-07         0.34497E-10         0.00000E+00
    0.10165E-07         0.37278E-10         0.00000E+00
    0.10165E-07         0.39855E-10         0.00000E+00
    0.10165E-07         0.42231E-10         0.00000E+00
    0.10165E-07         0.44408E-10         0.00000E+00
    0.10165E-07         0.46387E-10         0.00000E+00
    0.10165E-07         0.48170E-10         0.00000E+00
    0.10165E-07         0.49759E-10         0.00000E+00
    0.10165E-07         0.51157E-10         0.00000E+00
    0.10165E-07         0.52365E-10         0.00000E+00
    0.10165E-07         0.53384E-10         0.00000E+00
    0.10165E-07         0.54216E-10         0.00000E+00
    0.10165E-07         0.54864E-10         0.00000E+00
    0.10165E-07         0.55329E-10         0.00000E+00
    0.10165E-07         0.55613E-10         0.00000E+00
    0.10165E-07         0.55716E-10         0.00000E+00
    0.10165E-07         0.55642E-10         0.00000E+00
    0.10165E-07         0.55391E-10         0.00000E+00
    0.10165E-07         0.54965E-10         0.00000E+00
    0.10165E-07         0.54366E-10         0.00000E+00
    0.10166E-07         0.53594E-10         0.00000E+00
    0.10166E-07         0.52652E-10         0.00000E+00
    0.10166E-07         0.51541E-10         0.00000E+00
    0.10166E-07         0.50262E-10         0.00000E+00
    0.10166E-07         0.48817E-10         0.00000E+00
    0.10166E-07         0.47207E-10         0.00000E+00
    0.10166E-07         0.45433E-10         0.00000E+00
    0.10166E-07         0.43497E-10         0.00000E+00
    0.10166E-07         0.41400E-10         0.00000E+00
    0.10166E-07         0.39142E-10         0.00000E+00
    0.10166E-07         0.36726E-10         0.00000E+00
    0.10167E-07         0.34153E-10         0.00000E+00
    0.10167E-07         0.31423E-10         0.00000E+00
    0.10167E-07         0.28538E-10         0.00000E+00
    0.10167E-07         0.25498E-10         0.00000E+00
    0.10167E-07         0.22305E-10         0.00000E+00
    0.10167E-07         0.18961E-10         0.00000E+00
    0.10167E-07         0.15465E-10         0.00000E+00
    0.10167E-07         0.11818E-10         0.00000E+00
    0.10167E-07         0.80228E-11         0.00000E+00
    0.10167E-07         0.40790E-11         0.00000E+00
    0.10167E-07         0.20702E-11         0.00000E+00
    0.10626E-07         0.23734E-11         0.00000E+00
    0.10626E-07         0.46710E-11         0.00000E+00
    0.10626E-07         0.91536E-11         0.00000E+00
    0.10626E-07         0.13412E-10         0.00000E+00
    0.10626E-07         0.17449E-10         0.00000E+00
    0.10626E-07         0.21266E-10         0.00000E+00
    0.10626E-07         0.24867E-10         0.00000E+00
    0.10626E-07         0.28254E-10         0.00000E+00
    0.10626E-07         0.31429E-10         0.00000E+00
    0.10626E-07         0.34395E-10         0.00000E+00
    0.10626E-07         0.37153E-10         0.00000E+00
    0.10626E-07         0.39707E-10         0.00000E+00
    0.10626E-07         0.42058E-10         0.00000E+00
    0.10626E-07         0.44208E-10         0.00000E+00
    0.10626E-07         0.46161E-10         0.00000E+00
    0.10626E-07         0.47917E-10         0.00000E+00
    0.10626E-07         0.49479E-10         0.00000E+00
    0.10627E-07         0.50850E-10         0.00000E+00
    0.10627E-07         0.52031E-10         0.00000E+00
    0.10627E-07         0.53024E-10         0.00000E+00
    0.10627E-07         0.53831E-10         0.00000E+00
    0.10627E-07         0.54455E-10         0.00000E+00
    0.10627E-07         0.54896E-10         0.00000E+00
    0.10627E-07         0.55157E-10         0.00000E+00
    0.10627E-07         0.55240E-10         0.00000E+00
    0.10627E-07         0.55147E-10         0.00000E+00
    0.10627E-07         0.54879E-10         0.00000E+00
    0.10628E-07         0.54438E-10         0.00000E+00
    0.10628E-07         0.53825E-10         0.00000E+00
    0.10628E-07         0.53043E-10         0.00000E+00
    0.10628E-07         0.52093E-10         0.00000E+00
    0.10628E-07         0.50977E-10         0.00000E+00
    0.10628E-07         0.49695E-10         0.00000E+00
    0.10628E-07         0.48250E-10         0.00000E+00
    0.10629E-07         0.46643E-10         0.00000E+00
    0.10629E-07         0.44876E-10         0.00000E+00
    0.10629E-07         0.42950E-10         0.00000E+00
    0.10629E-07         0.40866E-10         0.00000E+00
    0.10629E-07         0.38626E-10         0.00000E+00
    0.10629E-07         0.36230E-10         0.00000E+00
    0.10629E-07         0.33681E-10         0.00000E+00
    0.10629E-07         0.30979E-10         0.00000E+00
    0.10630E-07         0.28126E-10         0.00000E+00
    0.10630E-07         0.25123E-10         0.00000E+00
    0.10630E-07         0.21971E-10         0.00000E+00
    0.10630E-07         0.18671E-10         0.00000E+00
    0.10630E-07         0.15224E-10         0.00000E+00
    0.10630E-07         0.11631E-10         0.00000E+00
    0.10630E-07         0.78937E-11         0.00000E+00
    0.10630E-07         0.40123E-11         0.00000E+00
    0.10630E-07         0.20359E-11         0.00000E+00
    0.11109E-07         0.23634E-11         0.00000E+00
    0.11109E-07         0.46500E-11         0.00000E+00
    0.11109E-07         0.91091E-11         0.00000E+00
    0.11109E-07         0.13341E-10         0.00000E+00
    0.11109E-07         0.17350E-10         0.00000E+00
    0.11109E-07         0.21137E-10         0.00000E+00
    0.11109E-07         0.24706E-10         0.00000E+00
    0.11109E-07         0.28059E-10         0.00000E+00
    0.11109E-07         0.31199E-10         0.00000E+00
    0.11109E-07         0.34129E-10         0.00000E+00
    0.11109E-07         0.36851E-10         0.00000E+00
    0.11109E-07         0.39367E-10         0.00000E+00
    0.11110E-07         0.41681E-10         0.00000E+00
    0.11110E-07         0.43795E-10         0.00000E+00
    0.11110E-07         0.45710E-10         0.00000E+00
    0.11110E-07         0.47430E-10         0.00000E+00
    0.11110E-07         0.48957E-10         0.00000E+00
    0.11110E-07         0.50293E-10         0.00000E+00
    0.11110E-07         0.51441E-10         0.00000E+00
    0.11110E-07         0.52402E-10         0.00000E+00
    0.11111E-07         0.53179E-10         0.00000E+00
    0.11111E-07         0.53774E-10         0.00000E+00
    0.11111E-07         0.54188E-10         0.00000E+00
    0.11111E-07         0.54425E-10         0.00000E+00
    0.11111E-07         0.54486E-10         0.00000E+00
    0.11111E-07         0.54374E-10         0.00000E+00
    0.11112E-07         0.54089E-10         0.00000E+00
    0.11112E-07         0.53634E-10         0.00000E+00
    0.11112E-07         0.53011E-10         0.00000E+00
    0.11112E-07         0.52221E-10         0.00000E+00
    0.11112E-07         0.51267E-10         0.00000E+00
    0.11113E-07         0.50150E-10         0.00000E+00
    0.11113E-07         0.48872E-10         0.00000E+00
    0.11113E-07         0.47434E-10         0.00000E+00
    0.11113E-07         0.45838E-10         0.00000E+00
    0.11113E-07         0.44086E-10         0.00000E+00
    0.11114E-07         0.42179E-10         0.00000E+00
    0.11114E-07         0.40119E-10         0.00000E+00
    0.11114E-07         0.37907E-10         0.00000E+00
    0.11114E-07         0.35544E-10         0.00000E+00
    0.11114E-07         0.33032E-10         0.00000E+00
    0.11114E-07         0.30373E-10         0.00000E+00
    0.11115E-07         0.27567E-10         0.00000E+00
    0.11115E-07         0.24615E-10         0.00000E+00
    0.11115E-07         0.21520E-10         0.00000E+00
    0.11115E-07         0.18282E-10         0.00000E+00
    0.11115E-07         0.14902E-10         0.00000E+00
    0.11115E-07         0.11382E-10         0.00000E+00
    0.11115E-07         0.77224E-11         0.00000E+00
    0.11115E-07         0.39242E-11         0.00000E+00
    0.11115E-07         0.19907E-11         0.00000E+00
    0.11615E-07         0.23413E-11         0.00000E+00
    0.11615E-07         0.46051E-11         0.00000E+00
    0.11615E-07         0.90178E-11         0.00000E+00
    0.11615E-07         0.13202E-10         0.00000E+00
    0.11615E-07         0.17161E-10         0.00000E+00
    0.11615E-07         0.20898E-10         0.00000E+00
    0.11615E-07         0.24415E-10         0.00000E+00
    0.11615E-07         0.27716E-10         0.00000E+00
    0.11615E-07         0.30804E-10         0.00000E+00
    0.11615E-07         0.33681E-10         0.00000E+00
    0.11615E-07         0.36351E-10         0.00000E+00
    0.11615E-07         0.38816E-10         0.00000E+00
    0.11616E-07         0.41080E-10         0.00000E+00
    0.11616E-07         0.43144E-10         0.00000E+00
    0.11616E-07         0.45011E-10         0.00000E+00
    0.11616E-07         0.46684E-10         0.00000E+00
    0.11616E-07         0.48166E-10         0.00000E+00
    0.11616E-07         0.49459E-10         0.00000E+00
    0.11617E-07         0.50566E-10         0.00000E+00
    0.11617E-07         0.51488E-10         0.00000E+00
    0.11617E-07         0.52230E-10         0.00000E+00
    0.11617E-07         0.52791E-10         0.00000E+00
    0.11618E-07         0.53176E-10         0.00000E+00
    0.11618E-07         0.53387E-10         0.00000E+00
    0.11618E-07         0.53424E-10         0.00000E+00
    0.11618E-07         0.53292E-10         0.00000E+00
    0.11619E-07         0.52991E-10         0.00000E+00
    0.11619E-07         0.52524E-10         0.00000E+00
    0.11619E-07         0.51893E-10         0.00000E+00
    0.11619E-07         0.51099E-10         0.00000E+00
    0.11620E-07         0.50146E-10         0.00000E+00
    0.11620E-07         0.49034E-10         0.00000E+00
    0.11620E-07         0.47765E-10         0.00000E+00
    0.11620E-07         0.46342E-10         0.00000E+00
    0.11621E-07         0.44766E-10         0.00000E+00
    0.11621E-07         0.43039E-10         0.00000E+00
    0.11621E-07         0.41161E-10         0.00000E+00
    0.11621E-07         0.39136E-10         0.00000E+00
    0.11622E-07         0.36964E-10         0.00000E+00
    0.11622E-07         0.34648E-10         0.00000E+00
    0.11622E-07         0.32188E-10         0.00000E+00
    0.11622E-07         0.29586E-10         0.00000E+00
    0.11622E-07         0.26843E-10         0.00000E+00
    0.11622E-07         0.23961E-10         0.00000E+00
    0.11623E-07         0.20941E-10         0.00000E+00
    0.11623E-07         0.17784E-10         0.00000E+00
    0.11623E-07         0.14491E-10         0.00000E+00
    0.11623E-07         0.11064E-10         0.00000E+00
    0.11623E-07         0.75045E-11         0.00000E+00
    0.11623E-07         0.38124E-11         0.00000E+00
    0.11623E-07         0.19334E-11         0.00000E+00
    0.12144E-07         0.23059E-11         0.00000E+00
    0.12144E-07         0.45339E-11         0.00000E+00
    0.12144E-07         0.88747E-11         0.00000E+00
    0.12144E-07         0.12986E-10         0.00000E+00
    0.12144E-07         0.16872E-10         0.00000E+00
    0.12144E-07         0.20536E-10         0.00000E+00
    0.12144E-07         0.23980E-10         0.00000E+00
    0.12144E-07         0.27209E-10         0.00000E+00
    0.12145E-07         0.30226E-10         0.00000E+00
    0.12145E-07         0.33033E-10         0.00000E+00
    0.12145E-07         0.35634E-10         0.00000E+00
    0.12145E-07         0.38032E-10         0.00000E+00
    0.12145E-07         0.40230E-10         0.00000E+00
    0.12145E-07         0.42231E-10         0.00000E+00
    0.12146E-07         0.44037E-10         0.00000E+00
    0.12146E-07         0.45652E-10         0.00000E+00
    0.12146E-07         0.47079E-10         0.00000E+00
    0.12146E-07         0.48319E-10         0.00000E+00
    0.12147E-07         0.49377E-10         0.00000E+00
    0.12147E-07         0.50254E-10         0.00000E+00
    0.12147E-07         0.50954E-10         0.00000E+00
    0.12147E-07         0.51478E-10         0.00000E+00
    0.12148E-07         0.51829E-10         0.00000E+00
    0.12148E-07         0.52010E-10         0.00000E+00
    0.12148E-07         0.52023E-10         0.00000E+00
    0.12149E-07         0.51870E-10         0.00000E+00
    0.12149E-07         0.51554E-10         0.00000E+00
    0.12149E-07         0.51076E-10         0.00000E+00
    0.12150E-07         0.50440E-10         0.00000E+00
    0.12150E-07         0.49647E-10         0.00000E+00
    0.12150E-07         0.48699E-10         0.00000E+00
    0.12151E-07         0.47598E-10         0.00000E+00
    0.12151E-07         0.46347E-10         0.00000E+00
    0.12151E-07         0.44947E-10         0.00000E+00
    0.12152E-07         0.43399E-10         0.00000E+00
    0.12152E-07         0.41707E-10         0.00000E+00
    0.12152E-07         0.39871E-10         0.00000E+00
    0.12152E-07         0.37894E-10         0.00000E+00
    0.12153E-07         0.35776E-10         0.00000E+00
    0.12153E-07         0.33521E-10         0.00000E+00
    0.12153E-07         0.31128E-10         0.00000E+00
    0.12153E-07         0.28600E-10         0.00000E+00
    0.12154E-07         0.25939E-10         0.00000E+00
    0.12154E-07         0.23145E-10         0.00000E+00
    0.12154E-07         0.20220E-10         0.00000E+00
    0.12154E-07         0.17165E-10         0.00000E+00
    0.12154E-07         0.13982E-10         0.00000E+00
    0.12154E-07         0.10672E-10         0.00000E+00
    0.12154E-07         0.72355E-11         0.00000E+00
    0.12155E-07         0.36745E-11         0.00000E+00
    0.12155E-07         0.18629E-11         0.00000E+00
    0.12697E-07         0.22557E-11         0.00000E+00
    0.12697E-07         0.44337E-11         0.00000E+00
    0.12697E-07         0.86743E-11         0.00000E+00
    0.12697E-07         0.12686E-10         0.00000E+00
    0.12698E-07         0.16474E-10         0.00000E+00
    0.12698E-07         0.20040E-10         0.00000E+00
    0.12698E-07         0.23388E-10         0.00000E+00
    0.12698E-07         0.26523E-10         0.00000E+00
    0.12698E-07         0.29447E-10         0.00000E+00
    0.12698E-07         0.32164E-10         0.00000E+00
    0.12699E-07         0.34678E-10         0.00000E+00
    0.12699E-07         0.36991E-10         0.00000E+00
    0.12699E-07         0.39107E-10         0.00000E+00
    0.12699E-07         0.41030E-10         0.00000E+00
    0.12700E-07         0.42761E-10         0.00000E+00
    0.12700E-07         0.44306E-10         0.00000E+00
    0.12700E-07         0.45666E-10         0.00000E+00
    0.12700E-07         0.46844E-10         0.00000E+00
    0.12701E-07         0.47844E-10         0.00000E+00
    0.12701E-07         0.48668E-10         0.00000E+00
    0.12702E-07         0.49319E-10         0.00000E+00
    0.12702E-07         0.49800E-10         0.00000E+00
    0.12702E-07         0.50114E-10         0.00000E+00
    0.12703E-07         0.50262E-10         0.00000E+00
    0.12703E-07         0.50249E-10         0.00000E+00
    0.12703E-07         0.50075E-10         0.00000E+00
    0.12704E-07         0.49745E-10         0.00000E+00
    0.12704E-07         0.49259E-10         0.00000E+00
    0.12705E-07         0.48621E-10         0.00000E+00
    0.12705E-07         0.47832E-10         0.00000E+00
    0.12705E-07         0.46896E-10         0.00000E+00
    0.12706E-07         0.45813E-10         0.00000E+00
    0.12706E-07         0.44587E-10         0.00000E+00
    0.12707E-07         0.43219E-10         0.00000E+00
    0.12707E-07         0.41711E-10         0.00000E+00
    0.12707E-07         0.40065E-10         0.00000E+00
    0.12708E-07         0.38283E-10         0.00000E+00
    0.12708E-07         0.36368E-10         0.00000E+00
    0.12708E-07         0.34320E-10         0.00000E+00
    0.12709E-07         0.32141E-10         0.00000E+00
    0.12709E-07         0.29833E-10         0.00000E+00
    0.12709E-07         0.27398E-10         0.00000E+00
    0.12710E-07         0.24837E-10         0.00000E+00
    0.12710E-07         0.22152E-10         0.00000E+00
    0.12710E-07         0.19344E-10         0.00000E+00
    0.12710E-07         0.16415E-10         0.00000E+00
    0.12710E-07         0.13365E-10         0.00000E+00
    0.12710E-07         0.10197E-10         0.00000E+00
    0.12711E-07         0.69106E-11         0.00000E+00
    0.12711E-07         0.35082E-11         0.00000E+00
    0.12711E-07         0.17780E-11         0.00000E+00
    0.13276E-07         0.21894E-11         0.00000E+00
    0.13276E-07         0.43015E-11         0.00000E+00
    0.13276E-07         0.84113E-11         0.00000E+00
    0.13276E-07         0.12294E-10         0.00000E+00
    0.13276E-07         0.15955E-10         0.00000E+00
    0.13276E-07         0.19396E-10         0.00000E+00
    0.13276E-07         0.22623E-10         0.00000E+00
    0.13277E-07         0.25639E-10         0.00000E+00
    0.13277E-07         0.28447E-10         0.00000E+00
    0.13277E-07         0.31053E-10         0.00000E+00
    0.13277E-07         0.33459E-10         0.00000E+00
    0.13278E-07         0.35668E-10         0.00000E+00
    0.13278E-07         0.37685E-10         0.00000E+00
    0.13278E-07         0.39513E-10         0.00000E+00
    0.13279E-07         0.41156E-10         0.00000E+00
    0.13279E-07         0.42616E-10         0.00000E+00
    0.13279E-07         0.43897E-10         0.00000E+00
    0.13280E-07         0.45002E-10         0.00000E+00
    0.13280E-07         0.45934E-10         0.00000E+00
    0.13281E-07         0.46697E-10         0.00000E+00
    0.13281E-07         0.47293E-10         0.00000E+00
    0.13281E-07         0.47725E-10         0.00000E+00
    0.13282E-07         0.47997E-10         0.00000E+00
    0.13282E-07         0.48110E-10         0.00000E+00
    0.13283E-07         0.48069E-10         0.00000E+00
    0.13283E-07         0.47875E-10         0.00000E+00
    0.13284E-07         0.47530E-10         0.00000E+00
    0.13284E-07         0.47039E-10         0.00000E+00
    0.13285E-07         0.46402E-10         0.00000E+00
    0.13285E-07         0.45623E-10         0.00000E+00
    0.13286E-07         0.44704E-10         0.00000E+00
    0.13286E-07         0.43647E-10         0.00000E+00
    0.13287E-07         0.42455E-10         0.00000E+00
    0.13287E-07         0.41129E-10         0.00000E+00
    0.13288E-07         0.39672E-10         0.00000E+00
    0.13288E-07         0.38085E-10         0.00000E+00
    0.13289E-07         0.36372E-10         0.00000E+00
    0.13289E-07         0.34533E-10         0.00000E+00
    0.13289E-07         0.32570E-10         0.00000E+00
    0.13290E-07         0.30486E-10         0.00000E+00
    0.13290E-07         0.28282E-10         0.00000E+00
    0.13290E-07         0.25960E-10         0.00000E+00
    0.13291E-07         0.23522E-10         0.00000E+00
    0.13291E-07         0.20968E-10         0.00000E+00
    0.13291E-07         0.18301E-10         0.00000E+00
    0.13291E-07         0.15521E-10         0.00000E+00
    0.13292E-07         0.12631E-10         0.00000E+00
    0.13292E-07         0.96322E-11         0.00000E+00
    0.13292E-07         0.65250E-11         0.00000E+00
    0.13292E-07         0.33110E-11         0.00000E+00
    0.13292E-07         0.16774E-11         0.00000E+00
    0.13880E-07         0.21054E-11         0.00000E+00
    0.13880E-07         0.41344E-11         0.00000E+00
    0.13880E-07         0.80795E-11         0.00000E+00
    0.13880E-07         0.11801E-10         0.00000E+00
    0.13881E-07         0.15304E-10         0.00000E+00
    0.13881E-07         0.18591E-10         0.00000E+00
    0.13881E-07         0.21668E-10         0.00000E+00
    0.13881E-07         0.24539E-10         0.00000E+00
    0.13881E-07         0.27208E-10         0.00000E+00
    0.13882E-07         0.29678E-10         0.00000E+00
    0.13882E-07         0.31954E-10         0.00000E+00
    0.13882E-07         0.34039E-10         0.00000E+00
    0.13883E-07         0.35938E-10         0.00000E+00
    0.13883E-07         0.37654E-10         0.00000E+00
    0.13884E-07         0.39190E-10         0.00000E+00
    0.13884E-07         0.40551E-10         0.00000E+00
    0.13885E-07         0.41740E-10         0.00000E+00
    0.13885E-07         0.42760E-10         0.00000E+00
    0.13885E-07         0.43615E-10         0.00000E+00
    0.13886E-07         0.44307E-10         0.00000E+00
    0.13887E-07         0.44841E-10         0.00000E+00
    0.13887E-07         0.45219E-10         0.00000E+00
    0.13888E-07         0.45444E-10         0.00000E+00
    0.13888E-07         0.45519E-10         0.00000E+00
    0.13889E-07         0.45448E-10         0.00000E+00
    0.13889E-07         0.45232E-10         0.00000E+00
    0.13890E-07         0.44876E-10         0.00000E+00
    0.13890E-07         0.44381E-10         0.00000E+00
    0.13891E-07         0.43750E-10         0.00000E+00
    0.13892E-07         0.42986E-10         0.00000E+00
    0.13892E-07         0.42092E-10         0.00000E+00
    0.13893E-07         0.41069E-10         0.00000E+00
    0.13893E-07         0.39920E-10         0.00000E+00
    0.13894E-07         0.38647E-10         0.00000E+00
    0.13894E-07         0.37253E-10         0.00000E+00
    0.13895E-07         0.35740E-10         0.00000E+00
    0.13895E-07         0.34109E-10         0.00000E+00
    0.13896E-07         0.32364E-10         0.00000E+00
    0.13896E-07         0.30505E-10         0.00000E+00
    0.13897E-07         0.28535E-10         0.00000E+00
    0.13897E-07         0.26455E-10         0.00000E+00
    0.13898E-07         0.24267E-10         0.00000E+00
    0.13898E-07         0.21974E-10         0.00000E+00
    0.13898E-07         0.19576E-10         0.00000E+00
    0.13899E-07         0.17076E-10         0.00000E+00
    0.13899E-07         0.14474E-10         0.00000E+00
    0.13899E-07         0.11772E-10         0.00000E+00
    0.13899E-07         0.89714E-11         0.00000E+00
    0.13899E-07         0.60739E-11         0.00000E+00
    0.13899E-07         0.30804E-11         0.00000E+00
    0.13899E-07         0.15598E-11         0.00000E+00
    0.14512E-07         0.20020E-11         0.00000E+00
    0.14512E-07         0.39292E-11         0.00000E+00
    0.14512E-07         0.76729E-11         0.00000E+00
    0.14512E-07         0.11198E-10         0.00000E+00
    0.14512E-07         0.14509E-10         0.00000E+00
    0.14512E-07         0.17611E-10         0.00000E+00
    0.14512E-07         0.20508E-10         0.00000E+00
    0.14513E-07         0.23205E-10         0.00000E+00
    0.14513E-07         0.25706E-10         0.00000E+00
    0.14513E-07         0.28016E-10         0.00000E+00
    0.14514E-07         0.30138E-10         0.00000E+00
    0.14514E-07         0.32077E-10         0.00000E+00
    0.14514E-07         0.33837E-10         0.00000E+00
    0.14515E-07         0.35421E-10         0.00000E+00
    0.14515E-07         0.36835E-10         0.00000E+00
    0.14516E-07         0.38081E-10         0.00000E+00
    0.14517E-07         0.39163E-10         0.00000E+00
    0.14517E-07         0.40086E-10         0.00000E+00
    0.14518E-07         0.40851E-10         0.00000E+00
    0.14518E-07         0.41464E-10         0.00000E+00
    0.14519E-07         0.41927E-10         0.00000E+00
    0.14520E-07         0.42244E-10         0.00000E+00
    0.14520E-07         0.42418E-10         0.00000E+00
    0.14521E-07         0.42452E-10         0.00000E+00
    0.14522E-07         0.42350E-10         0.00000E+00
    0.14522E-07         0.42113E-10         0.00000E+00
    0.14523E-07         0.41746E-10         0.00000E+00
    0.14524E-07         0.41251E-10         0.00000E+00
    0.14524E-07         0.40630E-10         0.00000E+00
    0.14525E-07         0.39887E-10         0.00000E+00
    0.14526E-07         0.39025E-10         0.00000E+00
    0.14526E-07         0.38044E-10         0.00000E+00
    0.14527E-07         0.36950E-10         0.00000E+00
    0.14528E-07         0.35742E-10         0.00000E+00
    0.14528E-07         0.34425E-10         0.00000E+00
    0.14529E-07         0.32999E-10         0.00000E+00
    0.14529E-07         0.31468E-10         0.00000E+00
    0.14530E-07         0.29834E-10         0.00000E+00
    0.14530E-07         0.28098E-10         0.00000E+00
    0.14531E-07         0.26262E-10         0.00000E+00
    0.14531E-07         0.24329E-10         0.00000E+00
    0.14532E-07         0.22300E-10         0.00000E+00
    0.14532E-07         0.20177E-10         0.00000E+00
    0.14533E-07         0.17961E-10         0.00000E+00
    0.14533E-07         0.15655E-10         0.00000E+00
    0.14533E-07         0.13260E-10         0.00000E+00
    0.14533E-07         0.10776E-10         0.00000E+00
    0.14534E-07         0.82068E-11         0.00000E+00
    0.14534E-07         0.55522E-11         0.00000E+00
    0.14534E-07         0.28140E-11         0.00000E+00
    0.14534E-07         0.14241E-11         0.00000E+00
    0.15170E-07         0.18777E-11         0.00000E+00
    0.15170E-07         0.36826E-11         0.00000E+00
    0.15170E-07         0.71851E-11         0.00000E+00
    0.15171E-07         0.10476E-10         0.00000E+00
    0.15171E-07         0.13559E-10         0.00000E+00
    0.15171E-07         0.16441E-10         0.00000E+00
    0.15171E-07         0.19125E-10         0.00000E+00
    0.15172E-07         0.21617E-10         0.00000E+00
    0.15172E-07         0.23921E-10         0.00000E+00
    0.15172E-07         0.26043E-10         0.00000E+00
    0.15173E-07         0.27986E-10         0.00000E+00
    0.15173E-07         0.29754E-10         0.00000E+00
    0.15174E-07         0.31353E-10         0.00000E+00
    0.15174E-07         0.32786E-10         0.00000E+00
    0.15175E-07         0.34058E-10         0.00000E+00
    0.15176E-07         0.35172E-10         0.00000E+00
    0.15176E-07         0.36133E-10         0.00000E+00
    0.15177E-07         0.36944E-10         0.00000E+00
    0.15178E-07         0.37610E-10         0.00000E+00
    0.15178E-07         0.38133E-10         0.00000E+00
    0.15179E-07         0.38517E-10         0.00000E+00
    0.15180E-07         0.38767E-10         0.00000E+00
    0.15181E-07         0.38884E-10         0.00000E+00
    0.15181E-07         0.38874E-10         0.00000E+00
    0.15182E-07         0.38738E-10         0.00000E+00
    0.15183E-07         0.38481E-10         0.00000E+00
    0.15184E-07         0.38104E-10         0.00000E+00
    0.15184E-07         0.37612E-10         0.00000E+00
    0.15185E-07         0.37007E-10         0.00000E+00
    0.15186E-07         0.36292E-10         0.00000E+00
    0.15187E-07         0.35469E-10         0.00000E+00
    0.15188E-07         0.34542E-10         0.00000E+00
    0.15188E-07         0.33512E-10         0.00000E+00
    0.15189E-07         0.32383E-10         0.00000E+00
    0.15190E-07         0.31157E-10         0.00000E+00
    0.15190E-07         0.29836E-10         0.00000E+00
    0.15191E-07         0.28422E-10         0.00000E+00
    0.15192E-07         0.26918E-10         0.00000E+00
    0.15192E-07         0.25325E-10         0.00000E+00
    0.15193E-07         0.23647E-10         0.00000E+00
    0.15193E-07         0.21884E-10         0.00000E+00
    0.15194E-07         0.20038E-10         0.00000E+00
    0.15194E-07         0.18112E-10         0.00000E+00
    0.15195E-07         0.16107E-10         0.00000E+00
    0.15195E-07         0.14025E-10         0.00000E+00
    0.15196E-07         0.11867E-10         0.00000E+00
    0.15196E-07         0.96356E-11         0.00000E+00
    0.15196E-07         0.73310E-11         0.00000E+00
    0.15196E-07         0.49551E-11         0.00000E+00
    0.15196E-07         0.25091E-11         0.00000E+00
    0.15196E-07         0.12688E-11         0.00000E+00
    0.15858E-07         0.17307E-11         0.00000E+00
    0.15858E-07         0.33912E-11         0.00000E+00
    0.15858E-07         0.66093E-11         0.00000E+00
    0.15858E-07         0.96240E-11         0.00000E+00
    0.15858E-07         0.12441E-10         0.00000E+00
    0.15859E-07         0.15065E-10         0.00000E+00
    0.15859E-07         0.17501E-10         0.00000E+00
    0.15859E-07         0.19755E-10         0.00000E+00
    0.15860E-07         0.21831E-10         0.00000E+00
    0.15860E-07         0.23735E-10         0.00000E+00
    0.15861E-07         0.25471E-10         0.00000E+00
    0.15861E-07         0.27044E-10         0.00000E+00
    0.15862E-07         0.28458E-10         0.00000E+00
    0.15862E-07         0.29718E-10         0.00000E+00
    0.15863E-07         0.30828E-10         0.00000E+00
    0.15864E-07         0.31792E-10         0.00000E+00
    0.15865E-07         0.32615E-10         0.00000E+00
    0.15865E-07         0.33301E-10         0.00000E+00
    0.15866E-07         0.33853E-10         0.00000E+00
    0.15867E-07         0.34276E-10         0.00000E+00
    0.15868E-07         0.34573E-10         0.00000E+00
    0.15869E-07         0.34748E-10         0.00000E+00
    0.15870E-07         0.34805E-10         0.00000E+00
    0.15870E-07         0.34746E-10         0.00000E+00
    0.15871E-07         0.34576E-10         0.00000E+00
    0.15872E-07         0.34298E-10         0.00000E+00
    0.15873E-07         0.33914E-10         0.00000E+00
    0.15874E-07         0.33429E-10         0.00000E+00
    0.15875E-07         0.32845E-10         0.00000E+00
    0.15876E-07         0.32164E-10         0.00000E+00
    0.15877E-07         0.31391E-10         0.00000E+00
    0.15878E-07         0.30527E-10         0.00000E+00
    0.15878E-07         0.29575E-10         0.00000E+00
    0.15879E-07         0.28538E-10         0.00000E+00
    0.15880E-07         0.27419E-10         0.00000E+00
    0.15881E-07         0.26219E-10         0.00000E+00
    0.15882E-07         0.24942E-10         0.00000E+00
    0.15882E-07         0.23589E-10         0.00000E+00
    0.15883E-07         0.22162E-10         0.00000E+00
    0.15884E-07         0.20664E-10         0.00000E+00
    0.15884E-07         0.19097E-10         0.00000E+00
    0.15885E-07         0.17462E-10         0.00000E+00
    0.15885E-07         0.15762E-10         0.00000E+00
    0.15886E-07         0.13998E-10         0.00000E+00
    0.15886E-07         0.12172E-10         0.00000E+00
    0.15887E-07         0.10286E-10         0.00000E+00
    0.15887E-07         0.83399E-11         0.00000E+00
    0.15887E-07         0.63368E-11         0.00000E+00
    0.15887E-07         0.42775E-11         0.00000E+00
    0.15887E-07         0.21634E-11         0.00000E+00
    0.15887E-07         0.10928E-11         0.00000E+00
    0.16575E-07         0.15592E-11         0.00000E+00
    0.16575E-07         0.30517E-11         0.00000E+00
    0.16575E-07         0.59390E-11         0.00000E+00
    0.16575E-07         0.86337E-11         0.00000E+00
    0.16575E-07         0.11141E-10         0.00000E+00
    0.16575E-07         0.13468E-10         0.00000E+00
    0.16576E-07         0.15618E-10         0.00000E+00
    0.16576E-07         0.17599E-10         0.00000E+00
    0.16577E-07         0.19413E-10         0.00000E+00
    0.16577E-07         0.21068E-10         0.00000E+00
    0.16578E-07         0.22568E-10         0.00000E+00
    0.16579E-07         0.23917E-10         0.00000E+00
    0.16579E-07         0.25122E-10         0.00000E+00
    0.16580E-07         0.26185E-10         0.00000E+00
    0.16581E-07         0.27112E-10         0.00000E+00
    0.16582E-07         0.27908E-10         0.00000E+00
    0.16582E-07         0.28576E-10         0.00000E+00
    0.16583E-07         0.29121E-10         0.00000E+00
    0.16584E-07         0.29548E-10         0.00000E+00
    0.16585E-07         0.29859E-10         0.00000E+00
    0.16586E-07         0.30060E-10         0.00000E+00
    0.16587E-07         0.30153E-10         0.00000E+00
    0.16588E-07         0.30143E-10         0.00000E+00
    0.16589E-07         0.30033E-10         0.00000E+00
    0.16590E-07         0.29827E-10         0.00000E+00
    0.16591E-07         0.29529E-10         0.00000E+00
    0.16592E-07         0.29140E-10         0.00000E+00
    0.16593E-07         0.28666E-10         0.00000E+00
    0.16594E-07         0.28108E-10         0.00000E+00
    0.16595E-07         0.27471E-10         0.00000E+00
    0.16596E-07         0.26756E-10         0.00000E+00
    0.16597E-07         0.25967E-10         0.00000E+00
    0.16598E-07         0.25106E-10         0.00000E+00
    0.16599E-07         0.24177E-10         0.00000E+00
    0.16600E-07         0.23181E-10         0.00000E+00
    0.16601E-07         0.22122E-10         0.00000E+00
    0.16602E-07         0.21001E-10         0.00000E+00
    0.16602E-07         0.19821E-10         0.00000E+00
    0.16603E-07         0.18584E-10         0.00000E+00
    0.16604E-07         0.17292E-10         0.00000E+00
    0.16605E-07         0.15948E-10         0.00000E+00
    0.16605E-07         0.14553E-10         0.00000E+00
    0.16606E-07         0.13109E-10         0.00000E+00
    0.16606E-07         0.11619E-10         0.00000E+00
    0.16607E-07         0.10082E-10         0.00000E+00
    0.16607E-07         0.85023E-11         0.00000E+00
    0.16608E-07         0.68800E-11         0.00000E+00
    0.16608E-07         0.52171E-11         0.00000E+00
    0.16608E-07         0.35147E-11         0.00000E+00
    0.16608E-07         0.17743E-11         0.00000E+00
    0.16608E-07         0.89473E-12         0.00000E+00
    0.17322E-07         0.13614E-11         0.00000E+00
    0.17322E-07         0.26604E-11         0.00000E+00
    0.17322E-07         0.51672E-11         0.00000E+00
    0.17322E-07         0.74946E-11         0.00000E+00
    0.17322E-07         0.96485E-11         0.00000E+00
    0.17323E-07         0.11635E-10         0.00000E+00
    0.17323E-07         0.13459E-10         0.00000E+00
    0.17324E-07         0.15128E-10         0.00000E+00
    0.17324E-07         0.16645E-10         0.00000E+00
    0.17325E-07         0.18018E-10         0.00000E+00
    0.17326E-07         0.19250E-10         0.00000E+00
    0.17326E-07         0.20347E-10         0.00000E+00
    0.17327E-07         0.21315E-10         0.00000E+00
    0.17328E-07         0.22157E-10         0.00000E+00
    0.17329E-07         0.22879E-10         0.00000E+00
    0.17330E-07         0.23486E-10         0.00000E+00
    0.17331E-07         0.23982E-10         0.00000E+00
    0.17332E-07         0.24371E-10         0.00000E+00
    0.17333E-07         0.24657E-10         0.00000E+00
    0.17334E-07         0.24846E-10         0.00000E+00
    0.17335E-07         0.24940E-10         0.00000E+00
    0.17336E-07         0.24945E-10         0.00000E+00
    0.17337E-07         0.24863E-10         0.00000E+00
    0.17338E-07         0.24698E-10         0.00000E+00
    0.17339E-07         0.24455E-10         0.00000E+00
    0.17340E-07         0.24137E-10         0.00000E+00
    0.17342E-07         0.23746E-10         0.00000E+00
    0.17343E-07         0.23288E-10         0.00000E+00
    0.17344E-07         0.22763E-10         0.00000E+00
    0.17345E-07         0.22177E-10         0.00000E+00
    0.17346E-07         0.21531E-10         0.00000E+00
    0.17347E-07         0.20830E-10         0.00000E+00
    0.17348E-07         0.20074E-10         0.00000E+00
    0.17349E-07         0.19269E-10         0.00000E+00
    0.17350E-07         0.18415E-10         0.00000E+00
    0.17351E-07         0.17515E-10         0.00000E+00
    0.17352E-07         0.16573E-10         0.00000E+00
    0.17353E-07         0.15589E-10         0.00000E+00
    0.17354E-07         0.14567E-10         0.00000E+00
    0.17355E-07         0.13509E-10         0.00000E+00
    0.17356E-07         0.12417E-10         0.00000E+00
    0.17356E-07         0.11292E-10         0.00000E+00
    0.17357E-07         0.10137E-10         0.00000E+00
    0.17358E-07         0.89531E-11         0.00000E+00
    0.17358E-07         0.77424E-11         0.00000E+00
    0.17359E-07         0.65065E-11         0.00000E+00
    0.17359E-07         0.52468E-11         0.00000E+00
    0.17359E-07         0.39649E-11         0.00000E+00
    0.17360E-07         0.26620E-11         0.00000E+00
    0.17360E-07         0.13395E-11         0.00000E+00
    0.17360E-07         0.67349E-12         0.00000E+00
    0.18100E-07         0.11357E-11         0.00000E+00
    0.18100E-07         0.22141E-11         0.00000E+00
    0.18100E-07         0.42874E-11         0.00000E+00
    0.18100E-07         0.61970E-11         0.00000E+00
    0.18101E-07         0.79491E-11         0.00000E+00
    0.18101E-07         0.95500E-11         0.00000E+00
    0.18102E-07         0.11006E-10         0.00000E+00
    0.18102E-07         0.12322E-10         0.00000E+00
    0.18103E-07         0.13504E-10         0.00000E+00
    0.18104E-07         0.14559E-10         0.00000E+00
    0.18104E-07         0.15491E-10         0.00000E+00
    0.18105E-07         0.16306E-10         0.00000E+00
    0.18106E-07         0.17009E-10         0.00000E+00
    0.18107E-07         0.17604E-10         0.00000E+00
    0.18108E-07         0.18098E-10         0.00000E+00
    0.18109E-07         0.18495E-10         0.00000E+00
    0.18110E-07         0.18799E-10         0.00000E+00
    0.18111E-07         0.19015E-10         0.00000E+00
    0.18112E-07         0.19148E-10         0.00000E+00
    0.18113E-07         0.19201E-10         0.00000E+00
    0.18115E-07         0.19180E-10         0.00000E+00
    0.18116E-07         0.19088E-10         0.00000E+00
    0.18117E-07         0.18929E-10         0.00000E+00
    0.18118E-07         0.18707E-10         0.00000E+00
    0.18120E-07         0.18425E-10         0.00000E+00
    0.18121E-07         0.18088E-10         0.00000E+00
    0.18122E-07         0.17699E-10         0.00000E+00
    0.18124E-07         0.17261E-10         0.00000E+00
    0.18125E-07         0.16777E-10         0.00000E+00
    0.18126E-07         0.16251E-10         0.00000E+00
    0.18127E-07         0.15686E-10         0.00000E+00
    0.18129E-07         0.15085E-10         0.00000E+00
    0.18130E-07         0.14450E-10         0.00000E+00
    0.18131E-07         0.13785E-10         0.00000E+00
    0.18132E-07         0.13092E-10         0.00000E+00
    0.18133E-07         0.12373E-10         0.00000E+00
    0.18134E-07         0.11632E-10         0.00000E+00
    0.18135E-07         0.10870E-10         0.00000E+00
    0.18136E-07         0.10090E-10         0.00000E+00
    0.18137E-07         0.92935E-11         0.00000E+00
    0.18138E-07         0.84832E-11         0.00000E+00
    0.18139E-07         0.76609E-11         0.00000E+00
    0.18140E-07         0.68284E-11         0.00000E+00
    0.18140E-07         0.59876E-11         0.00000E+00
    0.18141E-07         0.51402E-11         0.00000E+00
    0.18141E-07         0.42877E-11         0.00000E+00
    0.18142E-07         0.34318E-11         0.00000E+00
    0.18142E-07         0.25737E-11         0.00000E+00
    0.18142E-07         0.17150E-11         0.00000E+00
    0.18142E-07         0.85675E-12         0.00000E+00
    0.18142E-07         0.42792E-12         0.00000E+00
    0.18910E-07         0.88017E-12         0.00000E+00
    0.18910E-07         0.17091E-11         0.00000E+00
    0.18910E-07         0.32929E-11         0.00000E+00
    0.18911E-07         0.47313E-11         0.00000E+00
    0.18911E-07         0.60312E-11         0.00000E+00
    0.18912E-07         0.71988E-11         0.00000E+00
    0.18912E-07         0.82405E-11         0.00000E+00
    0.18913E-07         0.91622E-11         0.00000E+00
    0.18913E-07         0.99700E-11         0.00000E+00
    0.18914E-07         0.10670E-10         0.00000E+00
    0.18915E-07         0.11267E-10         0.00000E+00
    0.18916E-07         0.11767E-10         0.00000E+00
    0.18917E-07         0.12176E-10         0.00000E+00
    0.18918E-07         0.12498E-10         0.00000E+00
    0.18919E-07         0.12739E-10         0.00000E+00
    0.18920E-07         0.12904E-10         0.00000E+00
    0.18922E-07         0.12997E-10         0.00000E+00
    0.18923E-07         0.13023E-10         0.00000E+00
    0.18924E-07         0.12988E-10         0.00000E+00
    0.18925E-07         0.12894E-10         0.00000E+00
    0.18927E-07         0.12747E-10         0.00000E+00
    0.18928E-07         0.12550E-10         0.00000E+00
    0.18929E-07         0.12308E-10         0.00000E+00
    0.18931E-07         0.12025E-10         0.00000E+00
    0.18932E-07         0.11705E-10         0.00000E+00
    0.18934E-07         0.11350E-10         0.00000E+00
    0.18935E-07         0.10965E-10         0.00000E+00
    0.18937E-07         0.10553E-10         0.00000E+00
    0.18938E-07         0.10118E-10         0.00000E+00
    0.18939E-07         0.96628E-11         0.00000E+00
    0.18941E-07         0.91902E-11         0.00000E+00
    0.18942E-07         0.87035E-11         0.00000E+00
    0.18943E-07         0.82055E-11         0.00000E+00
    0.18945E-07         0.76991E-11         0.00000E+00
    0.18946E-07         0.71869E-11         0.00000E+00
    0.18947E-07         0.66715E-11         0.00000E+00
    0.18948E-07         0.61554E-11         0.00000E+00
    0.18949E-07         0.56409E-11         0.00000E+00
    0.18951E-07         0.51304E-11         0.00000E+00
    0.18952E-07         0.46259E-11         0.00000E+00
    0.18953E-07         0.41296E-11         0.00000E+00
    0.18953E-07         0.36435E-11         0.00000E+00
    0.18954E-07         0.31693E-11         0.00000E+00
    0.18955E-07         0.27090E-11         0.00000E+00
    0.18956E-07         0.22641E-11         0.00000E+00
    0.18956E-07         0.18362E-11         0.00000E+00
    0.18957E-07         0.14270E-11         0.00000E+00
    0.18957E-07         0.10376E-11         0.00000E+00
    0.18957E-07         0.66958E-12         0.00000E+00
    0.18957E-07         0.32401E-12         0.00000E+00
    0.18957E-07         0.15699E-12         0.00000E+00
    0.19753E-07         0.59330E-12         0.00000E+00
    0.19753E-07         0.11425E-11         0.00000E+00
    0.19754E-07         0.21774E-11         0.00000E+00
    0.19754E-07         0.30886E-11         0.00000E+00
    0.19754E-07         0.38830E-11         0.00000E+00
    0.19755E-07         0.45671E-11         0.00000E+00
    0.19755E-07         0.51475E-11         0.00000E+00
    0.19756E-07         0.56303E-11         0.00000E+00
    0.19757E-07         0.60218E-11         0.00000E+00
    0.19758E-07         0.63278E-11         0.00000E+00
    0.19759E-07         0.65542E-11         0.00000E+00
    0.19760E-07         0.67067E-11         0.00000E+00
    0.19761E-07         0.67907E-11         0.00000E+00
    0.19762E-07         0.68116E-11         0.00000E+00
    0.19763E-07         0.67745E-11         0.00000E+00
    0.19765E-07         0.66847E-11         0.00000E+00
    0.19766E-07         0.65469E-11         0.00000E+00
    0.19767E-07         0.63660E-11         0.00000E+00
    0.19769E-07         0.61465E-11         0.00000E+00
    0.19770E-07         0.58930E-11         0.00000E+00
    0.19772E-07         0.56099E-11         0.00000E+00
    0.19773E-07         0.53014E-11         0.00000E+00
    0.19775E-07         0.49716E-11         0.00000E+00
    0.19776E-07         0.46245E-11         0.00000E+00
    0.19778E-07         0.42639E-11         0.00000E+00
    0.19779E-07         0.38935E-11         0.00000E+00
    0.19781E-07         0.35170E-11         0.00000E+00
    0.19782E-07         0.31378E-11         0.00000E+00
    0.19784E-07         0.27594E-11         0.00000E+00
    0.19786E-07         0.23849E-11         0.00000E+00
    0.19787E-07         0.20174E-11         0.00000E+00
    0.19789E-07         0.16600E-11         0.00000E+00
    0.19790E-07         0.13157E-11         0.00000E+00
    0.19791E-07         0.98707E-12         0.00000E+00
    0.19793E-07         0.67693E-12         0.00000E+00
    0.19794E-07         0.38781E-12         0.00000E+00
    0.19795E-07         0.12219E-12         0.00000E+00
    0.19797E-07        -0.11759E-12         0.00000E+00
    0.19798E-07        -0.32926E-12         0.00000E+00
    0.19799E-07        -0.51069E-12         0.00000E+00
    0.19800E-07        -0.65983E-12         0.00000E+00
    0.19801E-07        -0.77472E-12         0.00000E+00
    0.19802E-07        -0.85354E-12         0.00000E+00
    0.19803E-07        -0.89452E-12         0.00000E+00
    0.19803E-07        -0.89603E-12         0.00000E+00
    0.19804E-07        -0.85651E-12         0.00000E+00
    0.19805E-07        -0.77451E-12         0.00000E+00
    0.19805E-07        -0.64868E-12         0.00000E+00
    0.19805E-07        -0.47774E-12         0.00000E+00
    0.19805E-07        -0.26053E-12         0.00000E+00
    0.19805E-07        -0.14022E-12         0.00000E+00
    0.20630E-07         0.27352E-12         0.00000E+00
    0.20630E-07         0.51115E-12         0.00000E+00
    0.20630E-07         0.93523E-12         0.00000E+00
    0.20631E-07         0.12605E-11         0.00000E+00
    0.20631E-07         0.14939E-11         0.00000E+00
    0.20632E-07         0.16422E-11         0.00000E+00
    0.20632E-07         0.17120E-11         0.00000E+00
    0.20633E-07         0.17098E-11         0.00000E+00
    0.20634E-07         0.16417E-11         0.00000E+00
    0.20635E-07         0.15139E-11         0.00000E+00
    0.20636E-07         0.13323E-11         0.00000E+00
    0.20637E-07         0.11026E-11         0.00000E+00
    0.20638E-07         0.83047E-12         0.00000E+00
    0.20640E-07         0.52126E-12         0.00000E+00
    0.20641E-07         0.18027E-12         0.00000E+00
    0.20642E-07        -0.18738E-12         0.00000E+00
    0.20644E-07        -0.57670E-12         0.00000E+00
    0.20645E-07        -0.98288E-12         0.00000E+00
    0.20647E-07        -0.14012E-11         0.00000E+00
    0.20649E-07        -0.18272E-11         0.00000E+00
    0.20650E-07        -0.22564E-11         0.00000E+00
    0.20652E-07        -0.26846E-11         0.00000E+00
    0.20654E-07        -0.31077E-11         0.00000E+00
    0.20655E-07        -0.35216E-11         0.00000E+00
    0.20657E-07        -0.39225E-11         0.00000E+00
    0.20659E-07        -0.43067E-11         0.00000E+00
    0.20660E-07        -0.46705E-11         0.00000E+00
    0.20662E-07        -0.50106E-11         0.00000E+00
    0.20664E-07        -0.53235E-11         0.00000E+00
    0.20666E-07        -0.56059E-11         0.00000E+00
    0.20667E-07        -0.58549E-11         0.00000E+00
    0.20669E-07        -0.60673E-11         0.00000E+00
    0.20670E-07        -0.62404E-11         0.00000E+00
    0.20672E-07        -0.63713E-11         0.00000E+00
    0.20674E-07        -0.64574E-11         0.00000E+00
    0.20675E-07        -0.64962E-11         0.00000E+00
    0.20676E-07        -0.64852E-11         0.00000E+00
    0.20678E-07        -0.64220E-11         0.00000E+00
    0.20679E-07        -0.63046E-11         0.00000E+00
    0.20680E-07        -0.61307E-11         0.00000E+00
    0.20681E-07        -0.58984E-11         0.00000E+00
    0.20682E-07        -0.56058E-11         0.00000E+00
    0.20683E-07        -0.52511E-11         0.00000E+00
    0.20684E-07        -0.48325E-11         0.00000E+00
    0.20685E-07        -0.43485E-11         0.00000E+00
    0.20686E-07        -0.37976E-11         0.00000E+00
    0.20686E-07        -0.31784E-11         0.00000E+00
    0.20687E-07        -0.24896E-11         0.00000E+00
    0.20687E-07        -0.17299E-11         0.00000E+00
    0.20687E-07        -0.89837E-12         0.00000E+00
    0.20687E-07        -0.46446E-12         0.00000E+00
    0.21541E-07        -0.80503E-13         0.00000E+00
    0.21541E-07        -0.18753E-12         0.00000E+00
    0.21542E-07        -0.43864E-12         0.00000E+00
    0.21542E-07        -0.76029E-12         0.00000E+00
    0.21542E-07        -0.11454E-11         0.00000E+00
    0.21543E-07        -0.15871E-11         0.00000E+00
    0.21544E-07        -0.20786E-11         0.00000E+00
    0.21545E-07        -0.26136E-11         0.00000E+00
    0.21546E-07        -0.31856E-11         0.00000E+00
    0.21547E-07        -0.37885E-11         0.00000E+00
    0.21548E-07        -0.44164E-11         0.00000E+00
    0.21549E-07        -0.50634E-11         0.00000E+00
    0.21550E-07        -0.57239E-11         0.00000E+00
    0.21552E-07        -0.63926E-11         0.00000E+00
    0.21553E-07        -0.70639E-11         0.00000E+00
    0.21555E-07        -0.77330E-11         0.00000E+00
    0.21556E-07        -0.83946E-11         0.00000E+00
    0.21558E-07        -0.90441E-11         0.00000E+00
    0.21560E-07        -0.96767E-11         0.00000E+00
    0.21562E-07        -0.10288E-10         0.00000E+00
    0.21563E-07        -0.10873E-10         0.00000E+00
    0.21565E-07        -0.11429E-10         0.00000E+00
    0.21567E-07        -0.11950E-10         0.00000E+00
    0.21569E-07        -0.12433E-10         0.00000E+00
    0.21571E-07        -0.12875E-10         0.00000E+00
    0.21573E-07        -0.13270E-10         0.00000E+00
    0.21574E-07        -0.13617E-10         0.00000E+00
    0.21576E-07        -0.13911E-10         0.00000E+00
    0.21578E-07        -0.14149E-10         0.00000E+00
    0.21580E-07        -0.14327E-10         0.00000E+00
    0.21582E-07        -0.14444E-10         0.00000E+00
    0.21584E-07        -0.14495E-10         0.00000E+00
    0.21585E-07        -0.14479E-10         0.00000E+00
    0.21587E-07        -0.14391E-10         0.00000E+00
    0.21589E-07        -0.14231E-10         0.00000E+00
    0.21590E-07        -0.13994E-10         0.00000E+00
    0.21592E-07        -0.13680E-10         0.00000E+00
    0.21593E-07        -0.13285E-10         0.00000E+00
    0.21595E-07        -0.12807E-10         0.00000E+00
    0.21596E-07        -0.12245E-10         0.00000E+00
    0.21597E-07        -0.11596E-10         0.00000E+00
    0.21598E-07        -0.10859E-10         0.00000E+00
    0.21599E-07        -0.10031E-10         0.00000E+00
    0.21600E-07        -0.91122E-11         0.00000E+00
    0.21601E-07        -0.80997E-11         0.00000E+00
    0.21602E-07        -0.69924E-11         0.00000E+00
    0.21602E-07        -0.57890E-11         0.00000E+00
    0.21603E-07        -0.44883E-11         0.00000E+00
    0.21603E-07        -0.30892E-11         0.00000E+00
    0.21603E-07        -0.15906E-11         0.00000E+00
    0.21604E-07        -0.81630E-12         0.00000E+00
    0.22487E-07        -0.46989E-12         0.00000E+00
    0.22487E-07        -0.95567E-12         0.00000E+00
    0.22488E-07        -0.19483E-11         0.00000E+00
    0.22488E-07        -0.29795E-11         0.00000E+00
    0.22489E-07        -0.40422E-11         0.00000E+00
    0.22489E-07        -0.51294E-11         0.00000E+00
    0.22490E-07        -0.62345E-11         0.00000E+00
    0.22491E-07        -0.73508E-11         0.00000E+00
    0.22492E-07        -0.84721E-11         0.00000E+00
    0.22493E-07        -0.95922E-11         0.00000E+00
    0.22495E-07        -0.10705E-10         0.00000E+00
    0.22496E-07        -0.11805E-10         0.00000E+00
    0.22497E-07        -0.12887E-10         0.00000E+00
    0.22499E-07        -0.13944E-10         0.00000E+00
    0.22500E-07        -0.14973E-10         0.00000E+00
    0.22502E-07        -0.15967E-10         0.00000E+00
    0.22504E-07        -0.16922E-10         0.00000E+00
    0.22506E-07        -0.17833E-10         0.00000E+00
    0.22508E-07        -0.18695E-10         0.00000E+00
    0.22509E-07        -0.19504E-10         0.00000E+00
    0.22511E-07        -0.20256E-10         0.00000E+00
    0.22513E-07        -0.20946E-10         0.00000E+00
    0.22515E-07        -0.21570E-10         0.00000E+00
    0.22517E-07        -0.22125E-10         0.00000E+00
    0.22519E-07        -0.22606E-10         0.00000E+00
    0.22521E-07        -0.23011E-10         0.00000E+00
    0.22523E-07        -0.23335E-10         0.00000E+00
    0.22525E-07        -0.23575E-10         0.00000E+00
    0.22527E-07        -0.23728E-10         0.00000E+00
    0.22529E-07        -0.23791E-10         0.00000E+00
    0.22531E-07        -0.23761E-10         0.00000E+00
    0.22533E-07        -0.23634E-10         0.00000E+00
    0.22535E-07        -0.23409E-10         0.00000E+00
    0.22537E-07        -0.23083E-10         0.00000E+00
    0.22539E-07        -0.22652E-10         0.00000E+00
    0.22541E-07        -0.22115E-10         0.00000E+00
    0.22542E-07        -0.21470E-10         0.00000E+00
    0.22544E-07        -0.20713E-10         0.00000E+00
    0.22545E-07        -0.19844E-10         0.00000E+00
    0.22547E-07        -0.18860E-10         0.00000E+00
    0.22548E-07        -0.17759E-10         0.00000E+00
    0.22549E-07        -0.16539E-10         0.00000E+00
    0.22550E-07        -0.15199E-10         0.00000E+00
    0.22551E-07        -0.13738E-10         0.00000E+00
    0.22552E-07        -0.12153E-10         0.00000E+00
    0.22553E-07        -0.10444E-10         0.00000E+00
    0.22554E-07        -0.86088E-11         0.00000E+00
    0.22554E-07        -0.66468E-11         0.00000E+00
    0.22555E-07        -0.45568E-11         0.00000E+00
    0.22555E-07        -0.23379E-11         0.00000E+00
    0.22555E-07        -0.11960E-11         0.00000E+00
    0.23469E-07        -0.89541E-12         0.00000E+00
    0.23469E-07        -0.17948E-11         0.00000E+00
    0.23470E-07        -0.35967E-11         0.00000E+00
    0.23470E-07        -0.54013E-11         0.00000E+00
    0.23471E-07        -0.72016E-11         0.00000E+00
    0.23471E-07        -0.89907E-11         0.00000E+00
    0.23472E-07        -0.10762E-10         0.00000E+00
    0.23473E-07        -0.12509E-10         0.00000E+00
    0.23474E-07        -0.14225E-10         0.00000E+00
    0.23476E-07        -0.15905E-10         0.00000E+00
    0.23477E-07        -0.17542E-10         0.00000E+00
    0.23478E-07        -0.19131E-10         0.00000E+00
    0.23480E-07        -0.20666E-10         0.00000E+00
    0.23482E-07        -0.22142E-10         0.00000E+00
    0.23483E-07        -0.23554E-10         0.00000E+00
    0.23485E-07        -0.24897E-10         0.00000E+00
    0.23487E-07        -0.26166E-10         0.00000E+00
    0.23489E-07        -0.27356E-10         0.00000E+00
    0.23491E-07        -0.28463E-10         0.00000E+00
    0.23493E-07        -0.29482E-10         0.00000E+00
    0.23495E-07        -0.30409E-10         0.00000E+00
    0.23497E-07        -0.31241E-10         0.00000E+00
    0.23500E-07        -0.31973E-10         0.00000E+00
    0.23502E-07        -0.32601E-10         0.00000E+00
    0.23504E-07        -0.33122E-10         0.00000E+00
    0.23506E-07        -0.33532E-10         0.00000E+00
    0.23508E-07        -0.33828E-10         0.00000E+00
    0.23510E-07        -0.34007E-10         0.00000E+00
    0.23513E-07        -0.34065E-10         0.00000E+00
    0.23515E-07        -0.34000E-10         0.00000E+00
    0.23517E-07        -0.33808E-10         0.00000E+00
    0.23519E-07        -0.33487E-10         0.00000E+00
    0.23521E-07        -0.33035E-10         0.00000E+00
    0.23523E-07        -0.32447E-10         0.00000E+00
    0.23525E-07        -0.31724E-10         0.00000E+00
    0.23527E-07        -0.30861E-10         0.00000E+00
    0.23528E-07        -0.29857E-10         0.00000E+00
    0.23530E-07        -0.28709E-10         0.00000E+00
    0.23532E-07        -0.27416E-10         0.00000E+00
    0.23533E-07        -0.25976E-10         0.00000E+00
    0.23535E-07        -0.24387E-10         0.00000E+00
    0.23536E-07        -0.22647E-10         0.00000E+00
    0.23537E-07        -0.20755E-10         0.00000E+00
    0.23538E-07        -0.18710E-10         0.00000E+00
    0.23539E-07        -0.16509E-10         0.00000E+00
    0.23540E-07        -0.14152E-10         0.00000E+00
    0.23541E-07        -0.11638E-10         0.00000E+00
    0.23541E-07        -0.89651E-11         0.00000E+00
    0.23542E-07        -0.61328E-11         0.00000E+00
    0.23542E-07        -0.31402E-11         0.00000E+00
    0.23542E-07        -0.16037E-11         0.00000E+00
    0.24487E-07        -0.13575E-11         0.00000E+00
    0.24487E-07        -0.27055E-11         0.00000E+00
    0.24488E-07        -0.53849E-11         0.00000E+00
    0.24488E-07        -0.80272E-11         0.00000E+00
    0.24489E-07        -0.10625E-10         0.00000E+00
    0.24490E-07        -0.13173E-10         0.00000E+00
    0.24491E-07        -0.15663E-10         0.00000E+00
    0.24492E-07        -0.18090E-10         0.00000E+00
    0.24493E-07        -0.20447E-10         0.00000E+00
    0.24494E-07        -0.22728E-10         0.00000E+00
    0.24496E-07        -0.24928E-10         0.00000E+00
    0.24497E-07        -0.27041E-10         0.00000E+00
    0.24499E-07        -0.29062E-10         0.00000E+00
    0.24501E-07        -0.30986E-10         0.00000E+00
    0.24503E-07        -0.32808E-10         0.00000E+00
    0.24505E-07        -0.34522E-10         0.00000E+00
    0.24507E-07        -0.36125E-10         0.00000E+00
    0.24509E-07        -0.37612E-10         0.00000E+00
    0.24511E-07        -0.38978E-10         0.00000E+00
    0.24513E-07        -0.40219E-10         0.00000E+00
    0.24515E-07        -0.41331E-10         0.00000E+00
    0.24518E-07        -0.42311E-10         0.00000E+00
    0.24520E-07        -0.43154E-10         0.00000E+00
    0.24522E-07        -0.43857E-10         0.00000E+00
    0.24525E-07        -0.44417E-10         0.00000E+00
    0.24527E-07        -0.44829E-10         0.00000E+00
    0.24529E-07        -0.45092E-10         0.00000E+00
    0.24531E-07        -0.45201E-10         0.00000E+00
    0.24534E-07        -0.45154E-10         0.00000E+00
    0.24536E-07        -0.44948E-10         0.00000E+00
    0.24538E-07        -0.44580E-10         0.00000E+00
    0.24541E-07        -0.44047E-10         0.00000E+00
    0.24543E-07        -0.43348E-10         0.00000E+00
    0.24545E-07        -0.42479E-10         0.00000E+00
    0.24547E-07        -0.41438E-10         0.00000E+00
    0.24549E-07        -0.40224E-10         0.00000E+00
    0.24551E-07        -0.38834E-10         0.00000E+00
    0.24553E-07        -0.37266E-10         0.00000E+00
    0.24554E-07        -0.35518E-10         0.00000E+00
    0.24556E-07        -0.33588E-10         0.00000E+00
    0.24557E-07        -0.31476E-10         0.00000E+00
    0.24559E-07        -0.29179E-10         0.00000E+00
    0.24560E-07        -0.26695E-10         0.00000E+00
    0.24561E-07        -0.24024E-10         0.00000E+00
    0.24562E-07        -0.21165E-10         0.00000E+00
    0.24563E-07        -0.18115E-10         0.00000E+00
    0.24564E-07        -0.14874E-10         0.00000E+00
    0.24564E-07        -0.11442E-10         0.00000E+00
    0.24565E-07        -0.78161E-11         0.00000E+00
    0.24565E-07        -0.39971E-11         0.00000E+00
    0.24565E-07        -0.20391E-11         0.00000E+00
    0.25542E-07        -0.18559E-11         0.00000E+00
    0.25542E-07        -0.36877E-11         0.00000E+00
    0.25542E-07        -0.73124E-11         0.00000E+00
    0.25543E-07        -0.10856E-10         0.00000E+00
    0.25544E-07        -0.14312E-10         0.00000E+00
    0.25544E-07        -0.17673E-10         0.00000E+00
    0.25545E-07        -0.20934E-10         0.00000E+00
    0.25547E-07        -0.24089E-10         0.00000E+00
    0.25548E-07        -0.27131E-10         0.00000E+00
    0.25549E-07        -0.30055E-10         0.00000E+00
    0.25551E-07        -0.32856E-10         0.00000E+00
    0.25553E-07        -0.35528E-10         0.00000E+00
    0.25554E-07        -0.38066E-10         0.00000E+00
    0.25556E-07        -0.40466E-10         0.00000E+00
    0.25558E-07        -0.42722E-10         0.00000E+00
    0.25560E-07        -0.44831E-10         0.00000E+00
    0.25563E-07        -0.46787E-10         0.00000E+00
    0.25565E-07        -0.48586E-10         0.00000E+00
    0.25567E-07        -0.50225E-10         0.00000E+00
    0.25570E-07        -0.51699E-10         0.00000E+00
    0.25572E-07        -0.53005E-10         0.00000E+00
    0.25574E-07        -0.54139E-10         0.00000E+00
    0.25577E-07        -0.55097E-10         0.00000E+00
    0.25579E-07        -0.55876E-10         0.00000E+00
    0.25582E-07        -0.56472E-10         0.00000E+00
    0.25584E-07        -0.56884E-10         0.00000E+00
    0.25587E-07        -0.57107E-10         0.00000E+00
    0.25589E-07        -0.57138E-10         0.00000E+00
    0.25592E-07        -0.56975E-10         0.00000E+00
    0.25594E-07        -0.56616E-10         0.00000E+00
    0.25596E-07        -0.56057E-10         0.00000E+00
    0.25599E-07        -0.55296E-10         0.00000E+00
    0.25601E-07        -0.54331E-10         0.00000E+00
    0.25603E-07        -0.53160E-10         0.00000E+00
    0.25605E-07        -0.51780E-10         0.00000E+00
    0.25608E-07        -0.50189E-10         0.00000E+00
    0.25610E-07        -0.48386E-10         0.00000E+00
    0.25611E-07        -0.46368E-10         0.00000E+00
    0.25613E-07        -0.44135E-10         0.00000E+00
    0.25615E-07        -0.41684E-10         0.00000E+00
    0.25617E-07        -0.39013E-10         0.00000E+00
    0.25618E-07        -0.36122E-10         0.00000E+00
    0.25619E-07        -0.33009E-10         0.00000E+00
    0.25621E-07        -0.29672E-10         0.00000E+00
    0.25622E-07        -0.26111E-10         0.00000E+00
    0.25623E-07        -0.22325E-10         0.00000E+00
    0.25624E-07        -0.18312E-10         0.00000E+00
    0.25624E-07        -0.14072E-10         0.00000E+00
    0.25625E-07        -0.96039E-11         0.00000E+00
    0.25625E-07        -0.49070E-11         0.00000E+00
    0.25625E-07        -0.25013E-11         0.00000E+00
    0.26634E-07        -0.23901E-11         0.00000E+00
    0.26634E-07        -0.47398E-11         0.00000E+00
    0.26634E-07        -0.93761E-11         0.00000E+00
    0.26635E-07        -0.13883E-10         0.00000E+00
    0.26635E-07        -0.18254E-10         0.00000E+00
    0.26636E-07        -0.22484E-10         0.00000E+00
    0.26637E-07        -0.26566E-10         0.00000E+00
    0.26639E-07        -0.30495E-10         0.00000E+00
    0.26640E-07        -0.34265E-10         0.00000E+00
    0.26642E-07        -0.37872E-10         0.00000E+00
    0.26643E-07        -0.41309E-10         0.00000E+00
    0.26645E-07        -0.44573E-10         0.00000E+00
    0.26647E-07        -0.47658E-10         0.00000E+00
    0.26649E-07        -0.50560E-10         0.00000E+00
    0.26651E-07        -0.53275E-10         0.00000E+00
    0.26653E-07        -0.55798E-10         0.00000E+00
    0.26656E-07        -0.58125E-10         0.00000E+00
    0.26658E-07        -0.60252E-10         0.00000E+00
    0.26660E-07        -0.62177E-10         0.00000E+00
    0.26663E-07        -0.63894E-10         0.00000E+00
    0.26665E-07        -0.65401E-10         0.00000E+00
    0.26668E-07        -0.66694E-10         0.00000E+00
    0.26671E-07        -0.67769E-10         0.00000E+00
    0.26673E-07        -0.68625E-10         0.00000E+00
    0.26676E-07        -0.69257E-10         0.00000E+00
    0.26678E-07        -0.69663E-10         0.00000E+00
    0.26681E-07        -0.69840E-10         0.00000E+00
    0.26684E-07        -0.69786E-10         0.00000E+00
    0.26686E-07        -0.69498E-10         0.00000E+00
    0.26689E-07        -0.68972E-10         0.00000E+00
    0.26691E-07        -0.68208E-10         0.00000E+00
    0.26694E-07        -0.67203E-10         0.00000E+00
    0.26696E-07        -0.65954E-10         0.00000E+00
    0.26699E-07        -0.64460E-10         0.00000E+00
    0.26701E-07        -0.62719E-10         0.00000E+00
    0.26703E-07        -0.60728E-10         0.00000E+00
    0.26705E-07        -0.58487E-10         0.00000E+00
    0.26707E-07        -0.55993E-10         0.00000E+00
    0.26709E-07        -0.53244E-10         0.00000E+00
    0.26711E-07        -0.50240E-10         0.00000E+00
    0.26713E-07        -0.46978E-10         0.00000E+00
    0.26714E-07        -0.43458E-10         0.00000E+00
    0.26716E-07        -0.39679E-10         0.00000E+00
    0.26717E-07        -0.35639E-10         0.00000E+00
    0.26718E-07        -0.31336E-10         0.00000E+00
    0.26719E-07        -0.26771E-10         0.00000E+00
    0.26720E-07        -0.21943E-10         0.00000E+00
    0.26721E-07        -0.16850E-10         0.00000E+00
    0.26721E-07        -0.11492E-10         0.00000E+00
    0.26721E-07        -0.58677E-11         0.00000E+00
    0.26721E-07        -0.29894E-11         0.00000E+00
    0.27763E-07        -0.29584E-11         0.00000E+00
    0.27763E-07        -0.58588E-11         0.00000E+00
    0.27763E-07        -0.11570E-10         0.00000E+00
    0.27764E-07        -0.17099E-10         0.00000E+00
    0.27764E-07        -0.22441E-10         0.00000E+00
    0.27765E-07        -0.27590E-10         0.00000E+00
    0.27767E-07        -0.32540E-10         0.00000E+00
    0.27768E-07        -0.37287E-10         0.00000E+00
    0.27769E-07        -0.41826E-10         0.00000E+00
    0.27771E-07        -0.46151E-10         0.00000E+00
    0.27773E-07        -0.50258E-10         0.00000E+00
    0.27775E-07        -0.54144E-10         0.00000E+00
    0.27777E-07        -0.57803E-10         0.00000E+00
    0.27779E-07        -0.61232E-10         0.00000E+00
    0.27781E-07        -0.64426E-10         0.00000E+00
    0.27783E-07        -0.67382E-10         0.00000E+00
    0.27786E-07        -0.70097E-10         0.00000E+00
    0.27788E-07        -0.72567E-10         0.00000E+00
    0.27791E-07        -0.74788E-10         0.00000E+00
    0.27793E-07        -0.76757E-10         0.00000E+00
    0.27796E-07        -0.78471E-10         0.00000E+00
    0.27799E-07        -0.79928E-10         0.00000E+00
    0.27801E-07        -0.81123E-10         0.00000E+00
    0.27804E-07        -0.82055E-10         0.00000E+00
    0.27807E-07        -0.82721E-10         0.00000E+00
    0.27810E-07        -0.83118E-10         0.00000E+00
    0.27812E-07        -0.83244E-10         0.00000E+00
    0.27815E-07        -0.83096E-10         0.00000E+00
    0.27818E-07        -0.82671E-10         0.00000E+00
    0.27821E-07        -0.81969E-10         0.00000E+00
    0.27823E-07        -0.80987E-10         0.00000E+00
    0.27826E-07        -0.79722E-10         0.00000E+00
    0.27828E-07        -0.78173E-10         0.00000E+00
    0.27831E-07        -0.76337E-10         0.00000E+00
    0.27833E-07        -0.74214E-10         0.00000E+00
    0.27836E-07        -0.71801E-10         0.00000E+00
    0.27838E-07        -0.69098E-10         0.00000E+00
    0.27840E-07        -0.66101E-10         0.00000E+00
    0.27842E-07        -0.62810E-10         0.00000E+00
    0.27844E-07        -0.59224E-10         0.00000E+00
    0.27846E-07        -0.55342E-10         0.00000E+00
    0.27847E-07        -0.51161E-10         0.00000E+00
    0.27849E-07        -0.46681E-10         0.00000E+00
    0.27850E-07        -0.41901E-10         0.00000E+00
    0.27851E-07        -0.36821E-10         0.00000E+00
    0.27852E-07        -0.31438E-10         0.00000E+00
    0.27853E-07        -0.25753E-10         0.00000E+00
    0.27854E-07        -0.19765E-10         0.00000E+00
    0.27854E-07        -0.13472E-10         0.00000E+00
    0.27855E-07        -0.68759E-11         0.00000E+00
    0.27855E-07        -0.35015E-11         0.00000E+00
    0.28929E-07        -0.35586E-11         0.00000E+00
    0.28929E-07        -0.70399E-11         0.00000E+00
    0.28929E-07        -0.13885E-10         0.00000E+00
    0.28930E-07        -0.20491E-10         0.00000E+00
    0.28931E-07        -0.26853E-10         0.00000E+00
    0.28932E-07        -0.32968E-10         0.00000E+00
    0.28933E-07        -0.38829E-10         0.00000E+00
    0.28934E-07        -0.44434E-10         0.00000E+00
    0.28936E-07        -0.49776E-10         0.00000E+00
    0.28938E-07        -0.54853E-10         0.00000E+00
    0.28939E-07        -0.59660E-10         0.00000E+00
    0.28941E-07        -0.64195E-10         0.00000E+00
    0.28943E-07        -0.68452E-10         0.00000E+00
    0.28946E-07        -0.72428E-10         0.00000E+00
    0.28948E-07        -0.76121E-10         0.00000E+00
    0.28950E-07        -0.79527E-10         0.00000E+00
    0.28953E-07        -0.82643E-10         0.00000E+00
    0.28956E-07        -0.85466E-10         0.00000E+00
    0.28958E-07        -0.87993E-10         0.00000E+00
    0.28961E-07        -0.90222E-10         0.00000E+00
    0.28964E-07        -0.92149E-10         0.00000E+00
    0.28967E-07        -0.93772E-10         0.00000E+00
    0.28969E-07        -0.95089E-10         0.00000E+00
    0.28972E-07        -0.96097E-10         0.00000E+00
    0.28975E-07        -0.96794E-10         0.00000E+00
    0.28978E-07        -0.97178E-10         0.00000E+00
    0.28981E-07        -0.97246E-10         0.00000E+00
    0.28984E-07        -0.96997E-10         0.00000E+00
    0.28987E-07        -0.96429E-10         0.00000E+00
    0.28989E-07        -0.95539E-10         0.00000E+00
    0.28992E-07        -0.94326E-10         0.00000E+00
    0.28995E-07        -0.92788E-10         0.00000E+00
    0.28997E-07        -0.90923E-10         0.00000E+00
    0.29000E-07        -0.88730E-10         0.00000E+00
    0.29002E-07        -0.86207E-10         0.00000E+00
    0.29005E-07        -0.83352E-10         0.00000E+00
    0.29007E-07        -0.80165E-10         0.00000E+00
    0.29009E-07        -0.76644E-10         0.00000E+00
    0.29011E-07        -0.72787E-10         0.00000E+00
    0.29013E-07        -0.68593E-10         0.00000E+00
    0.29015E-07        -0.64062E-10         0.00000E+00
    0.29017E-07        -0.59192E-10         0.00000E+00
    0.29018E-07        -0.53982E-10         0.00000E+00
    0.29020E-07        -0.48431E-10         0.00000E+00
    0.29021E-07        -0.42538E-10         0.00000E+00
    0.29022E-07        -0.36303E-10         0.00000E+00
    0.29023E-07        -0.29725E-10         0.00000E+00
    0.29024E-07        -0.22804E-10         0.00000E+00
    0.29024E-07        -0.15538E-10         0.00000E+00
    0.29025E-07        -0.79270E-11         0.00000E+00
    0.29025E-07        -0.40354E-11         0.00000E+00
    0.30132E-07        -0.41871E-11         0.00000E+00
    0.30132E-07        -0.82764E-11         0.00000E+00
    0.30133E-07        -0.16306E-10         0.00000E+00
    0.30133E-07        -0.24037E-10         0.00000E+00
    0.30134E-07        -0.31465E-10         0.00000E+00
    0.30135E-07        -0.38585E-10         0.00000E+00
    0.30136E-07        -0.45395E-10         0.00000E+00
    0.30138E-07        -0.51890E-10         0.00000E+00
    0.30139E-07        -0.58067E-10         0.00000E+00
    0.30141E-07        -0.63924E-10         0.00000E+00
    0.30143E-07        -0.69456E-10         0.00000E+00
    0.30145E-07        -0.74661E-10         0.00000E+00
    0.30147E-07        -0.79535E-10         0.00000E+00
    0.30150E-07        -0.84077E-10         0.00000E+00
    0.30152E-07        -0.88284E-10         0.00000E+00
    0.30155E-07        -0.92153E-10         0.00000E+00
    0.30157E-07        -0.95681E-10         0.00000E+00
    0.30160E-07        -0.98866E-10         0.00000E+00
    0.30163E-07        -0.10171E-09         0.00000E+00
    0.30166E-07        -0.10420E-09         0.00000E+00
    0.30168E-07        -0.10634E-09         0.00000E+00
    0.30171E-07        -0.10814E-09         0.00000E+00
    0.30174E-07        -0.10957E-09         0.00000E+00
    0.30177E-07        -0.11066E-09         0.00000E+00
    0.30180E-07        -0.11138E-09         0.00000E+00
    0.30183E-07        -0.11175E-09         0.00000E+00
    0.30186E-07        -0.11176E-09         0.00000E+00
    0.30189E-07        -0.11140E-09         0.00000E+00
    0.30192E-07        -0.11068E-09         0.00000E+00
    0.30195E-07        -0.10959E-09         0.00000E+00
    0.30198E-07        -0.10814E-09         0.00000E+00
    0.30200E-07        -0.10632E-09         0.00000E+00
    0.30203E-07        -0.10412E-09         0.00000E+00
    0.30206E-07        -0.10156E-09         0.00000E+00
    0.30208E-07        -0.98620E-10         0.00000E+00
    0.30211E-07        -0.95308E-10         0.00000E+00
    0.30213E-07        -0.91619E-10         0.00000E+00
    0.30215E-07        -0.87554E-10         0.00000E+00
    0.30218E-07        -0.83111E-10         0.00000E+00
    0.30220E-07        -0.78289E-10         0.00000E+00
    0.30221E-07        -0.73086E-10         0.00000E+00
    0.30223E-07        -0.67503E-10         0.00000E+00
    0.30225E-07        -0.61537E-10         0.00000E+00
    0.30226E-07        -0.55188E-10         0.00000E+00
    0.30228E-07        -0.48456E-10         0.00000E+00
    0.30229E-07        -0.41339E-10         0.00000E+00
    0.30230E-07        -0.33837E-10         0.00000E+00
    0.30230E-07        -0.25949E-10         0.00000E+00
    0.30231E-07        -0.17676E-10         0.00000E+00
    0.30231E-07        -0.90151E-11         0.00000E+00
    0.30231E-07        -0.45882E-11         0.00000E+00
    0.31373E-07        -0.48394E-11         0.00000E+00
    0.31373E-07        -0.95589E-11         0.00000E+00
    0.31373E-07        -0.18817E-10         0.00000E+00
    0.31374E-07        -0.27711E-10         0.00000E+00
    0.31375E-07        -0.36239E-10         0.00000E+00
    0.31376E-07        -0.44398E-10         0.00000E+00
    0.31377E-07        -0.52185E-10         0.00000E+00
    0.31378E-07        -0.59597E-10         0.00000E+00
    0.31380E-07        -0.66633E-10         0.00000E+00
    0.31382E-07        -0.73289E-10         0.00000E+00
    0.31384E-07        -0.79565E-10         0.00000E+00
    0.31386E-07        -0.85457E-10         0.00000E+00
    0.31388E-07        -0.90964E-10         0.00000E+00
    0.31391E-07        -0.96084E-10         0.00000E+00
    0.31393E-07        -0.10081E-09         0.00000E+00
    0.31396E-07        -0.10515E-09         0.00000E+00
    0.31398E-07        -0.10910E-09         0.00000E+00
    0.31401E-07        -0.11266E-09         0.00000E+00
    0.31404E-07        -0.11581E-09         0.00000E+00
    0.31407E-07        -0.11858E-09         0.00000E+00
    0.31410E-07        -0.12094E-09         0.00000E+00
    0.31413E-07        -0.12290E-09         0.00000E+00
    0.31416E-07        -0.12446E-09         0.00000E+00
    0.31419E-07        -0.12562E-09         0.00000E+00
    0.31422E-07        -0.12637E-09         0.00000E+00
    0.31425E-07        -0.12672E-09         0.00000E+00
    0.31428E-07        -0.12666E-09         0.00000E+00
    0.31431E-07        -0.12619E-09         0.00000E+00
    0.31434E-07        -0.12531E-09         0.00000E+00
    0.31437E-07        -0.12402E-09         0.00000E+00
    0.31439E-07        -0.12232E-09         0.00000E+00
    0.31442E-07        -0.12020E-09         0.00000E+00
    0.31445E-07        -0.11767E-09         0.00000E+00
    0.31448E-07        -0.11472E-09         0.00000E+00
    0.31450E-07        -0.11136E-09         0.00000E+00
    0.31453E-07        -0.10758E-09         0.00000E+00
    0.31455E-07        -0.10337E-09         0.00000E+00
    0.31458E-07        -0.98750E-10         0.00000E+00
    0.31460E-07        -0.93706E-10         0.00000E+00
    0.31462E-07        -0.88239E-10         0.00000E+00
    0.31464E-07        -0.82348E-10         0.00000E+00
    0.31466E-07        -0.76033E-10         0.00000E+00
    0.31467E-07        -0.69292E-10         0.00000E+00
    0.31469E-07        -0.62125E-10         0.00000E+00
    0.31470E-07        -0.54531E-10         0.00000E+00
    0.31471E-07        -0.46509E-10         0.00000E+00
    0.31472E-07        -0.38059E-10         0.00000E+00
    0.31473E-07        -0.29180E-10         0.00000E+00
    0.31473E-07        -0.19872E-10         0.00000E+00
    0.31474E-07        -0.10133E-10         0.00000E+00
    0.31474E-07        -0.51562E-11         0.00000E+00
    0.32649E-07        -0.55091E-11         0.00000E+00
    0.32649E-07        -0.10875E-10         0.00000E+00
    0.32650E-07        -0.21392E-10         0.00000E+00
    0.32650E-07        -0.31478E-10         0.00000E+00
    0.32651E-07        -0.41131E-10         0.00000E+00
    0.32652E-07        -0.50350E-10         0.00000E+00
    0.32654E-07        -0.59133E-10         0.00000E+00
    0.32655E-07        -0.67479E-10         0.00000E+00
    0.32657E-07        -0.75388E-10         0.00000E+00
    0.32659E-07        -0.82858E-10         0.00000E+00
    0.32661E-07        -0.89887E-10         0.00000E+00
    0.32663E-07        -0.96476E-10         0.00000E+00
    0.32665E-07        -0.10262E-09         0.00000E+00
    0.32668E-07        -0.10833E-09         0.00000E+00
    0.32670E-07        -0.11359E-09         0.00000E+00
    0.32673E-07        -0.11840E-09         0.00000E+00
    0.32675E-07        -0.12277E-09         0.00000E+00
    0.32678E-07        -0.12670E-09         0.00000E+00
    0.32681E-07        -0.13017E-09         0.00000E+00
    0.32684E-07        -0.13320E-09         0.00000E+00
    0.32687E-07        -0.13579E-09         0.00000E+00
    0.32690E-07        -0.13792E-09         0.00000E+00
    0.32693E-07        -0.13960E-09         0.00000E+00
    0.32696E-07        -0.14083E-09         0.00000E+00
    0.32699E-07        -0.14160E-09         0.00000E+00
    0.32702E-07        -0.14193E-09         0.00000E+00
    0.32705E-07        -0.14180E-09         0.00000E+00
    0.32708E-07        -0.14121E-09         0.00000E+00
    0.32711E-07        -0.14017E-09         0.00000E+00
    0.32714E-07        -0.13868E-09         0.00000E+00
    0.32717E-07        -0.13672E-09         0.00000E+00
    0.32720E-07        -0.13431E-09         0.00000E+00
    0.32723E-07        -0.13143E-09         0.00000E+00
    0.32725E-07        -0.12810E-09         0.00000E+00
    0.32728E-07        -0.12430E-09         0.00000E+00
    0.32731E-07        -0.12004E-09         0.00000E+00
    0.32733E-07        -0.11532E-09         0.00000E+00
    0.32735E-07        -0.11013E-09         0.00000E+00
    0.32738E-07        -0.10447E-09         0.00000E+00
    0.32740E-07        -0.98353E-10         0.00000E+00
    0.32742E-07        -0.91764E-10         0.00000E+00
    0.32743E-07        -0.84706E-10         0.00000E+00
    0.32745E-07        -0.77179E-10         0.00000E+00
    0.32747E-07        -0.69181E-10         0.00000E+00
    0.32748E-07        -0.60712E-10         0.00000E+00
    0.32749E-07        -0.51771E-10         0.00000E+00
    0.32750E-07        -0.42357E-10         0.00000E+00
    0.32751E-07        -0.32469E-10         0.00000E+00
    0.32751E-07        -0.22108E-10         0.00000E+00
    0.32752E-07        -0.11272E-10         0.00000E+00
    0.32752E-07        -0.57349E-11         0.00000E+00
    0.33962E-07        -0.61886E-11         0.00000E+00
    0.33962E-07        -0.12210E-10         0.00000E+00
    0.33962E-07        -0.24002E-10         0.00000E+00
    0.33963E-07        -0.35292E-10         0.00000E+00
    0.33964E-07        -0.46081E-10         0.00000E+00
    0.33965E-07        -0.56369E-10         0.00000E+00
    0.33966E-07        -0.66155E-10         0.00000E+00
    0.33968E-07        -0.75441E-10         0.00000E+00
    0.33969E-07        -0.84226E-10         0.00000E+00
    0.33971E-07        -0.92511E-10         0.00000E+00
    0.33973E-07        -0.10030E-09         0.00000E+00
    0.33975E-07        -0.10758E-09         0.00000E+00
    0.33978E-07        -0.11437E-09         0.00000E+00
    0.33980E-07        -0.12066E-09         0.00000E+00
    0.33983E-07        -0.12644E-09         0.00000E+00
    0.33985E-07        -0.13173E-09         0.00000E+00
    0.33988E-07        -0.13652E-09         0.00000E+00
    0.33991E-07        -0.14082E-09         0.00000E+00
    0.33994E-07        -0.14461E-09         0.00000E+00
    0.33996E-07        -0.14791E-09         0.00000E+00
    0.33999E-07        -0.15070E-09         0.00000E+00
    0.34002E-07        -0.15300E-09         0.00000E+00
    0.34005E-07        -0.15480E-09         0.00000E+00
    0.34008E-07        -0.15610E-09         0.00000E+00
    0.34011E-07        -0.15690E-09         0.00000E+00
    0.34015E-07        -0.15720E-09         0.00000E+00
    0.34018E-07        -0.15700E-09         0.00000E+00
    0.34021E-07        -0.15630E-09         0.00000E+00
    0.34024E-07        -0.15510E-09         0.00000E+00
    0.34027E-07        -0.15339E-09         0.00000E+00
    0.34029E-07        -0.15118E-09         0.00000E+00
    0.34032E-07        -0.14847E-09         0.00000E+00
    0.34035E-07        -0.14525E-09         0.00000E+00
    0.34038E-07        -0.14153E-09         0.00000E+00
    0.34040E-07        -0.13730E-09         0.00000E+00
    0.34043E-07        -0.13257E-09         0.00000E+00
    0.34045E-07        -0.12732E-09         0.00000E+00
    0.34048E-07        -0.12157E-09         0.00000E+00
    0.34050E-07        -0.11530E-09         0.00000E+00
    0.34052E-07        -0.10852E-09         0.00000E+00
    0.34054E-07        -0.10124E-09         0.00000E+00
    0.34056E-07        -0.93434E-10         0.00000E+00
    0.34057E-07        -0.85117E-10         0.00000E+00
    0.34059E-07        -0.76285E-10         0.00000E+00
    0.34060E-07        -0.66937E-10         0.00000E+00
    0.34061E-07        -0.57072E-10         0.00000E+00
    0.34062E-07        -0.46688E-10         0.00000E+00
    0.34063E-07        -0.35786E-10         0.00000E+00
    0.34064E-07        -0.24363E-10         0.00000E+00
    0.34064E-07        -0.12421E-10         0.00000E+00
    0.34064E-07        -0.63189E-11         0.00000E+00
    0.35309E-07        -0.68681E-11         0.00000E+00
    0.35309E-07        -0.13544E-10         0.00000E+00
    0.35310E-07        -0.26609E-10         0.00000E+00
    0.35310E-07        -0.39099E-10         0.00000E+00
    0.35311E-07        -0.51018E-10         0.00000E+00
    0.35312E-07        -0.62368E-10         0.00000E+00
    0.35314E-07        -0.73149E-10         0.00000E+00
    0.35315E-07        -0.83365E-10         0.00000E+00
    0.35317E-07        -0.93018E-10         0.00000E+00
    0.35319E-07        -0.10211E-09         0.00000E+00
    0.35321E-07        -0.11064E-09         0.00000E+00
    0.35323E-07        -0.11861E-09         0.00000E+00
    0.35325E-07        -0.12603E-09         0.00000E+00
    0.35327E-07        -0.13289E-09         0.00000E+00
    0.35330E-07        -0.13920E-09         0.00000E+00
    0.35332E-07        -0.14495E-09         0.00000E+00
    0.35335E-07        -0.15015E-09         0.00000E+00
    0.35338E-07        -0.15481E-09         0.00000E+00
    0.35340E-07        -0.15891E-09         0.00000E+00
    0.35343E-07        -0.16247E-09         0.00000E+00
    0.35346E-07        -0.16548E-09         0.00000E+00
    0.35349E-07        -0.16794E-09         0.00000E+00
    0.35352E-07        -0.16985E-09         0.00000E+00
    0.35355E-07        -0.17122E-09         0.00000E+00
    0.35358E-07        -0.17205E-09         0.00000E+00
    0.35361E-07        -0.17232E-09         0.00000E+00
    0.35364E-07        -0.17205E-09         0.00000E+00
    0.35367E-07        -0.17124E-09         0.00000E+00
    0.35370E-07        -0.16987E-09         0.00000E+00
    0.35373E-07        -0.16797E-09         0.00000E+00
    0.35376E-07        -0.16551E-09         0.00000E+00
    0.35378E-07        -0.16250E-09         0.00000E+00
    0.35381E-07        -0.15895E-09         0.00000E+00
    0.35384E-07        -0.15484E-09         0.00000E+00
    0.35386E-07        -0.15019E-09         0.00000E+00
    0.35389E-07        -0.14498E-09         0.00000E+00
    0.35391E-07        -0.13923E-09         0.00000E+00
    0.35394E-07        -0.13291E-09         0.00000E+00
    0.35396E-07        -0.12605E-09         0.00000E+00
    0.35398E-07        -0.11862E-09         0.00000E+00
    0.35400E-07        -0.11065E-09         0.00000E+00
    0.35402E-07        -0.10211E-09         0.00000E+00
    0.35403E-07        -0.93010E-10         0.00000E+00
    0.35405E-07        -0.83353E-10         0.00000E+00
    0.35406E-07        -0.73133E-10         0.00000E+00
    0.35407E-07        -0.62350E-10         0.00000E+00
    0.35408E-07        -0.51004E-10         0.00000E+00
    0.35409E-07        -0.39092E-10         0.00000E+00
    0.35409E-07        -0.26613E-10         0.00000E+00
    0.35410E-07        -0.13567E-10         0.00000E+00
    0.35410E-07        -0.69020E-11         0.00000E+00
    0.36690E-07        -0.75358E-11         0.00000E+00
    0.36690E-07        -0.14854E-10         0.00000E+00
    0.36691E-07        -0.29166E-10         0.00000E+00
    0.36691E-07        -0.42832E-10         0.00000E+00
    0.36692E-07        -0.55854E-10         0.00000E+00
    0.36693E-07        -0.68239E-10         0.00000E+00
    0.36695E-07        -0.79990E-10         0.00000E+00
    0.36696E-07        -0.91110E-10         0.00000E+00
    0.36698E-07        -0.10160E-09         0.00000E+00
    0.36699E-07        -0.11148E-09         0.00000E+00
    0.36701E-07        -0.12073E-09         0.00000E+00
    0.36703E-07        -0.12937E-09         0.00000E+00
    0.36706E-07        -0.13739E-09         0.00000E+00
    0.36708E-07        -0.14481E-09         0.00000E+00
    0.36710E-07        -0.15161E-09         0.00000E+00
    0.36713E-07        -0.15782E-09         0.00000E+00
    0.36715E-07        -0.16342E-09         0.00000E+00
    0.36718E-07        -0.16842E-09         0.00000E+00
    0.36721E-07        -0.17282E-09         0.00000E+00
    0.36723E-07        -0.17663E-09         0.00000E+00
    0.36726E-07        -0.17985E-09         0.00000E+00
    0.36729E-07        -0.18247E-09         0.00000E+00
    0.36732E-07        -0.18449E-09         0.00000E+00
    0.36735E-07        -0.18593E-09         0.00000E+00
    0.36737E-07        -0.18678E-09         0.00000E+00
    0.36740E-07        -0.18703E-09         0.00000E+00
    0.36743E-07        -0.18670E-09         0.00000E+00
    0.36746E-07        -0.18577E-09         0.00000E+00
    0.36749E-07        -0.18426E-09         0.00000E+00
    0.36752E-07        -0.18215E-09         0.00000E+00
    0.36754E-07        -0.17946E-09         0.00000E+00
    0.36757E-07        -0.17617E-09         0.00000E+00
    0.36760E-07        -0.17230E-09         0.00000E+00
    0.36762E-07        -0.16783E-09         0.00000E+00
    0.36765E-07        -0.16276E-09         0.00000E+00
    0.36767E-07        -0.15710E-09         0.00000E+00
    0.36770E-07        -0.15085E-09         0.00000E+00
    0.36772E-07        -0.14400E-09         0.00000E+00
    0.36774E-07        -0.13655E-09         0.00000E+00
    0.36776E-07        -0.12850E-09         0.00000E+00
    0.36778E-07        -0.11985E-09         0.00000E+00
    0.36780E-07        -0.11060E-09         0.00000E+00
    0.36781E-07        -0.10075E-09         0.00000E+00
    0.36783E-07        -0.90284E-10         0.00000E+00
    0.36784E-07        -0.79214E-10         0.00000E+00
    0.36785E-07        -0.67535E-10         0.00000E+00
    0.36786E-07        -0.55245E-10         0.00000E+00
    0.36787E-07        -0.42343E-10         0.00000E+00
    0.36787E-07        -0.28828E-10         0.00000E+00
    0.36787E-07        -0.14696E-10         0.00000E+00
    0.36788E-07        -0.74768E-11         0.00000E+00
    0.38104E-07        -0.81774E-11         0.00000E+00
    0.38104E-07        -0.16112E-10         0.00000E+00
    0.38104E-07        -0.31620E-10         0.00000E+00
    0.38105E-07        -0.46409E-10         0.00000E+00
    0.38106E-07        -0.60486E-10         0.00000E+00
    0.38107E-07        -0.73857E-10         0.00000E+00
    0.38108E-07        -0.86529E-10         0.00000E+00
    0.38109E-07        -0.98508E-10         0.00000E+00
    0.38111E-07        -0.10980E-09         0.00000E+00
    0.38112E-07        -0.12041E-09         0.00000E+00
    0.38114E-07        -0.13035E-09         0.00000E+00
    0.38116E-07        -0.13961E-09         0.00000E+00
    0.38118E-07        -0.14821E-09         0.00000E+00
    0.38120E-07        -0.15615E-09         0.00000E+00
    0.38123E-07        -0.16343E-09         0.00000E+00
    0.38125E-07        -0.17006E-09         0.00000E+00
    0.38127E-07        -0.17604E-09         0.00000E+00
    0.38130E-07        -0.18137E-09         0.00000E+00
    0.38132E-07        -0.18605E-09         0.00000E+00
    0.38135E-07        -0.19010E-09         0.00000E+00
    0.38137E-07        -0.19351E-09         0.00000E+00
    0.38140E-07        -0.19628E-09         0.00000E+00
    0.38143E-07        -0.19841E-09         0.00000E+00
    0.38145E-07        -0.19992E-09         0.00000E+00
    0.38148E-07        -0.20079E-09         0.00000E+00
    0.38151E-07        -0.20103E-09         0.00000E+00
    0.38153E-07        -0.20063E-09         0.00000E+00
    0.38156E-07        -0.19961E-09         0.00000E+00
    0.38159E-07        -0.19796E-09         0.00000E+00
    0.38161E-07        -0.19568E-09         0.00000E+00
    0.38164E-07        -0.19276E-09         0.00000E+00
    0.38167E-07        -0.18922E-09         0.00000E+00
    0.38169E-07        -0.18504E-09         0.00000E+00
    0.38171E-07        -0.18023E-09         0.00000E+00
    0.38174E-07        -0.17478E-09         0.00000E+00
    0.38176E-07        -0.16870E-09         0.00000E+00
    0.38178E-07        -0.16198E-09         0.00000E+00
    0.38180E-07        -0.15463E-09         0.00000E+00
    0.38182E-07        -0.14663E-09         0.00000E+00
    0.38184E-07        -0.13799E-09         0.00000E+00
    0.38186E-07        -0.12871E-09         0.00000E+00
    0.38188E-07        -0.11877E-09         0.00000E+00
    0.38189E-07        -0.10820E-09         0.00000E+00
    0.38191E-07        -0.96965E-10         0.00000E+00
    0.38192E-07        -0.85081E-10         0.00000E+00
    0.38193E-07        -0.72543E-10         0.00000E+00
    0.38194E-07        -0.59347E-10         0.00000E+00
    0.38195E-07        -0.45491E-10         0.00000E+00
    0.38195E-07        -0.30974E-10         0.00000E+00
    0.38195E-07        -0.15792E-10         0.00000E+00
    0.38195E-07        -0.80349E-11         0.00000E+00
    0.39548E-07        -0.87761E-11         0.00000E+00
    0.39548E-07        -0.17285E-10         0.00000E+00
    0.39549E-07        -0.33906E-10         0.00000E+00
    0.39549E-07        -0.49737E-10         0.00000E+00
    0.39550E-07        -0.64789E-10         0.00000E+00
    0.39551E-07        -0.79072E-10         0.00000E+00
    0.39552E-07        -0.92594E-10         0.00000E+00
    0.39553E-07        -0.10536E-09         0.00000E+00
    0.39554E-07        -0.11739E-09         0.00000E+00
    0.39556E-07        -0.12868E-09         0.00000E+00
    0.39558E-07        -0.13924E-09         0.00000E+00
    0.39559E-07        -0.14908E-09         0.00000E+00
    0.39561E-07        -0.15821E-09         0.00000E+00
    0.39563E-07        -0.16662E-09         0.00000E+00
    0.39565E-07        -0.17434E-09         0.00000E+00
    0.39567E-07        -0.18135E-09         0.00000E+00
    0.39569E-07        -0.18767E-09         0.00000E+00
    0.39572E-07        -0.19331E-09         0.00000E+00
    0.39574E-07        -0.19826E-09         0.00000E+00
    0.39576E-07        -0.20252E-09         0.00000E+00
    0.39578E-07        -0.20611E-09         0.00000E+00
    0.39581E-07        -0.20902E-09         0.00000E+00
    0.39583E-07        -0.21126E-09         0.00000E+00
    0.39586E-07        -0.21283E-09         0.00000E+00
    0.39588E-07        -0.21373E-09         0.00000E+00
    0.39591E-07        -0.21396E-09         0.00000E+00
    0.39593E-07        -0.21353E-09         0.00000E+00
    0.39595E-07        -0.21242E-09         0.00000E+00
    0.39598E-07        -0.21065E-09         0.00000E+00
    0.39600E-07        -0.20821E-09         0.00000E+00
    0.39603E-07        -0.20511E-09         0.00000E+00
    0.39605E-07        -0.20133E-09         0.00000E+00
    0.39607E-07        -0.19689E-09         0.00000E+00
    0.39609E-07        -0.19177E-09         0.00000E+00
    0.39612E-07        -0.18598E-09         0.00000E+00
    0.39614E-07        -0.17952E-09         0.00000E+00
    0.39616E-07        -0.17238E-09         0.00000E+00
    0.39618E-07        -0.16456E-09         0.00000E+00
    0.39620E-07        -0.15607E-09         0.00000E+00
    0.39621E-07        -0.14688E-09         0.00000E+00
    0.39623E-07        -0.13702E-09         0.00000E+00
    0.39624E-07        -0.12646E-09         0.00000E+00
    0.39626E-07        -0.11521E-09         0.00000E+00
    0.39627E-07        -0.10327E-09         0.00000E+00
    0.39628E-07        -0.90623E-10         0.00000E+00
    0.39629E-07        -0.77280E-10         0.00000E+00
    0.39630E-07        -0.63233E-10         0.00000E+00
    0.39631E-07        -0.48478E-10         0.00000E+00
    0.39631E-07        -0.33013E-10         0.00000E+00
    0.39632E-07        -0.16835E-10         0.00000E+00
    0.39632E-07        -0.85669E-11         0.00000E+00
    0.41021E-07        -0.93125E-11         0.00000E+00
    0.41021E-07        -0.18335E-10         0.00000E+00
    0.41022E-07        -0.35948E-10         0.00000E+00
    0.41022E-07        -0.52708E-10         0.00000E+00
    0.41023E-07        -0.68625E-10         0.00000E+00
    0.41023E-07        -0.83715E-10         0.00000E+00
    0.41024E-07        -0.97987E-10         0.00000E+00
    0.41025E-07        -0.11145E-09         0.00000E+00
    0.41027E-07        -0.12412E-09         0.00000E+00
    0.41028E-07        -0.13601E-09         0.00000E+00
    0.41029E-07        -0.14712E-09         0.00000E+00
    0.41031E-07        -0.15747E-09         0.00000E+00
    0.41032E-07        -0.16705E-09         0.00000E+00
    0.41034E-07        -0.17589E-09         0.00000E+00
    0.41036E-07        -0.18398E-09         0.00000E+00
    0.41038E-07        -0.19134E-09         0.00000E+00
    0.41039E-07        -0.19796E-09         0.00000E+00
    0.41041E-07        -0.20387E-09         0.00000E+00
    0.41043E-07        -0.20905E-09         0.00000E+00
    0.41045E-07        -0.21351E-09         0.00000E+00
    0.41047E-07        -0.21727E-09         0.00000E+00
    0.41049E-07        -0.22031E-09         0.00000E+00
    0.41051E-07        -0.22265E-09         0.00000E+00
    0.41054E-07        -0.22429E-09         0.00000E+00
    0.41056E-07        -0.22522E-09         0.00000E+00
    0.41058E-07        -0.22545E-09         0.00000E+00
    0.41060E-07        -0.22499E-09         0.00000E+00
    0.41062E-07        -0.22382E-09         0.00000E+00
    0.41064E-07        -0.22196E-09         0.00000E+00
    0.41066E-07        -0.21940E-09         0.00000E+00
    0.41068E-07        -0.21614E-09         0.00000E+00
    0.41070E-07        -0.21217E-09         0.00000E+00
    0.41072E-07        -0.20751E-09         0.00000E+00
    0.41074E-07        -0.20214E-09         0.00000E+00
    0.41076E-07        -0.19606E-09         0.00000E+00
    0.41078E-07        -0.18927E-09         0.00000E+00
    0.41080E-07        -0.18177E-09         0.00000E+00
    0.41081E-07        -0.17355E-09         0.00000E+00
    0.41083E-07        -0.16462E-09         0.00000E+00
    0.41085E-07        -0.15496E-09         0.00000E+00
    0.41086E-07        -0.14458E-09         0.00000E+00
    0.41087E-07        -0.13347E-09         0.00000E+00
    0.41089E-07        -0.12162E-09         0.00000E+00
    0.41090E-07        -0.10904E-09         0.00000E+00
    0.41091E-07        -0.95712E-10         0.00000E+00
    0.41092E-07        -0.81640E-10         0.00000E+00
    0.41092E-07        -0.66818E-10         0.00000E+00
    0.41093E-07        -0.51240E-10         0.00000E+00
    0.41093E-07        -0.34903E-10         0.00000E+00
    0.41094E-07        -0.17803E-10         0.00000E+00
    0.41094E-07        -0.90619E-11         0.00000E+00
    0.42521E-07        -0.97645E-11         0.00000E+00
    0.42521E-07        -0.19218E-10         0.00000E+00
    0.42521E-07        -0.37664E-10         0.00000E+00
    0.42522E-07        -0.55198E-10         0.00000E+00
    0.42522E-07        -0.71835E-10         0.00000E+00
    0.42523E-07        -0.87592E-10         0.00000E+00
    0.42523E-07        -0.10248E-09         0.00000E+00
    0.42524E-07        -0.11652E-09         0.00000E+00
    0.42525E-07        -0.12973E-09         0.00000E+00
    0.42526E-07        -0.14210E-09         0.00000E+00
    0.42527E-07        -0.15366E-09         0.00000E+00
    0.42528E-07        -0.16442E-09         0.00000E+00
    0.42530E-07        -0.17438E-09         0.00000E+00
    0.42531E-07        -0.18357E-09         0.00000E+00
    0.42532E-07        -0.19197E-09         0.00000E+00
    0.42534E-07        -0.19961E-09         0.00000E+00
    0.42535E-07        -0.20649E-09         0.00000E+00
    0.42537E-07        -0.21262E-09         0.00000E+00
    0.42538E-07        -0.21799E-09         0.00000E+00
    0.42540E-07        -0.22263E-09         0.00000E+00
    0.42541E-07        -0.22653E-09         0.00000E+00
    0.42543E-07        -0.22969E-09         0.00000E+00
    0.42545E-07        -0.23212E-09         0.00000E+00
    0.42546E-07        -0.23383E-09         0.00000E+00
    0.42548E-07        -0.23481E-09         0.00000E+00
    0.42550E-07        -0.23506E-09         0.00000E+00
    0.42551E-07        -0.23459E-09         0.00000E+00
    0.42553E-07        -0.23339E-09         0.00000E+00
    0.42555E-07        -0.23147E-09         0.00000E+00
    0.42557E-07        -0.22883E-09         0.00000E+00
    0.42558E-07        -0.22546E-09         0.00000E+00
    0.42560E-07        -0.22136E-09         0.00000E+00
    0.42561E-07        -0.21653E-09         0.00000E+00
    0.42563E-07        -0.21096E-09         0.00000E+00
    0.42565E-07        -0.20466E-09         0.00000E+00
    0.42566E-07        -0.19762E-09         0.00000E+00
    0.42568E-07        -0.18984E-09         0.00000E+00
    0.42569E-07        -0.18130E-09         0.00000E+00
    0.42570E-07        -0.17202E-09         0.00000E+00
    0.42572E-07        -0.16197E-09         0.00000E+00
    0.42573E-07        -0.15117E-09         0.00000E+00
    0.42574E-07        -0.13959E-09         0.00000E+00
    0.42575E-07        -0.12724E-09         0.00000E+00
    0.42576E-07        -0.11412E-09         0.00000E+00
    0.42577E-07        -0.10021E-09         0.00000E+00
    0.42578E-07        -0.85504E-10         0.00000E+00
    0.42578E-07        -0.70006E-10         0.00000E+00
    0.42579E-07        -0.53705E-10         0.00000E+00
    0.42579E-07        -0.36596E-10         0.00000E+00
    0.42580E-07        -0.18674E-10         0.00000E+00
    0.42580E-07        -0.95080E-11         0.00000E+00
    0.44045E-07        -0.10108E-10         0.00000E+00
    0.44045E-07        -0.19887E-10         0.00000E+00
    0.44045E-07        -0.38959E-10         0.00000E+00
    0.44045E-07        -0.57072E-10         0.00000E+00
    0.44045E-07        -0.74244E-10         0.00000E+00
    0.44046E-07        -0.90495E-10         0.00000E+00
    0.44046E-07        -0.10584E-09         0.00000E+00
    0.44047E-07        -0.12030E-09         0.00000E+00
    0.44048E-07        -0.13389E-09         0.00000E+00
    0.44048E-07        -0.14662E-09         0.00000E+00
    0.44049E-07        -0.15851E-09         0.00000E+00
    0.44050E-07        -0.16957E-09         0.00000E+00
    0.44051E-07        -0.17981E-09         0.00000E+00
    0.44052E-07        -0.18924E-09         0.00000E+00
    0.44052E-07        -0.19788E-09         0.00000E+00
    0.44053E-07        -0.20573E-09         0.00000E+00
    0.44054E-07        -0.21280E-09         0.00000E+00
    0.44055E-07        -0.21910E-09         0.00000E+00
    0.44056E-07        -0.22463E-09         0.00000E+00
    0.44057E-07        -0.22940E-09         0.00000E+00
    0.44059E-07        -0.23342E-09         0.00000E+00
    0.44060E-07        -0.23668E-09         0.00000E+00
    0.44061E-07        -0.23920E-09         0.00000E+00
    0.44062E-07        -0.24098E-09         0.00000E+00
    0.44063E-07        -0.24201E-09         0.00000E+00
    0.44064E-07        -0.24230E-09         0.00000E+00
    0.44065E-07        -0.24185E-09         0.00000E+00
    0.44066E-07        -0.24066E-09         0.00000E+00
    0.44068E-07        -0.23873E-09         0.00000E+00
    0.44069E-07        -0.23605E-09         0.00000E+00
    0.44070E-07        -0.23263E-09         0.00000E+00
    0.44071E-07        -0.22845E-09         0.00000E+00
    0.44072E-07        -0.22353E-09         0.00000E+00
    0.44073E-07        -0.21785E-09         0.00000E+00
    0.44075E-07        -0.21141E-09         0.00000E+00
    0.44076E-07        -0.20421E-09         0.00000E+00
    0.44077E-07        -0.19624E-09         0.00000E+00
    0.44078E-07        -0.18749E-09         0.00000E+00
    0.44079E-07        -0.17795E-09         0.00000E+00
    0.44080E-07        -0.16763E-09         0.00000E+00
    0.44081E-07        -0.15651E-09         0.00000E+00
    0.44082E-07        -0.14459E-09         0.00000E+00
    0.44083E-07        -0.13186E-09         0.00000E+00
    0.44083E-07        -0.11832E-09         0.00000E+00
    0.44084E-07        -0.10394E-09         0.00000E+00
    0.44085E-07        -0.88736E-10         0.00000E+00
    0.44085E-07        -0.72688E-10         0.00000E+00
    0.44086E-07        -0.55792E-10         0.00000E+00
    0.44086E-07        -0.38038E-10         0.00000E+00
    0.44086E-07        -0.19418E-10         0.00000E+00
    0.44086E-07        -0.98917E-11         0.00000E+00
    0.45590E-07        -0.10316E-10         0.00000E+00
    0.45590E-07        -0.20290E-10         0.00000E+00
    0.45590E-07        -0.39736E-10         0.00000E+00
    0.45590E-07        -0.58188E-10         0.00000E+00
    0.45590E-07        -0.75669E-10         0.00000E+00
    0.45590E-07        -0.92200E-10         0.00000E+00
    0.45591E-07        -0.10780E-09         0.00000E+00
    0.45591E-07        -0.12250E-09         0.00000E+00
    0.45591E-07        -0.13630E-09         0.00000E+00
    0.45591E-07        -0.14923E-09         0.00000E+00
    0.45592E-07        -0.16129E-09         0.00000E+00
    0.45592E-07        -0.17252E-09         0.00000E+00
    0.45592E-07        -0.18291E-09         0.00000E+00
    0.45593E-07        -0.19249E-09         0.00000E+00
    0.45593E-07        -0.20126E-09         0.00000E+00
    0.45593E-07        -0.20923E-09         0.00000E+00
    0.45594E-07        -0.21641E-09         0.00000E+00
    0.45594E-07        -0.22281E-09         0.00000E+00
    0.45595E-07        -0.22845E-09         0.00000E+00
    0.45595E-07        -0.23331E-09         0.00000E+00
    0.45596E-07        -0.23742E-09         0.00000E+00
    0.45596E-07        -0.24076E-09         0.00000E+00
    0.45597E-07        -0.24336E-09         0.00000E+00
    0.45597E-07        -0.24521E-09         0.00000E+00
    0.45598E-07        -0.24630E-09         0.00000E+00
    0.45598E-07        -0.24665E-09         0.00000E+00
    0.45599E-07        -0.24625E-09         0.00000E+00
    0.45599E-07        -0.24511E-09         0.00000E+00
    0.45600E-07        -0.24321E-09         0.00000E+00
    0.45600E-07        -0.24056E-09         0.00000E+00
    0.45601E-07        -0.23716E-09         0.00000E+00
    0.45601E-07        -0.23299E-09         0.00000E+00
    0.45602E-07        -0.22806E-09         0.00000E+00
    0.45603E-07        -0.22236E-09         0.00000E+00
    0.45603E-07        -0.21588E-09         0.00000E+00
    0.45604E-07        -0.20863E-09         0.00000E+00
    0.45605E-07        -0.20058E-09         0.00000E+00
    0.45605E-07        -0.19173E-09         0.00000E+00
    0.45606E-07        -0.18208E-09         0.00000E+00
    0.45606E-07        -0.17162E-09         0.00000E+00
    0.45607E-07        -0.16033E-09         0.00000E+00
    0.45607E-07        -0.14821E-09         0.00000E+00
    0.45608E-07        -0.13524E-09         0.00000E+00
    0.45609E-07        -0.12142E-09         0.00000E+00
    0.45609E-07        -0.10674E-09         0.00000E+00
    0.45609E-07        -0.91184E-10         0.00000E+00
    0.45610E-07        -0.74744E-10         0.00000E+00
    0.45610E-07        -0.57408E-10         0.00000E+00
    0.45610E-07        -0.39166E-10         0.00000E+00
    0.45610E-07        -0.20008E-10         0.00000E+00
    0.45611E-07        -0.10198E-10         0.00000E+00
    0.47153E-07        -0.10363E-10         0.00000E+00
    0.47153E-07        -0.20377E-10         0.00000E+00
    0.47153E-07        -0.39895E-10         0.00000E+00
    0.47153E-07        -0.58401E-10         0.00000E+00
    0.47153E-07        -0.75923E-10         0.00000E+00
    0.47153E-07        -0.92485E-10         0.00000E+00
    0.47153E-07        -0.10811E-09         0.00000E+00
    0.47153E-07        -0.12282E-09         0.00000E+00
    0.47153E-07        -0.13663E-09         0.00000E+00
    0.47153E-07        -0.14957E-09         0.00000E+00
    0.47152E-07        -0.16164E-09         0.00000E+00
    0.47152E-07        -0.17287E-09         0.00000E+00
    0.47152E-07        -0.18327E-09         0.00000E+00
    0.47152E-07        -0.19286E-09         0.00000E+00
    0.47151E-07        -0.20164E-09         0.00000E+00
    0.47151E-07        -0.20963E-09         0.00000E+00
    0.47151E-07        -0.21684E-09         0.00000E+00
    0.47151E-07        -0.22327E-09         0.00000E+00
    0.47150E-07        -0.22893E-09         0.00000E+00
    0.47150E-07        -0.23384E-09         0.00000E+00
    0.47150E-07        -0.23799E-09         0.00000E+00
    0.47150E-07        -0.24139E-09         0.00000E+00
    0.47149E-07        -0.24405E-09         0.00000E+00
    0.47149E-07        -0.24596E-09         0.00000E+00
    0.47149E-07        -0.24713E-09         0.00000E+00
    0.47149E-07        -0.24756E-09         0.00000E+00
    0.47148E-07        -0.24725E-09         0.00000E+00
    0.47148E-07        -0.24619E-09         0.00000E+00
    0.47148E-07        -0.24438E-09         0.00000E+00
    0.47148E-07        -0.24182E-09         0.00000E+00
    0.47148E-07        -0.23851E-09         0.00000E+00
    0.47148E-07        -0.23444E-09         0.00000E+00
    0.47148E-07        -0.22960E-09         0.00000E+00
    0.47147E-07        -0.22399E-09         0.00000E+00
    0.47147E-07        -0.21760E-09         0.00000E+00
    0.47148E-07        -0.21041E-09         0.00000E+00
    0.47148E-07        -0.20243E-09         0.00000E+00
    0.47148E-07        -0.19363E-09         0.00000E+00
    0.47148E-07        -0.18402E-09         0.00000E+00
    0.47148E-07        -0.17357E-09         0.00000E+00
    0.47148E-07        -0.16227E-09         0.00000E+00
    0.47148E-07        -0.15012E-09         0.00000E+00
    0.47148E-07        -0.13710E-09         0.00000E+00
    0.47149E-07        -0.12319E-09         0.00000E+00
    0.47149E-07        -0.10839E-09         0.00000E+00
    0.47149E-07        -0.92673E-10         0.00000E+00
    0.47149E-07        -0.76031E-10         0.00000E+00
    0.47149E-07        -0.58449E-10         0.00000E+00
    0.47149E-07        -0.39912E-10         0.00000E+00
    0.47149E-07        -0.20406E-10         0.00000E+00
    0.47150E-07        -0.10409E-10         0.00000E+00
    0.48732E-07        -0.10224E-10         0.00000E+00
    0.48732E-07        -0.20100E-10         0.00000E+00
    0.48732E-07        -0.39342E-10         0.00000E+00
    0.48732E-07        -0.57579E-10         0.00000E+00
    0.48732E-07        -0.74838E-10         0.00000E+00
    0.48731E-07        -0.91146E-10         0.00000E+00
    0.48731E-07        -0.10653E-09         0.00000E+00
    0.48730E-07        -0.12100E-09         0.00000E+00
    0.48729E-07        -0.13460E-09         0.00000E+00
    0.48729E-07        -0.14733E-09         0.00000E+00
    0.48728E-07        -0.15921E-09         0.00000E+00
    0.48727E-07        -0.17026E-09         0.00000E+00
    0.48726E-07        -0.18051E-09         0.00000E+00
    0.48725E-07        -0.18995E-09         0.00000E+00
    0.48724E-07        -0.19861E-09         0.00000E+00
    0.48723E-07        -0.20649E-09         0.00000E+00
    0.48722E-07        -0.21361E-09         0.00000E+00
    0.48721E-07        -0.21997E-09         0.00000E+00
    0.48720E-07        -0.22559E-09         0.00000E+00
    0.48719E-07        -0.23047E-09         0.00000E+00
    0.48718E-07        -0.23461E-09         0.00000E+00
    0.48717E-07        -0.23803E-09         0.00000E+00
    0.48716E-07        -0.24072E-09         0.00000E+00
    0.48715E-07        -0.24268E-09         0.00000E+00
    0.48714E-07        -0.24392E-09         0.00000E+00
    0.48712E-07        -0.24444E-09         0.00000E+00
    0.48711E-07        -0.24423E-09         0.00000E+00
    0.48710E-07        -0.24330E-09         0.00000E+00
    0.48709E-07        -0.24164E-09         0.00000E+00
    0.48708E-07        -0.23924E-09         0.00000E+00
    0.48707E-07        -0.23611E-09         0.00000E+00
    0.48706E-07        -0.23222E-09         0.00000E+00
    0.48706E-07        -0.22758E-09         0.00000E+00
    0.48705E-07        -0.22218E-09         0.00000E+00
    0.48704E-07        -0.21600E-09         0.00000E+00
    0.48703E-07        -0.20904E-09         0.00000E+00
    0.48703E-07        -0.20127E-09         0.00000E+00
    0.48702E-07        -0.19270E-09         0.00000E+00
    0.48702E-07        -0.18330E-09         0.00000E+00
    0.48701E-07        -0.17305E-09         0.00000E+00
    0.48701E-07        -0.16195E-09         0.00000E+00
    0.48701E-07        -0.14998E-09         0.00000E+00
    0.48700E-07        -0.13711E-09         0.00000E+00
    0.48700E-07        -0.12334E-09         0.00000E+00
    0.48700E-07        -0.10864E-09         0.00000E+00
    0.48700E-07        -0.92994E-10         0.00000E+00
    0.48700E-07        -0.76383E-10         0.00000E+00
    0.48700E-07        -0.58788E-10         0.00000E+00
    0.48700E-07        -0.40191E-10         0.00000E+00
    0.48700E-07        -0.20571E-10         0.00000E+00
    0.48700E-07        -0.10504E-10         0.00000E+00
    0.50323E-07        -0.98788E-11         0.00000E+00
    0.50323E-07        -0.19420E-10         0.00000E+00
    0.50323E-07        -0.38006E-10         0.00000E+00
    0.50322E-07        -0.55617E-10         0.00000E+00
    0.50322E-07        -0.72280E-10         0.00000E+00
    0.50321E-07        -0.88023E-10         0.00000E+00
    0.50320E-07        -0.10287E-09         0.00000E+00
    0.50319E-07        -0.11684E-09         0.00000E+00
    0.50318E-07        -0.12996E-09         0.00000E+00
    0.50317E-07        -0.14225E-09         0.00000E+00
    0.50315E-07        -0.15372E-09         0.00000E+00
    0.50314E-07        -0.16440E-09         0.00000E+00
    0.50312E-07        -0.17429E-09         0.00000E+00
    0.50310E-07        -0.18342E-09         0.00000E+00
    0.50309E-07        -0.19179E-09         0.00000E+00
    0.50307E-07        -0.19943E-09         0.00000E+00
    0.50305E-07        -0.20633E-09         0.00000E+00
    0.50303E-07        -0.21251E-09         0.00000E+00
    0.50301E-07        -0.21797E-09         0.00000E+00
    0.50299E-07        -0.22273E-09         0.00000E+00
    0.50297E-07        -0.22679E-09         0.00000E+00
    0.50295E-07        -0.23015E-09         0.00000E+00
    0.50293E-07        -0.23282E-09         0.00000E+00
    0.50291E-07        -0.23480E-09         0.00000E+00
    0.50289E-07        -0.23610E-09         0.00000E+00
    0.50287E-07        -0.23670E-09         0.00000E+00
    0.50285E-07        -0.23661E-09         0.00000E+00
    0.50283E-07        -0.23584E-09         0.00000E+00
    0.50281E-07        -0.23436E-09         0.00000E+00
    0.50279E-07        -0.23218E-09         0.00000E+00
    0.50277E-07        -0.22930E-09         0.00000E+00
    0.50275E-07        -0.22570E-09         0.00000E+00
    0.50273E-07        -0.22136E-09         0.00000E+00
    0.50272E-07        -0.21630E-09         0.00000E+00
    0.50270E-07        -0.21047E-09         0.00000E+00
    0.50268E-07        -0.20389E-09         0.00000E+00
    0.50267E-07        -0.19652E-09         0.00000E+00
    0.50266E-07        -0.18836E-09         0.00000E+00
    0.50264E-07        -0.17938E-09         0.00000E+00
    0.50263E-07        -0.16956E-09         0.00000E+00
    0.50262E-07        -0.15889E-09         0.00000E+00
    0.50261E-07        -0.14734E-09         0.00000E+00
    0.50261E-07        -0.13489E-09         0.00000E+00
    0.50260E-07        -0.12151E-09         0.00000E+00
    0.50259E-07        -0.10719E-09         0.00000E+00
    0.50259E-07        -0.91888E-10         0.00000E+00
    0.50259E-07        -0.75591E-10         0.00000E+00
    0.50258E-07        -0.58270E-10         0.00000E+00
    0.50258E-07        -0.39900E-10         0.00000E+00
    0.50258E-07        -0.20453E-10         0.00000E+00
    0.50258E-07        -0.10458E-10         0.00000E+00
    0.51922E-07        -0.93190E-11         0.00000E+00
    0.51922E-07        -0.18320E-10         0.00000E+00
    0.51921E-07        -0.35854E-10         0.00000E+00
    0.51921E-07        -0.52468E-10         0.00000E+00
    0.51920E-07        -0.68189E-10         0.00000E+00
    0.51919E-07        -0.83042E-10         0.00000E+00
    0.51917E-07        -0.97050E-10         0.00000E+00
    0.51916E-07        -0.11023E-09         0.00000E+00
    0.51914E-07        -0.12261E-09         0.00000E+00
    0.51912E-07        -0.13421E-09         0.00000E+00
    0.51910E-07        -0.14504E-09         0.00000E+00
    0.51908E-07        -0.15511E-09         0.00000E+00
    0.51906E-07        -0.16445E-09         0.00000E+00
    0.51904E-07        -0.17307E-09         0.00000E+00
    0.51901E-07        -0.18098E-09         0.00000E+00
    0.51899E-07        -0.18819E-09         0.00000E+00
    0.51896E-07        -0.19471E-09         0.00000E+00
    0.51893E-07        -0.20056E-09         0.00000E+00
    0.51890E-07        -0.20574E-09         0.00000E+00
    0.51887E-07        -0.21025E-09         0.00000E+00
    0.51884E-07        -0.21412E-09         0.00000E+00
    0.51881E-07        -0.21733E-09         0.00000E+00
    0.51878E-07        -0.21990E-09         0.00000E+00
    0.51875E-07        -0.22183E-09         0.00000E+00
    0.51872E-07        -0.22312E-09         0.00000E+00
    0.51869E-07        -0.22377E-09         0.00000E+00
    0.51865E-07        -0.22379E-09         0.00000E+00
    0.51862E-07        -0.22316E-09         0.00000E+00
    0.51859E-07        -0.22189E-09         0.00000E+00
    0.51856E-07        -0.21996E-09         0.00000E+00
    0.51853E-07        -0.21738E-09         0.00000E+00
    0.51850E-07        -0.21413E-09         0.00000E+00
    0.51847E-07        -0.21021E-09         0.00000E+00
    0.51845E-07        -0.20559E-09         0.00000E+00
    0.51842E-07        -0.20027E-09         0.00000E+00
    0.51839E-07        -0.19423E-09         0.00000E+00
    0.51837E-07        -0.18745E-09         0.00000E+00
    0.51835E-07        -0.17990E-09         0.00000E+00
    0.51833E-07        -0.17157E-09         0.00000E+00
    0.51831E-07        -0.16243E-09         0.00000E+00
    0.51829E-07        -0.15246E-09         0.00000E+00
    0.51827E-07        -0.14162E-09         0.00000E+00
    0.51826E-07        -0.12989E-09         0.00000E+00
    0.51824E-07        -0.11723E-09         0.00000E+00
    0.51823E-07        -0.10362E-09         0.00000E+00
    0.51823E-07        -0.89012E-10         0.00000E+00
    0.51822E-07        -0.73381E-10         0.00000E+00
    0.51821E-07        -0.56689E-10         0.00000E+00
    0.51821E-07        -0.38902E-10         0.00000E+00
    0.51821E-07        -0.19983E-10         0.00000E+00
    0.51821E-07        -0.10237E-10         0.00000E+00
    0.53525E-07        -0.85507E-11         0.00000E+00
    0.53525E-07        -0.16812E-10         0.00000E+00
    0.53524E-07        -0.32910E-10         0.00000E+00
    0.53523E-07        -0.48170E-10         0.00000E+00
    0.53522E-07        -0.62614E-10         0.00000E+00
    0.53521E-07        -0.76263E-10         0.00000E+00
    0.53519E-07        -0.89137E-10         0.00000E+00
    0.53517E-07        -0.10125E-09         0.00000E+00
    0.53515E-07        -0.11263E-09         0.00000E+00
    0.53513E-07        -0.12328E-09         0.00000E+00
    0.53510E-07        -0.13322E-09         0.00000E+00
    0.53508E-07        -0.14247E-09         0.00000E+00
    0.53505E-07        -0.15103E-09         0.00000E+00
    0.53502E-07        -0.15893E-09         0.00000E+00
    0.53498E-07        -0.16616E-09         0.00000E+00
    0.53495E-07        -0.17276E-09         0.00000E+00
    0.53491E-07        -0.17872E-09         0.00000E+00
    0.53488E-07        -0.18405E-09         0.00000E+00
    0.53484E-07        -0.18877E-09         0.00000E+00
    0.53480E-07        -0.19288E-09         0.00000E+00
    0.53476E-07        -0.19640E-09         0.00000E+00
    0.53472E-07        -0.19932E-09         0.00000E+00
    0.53468E-07        -0.20165E-09         0.00000E+00
    0.53464E-07        -0.20341E-09         0.00000E+00
    0.53459E-07        -0.20458E-09         0.00000E+00
    0.53455E-07        -0.20519E-09         0.00000E+00
    0.53451E-07        -0.20522E-09         0.00000E+00
    0.53446E-07        -0.20468E-09         0.00000E+00
    0.53442E-07        -0.20357E-09         0.00000E+00
    0.53438E-07        -0.20187E-09         0.00000E+00
    0.53434E-07        -0.19960E-09         0.00000E+00
    0.53429E-07        -0.19674E-09         0.00000E+00
    0.53425E-07        -0.19327E-09         0.00000E+00
    0.53421E-07        -0.18919E-09         0.00000E+00
    0.53417E-07        -0.18449E-09         0.00000E+00
    0.53414E-07        -0.17913E-09         0.00000E+00
    0.53410E-07        -0.17311E-09         0.00000E+00
    0.53407E-07        -0.16640E-09         0.00000E+00
    0.53403E-07        -0.15897E-09         0.00000E+00
    0.53400E-07        -0.15079E-09         0.00000E+00
    0.53398E-07        -0.14183E-09         0.00000E+00
    0.53395E-07        -0.13204E-09         0.00000E+00
    0.53393E-07        -0.12140E-09         0.00000E+00
    0.53391E-07        -0.10985E-09         0.00000E+00
    0.53389E-07        -0.97363E-10         0.00000E+00
    0.53387E-07        -0.83881E-10         0.00000E+00
    0.53386E-07        -0.69359E-10         0.00000E+00
    0.53385E-07        -0.53747E-10         0.00000E+00
    0.53385E-07        -0.36997E-10         0.00000E+00
    0.53384E-07        -0.19063E-10         0.00000E+00
    0.53384E-07        -0.97941E-11         0.00000E+00
    0.55128E-07        -0.76026E-11         0.00000E+00
    0.55128E-07        -0.14954E-10         0.00000E+00
    0.55128E-07        -0.29285E-10         0.00000E+00
    0.55127E-07        -0.42882E-10         0.00000E+00
    0.55125E-07        -0.55758E-10         0.00000E+00
    0.55124E-07        -0.67928E-10         0.00000E+00
    0.55122E-07        -0.79405E-10         0.00000E+00
    0.55120E-07        -0.90202E-10         0.00000E+00
    0.55117E-07        -0.10033E-09         0.00000E+00
    0.55114E-07        -0.10980E-09         0.00000E+00
    0.55111E-07        -0.11863E-09         0.00000E+00
    0.55108E-07        -0.12682E-09         0.00000E+00
    0.55105E-07        -0.13439E-09         0.00000E+00
    0.55101E-07        -0.14135E-09         0.00000E+00
    0.55097E-07        -0.14770E-09         0.00000E+00
    0.55093E-07        -0.15346E-09         0.00000E+00
    0.55089E-07        -0.15865E-09         0.00000E+00
    0.55084E-07        -0.16326E-09         0.00000E+00
    0.55080E-07        -0.16730E-09         0.00000E+00
    0.55075E-07        -0.17080E-09         0.00000E+00
    0.55070E-07        -0.17375E-09         0.00000E+00
    0.55065E-07        -0.17617E-09         0.00000E+00
    0.55060E-07        -0.17807E-09         0.00000E+00
    0.55055E-07        -0.17945E-09         0.00000E+00
    0.55049E-07        -0.18032E-09         0.00000E+00
    0.55044E-07        -0.18069E-09         0.00000E+00
    0.55038E-07        -0.18057E-09         0.00000E+00
    0.55033E-07        -0.17995E-09         0.00000E+00
    0.55027E-07        -0.17885E-09         0.00000E+00
    0.55022E-07        -0.17727E-09         0.00000E+00
    0.55016E-07        -0.17521E-09         0.00000E+00
    0.55010E-07        -0.17265E-09         0.00000E+00
    0.55005E-07        -0.16961E-09         0.00000E+00
    0.55000E-07        -0.16607E-09         0.00000E+00
    0.54994E-07        -0.16201E-09         0.00000E+00
    0.54989E-07        -0.15743E-09         0.00000E+00
    0.54984E-07        -0.15231E-09         0.00000E+00
    0.54979E-07        -0.14661E-09         0.00000E+00
    0.54974E-07        -0.14031E-09         0.00000E+00
    0.54970E-07        -0.13338E-09         0.00000E+00
    0.54966E-07        -0.12576E-09         0.00000E+00
    0.54962E-07        -0.11743E-09         0.00000E+00
    0.54959E-07        -0.10832E-09         0.00000E+00
    0.54956E-07        -0.98370E-10         0.00000E+00
    0.54953E-07        -0.87529E-10         0.00000E+00
    0.54951E-07        -0.75728E-10         0.00000E+00
    0.54949E-07        -0.62902E-10         0.00000E+00
    0.54947E-07        -0.48980E-10         0.00000E+00
    0.54946E-07        -0.33888E-10         0.00000E+00
    0.54946E-07        -0.17544E-10         0.00000E+00
    0.54946E-07        -0.90489E-11         0.00000E+00
    0.56728E-07        -0.65305E-11         0.00000E+00
    0.56728E-07        -0.12853E-10         0.00000E+00
    0.56727E-07        -0.25188E-10         0.00000E+00
    0.56726E-07        -0.36904E-10         0.00000E+00
    0.56725E-07        -0.48007E-10         0.00000E+00
    0.56723E-07        -0.58499E-10         0.00000E+00
    0.56721E-07        -0.68388E-10         0.00000E+00
    0.56719E-07        -0.77677E-10         0.00000E+00
    0.56716E-07        -0.86371E-10         0.00000E+00
    0.56713E-07        -0.94478E-10         0.00000E+00
    0.56710E-07        -0.10200E-09         0.00000E+00
    0.56706E-07        -0.10895E-09         0.00000E+00
    0.56702E-07        -0.11533E-09         0.00000E+00
    0.56698E-07        -0.12115E-09         0.00000E+00
    0.56694E-07        -0.12641E-09         0.00000E+00
    0.56690E-07        -0.13113E-09         0.00000E+00
    0.56685E-07        -0.13531E-09         0.00000E+00
    0.56680E-07        -0.13896E-09         0.00000E+00
    0.56675E-07        -0.14210E-09         0.00000E+00
    0.56669E-07        -0.14473E-09         0.00000E+00
    0.56664E-07        -0.14686E-09         0.00000E+00
    0.56658E-07        -0.14851E-09         0.00000E+00
    0.56652E-07        -0.14969E-09         0.00000E+00
    0.56646E-07        -0.15041E-09         0.00000E+00
    0.56640E-07        -0.15068E-09         0.00000E+00
    0.56633E-07        -0.15052E-09         0.00000E+00
    0.56627E-07        -0.14993E-09         0.00000E+00
    0.56620E-07        -0.14895E-09         0.00000E+00
    0.56613E-07        -0.14756E-09         0.00000E+00
    0.56606E-07        -0.14580E-09         0.00000E+00
    0.56599E-07        -0.14367E-09         0.00000E+00
    0.56592E-07        -0.14117E-09         0.00000E+00
    0.56585E-07        -0.13832E-09         0.00000E+00
    0.56578E-07        -0.13513E-09         0.00000E+00
    0.56571E-07        -0.13159E-09         0.00000E+00
    0.56564E-07        -0.12769E-09         0.00000E+00
    0.56557E-07        -0.12344E-09         0.00000E+00
    0.56551E-07        -0.11881E-09         0.00000E+00
    0.56544E-07        -0.11379E-09         0.00000E+00
    0.56538E-07        -0.10832E-09         0.00000E+00
    0.56532E-07        -0.10238E-09         0.00000E+00
    0.56527E-07        -0.95912E-10         0.00000E+00
    0.56522E-07        -0.88845E-10         0.00000E+00
    0.56517E-07        -0.81107E-10         0.00000E+00
    0.56513E-07        -0.72614E-10         0.00000E+00
    0.56509E-07        -0.63269E-10         0.00000E+00
    0.56507E-07        -0.52957E-10         0.00000E+00
    0.56504E-07        -0.41567E-10         0.00000E+00
    0.56503E-07        -0.28992E-10         0.00000E+00
    0.56502E-07        -0.15140E-10         0.00000E+00
    0.56502E-07        -0.78835E-11         0.00000E+00
    0.58320E-07        -0.54168E-11         0.00000E+00
    0.58320E-07        -0.10670E-10         0.00000E+00
    0.58319E-07        -0.20927E-10         0.00000E+00
    0.58318E-07        -0.30684E-10         0.00000E+00
    0.58317E-07        -0.39931E-10         0.00000E+00
    0.58315E-07        -0.48664E-10         0.00000E+00
    0.58313E-07        -0.56879E-10         0.00000E+00
    0.58311E-07        -0.64570E-10         0.00000E+00
    0.58308E-07        -0.71736E-10         0.00000E+00
    0.58305E-07        -0.78375E-10         0.00000E+00
    0.58302E-07        -0.84486E-10         0.00000E+00
    0.58298E-07        -0.90071E-10         0.00000E+00
    0.58294E-07        -0.95130E-10         0.00000E+00
    0.58290E-07        -0.99665E-10         0.00000E+00
    0.58286E-07        -0.10368E-09         0.00000E+00
    0.58281E-07        -0.10718E-09         0.00000E+00
    0.58276E-07        -0.11018E-09         0.00000E+00
    0.58271E-07        -0.11267E-09         0.00000E+00
    0.58266E-07        -0.11466E-09         0.00000E+00
    0.58260E-07        -0.11618E-09         0.00000E+00
    0.58254E-07        -0.11722E-09         0.00000E+00
    0.58248E-07        -0.11780E-09         0.00000E+00
    0.58242E-07        -0.11793E-09         0.00000E+00
    0.58235E-07        -0.11764E-09         0.00000E+00
    0.58229E-07        -0.11693E-09         0.00000E+00
    0.58222E-07        -0.11583E-09         0.00000E+00
    0.58214E-07        -0.11436E-09         0.00000E+00
    0.58207E-07        -0.11253E-09         0.00000E+00
    0.58199E-07        -0.11038E-09         0.00000E+00
    0.58191E-07        -0.10793E-09         0.00000E+00
    0.58183E-07        -0.10521E-09         0.00000E+00
    0.58175E-07        -0.10224E-09         0.00000E+00
    0.58167E-07        -0.99056E-10         0.00000E+00
    0.58158E-07        -0.95684E-10         0.00000E+00
    0.58149E-07        -0.92152E-10         0.00000E+00
    0.58140E-07        -0.88484E-10         0.00000E+00
    0.58132E-07        -0.84704E-10         0.00000E+00
    0.58123E-07        -0.80829E-10         0.00000E+00
    0.58114E-07        -0.76870E-10         0.00000E+00
    0.58106E-07        -0.72826E-10         0.00000E+00
    0.58097E-07        -0.68679E-10         0.00000E+00
    0.58089E-07        -0.64388E-10         0.00000E+00
    0.58082E-07        -0.59876E-10         0.00000E+00
    0.58074E-07        -0.55047E-10         0.00000E+00
    0.58068E-07        -0.49775E-10         0.00000E+00
    0.58063E-07        -0.43922E-10         0.00000E+00
    0.58058E-07        -0.37354E-10         0.00000E+00
    0.58054E-07        -0.29902E-10         0.00000E+00
    0.58052E-07        -0.21336E-10         0.00000E+00
    0.58050E-07        -0.11377E-10         0.00000E+00
    0.58050E-07        -0.60096E-11         0.00000E+00
    0.59899E-07        -0.43616E-11         0.00000E+00
    0.59899E-07        -0.85994E-11         0.00000E+00
    0.59899E-07        -0.16881E-10         0.00000E+00
    0.59898E-07        -0.24767E-10         0.00000E+00
    0.59896E-07        -0.32238E-10         0.00000E+00
    0.59895E-07        -0.39279E-10         0.00000E+00
    0.59893E-07        -0.45875E-10         0.00000E+00
    0.59891E-07        -0.52015E-10         0.00000E+00
    0.59888E-07        -0.57688E-10         0.00000E+00
    0.59885E-07        -0.62884E-10         0.00000E+00
    0.59882E-07        -0.67596E-10         0.00000E+00
    0.59879E-07        -0.71816E-10         0.00000E+00
    0.59876E-07        -0.75541E-10         0.00000E+00
    0.59872E-07        -0.78764E-10         0.00000E+00
    0.59868E-07        -0.81485E-10         0.00000E+00
    0.59864E-07        -0.83703E-10         0.00000E+00
    0.59859E-07        -0.85417E-10         0.00000E+00
    0.59854E-07        -0.86631E-10         0.00000E+00
    0.59849E-07        -0.87349E-10         0.00000E+00
    0.59844E-07        -0.87576E-10         0.00000E+00
    0.59838E-07        -0.87320E-10         0.00000E+00
    0.59833E-07        -0.86593E-10         0.00000E+00
    0.59827E-07        -0.85407E-10         0.00000E+00
    0.59820E-07        -0.83777E-10         0.00000E+00
    0.59814E-07        -0.81722E-10         0.00000E+00
    0.59807E-07        -0.79262E-10         0.00000E+00
    0.59799E-07        -0.76422E-10         0.00000E+00
    0.59792E-07        -0.73230E-10         0.00000E+00
    0.59784E-07        -0.69716E-10         0.00000E+00
    0.59776E-07        -0.65917E-10         0.00000E+00
    0.59767E-07        -0.61872E-10         0.00000E+00
    0.59759E-07        -0.57626E-10         0.00000E+00
    0.59749E-07        -0.53230E-10         0.00000E+00
    0.59740E-07        -0.48738E-10         0.00000E+00
    0.59730E-07        -0.44215E-10         0.00000E+00
    0.59720E-07        -0.39728E-10         0.00000E+00
    0.59710E-07        -0.35344E-10         0.00000E+00
    0.59699E-07        -0.31134E-10         0.00000E+00
    0.59688E-07        -0.27172E-10         0.00000E+00
    0.59677E-07        -0.23533E-10         0.00000E+00
    0.59666E-07        -0.20299E-10         0.00000E+00
    0.59655E-07        -0.17565E-10         0.00000E+00
    0.59643E-07        -0.15423E-10         0.00000E+00
    0.59633E-07        -0.13908E-10         0.00000E+00
    0.59622E-07        -0.12951E-10         0.00000E+00
    0.59612E-07        -0.12330E-10         0.00000E+00
    0.59603E-07        -0.11606E-10         0.00000E+00
    0.59596E-07        -0.10300E-10         0.00000E+00
    0.59591E-07        -0.80566E-11         0.00000E+00
    0.59588E-07        -0.47010E-11         0.00000E+00
    0.59587E-07        -0.27389E-11         0.00000E+00
    0.61460E-07        -0.34664E-11         0.00000E+00
    0.61460E-07        -0.68391E-11         0.00000E+00
    0.61460E-07        -0.13434E-10         0.00000E+00
    0.61459E-07        -0.19716E-10         0.00000E+00
    0.61458E-07        -0.25660E-10         0.00000E+00
    0.61457E-07        -0.31243E-10         0.00000E+00
    0.61455E-07        -0.36444E-10         0.00000E+00
    0.61454E-07        -0.41242E-10         0.00000E+00
    0.61452E-07        -0.45621E-10         0.00000E+00
    0.61449E-07        -0.49562E-10         0.00000E+00
    0.61447E-07        -0.53050E-10         0.00000E+00
    0.61444E-07        -0.56070E-10         0.00000E+00
    0.61442E-07        -0.58610E-10         0.00000E+00
    0.61439E-07        -0.60659E-10         0.00000E+00
    0.61435E-07        -0.62204E-10         0.00000E+00
    0.61432E-07        -0.63240E-10         0.00000E+00
    0.61428E-07        -0.63757E-10         0.00000E+00
    0.61424E-07        -0.63753E-10         0.00000E+00
    0.61420E-07        -0.63225E-10         0.00000E+00
    0.61416E-07        -0.62172E-10         0.00000E+00
    0.61412E-07        -0.60596E-10         0.00000E+00
    0.61407E-07        -0.58502E-10         0.00000E+00
    0.61402E-07        -0.55897E-10         0.00000E+00
    0.61396E-07        -0.52791E-10         0.00000E+00
    0.61391E-07        -0.49198E-10         0.00000E+00
    0.61385E-07        -0.45134E-10         0.00000E+00
    0.61379E-07        -0.40621E-10         0.00000E+00
    0.61372E-07        -0.35686E-10         0.00000E+00
    0.61365E-07        -0.30358E-10         0.00000E+00
    0.61358E-07        -0.24674E-10         0.00000E+00
    0.61350E-07        -0.18675E-10         0.00000E+00
    0.61342E-07        -0.12404E-10         0.00000E+00
    0.61334E-07        -0.59130E-11         0.00000E+00
    0.61325E-07         0.73834E-12         0.00000E+00
    0.61315E-07         0.74834E-11         0.00000E+00
    0.61305E-07         0.14235E-10         0.00000E+00
    0.61295E-07         0.20879E-10         0.00000E+00
    0.61284E-07         0.27268E-10         0.00000E+00
    0.61272E-07         0.33250E-10         0.00000E+00
    0.61260E-07         0.38663E-10         0.00000E+00
    0.61247E-07         0.43348E-10         0.00000E+00
    0.61234E-07         0.47186E-10         0.00000E+00
    0.61220E-07         0.50079E-10         0.00000E+00
    0.61206E-07         0.51744E-10         0.00000E+00
    0.61191E-07         0.51632E-10         0.00000E+00
    0.61177E-07         0.48998E-10         0.00000E+00
    0.61163E-07         0.42888E-10         0.00000E+00
    0.61148E-07         0.33009E-10         0.00000E+00
    0.61135E-07         0.20694E-10         0.00000E+00
    0.61124E-07         0.88655E-11         0.00000E+00
    0.61119E-07         0.35283E-11         0.00000E+00
    0.62998E-07        -0.28049E-11         0.00000E+00
    0.62998E-07        -0.55413E-11         0.00000E+00
    0.62997E-07        -0.10897E-10         0.00000E+00
    0.62997E-07        -0.16002E-10         0.00000E+00
    0.62996E-07        -0.20828E-10         0.00000E+00
    0.62995E-07        -0.25352E-10         0.00000E+00
    0.62995E-07        -0.29547E-10         0.00000E+00
    0.62993E-07        -0.33389E-10         0.00000E+00
    0.62992E-07        -0.36851E-10         0.00000E+00
    0.62991E-07        -0.39909E-10         0.00000E+00
    0.62989E-07        -0.42537E-10         0.00000E+00
    0.62988E-07        -0.44714E-10         0.00000E+00
    0.62986E-07        -0.46415E-10         0.00000E+00
    0.62984E-07        -0.47622E-10         0.00000E+00
    0.62982E-07        -0.48314E-10         0.00000E+00
    0.62980E-07        -0.48474E-10         0.00000E+00
    0.62978E-07        -0.48086E-10         0.00000E+00
    0.62976E-07        -0.47138E-10         0.00000E+00
    0.62973E-07        -0.45619E-10         0.00000E+00
    0.62970E-07        -0.43521E-10         0.00000E+00
    0.62968E-07        -0.40840E-10         0.00000E+00
    0.62965E-07        -0.37573E-10         0.00000E+00
    0.62961E-07        -0.33723E-10         0.00000E+00
    0.62958E-07        -0.29298E-10         0.00000E+00
    0.62954E-07        -0.24299E-10         0.00000E+00
    0.62950E-07        -0.18736E-10         0.00000E+00
    0.62946E-07        -0.12624E-10         0.00000E+00
    0.62942E-07        -0.59750E-11         0.00000E+00
    0.62937E-07         0.11905E-11         0.00000E+00
    0.62932E-07         0.88445E-11         0.00000E+00
    0.62926E-07         0.16956E-10         0.00000E+00
    0.62920E-07         0.25465E-10         0.00000E+00
    0.62914E-07         0.34311E-10         0.00000E+00
    0.62907E-07         0.43436E-10         0.00000E+00
    0.62900E-07         0.52768E-10         0.00000E+00
    0.62892E-07         0.62256E-10         0.00000E+00
    0.62884E-07         0.71886E-10         0.00000E+00
    0.62875E-07         0.81685E-10         0.00000E+00
    0.62866E-07         0.91574E-10         0.00000E+00
    0.62856E-07         0.10132E-09         0.00000E+00
    0.62845E-07         0.11060E-09         0.00000E+00
    0.62834E-07         0.11882E-09         0.00000E+00
    0.62822E-07         0.12511E-09         0.00000E+00
    0.62808E-07         0.12921E-09         0.00000E+00
    0.62793E-07         0.13159E-09         0.00000E+00
    0.62776E-07         0.13265E-09         0.00000E+00
    0.62760E-07         0.13265E-09         0.00000E+00
    0.62746E-07         0.12937E-09         0.00000E+00
    0.62736E-07         0.11491E-09         0.00000E+00
    0.62730E-07         0.73365E-10         0.00000E+00
    0.62728E-07         0.43193E-10         0.00000E+00
    0.64505E-07        -0.24347E-11         0.00000E+00
    0.64505E-07        -0.48002E-11         0.00000E+00
    0.64505E-07        -0.94397E-11         0.00000E+00
    0.64505E-07        -0.13899E-10         0.00000E+00
    0.64504E-07        -0.18163E-10         0.00000E+00
    0.64504E-07        -0.22194E-10         0.00000E+00
    0.64504E-07        -0.25954E-10         0.00000E+00
    0.64503E-07        -0.29406E-10         0.00000E+00
    0.64503E-07        -0.32518E-10         0.00000E+00
    0.64503E-07        -0.35253E-10         0.00000E+00
    0.64502E-07        -0.37576E-10         0.00000E+00
    0.64502E-07        -0.39451E-10         0.00000E+00
    0.64502E-07        -0.40845E-10         0.00000E+00
    0.64502E-07        -0.41725E-10         0.00000E+00
    0.64501E-07        -0.42062E-10         0.00000E+00
    0.64501E-07        -0.41828E-10         0.00000E+00
    0.64501E-07        -0.40997E-10         0.00000E+00
    0.64500E-07        -0.39549E-10         0.00000E+00
    0.64500E-07        -0.37465E-10         0.00000E+00
    0.64499E-07        -0.34731E-10         0.00000E+00
    0.64499E-07        -0.31340E-10         0.00000E+00
    0.64498E-07        -0.27283E-10         0.00000E+00
    0.64497E-07        -0.22552E-10         0.00000E+00
    0.64496E-07        -0.17145E-10         0.00000E+00
    0.64495E-07        -0.11083E-10         0.00000E+00
    0.64494E-07        -0.43875E-11         0.00000E+00
    0.64492E-07         0.29298E-11         0.00000E+00
    0.64490E-07         0.10841E-10         0.00000E+00
    0.64488E-07         0.19331E-10         0.00000E+00
    0.64486E-07         0.28392E-10         0.00000E+00
    0.64483E-07         0.38011E-10         0.00000E+00
    0.64481E-07         0.48252E-10         0.00000E+00
    0.64477E-07         0.59135E-10         0.00000E+00
    0.64474E-07         0.70590E-10         0.00000E+00
    0.64471E-07         0.82559E-10         0.00000E+00
    0.64467E-07         0.94898E-10         0.00000E+00
    0.64463E-07         0.10726E-09         0.00000E+00
    0.64458E-07         0.11905E-09         0.00000E+00
    0.64453E-07         0.13018E-09         0.00000E+00
    0.64446E-07         0.14118E-09         0.00000E+00
    0.64438E-07         0.15243E-09         0.00000E+00
    0.64430E-07         0.16469E-09         0.00000E+00
    0.64424E-07         0.17957E-09         0.00000E+00
    0.64419E-07         0.19612E-09         0.00000E+00
    0.64418E-07         0.20915E-09         0.00000E+00
    0.64420E-07         0.21065E-09         0.00000E+00
    0.64425E-07         0.19233E-09         0.00000E+00
    0.64433E-07         0.15314E-09         0.00000E+00
    0.64442E-07         0.10101E-09         0.00000E+00
    0.64451E-07         0.47933E-10         0.00000E+00
    0.64455E-07         0.22786E-10         0.00000E+00
    0.65974E-07        -0.22165E-11         0.00000E+00
    0.65974E-07        -0.45074E-11         0.00000E+00
    0.65974E-07        -0.91034E-11         0.00000E+00
    0.65974E-07        -0.13649E-10         0.00000E+00
    0.65974E-07        -0.18055E-10         0.00000E+00
    0.65975E-07        -0.22302E-10         0.00000E+00
    0.65975E-07        -0.26366E-10         0.00000E+00
    0.65976E-07        -0.30202E-10         0.00000E+00
    0.65977E-07        -0.33754E-10         0.00000E+00
    0.65978E-07        -0.36957E-10         0.00000E+00
    0.65979E-07        -0.39743E-10         0.00000E+00
    0.65981E-07        -0.42050E-10         0.00000E+00
    0.65982E-07        -0.43815E-10         0.00000E+00
    0.65984E-07        -0.44985E-10         0.00000E+00
    0.65986E-07        -0.45514E-10         0.00000E+00
    0.65988E-07        -0.45376E-10         0.00000E+00
    0.65990E-07        -0.44551E-10         0.00000E+00
    0.65992E-07        -0.43019E-10         0.00000E+00
    0.65994E-07        -0.40771E-10         0.00000E+00
    0.65996E-07        -0.37792E-10         0.00000E+00
    0.65998E-07        -0.34062E-10         0.00000E+00
    0.65999E-07        -0.29584E-10         0.00000E+00
    0.66001E-07        -0.24382E-10         0.00000E+00
    0.66003E-07        -0.18468E-10         0.00000E+00
    0.66004E-07        -0.11781E-10         0.00000E+00
    0.66005E-07        -0.42835E-11         0.00000E+00
    0.66006E-07         0.39839E-11         0.00000E+00
    0.66007E-07         0.13024E-10         0.00000E+00
    0.66008E-07         0.22815E-10         0.00000E+00
    0.66009E-07         0.33285E-10         0.00000E+00
    0.66010E-07         0.44300E-10         0.00000E+00
    0.66011E-07         0.55427E-10         0.00000E+00
    0.66011E-07         0.66499E-10         0.00000E+00
    0.66011E-07         0.77856E-10         0.00000E+00
    0.66009E-07         0.89570E-10         0.00000E+00
    0.66007E-07         0.10168E-09         0.00000E+00
    0.66005E-07         0.11519E-09         0.00000E+00
    0.66005E-07         0.13218E-09         0.00000E+00
    0.66006E-07         0.15232E-09         0.00000E+00
    0.66009E-07         0.17246E-09         0.00000E+00
    0.66015E-07         0.18805E-09         0.00000E+00
    0.66025E-07         0.19192E-09         0.00000E+00
    0.66037E-07         0.18135E-09         0.00000E+00
    0.66052E-07         0.15882E-09         0.00000E+00
    0.66071E-07         0.12846E-09         0.00000E+00
    0.66092E-07         0.97018E-10         0.00000E+00
    0.66114E-07         0.67974E-10         0.00000E+00
    0.66133E-07         0.42385E-10         0.00000E+00
    0.66147E-07         0.22580E-10         0.00000E+00
    0.66156E-07         0.93213E-11         0.00000E+00
    0.66158E-07         0.42344E-11         0.00000E+00
    0.67397E-07        -0.28007E-11         0.00000E+00
    0.67397E-07        -0.53280E-11         0.00000E+00
    0.67397E-07        -0.10300E-10         0.00000E+00
    0.67397E-07        -0.15348E-10         0.00000E+00
    0.67398E-07        -0.20698E-10         0.00000E+00
    0.67399E-07        -0.26262E-10         0.00000E+00
    0.67401E-07        -0.31887E-10         0.00000E+00
    0.67404E-07        -0.37412E-10         0.00000E+00
    0.67407E-07        -0.42673E-10         0.00000E+00
    0.67410E-07        -0.47512E-10         0.00000E+00
    0.67414E-07        -0.51785E-10         0.00000E+00
    0.67418E-07        -0.55376E-10         0.00000E+00
    0.67422E-07        -0.58194E-10         0.00000E+00
    0.67427E-07        -0.60181E-10         0.00000E+00
    0.67432E-07        -0.61299E-10         0.00000E+00
    0.67436E-07        -0.61499E-10         0.00000E+00
    0.67441E-07        -0.60754E-10         0.00000E+00
    0.67445E-07        -0.59097E-10         0.00000E+00
    0.67450E-07        -0.56562E-10         0.00000E+00
    0.67454E-07        -0.53188E-10         0.00000E+00
    0.67458E-07        -0.49028E-10         0.00000E+00
    0.67463E-07        -0.44072E-10         0.00000E+00
    0.67467E-07        -0.38250E-10         0.00000E+00
    0.67471E-07        -0.31561E-10         0.00000E+00
    0.67475E-07        -0.24289E-10         0.00000E+00
    0.67479E-07        -0.16592E-10         0.00000E+00
    0.67482E-07        -0.82503E-11         0.00000E+00
    0.67484E-07         0.62643E-12         0.00000E+00
    0.67486E-07         0.97296E-11         0.00000E+00
    0.67487E-07         0.19107E-10         0.00000E+00
    0.67488E-07         0.29640E-10         0.00000E+00
    0.67490E-07         0.43544E-10         0.00000E+00
    0.67492E-07         0.61255E-10         0.00000E+00
    0.67496E-07         0.80525E-10         0.00000E+00
    0.67502E-07         0.99298E-10         0.00000E+00
    0.67509E-07         0.11411E-09         0.00000E+00
    0.67519E-07         0.12061E-09         0.00000E+00
    0.67531E-07         0.11813E-09         0.00000E+00
    0.67546E-07         0.10820E-09         0.00000E+00
    0.67564E-07         0.92448E-10         0.00000E+00
    0.67585E-07         0.74714E-10         0.00000E+00
    0.67608E-07         0.57429E-10         0.00000E+00
    0.67631E-07         0.39927E-10         0.00000E+00
    0.67654E-07         0.23209E-10         0.00000E+00
    0.67674E-07         0.91259E-11         0.00000E+00
    0.67691E-07        -0.20347E-11         0.00000E+00
    0.67704E-07        -0.98255E-11         0.00000E+00
    0.67714E-07        -0.13515E-10         0.00000E+00
    0.67721E-07        -0.13047E-10         0.00000E+00
    0.67725E-07        -0.82218E-11         0.00000E+00
    0.67727E-07        -0.46541E-11         0.00000E+00
    0.68757E-07        -0.13366E-11         0.00000E+00
    0.68758E-07        -0.41659E-11         0.00000E+00
    0.68760E-07        -0.11087E-10         0.00000E+00
    0.68763E-07        -0.19699E-10         0.00000E+00
    0.68767E-07        -0.28975E-10         0.00000E+00
    0.68772E-07        -0.38579E-10         0.00000E+00
    0.68778E-07        -0.48176E-10         0.00000E+00
    0.68784E-07        -0.57383E-10         0.00000E+00
    0.68791E-07        -0.65878E-10         0.00000E+00
    0.68799E-07        -0.73417E-10         0.00000E+00
    0.68807E-07        -0.79823E-10         0.00000E+00
    0.68815E-07        -0.84966E-10         0.00000E+00
    0.68823E-07        -0.88747E-10         0.00000E+00
    0.68831E-07        -0.91096E-10         0.00000E+00
    0.68838E-07        -0.92009E-10         0.00000E+00
    0.68846E-07        -0.91652E-10         0.00000E+00
    0.68853E-07        -0.90204E-10         0.00000E+00
    0.68860E-07        -0.87669E-10         0.00000E+00
    0.68866E-07        -0.84222E-10         0.00000E+00
    0.68871E-07        -0.80236E-10         0.00000E+00
    0.68875E-07        -0.75969E-10         0.00000E+00
    0.68879E-07        -0.71495E-10         0.00000E+00
    0.68883E-07        -0.66551E-10         0.00000E+00
    0.68886E-07        -0.60283E-10         0.00000E+00
    0.68889E-07        -0.50871E-10         0.00000E+00
    0.68892E-07        -0.37830E-10         0.00000E+00
    0.68896E-07        -0.22941E-10         0.00000E+00
    0.68900E-07        -0.69400E-11         0.00000E+00
    0.68904E-07         0.89210E-11         0.00000E+00
    0.68910E-07         0.21902E-10         0.00000E+00
    0.68916E-07         0.30595E-10         0.00000E+00
    0.68924E-07         0.34624E-10         0.00000E+00
    0.68934E-07         0.34424E-10         0.00000E+00
    0.68946E-07         0.30215E-10         0.00000E+00
    0.68961E-07         0.23210E-10         0.00000E+00
    0.68978E-07         0.16180E-10         0.00000E+00
    0.68998E-07         0.86948E-11         0.00000E+00
    0.69018E-07        -0.10575E-11         0.00000E+00
    0.69038E-07        -0.12065E-10         0.00000E+00
    0.69058E-07        -0.22680E-10         0.00000E+00
    0.69076E-07        -0.32637E-10         0.00000E+00
    0.69093E-07        -0.41640E-10         0.00000E+00
    0.69108E-07        -0.48743E-10         0.00000E+00
    0.69122E-07        -0.53496E-10         0.00000E+00
    0.69133E-07        -0.55748E-10         0.00000E+00
    0.69142E-07        -0.55056E-10         0.00000E+00
    0.69150E-07        -0.51077E-10         0.00000E+00
    0.69155E-07        -0.43655E-10         0.00000E+00
    0.69159E-07        -0.32561E-10         0.00000E+00
    0.69162E-07        -0.17657E-10         0.00000E+00
    0.69162E-07        -0.92464E-11         0.00000E+00
    0.70047E-07        -0.10934E-10         0.00000E+00
    0.70050E-07        -0.20164E-10         0.00000E+00
    0.70058E-07        -0.35786E-10         0.00000E+00
    0.70069E-07        -0.49284E-10         0.00000E+00
    0.70081E-07        -0.64162E-10         0.00000E+00
    0.70094E-07        -0.79343E-10         0.00000E+00
    0.70107E-07        -0.93349E-10         0.00000E+00
    0.70120E-07        -0.10557E-09         0.00000E+00
    0.70133E-07        -0.11581E-09         0.00000E+00
    0.70145E-07        -0.12409E-09         0.00000E+00
    0.70156E-07        -0.13049E-09         0.00000E+00
    0.70167E-07        -0.13513E-09         0.00000E+00
    0.70176E-07        -0.13810E-09         0.00000E+00
    0.70185E-07        -0.13939E-09         0.00000E+00
    0.70192E-07        -0.13876E-09         0.00000E+00
    0.70199E-07        -0.13550E-09         0.00000E+00
    0.70204E-07        -0.12941E-09         0.00000E+00
    0.70209E-07        -0.12141E-09         0.00000E+00
    0.70214E-07        -0.11199E-09         0.00000E+00
    0.70218E-07        -0.10175E-09         0.00000E+00
    0.70223E-07        -0.91828E-10         0.00000E+00
    0.70226E-07        -0.82104E-10         0.00000E+00
    0.70230E-07        -0.72064E-10         0.00000E+00
    0.70233E-07        -0.62250E-10         0.00000E+00
    0.70236E-07        -0.54268E-10         0.00000E+00
    0.70241E-07        -0.48745E-10         0.00000E+00
    0.70247E-07        -0.45463E-10         0.00000E+00
    0.70254E-07        -0.44213E-10         0.00000E+00
    0.70263E-07        -0.42876E-10         0.00000E+00
    0.70275E-07        -0.40764E-10         0.00000E+00
    0.70287E-07        -0.40211E-10         0.00000E+00
    0.70301E-07        -0.42836E-10         0.00000E+00
    0.70316E-07        -0.48137E-10         0.00000E+00
    0.70332E-07        -0.54596E-10         0.00000E+00
    0.70347E-07        -0.61660E-10         0.00000E+00
    0.70362E-07        -0.69570E-10         0.00000E+00
    0.70377E-07        -0.77755E-10         0.00000E+00
    0.70392E-07        -0.85335E-10         0.00000E+00
    0.70406E-07        -0.92017E-10         0.00000E+00
    0.70419E-07        -0.97586E-10         0.00000E+00
    0.70431E-07        -0.10153E-09         0.00000E+00
    0.70442E-07        -0.10340E-09         0.00000E+00
    0.70451E-07        -0.10298E-09         0.00000E+00
    0.70459E-07        -0.10007E-09         0.00000E+00
    0.70466E-07        -0.94497E-10         0.00000E+00
    0.70472E-07        -0.86185E-10         0.00000E+00
    0.70476E-07        -0.75037E-10         0.00000E+00
    0.70480E-07        -0.60886E-10         0.00000E+00
    0.70482E-07        -0.43592E-10         0.00000E+00
    0.70483E-07        -0.23026E-10         0.00000E+00
    0.70484E-07        -0.11907E-10         0.00000E+00
    0.71331E-07        -0.33228E-10         0.00000E+00
    0.71334E-07        -0.60301E-10         0.00000E+00
    0.71340E-07        -0.10522E-09         0.00000E+00
    0.71350E-07        -0.13502E-09         0.00000E+00
    0.71362E-07        -0.15518E-09         0.00000E+00
    0.71376E-07        -0.16915E-09         0.00000E+00
    0.71389E-07        -0.17882E-09         0.00000E+00
    0.71402E-07        -0.18518E-09         0.00000E+00
    0.71414E-07        -0.18871E-09         0.00000E+00
    0.71425E-07        -0.18971E-09         0.00000E+00
    0.71435E-07        -0.18834E-09         0.00000E+00
    0.71444E-07        -0.18474E-09         0.00000E+00
    0.71451E-07        -0.17904E-09         0.00000E+00
    0.71457E-07        -0.17142E-09         0.00000E+00
    0.71462E-07        -0.16222E-09         0.00000E+00
    0.71466E-07        -0.15214E-09         0.00000E+00
    0.71469E-07        -0.14280E-09         0.00000E+00
    0.71473E-07        -0.13528E-09         0.00000E+00
    0.71476E-07        -0.12933E-09         0.00000E+00
    0.71480E-07        -0.12381E-09         0.00000E+00
    0.71484E-07        -0.11673E-09         0.00000E+00
    0.71489E-07        -0.10806E-09         0.00000E+00
    0.71494E-07        -0.99694E-10         0.00000E+00
    0.71501E-07        -0.93148E-10         0.00000E+00
    0.71508E-07        -0.89407E-10         0.00000E+00
    0.71516E-07        -0.88403E-10         0.00000E+00
    0.71525E-07        -0.88988E-10         0.00000E+00
    0.71535E-07        -0.90543E-10         0.00000E+00
    0.71545E-07        -0.93556E-10         0.00000E+00
    0.71555E-07        -0.98153E-10         0.00000E+00
    0.71567E-07        -0.10378E-09         0.00000E+00
    0.71579E-07        -0.10999E-09         0.00000E+00
    0.71591E-07        -0.11660E-09         0.00000E+00
    0.71603E-07        -0.12346E-09         0.00000E+00
    0.71615E-07        -0.13017E-09         0.00000E+00
    0.71627E-07        -0.13616E-09         0.00000E+00
    0.71637E-07        -0.14106E-09         0.00000E+00
    0.71647E-07        -0.14467E-09         0.00000E+00
    0.71657E-07        -0.14674E-09         0.00000E+00
    0.71665E-07        -0.14708E-09         0.00000E+00
    0.71673E-07        -0.14559E-09         0.00000E+00
    0.71679E-07        -0.14216E-09         0.00000E+00
    0.71685E-07        -0.13663E-09         0.00000E+00
    0.71690E-07        -0.12881E-09         0.00000E+00
    0.71694E-07        -0.11855E-09         0.00000E+00
    0.71698E-07        -0.10570E-09         0.00000E+00
    0.71700E-07        -0.90126E-10         0.00000E+00
    0.71702E-07        -0.71761E-10         0.00000E+00
    0.71704E-07        -0.50528E-10         0.00000E+00
    0.71704E-07        -0.26358E-10         0.00000E+00
    0.71705E-07        -0.13531E-10         0.00000E+00
    0.72629E-07        -0.34376E-10         0.00000E+00
    0.72628E-07        -0.64140E-10         0.00000E+00
    0.72627E-07        -0.11788E-09         0.00000E+00
    0.72626E-07        -0.15998E-09         0.00000E+00
    0.72626E-07        -0.19095E-09         0.00000E+00
    0.72627E-07        -0.21213E-09         0.00000E+00
    0.72629E-07        -0.22517E-09         0.00000E+00
    0.72631E-07        -0.23163E-09         0.00000E+00
    0.72634E-07        -0.23284E-09         0.00000E+00
    0.72637E-07        -0.22990E-09         0.00000E+00
    0.72639E-07        -0.22373E-09         0.00000E+00
    0.72642E-07        -0.21514E-09         0.00000E+00
    0.72644E-07        -0.20486E-09         0.00000E+00
    0.72647E-07        -0.19365E-09         0.00000E+00
    0.72649E-07        -0.18232E-09         0.00000E+00
    0.72652E-07        -0.17169E-09         0.00000E+00
    0.72656E-07        -0.16244E-09         0.00000E+00
    0.72659E-07        -0.15468E-09         0.00000E+00
    0.72663E-07        -0.14780E-09         0.00000E+00
    0.72667E-07        -0.14161E-09         0.00000E+00
    0.72671E-07        -0.13666E-09         0.00000E+00
    0.72676E-07        -0.13323E-09         0.00000E+00
    0.72682E-07        -0.13125E-09         0.00000E+00
    0.72689E-07        -0.13074E-09         0.00000E+00
    0.72697E-07        -0.13163E-09         0.00000E+00
    0.72705E-07        -0.13387E-09         0.00000E+00
    0.72713E-07        -0.13744E-09         0.00000E+00
    0.72722E-07        -0.14215E-09         0.00000E+00
    0.72731E-07        -0.14753E-09         0.00000E+00
    0.72740E-07        -0.15320E-09         0.00000E+00
    0.72749E-07        -0.15891E-09         0.00000E+00
    0.72758E-07        -0.16440E-09         0.00000E+00
    0.72766E-07        -0.16943E-09         0.00000E+00
    0.72774E-07        -0.17380E-09         0.00000E+00
    0.72782E-07        -0.17736E-09         0.00000E+00
    0.72789E-07        -0.17998E-09         0.00000E+00
    0.72795E-07        -0.18149E-09         0.00000E+00
    0.72801E-07        -0.18167E-09         0.00000E+00
    0.72806E-07        -0.18036E-09         0.00000E+00
    0.72811E-07        -0.17737E-09         0.00000E+00
    0.72815E-07        -0.17254E-09         0.00000E+00
    0.72819E-07        -0.16575E-09         0.00000E+00
    0.72822E-07        -0.15687E-09         0.00000E+00
    0.72824E-07        -0.14582E-09         0.00000E+00
    0.72827E-07        -0.13248E-09         0.00000E+00
    0.72828E-07        -0.11676E-09         0.00000E+00
    0.72830E-07        -0.98565E-10         0.00000E+00
    0.72831E-07        -0.77794E-10         0.00000E+00
    0.72831E-07        -0.54365E-10         0.00000E+00
    0.72832E-07        -0.28203E-10         0.00000E+00
    0.72832E-07        -0.14430E-10         0.00000E+00
    0.73873E-07        -0.26879E-10         0.00000E+00
    0.73872E-07        -0.50688E-10         0.00000E+00
    0.73867E-07        -0.94750E-10         0.00000E+00
    0.73860E-07        -0.13168E-09         0.00000E+00
    0.73852E-07        -0.16145E-09         0.00000E+00
    0.73843E-07        -0.18421E-09         0.00000E+00
    0.73834E-07        -0.20035E-09         0.00000E+00
    0.73825E-07        -0.21053E-09         0.00000E+00
    0.73817E-07        -0.21560E-09         0.00000E+00
    0.73810E-07        -0.21648E-09         0.00000E+00
    0.73804E-07        -0.21412E-09         0.00000E+00
    0.73799E-07        -0.20943E-09         0.00000E+00
    0.73795E-07        -0.20328E-09         0.00000E+00
    0.73792E-07        -0.19642E-09         0.00000E+00
    0.73790E-07        -0.18947E-09         0.00000E+00
    0.73789E-07        -0.18288E-09         0.00000E+00
    0.73789E-07        -0.17695E-09         0.00000E+00
    0.73790E-07        -0.17190E-09         0.00000E+00
    0.73791E-07        -0.16799E-09         0.00000E+00
    0.73793E-07        -0.16536E-09         0.00000E+00
    0.73796E-07        -0.16392E-09         0.00000E+00
    0.73799E-07        -0.16361E-09         0.00000E+00
    0.73803E-07        -0.16435E-09         0.00000E+00
    0.73807E-07        -0.16600E-09         0.00000E+00
    0.73812E-07        -0.16843E-09         0.00000E+00
    0.73817E-07        -0.17153E-09         0.00000E+00
    0.73821E-07        -0.17514E-09         0.00000E+00
    0.73826E-07        -0.17913E-09         0.00000E+00
    0.73831E-07        -0.18335E-09         0.00000E+00
    0.73835E-07        -0.18763E-09         0.00000E+00
    0.73839E-07        -0.19175E-09         0.00000E+00
    0.73843E-07        -0.19550E-09         0.00000E+00
    0.73847E-07        -0.19869E-09         0.00000E+00
    0.73850E-07        -0.20113E-09         0.00000E+00
    0.73853E-07        -0.20264E-09         0.00000E+00
    0.73856E-07        -0.20308E-09         0.00000E+00
    0.73858E-07        -0.20232E-09         0.00000E+00
    0.73860E-07        -0.20022E-09         0.00000E+00
    0.73862E-07        -0.19666E-09         0.00000E+00
    0.73863E-07        -0.19153E-09         0.00000E+00
    0.73865E-07        -0.18468E-09         0.00000E+00
    0.73866E-07        -0.17600E-09         0.00000E+00
    0.73866E-07        -0.16538E-09         0.00000E+00
    0.73867E-07        -0.15271E-09         0.00000E+00
    0.73867E-07        -0.13789E-09         0.00000E+00
    0.73868E-07        -0.12085E-09         0.00000E+00
    0.73868E-07        -0.10148E-09         0.00000E+00
    0.73868E-07        -0.79725E-10         0.00000E+00
    0.73868E-07        -0.55488E-10         0.00000E+00
    0.73868E-07        -0.28696E-10         0.00000E+00
    0.73868E-07        -0.14652E-10         0.00000E+00
    0.75029E-07        -0.16365E-10         0.00000E+00
    0.75027E-07        -0.31222E-10         0.00000E+00
    0.75022E-07        -0.59237E-10         0.00000E+00
    0.75014E-07        -0.83839E-10         0.00000E+00
    0.75003E-07        -0.10503E-09         0.00000E+00
    0.74991E-07        -0.12286E-09         0.00000E+00
    0.74978E-07        -0.13740E-09         0.00000E+00
    0.74965E-07        -0.14880E-09         0.00000E+00
    0.74951E-07        -0.15730E-09         0.00000E+00
    0.74938E-07        -0.16324E-09         0.00000E+00
    0.74926E-07        -0.16701E-09         0.00000E+00
    0.74914E-07        -0.16904E-09         0.00000E+00
    0.74903E-07        -0.16974E-09         0.00000E+00
    0.74894E-07        -0.16952E-09         0.00000E+00
    0.74885E-07        -0.16874E-09         0.00000E+00
    0.74878E-07        -0.16772E-09         0.00000E+00
    0.74872E-07        -0.16675E-09         0.00000E+00
    0.74866E-07        -0.16608E-09         0.00000E+00
    0.74862E-07        -0.16587E-09         0.00000E+00
    0.74858E-07        -0.16626E-09         0.00000E+00
    0.74854E-07        -0.16730E-09         0.00000E+00
    0.74852E-07        -0.16899E-09         0.00000E+00
    0.74849E-07        -0.17129E-09         0.00000E+00
    0.74847E-07        -0.17413E-09         0.00000E+00
    0.74845E-07        -0.17740E-09         0.00000E+00
    0.74844E-07        -0.18098E-09         0.00000E+00
    0.74842E-07        -0.18474E-09         0.00000E+00
    0.74841E-07        -0.18856E-09         0.00000E+00
    0.74840E-07        -0.19231E-09         0.00000E+00
    0.74839E-07        -0.19585E-09         0.00000E+00
    0.74837E-07        -0.19908E-09         0.00000E+00
    0.74836E-07        -0.20184E-09         0.00000E+00
    0.74835E-07        -0.20401E-09         0.00000E+00
    0.74833E-07        -0.20544E-09         0.00000E+00
    0.74832E-07        -0.20599E-09         0.00000E+00
    0.74831E-07        -0.20552E-09         0.00000E+00
    0.74829E-07        -0.20388E-09         0.00000E+00
    0.74828E-07        -0.20097E-09         0.00000E+00
    0.74826E-07        -0.19666E-09         0.00000E+00
    0.74825E-07        -0.19084E-09         0.00000E+00
    0.74823E-07        -0.18341E-09         0.00000E+00
    0.74822E-07        -0.17426E-09         0.00000E+00
    0.74820E-07        -0.16329E-09         0.00000E+00
    0.74819E-07        -0.15041E-09         0.00000E+00
    0.74818E-07        -0.13553E-09         0.00000E+00
    0.74816E-07        -0.11854E-09         0.00000E+00
    0.74816E-07        -0.99376E-10         0.00000E+00
    0.74815E-07        -0.77946E-10         0.00000E+00
    0.74814E-07        -0.54174E-10         0.00000E+00
    0.74814E-07        -0.27984E-10         0.00000E+00
    0.74814E-07        -0.14276E-10         0.00000E+00
    0.76069E-07        -0.73582E-11         0.00000E+00
    0.76067E-07        -0.14100E-10         0.00000E+00
    0.76062E-07        -0.26967E-10         0.00000E+00
    0.76055E-07        -0.38649E-10         0.00000E+00
    0.76045E-07        -0.49237E-10         0.00000E+00
    0.76033E-07        -0.58806E-10         0.00000E+00
    0.76020E-07        -0.67428E-10         0.00000E+00
    0.76005E-07        -0.75166E-10         0.00000E+00
    0.75990E-07        -0.82083E-10         0.00000E+00
    0.75974E-07        -0.88241E-10         0.00000E+00
    0.75958E-07        -0.93713E-10         0.00000E+00
    0.75943E-07        -0.98586E-10         0.00000E+00
    0.75927E-07        -0.10296E-09         0.00000E+00
    0.75912E-07        -0.10694E-09         0.00000E+00
    0.75897E-07        -0.11066E-09         0.00000E+00
    0.75883E-07        -0.11423E-09         0.00000E+00
    0.75870E-07        -0.11776E-09         0.00000E+00
    0.75857E-07        -0.12135E-09         0.00000E+00
    0.75845E-07        -0.12507E-09         0.00000E+00
    0.75834E-07        -0.12898E-09         0.00000E+00
    0.75824E-07        -0.13310E-09         0.00000E+00
    0.75813E-07        -0.13745E-09         0.00000E+00
    0.75804E-07        -0.14203E-09         0.00000E+00
    0.75795E-07        -0.14679E-09         0.00000E+00
    0.75786E-07        -0.15170E-09         0.00000E+00
    0.75778E-07        -0.15667E-09         0.00000E+00
    0.75770E-07        -0.16163E-09         0.00000E+00
    0.75763E-07        -0.16648E-09         0.00000E+00
    0.75756E-07        -0.17112E-09         0.00000E+00
    0.75749E-07        -0.17544E-09         0.00000E+00
    0.75742E-07        -0.17932E-09         0.00000E+00
    0.75736E-07        -0.18267E-09         0.00000E+00
    0.75730E-07        -0.18536E-09         0.00000E+00
    0.75724E-07        -0.18729E-09         0.00000E+00
    0.75719E-07        -0.18834E-09         0.00000E+00
    0.75713E-07        -0.18839E-09         0.00000E+00
    0.75708E-07        -0.18735E-09         0.00000E+00
    0.75703E-07        -0.18507E-09         0.00000E+00
    0.75699E-07        -0.18147E-09         0.00000E+00
    0.75695E-07        -0.17643E-09         0.00000E+00
    0.75691E-07        -0.16984E-09         0.00000E+00
    0.75687E-07        -0.16162E-09         0.00000E+00
    0.75684E-07        -0.15166E-09         0.00000E+00
    0.75681E-07        -0.13988E-09         0.00000E+00
    0.75678E-07        -0.12619E-09         0.00000E+00
    0.75676E-07        -0.11051E-09         0.00000E+00
    0.75674E-07        -0.92740E-10         0.00000E+00
    0.75673E-07        -0.72814E-10         0.00000E+00
    0.75672E-07        -0.50652E-10         0.00000E+00
    0.75671E-07        -0.26179E-10         0.00000E+00
    0.75671E-07        -0.13355E-10         0.00000E+00
    0.76972E-07         0.60044E-12         0.00000E+00
    0.76970E-07         0.11921E-11         0.00000E+00
    0.76966E-07         0.21750E-11         0.00000E+00
    0.76959E-07         0.27356E-11         0.00000E+00
    0.76950E-07         0.28305E-11         0.00000E+00
    0.76939E-07         0.24183E-11         0.00000E+00
    0.76926E-07         0.14672E-11         0.00000E+00
    0.76911E-07        -0.43130E-13         0.00000E+00
    0.76896E-07        -0.21211E-11         0.00000E+00
    0.76879E-07        -0.47640E-11         0.00000E+00
    0.76862E-07        -0.79581E-11         0.00000E+00
    0.76844E-07        -0.11680E-10         0.00000E+00
    0.76826E-07        -0.15902E-10         0.00000E+00
    0.76807E-07        -0.20594E-10         0.00000E+00
    0.76789E-07        -0.25724E-10         0.00000E+00
    0.76771E-07        -0.31258E-10         0.00000E+00
    0.76753E-07        -0.37162E-10         0.00000E+00
    0.76735E-07        -0.43403E-10         0.00000E+00
    0.76718E-07        -0.49949E-10         0.00000E+00
    0.76701E-07        -0.56766E-10         0.00000E+00
    0.76685E-07        -0.63816E-10         0.00000E+00
    0.76669E-07        -0.71057E-10         0.00000E+00
    0.76653E-07        -0.78439E-10         0.00000E+00
    0.76639E-07        -0.85912E-10         0.00000E+00
    0.76624E-07        -0.93413E-10         0.00000E+00
    0.76611E-07        -0.10088E-09         0.00000E+00
    0.76598E-07        -0.10822E-09         0.00000E+00
    0.76585E-07        -0.11537E-09         0.00000E+00
    0.76573E-07        -0.12224E-09         0.00000E+00
    0.76562E-07        -0.12873E-09         0.00000E+00
    0.76551E-07        -0.13474E-09         0.00000E+00
    0.76540E-07        -0.14016E-09         0.00000E+00
    0.76530E-07        -0.14491E-09         0.00000E+00
    0.76521E-07        -0.14886E-09         0.00000E+00
    0.76512E-07        -0.15192E-09         0.00000E+00
    0.76503E-07        -0.15399E-09         0.00000E+00
    0.76495E-07        -0.15495E-09         0.00000E+00
    0.76488E-07        -0.15471E-09         0.00000E+00
    0.76481E-07        -0.15316E-09         0.00000E+00
    0.76475E-07        -0.15021E-09         0.00000E+00
    0.76469E-07        -0.14576E-09         0.00000E+00
    0.76463E-07        -0.13971E-09         0.00000E+00
    0.76459E-07        -0.13197E-09         0.00000E+00
    0.76454E-07        -0.12244E-09         0.00000E+00
    0.76451E-07        -0.11105E-09         0.00000E+00
    0.76448E-07        -0.97722E-10         0.00000E+00
    0.76445E-07        -0.82371E-10         0.00000E+00
    0.76443E-07        -0.64926E-10         0.00000E+00
    0.76441E-07        -0.45317E-10         0.00000E+00
    0.76440E-07        -0.23474E-10         0.00000E+00
    0.76440E-07        -0.11985E-10         0.00000E+00
    0.77724E-07         0.80375E-11         0.00000E+00
    0.77723E-07         0.15561E-10         0.00000E+00
    0.77719E-07         0.29745E-10         0.00000E+00
    0.77712E-07         0.42196E-10         0.00000E+00
    0.77703E-07         0.52915E-10         0.00000E+00
    0.77692E-07         0.61915E-10         0.00000E+00
    0.77680E-07         0.69225E-10         0.00000E+00
    0.77666E-07         0.74871E-10         0.00000E+00
    0.77650E-07         0.78892E-10         0.00000E+00
    0.77634E-07         0.81339E-10         0.00000E+00
    0.77616E-07         0.82275E-10         0.00000E+00
    0.77598E-07         0.81773E-10         0.00000E+00
    0.77579E-07         0.79917E-10         0.00000E+00
    0.77559E-07         0.76793E-10         0.00000E+00
    0.77540E-07         0.72499E-10         0.00000E+00
    0.77520E-07         0.67135E-10         0.00000E+00
    0.77500E-07         0.60802E-10         0.00000E+00
    0.77480E-07         0.53602E-10         0.00000E+00
    0.77461E-07         0.45641E-10         0.00000E+00
    0.77441E-07         0.37021E-10         0.00000E+00
    0.77422E-07         0.27849E-10         0.00000E+00
    0.77403E-07         0.18227E-10         0.00000E+00
    0.77385E-07         0.82564E-11         0.00000E+00
    0.77367E-07        -0.19608E-11         0.00000E+00
    0.77350E-07        -0.12323E-10         0.00000E+00
    0.77333E-07        -0.22730E-10         0.00000E+00
    0.77317E-07        -0.33080E-10         0.00000E+00
    0.77302E-07        -0.43272E-10         0.00000E+00
    0.77287E-07        -0.53204E-10         0.00000E+00
    0.77272E-07        -0.62772E-10         0.00000E+00
    0.77259E-07        -0.71871E-10         0.00000E+00
    0.77246E-07        -0.80396E-10         0.00000E+00
    0.77233E-07        -0.88240E-10         0.00000E+00
    0.77222E-07        -0.95297E-10         0.00000E+00
    0.77210E-07        -0.10146E-09         0.00000E+00
    0.77200E-07        -0.10663E-09         0.00000E+00
    0.77190E-07        -0.11070E-09         0.00000E+00
    0.77181E-07        -0.11357E-09         0.00000E+00
    0.77173E-07        -0.11513E-09         0.00000E+00
    0.77165E-07        -0.11529E-09         0.00000E+00
    0.77158E-07        -0.11394E-09         0.00000E+00
    0.77152E-07        -0.11101E-09         0.00000E+00
    0.77146E-07        -0.10638E-09         0.00000E+00
    0.77141E-07        -0.99996E-10         0.00000E+00
    0.77136E-07        -0.91756E-10         0.00000E+00
    0.77133E-07        -0.81588E-10         0.00000E+00
    0.77130E-07        -0.69416E-10         0.00000E+00
    0.77127E-07        -0.55170E-10         0.00000E+00
    0.77126E-07        -0.38781E-10         0.00000E+00
    0.77125E-07        -0.20187E-10         0.00000E+00
    0.77124E-07        -0.10332E-10         0.00000E+00
    0.78313E-07         0.15217E-10         0.00000E+00
    0.78311E-07         0.29495E-10         0.00000E+00
    0.78307E-07         0.56515E-10         0.00000E+00
    0.78301E-07         0.80511E-10         0.00000E+00
    0.78292E-07         0.10158E-09         0.00000E+00
    0.78282E-07         0.11979E-09         0.00000E+00
    0.78270E-07         0.13522E-09         0.00000E+00
    0.78257E-07         0.14796E-09         0.00000E+00
    0.78242E-07         0.15812E-09         0.00000E+00
    0.78226E-07         0.16582E-09         0.00000E+00
    0.78210E-07         0.17119E-09         0.00000E+00
    0.78193E-07         0.17434E-09         0.00000E+00
    0.78175E-07         0.17541E-09         0.00000E+00
    0.78157E-07         0.17452E-09         0.00000E+00
    0.78138E-07         0.17180E-09         0.00000E+00
    0.78119E-07         0.16740E-09         0.00000E+00
    0.78100E-07         0.16146E-09         0.00000E+00
    0.78082E-07         0.15413E-09         0.00000E+00
    0.78063E-07         0.14556E-09         0.00000E+00
    0.78044E-07         0.13589E-09         0.00000E+00
    0.78026E-07         0.12530E-09         0.00000E+00
    0.78008E-07         0.11391E-09         0.00000E+00
    0.77990E-07         0.10188E-09         0.00000E+00
    0.77973E-07         0.89348E-10         0.00000E+00
    0.77956E-07         0.76456E-10         0.00000E+00
    0.77939E-07         0.63337E-10         0.00000E+00
    0.77923E-07         0.50122E-10         0.00000E+00
    0.77908E-07         0.36939E-10         0.00000E+00
    0.77893E-07         0.23910E-10         0.00000E+00
    0.77878E-07         0.11155E-10         0.00000E+00
    0.77864E-07        -0.12084E-11         0.00000E+00
    0.77851E-07        -0.13065E-10         0.00000E+00
    0.77838E-07        -0.24300E-10         0.00000E+00
    0.77826E-07        -0.34801E-10         0.00000E+00
    0.77815E-07        -0.44456E-10         0.00000E+00
    0.77804E-07        -0.53151E-10         0.00000E+00
    0.77794E-07        -0.60774E-10         0.00000E+00
    0.77785E-07        -0.67216E-10         0.00000E+00
    0.77776E-07        -0.72370E-10         0.00000E+00
    0.77768E-07        -0.76130E-10         0.00000E+00
    0.77760E-07        -0.78396E-10         0.00000E+00
    0.77754E-07        -0.79069E-10         0.00000E+00
    0.77748E-07        -0.78055E-10         0.00000E+00
    0.77743E-07        -0.75264E-10         0.00000E+00
    0.77738E-07        -0.70610E-10         0.00000E+00
    0.77734E-07        -0.64010E-10         0.00000E+00
    0.77731E-07        -0.55384E-10         0.00000E+00
    0.77729E-07        -0.44659E-10         0.00000E+00
    0.77727E-07        -0.31774E-10         0.00000E+00
    0.77726E-07        -0.16674E-10         0.00000E+00
    0.77726E-07        -0.85643E-11         0.00000E+00
    0.78723E-07         0.22179E-10         0.00000E+00
    0.78722E-07         0.42869E-10         0.00000E+00
    0.78718E-07         0.82051E-10         0.00000E+00
    0.78712E-07         0.11686E-09         0.00000E+00
    0.78705E-07         0.14732E-09         0.00000E+00
    0.78696E-07         0.17363E-09         0.00000E+00
    0.78685E-07         0.19605E-09         0.00000E+00
    0.78674E-07         0.21483E-09         0.00000E+00
    0.78661E-07         0.23014E-09         0.00000E+00
    0.78648E-07         0.24216E-09         0.00000E+00
    0.78635E-07         0.25106E-09         0.00000E+00
    0.78621E-07         0.25701E-09         0.00000E+00
    0.78607E-07         0.26020E-09         0.00000E+00
    0.78592E-07         0.26083E-09         0.00000E+00
    0.78578E-07         0.25910E-09         0.00000E+00
    0.78563E-07         0.25520E-09         0.00000E+00
    0.78549E-07         0.24934E-09         0.00000E+00
    0.78535E-07         0.24172E-09         0.00000E+00
    0.78520E-07         0.23255E-09         0.00000E+00
    0.78506E-07         0.22201E-09         0.00000E+00
    0.78493E-07         0.21029E-09         0.00000E+00
    0.78479E-07         0.19756E-09         0.00000E+00
    0.78465E-07         0.18402E-09         0.00000E+00
    0.78452E-07         0.16980E-09         0.00000E+00
    0.78439E-07         0.15507E-09         0.00000E+00
    0.78427E-07         0.13999E-09         0.00000E+00
    0.78414E-07         0.12468E-09         0.00000E+00
    0.78402E-07         0.10929E-09         0.00000E+00
    0.78390E-07         0.93940E-10         0.00000E+00
    0.78379E-07         0.78759E-10         0.00000E+00
    0.78368E-07         0.63863E-10         0.00000E+00
    0.78357E-07         0.49370E-10         0.00000E+00
    0.78346E-07         0.35394E-10         0.00000E+00
    0.78336E-07         0.22049E-10         0.00000E+00
    0.78327E-07         0.94480E-11         0.00000E+00
    0.78318E-07        -0.22961E-11         0.00000E+00
    0.78309E-07        -0.13068E-10         0.00000E+00
    0.78301E-07        -0.22753E-10         0.00000E+00
    0.78293E-07        -0.31235E-10         0.00000E+00
    0.78286E-07        -0.38396E-10         0.00000E+00
    0.78279E-07        -0.44121E-10         0.00000E+00
    0.78274E-07        -0.48292E-10         0.00000E+00
    0.78268E-07        -0.50797E-10         0.00000E+00
    0.78264E-07        -0.51525E-10         0.00000E+00
    0.78260E-07        -0.50371E-10         0.00000E+00
    0.78256E-07        -0.47239E-10         0.00000E+00
    0.78253E-07        -0.42046E-10         0.00000E+00
    0.78251E-07        -0.34717E-10         0.00000E+00
    0.78250E-07        -0.25184E-10         0.00000E+00
    0.78249E-07        -0.13388E-10         0.00000E+00
    0.78249E-07        -0.69187E-11         0.00000E+00
    0.78938E-07         0.28618E-10         0.00000E+00
    0.78937E-07         0.55071E-10         0.00000E+00
    0.78934E-07         0.10450E-09         0.00000E+00
    0.78930E-07         0.14739E-09         0.00000E+00
    0.78925E-07         0.18471E-09         0.00000E+00
    0.78918E-07         0.21706E-09         0.00000E+00
    0.78911E-07         0.24449E-09         0.00000E+00
    0.78904E-07         0.26713E-09         0.00000E+00
    0.78896E-07         0.28522E-09         0.00000E+00
    0.78889E-07         0.29906E-09         0.00000E+00
    0.78882E-07         0.30899E-09         0.00000E+00
    0.78875E-07         0.31536E-09         0.00000E+00
    0.78869E-07         0.31849E-09         0.00000E+00
    0.78862E-07         0.31872E-09         0.00000E+00
    0.78857E-07         0.31636E-09         0.00000E+00
    0.78851E-07         0.31170E-09         0.00000E+00
    0.78845E-07         0.30500E-09         0.00000E+00
    0.78840E-07         0.29651E-09         0.00000E+00
    0.78835E-07         0.28648E-09         0.00000E+00
    0.78830E-07         0.27510E-09         0.00000E+00
    0.78825E-07         0.26258E-09         0.00000E+00
    0.78820E-07         0.24909E-09         0.00000E+00
    0.78815E-07         0.23482E-09         0.00000E+00
    0.78810E-07         0.21990E-09         0.00000E+00
    0.78805E-07         0.20450E-09         0.00000E+00
    0.78800E-07         0.18873E-09         0.00000E+00
    0.78795E-07         0.17273E-09         0.00000E+00
    0.78790E-07         0.15662E-09         0.00000E+00
    0.78784E-07         0.14051E-09         0.00000E+00
    0.78779E-07         0.12450E-09         0.00000E+00
    0.78774E-07         0.10870E-09         0.00000E+00
    0.78768E-07         0.93201E-10         0.00000E+00
    0.78762E-07         0.78105E-10         0.00000E+00
    0.78757E-07         0.63506E-10         0.00000E+00
    0.78751E-07         0.49501E-10         0.00000E+00
    0.78745E-07         0.36189E-10         0.00000E+00
    0.78740E-07         0.23669E-10         0.00000E+00
    0.78735E-07         0.12047E-10         0.00000E+00
    0.78729E-07         0.14364E-11         0.00000E+00
    0.78725E-07        -0.80422E-11         0.00000E+00
    0.78720E-07        -0.16260E-10         0.00000E+00
    0.78715E-07        -0.23079E-10         0.00000E+00
    0.78712E-07        -0.28358E-10         0.00000E+00
    0.78708E-07        -0.31950E-10         0.00000E+00
    0.78705E-07        -0.33712E-10         0.00000E+00
    0.78702E-07        -0.33505E-10         0.00000E+00
    0.78700E-07        -0.31207E-10         0.00000E+00
    0.78699E-07        -0.26710E-10         0.00000E+00
    0.78698E-07        -0.19928E-10         0.00000E+00
    0.78697E-07        -0.10776E-10         0.00000E+00
    0.78697E-07        -0.55952E-11         0.00000E+00
    0.78939E-07         0.31581E-10         0.00000E+00
    0.78937E-07         0.60706E-10         0.00000E+00
    0.78933E-07         0.11615E-09         0.00000E+00
    0.78929E-07         0.16596E-09         0.00000E+00
    0.78927E-07         0.20838E-09         0.00000E+00
    0.78926E-07         0.24219E-09         0.00000E+00
    0.78927E-07         0.26854E-09         0.00000E+00
    0.78930E-07         0.28865E-09         0.00000E+00
    0.78935E-07         0.30346E-09         0.00000E+00
    0.78940E-07         0.31375E-09         0.00000E+00
    0.78947E-07         0.32017E-09         0.00000E+00
    0.78954E-07         0.32325E-09         0.00000E+00
    0.78963E-07         0.32345E-09         0.00000E+00
    0.78971E-07         0.32118E-09         0.00000E+00
    0.78981E-07         0.31675E-09         0.00000E+00
    0.78990E-07         0.31049E-09         0.00000E+00
    0.78999E-07         0.30265E-09         0.00000E+00
    0.79009E-07         0.29345E-09         0.00000E+00
    0.79018E-07         0.28311E-09         0.00000E+00
    0.79027E-07         0.27179E-09         0.00000E+00
    0.79035E-07         0.25966E-09         0.00000E+00
    0.79044E-07         0.24685E-09         0.00000E+00
    0.79051E-07         0.23351E-09         0.00000E+00
    0.79059E-07         0.21974E-09         0.00000E+00
    0.79065E-07         0.20565E-09         0.00000E+00
    0.79071E-07         0.19133E-09         0.00000E+00
    0.79077E-07         0.17688E-09         0.00000E+00
    0.79081E-07         0.16238E-09         0.00000E+00
    0.79085E-07         0.14790E-09         0.00000E+00
    0.79089E-07         0.13352E-09         0.00000E+00
    0.79091E-07         0.11931E-09         0.00000E+00
    0.79093E-07         0.10532E-09         0.00000E+00
    0.79095E-07         0.91638E-10         0.00000E+00
    0.79096E-07         0.78312E-10         0.00000E+00
    0.79096E-07         0.65410E-10         0.00000E+00
    0.79096E-07         0.52999E-10         0.00000E+00
    0.79095E-07         0.41148E-10         0.00000E+00
    0.79094E-07         0.29929E-10         0.00000E+00
    0.79092E-07         0.19427E-10         0.00000E+00
    0.79090E-07         0.97368E-11         0.00000E+00
    0.79088E-07         0.96722E-12         0.00000E+00
    0.79086E-07        -0.67559E-11         0.00000E+00
    0.79084E-07        -0.13286E-10         0.00000E+00
    0.79081E-07        -0.18456E-10         0.00000E+00
    0.79079E-07        -0.22077E-10         0.00000E+00
    0.79077E-07        -0.23935E-10         0.00000E+00
    0.79076E-07        -0.23788E-10         0.00000E+00
    0.79075E-07        -0.21389E-10         0.00000E+00
    0.79074E-07        -0.16533E-10         0.00000E+00
    0.79074E-07        -0.91347E-11         0.00000E+00
    0.79073E-07        -0.47995E-11         0.00000E+00
    0.78628E-07         0.42627E-10         0.00000E+00
    0.78631E-07         0.81295E-10         0.00000E+00
    0.78640E-07         0.14519E-09         0.00000E+00
    0.78655E-07         0.18161E-09         0.00000E+00
    0.78673E-07         0.20028E-09         0.00000E+00
    0.78696E-07         0.21362E-09         0.00000E+00
    0.78722E-07         0.22375E-09         0.00000E+00
    0.78750E-07         0.23086E-09         0.00000E+00
    0.78780E-07         0.23535E-09         0.00000E+00
    0.78811E-07         0.23759E-09         0.00000E+00
    0.78842E-07         0.23785E-09         0.00000E+00
    0.78875E-07         0.23637E-09         0.00000E+00
    0.78907E-07         0.23341E-09         0.00000E+00
    0.78939E-07         0.22922E-09         0.00000E+00
    0.78971E-07         0.22398E-09         0.00000E+00
    0.79003E-07         0.21787E-09         0.00000E+00
    0.79033E-07         0.21102E-09         0.00000E+00
    0.79063E-07         0.20355E-09         0.00000E+00
    0.79092E-07         0.19557E-09         0.00000E+00
    0.79120E-07         0.18718E-09         0.00000E+00
    0.79146E-07         0.17844E-09         0.00000E+00
    0.79172E-07         0.16944E-09         0.00000E+00
    0.79196E-07         0.16022E-09         0.00000E+00
    0.79218E-07         0.15086E-09         0.00000E+00
    0.79240E-07         0.14139E-09         0.00000E+00
    0.79260E-07         0.13187E-09         0.00000E+00
    0.79278E-07         0.12233E-09         0.00000E+00
    0.79295E-07         0.11282E-09         0.00000E+00
    0.79311E-07         0.10336E-09         0.00000E+00
    0.79325E-07         0.93990E-10         0.00000E+00
    0.79337E-07         0.84744E-10         0.00000E+00
    0.79348E-07         0.75648E-10         0.00000E+00
    0.79358E-07         0.66730E-10         0.00000E+00
    0.79367E-07         0.58020E-10         0.00000E+00
    0.79374E-07         0.49546E-10         0.00000E+00
    0.79380E-07         0.41336E-10         0.00000E+00
    0.79385E-07         0.33423E-10         0.00000E+00
    0.79388E-07         0.25837E-10         0.00000E+00
    0.79391E-07         0.18615E-10         0.00000E+00
    0.79392E-07         0.11800E-10         0.00000E+00
    0.79392E-07         0.54459E-11         0.00000E+00
    0.79392E-07        -0.38009E-12         0.00000E+00
    0.79391E-07        -0.55923E-11         0.00000E+00
    0.79390E-07        -0.10078E-10         0.00000E+00
    0.79387E-07        -0.13686E-10         0.00000E+00
    0.79385E-07        -0.16219E-10         0.00000E+00
    0.79383E-07        -0.17408E-10         0.00000E+00
    0.79380E-07        -0.16871E-10         0.00000E+00
    0.79378E-07        -0.14045E-10         0.00000E+00
    0.79377E-07        -0.81111E-11         0.00000E+00
    0.79377E-07        -0.42468E-11         0.00000E+00
    0.78373E-07         0.00000E+00         0.00000E+00
    0.78382E-07         0.00000E+00         0.00000E+00
    0.78406E-07         0.00000E+00         0.00000E+00
    0.78440E-07         0.00000E+00         0.00000E+00
    0.78478E-07         0.00000E+00         0.00000E+00
    0.78520E-07         0.00000E+00         0.00000E+00
    0.78564E-07         0.00000E+00         0.00000E+00
    0.78609E-07         0.00000E+00         0.00000E+00
    0.78656E-07         0.00000E+00         0.00000E+00
    0.78704E-07        -0.18626E-20         0.00000E+00
    0.78751E-07         0.00000E+00         0.00000E+00
    0.78799E-07         0.18626E-20         0.00000E+00
    0.78846E-07         0.00000E+00         0.00000E+00
    0.78892E-07         0.00000E+00         0.00000E+00
    0.78937E-07         0.00000E+00         0.00000E+00
    0.78982E-07         0.00000E+00         0.00000E+00
    0.79025E-07         0.00000E+00         0.00000E+00
    0.79066E-07         0.18626E-20         0.00000E+00
    0.79106E-07         0.00000E+00         0.00000E+00
    0.79144E-07        -0.18626E-20         0.00000E+00
    0.79181E-07         0.00000E+00         0.00000E+00
    0.79216E-07         0.00000E+00         0.00000E+00
    0.79249E-07         0.00000E+00         0.00000E+00
    0.79280E-07         0.00000E+00         0.00000E+00
    0.79309E-07         0.00000E+00         0.00000E+00
    0.79336E-07         0.00000E+00         0.00000E+00
    0.79362E-07         0.00000E+00         0.00000E+00
    0.79385E-07         0.00000E+00         0.00000E+00
    0.79407E-07         0.00000E+00         0.00000E+00
    0.79427E-07         0.00000E+00         0.00000E+00
    0.79444E-07         0.00000E+00         0.00000E+00
    0.79460E-07         0.00000E+00         0.00000E+00
    0.79475E-07         0.00000E+00         0.00000E+00
    0.79487E-07         0.00000E+00         0.00000E+00
    0.79498E-07         0.00000E+00         0.00000E+00
    0.79507E-07         0.00000E+00         0.00000E+00
    0.79514E-07         0.00000E+00         0.00000E+00
    0.79520E-07         0.00000E+00         0.00000E+00
    0.79525E-07         0.00000E+00         0.00000E+00
    0.79528E-07        -0.27940E-20         0.00000E+00
    0.79530E-07        -0.18626E-20         0.00000E+00
    0.79530E-07         0.18626E-20         0.00000E+00
    0.79529E-07         0.18626E-20         0.00000E+00
    0.79528E-07         0.00000E+00         0.00000E+00
    0.79525E-07         0.00000E+00         0.00000E+00
    0.79522E-07         0.00000E+00         0.00000E+00
    0.79519E-07         0.00000E+00         0.00000E+00
    0.79515E-07         0.18626E-20         0.00000E+00
    0.79512E-07         0.93132E-21         0.00000E+00
    0.79510E-07         0.00000E+00         0.00000E+00
    0.79509E-07         0.37253E-20         0.00000E+00
CELL_DATA       5000
TENSORS stressef double 
    0.79557E+06        -0.67769E+04         0.00000E+00
   -0.67769E+04        -0.23763E+05         0.00000E+00
    0.00000E+00         0.00000E+00         0.00000E+00
 
    0.76663E+06        -0.82010E+04         0.00000E+00
   -0.82010E+04        -0.25692E+05         0.00000E+00
    0.00000E+00         0.00000E+00         0.00000E+00
 
    0.74139E+06        -0.87707E+04         0.00000E+00
   -0.87707E+04        -0.28190E+05         0.00000E+00
    0.00000E+00         0.00000E+00         0.00000E+00
 
    0.71887E+06        -0.88619E+04         0.00000E+00
   -0.88619E+04        -0.30982E+05         0.00000E+00
    0.00000E+00         0.00000E+00         0.00000E+00
 
    0.69844E+06        -0.86757E+04         0.00000E+00
   -0.86757E+04        -0.33891E+05         0.00000E+00
    0.00000E+00         0.00000E+00         0.00000E+00
 
    0.67963E+06        -0.83231E+04         0.00000E+00
   -0.83231E+04        -0.36803E+05         0.00000E+00
    0.00000E+00         0.00000E+00         0.00000E+00
 
    0.66212E+06        -0.78676E+04         0.00000E+00
   -0.78676E+04        -0.39639E+05         0.00000E+00
    0.00000E+00         0.00000E+00         0.00000E+00
 
    0.64566E+06        -0.73466E+04         0.00000E+00
   -0.73466E+04        -0.42347E+05         0.00000E+00
    0.00000E+00         0.00000E+00         0.00000E+00
 
    0.63005E+06        -0.67831E+04         0.00000E+00
   -0.67831E+04        -0.44891E+05         0.00000E+00
    0.00000E+00         0.00000E+00         0.00000E+00
 
    0.61515E+06        -0.61915E+04         0.00000E+00
   -0.61915E+04        -0.47246E+05         0.00000E+00
    0.00000E+00         0.00000E+00         0.00000E+00
 
    0.60081E+06        -0.55812E+04         0.00000E+00
   -0.55812E+04        -0.49392E+05         0.00000E+00
    0.00000E+00         0.00000E+00         0.00000E+00
 
    0.58696E+06        -0.49584E+04         0.00000E+00
   -0.49584E+04        -0.51319E+05         0.00000E+00
    0.00000E+00         0.00000E+00         0.00000E+00
 
    0.57349E+06        -0.43274E+04         0.00000E+00
   -0.43274E+04        -0.53015E+05         0.00000E+00
    0.00000E+00         0.00000E+00         0.00000E+00
 
    0.56035E+06        -0.36910E+04         0.00000E+00
   -0.36910E+04        -0.54475E+05         0.00000E+00
    0.00000E+00         0.00000E+00         0.00000E+00
 
    0.54747E+06        -0.30513E+04         0.00000E+00
   -0.30513E+04        -0.55695E+05         0.00000E+00
    0.00000E+00         0.00000E+00         0.00000E+00
 
    0.53479E+06        -0.24094E+04         0.00000E+00
   -0.24094E+04        -0.56670E+05         0.00000E+00
    0.00000E+00         0.00000E+00         0.00000E+00
 
    0.52229E+06        -0.17662E+04         0.00000E+00
   -0.17662E+04        -0.57398E+05         0.00000E+00
    0.00000E+00         0.00000E+00         0.00000E+00
 
    0.50990E+06        -0.11222E+04         0.00000E+00
   -0.11222E+04        -0.57877E+05         0.00000E+00
    0.00000E+00         0.00000E+00         0.00000E+00
 
    0.49761E+06        -0.47765E+03         0.00000E+00
   -0.47765E+03        -0.58106E+05         0.00000E+00
    0.00000E+00         0.00000E+00         0.00000E+00
 
    0.48537E+06         0.16756E+03         0.00000E+00
    0.16756E+03        -0.58083E+05         0.00000E+00
    0.00000E+00         0.00000E+00         0.00000E+00
 
    0.47317E+06         0.81359E+03         0.00000E+00
    0.81359E+03        -0.57808E+05         0.00000E+00
    0.00000E+00         0.00000E+00         0.00000E+00
 
    0.46096E+06         0.14608E+04         0.00000E+00
    0.14608E+04        -0.57279E+05         0.00000E+00
    0.00000E+00         0.00000E+00         0.00000E+00
 
    0.44874E+06         0.21097E+04         0.00000E+00
    0.21097E+04        -0.56495E+05         0.00000E+00
    0.00000E+00         0.00000E+00         0.00000E+00
 
    0.43647E+06         0.27608E+04         0.00000E+00
    0.27608E+04        -0.55455E+05         0.00000E+00
    0.00000E+00         0.00000E+00         0.00000E+00
 
    0.42413E+06         0.34149E+04         0.00000E+00
    0.34149E+04        -0.54157E+05         0.00000E+00
    0.00000E+00         0.00000E+00         0.00000E+00
 
    0.41171E+06         0.40730E+04         0.00000E+00
    0.40730E+04        -0.52601E+05         0.00000E+00
    0.00000E+00         0.00000E+00         0.00000E+00
 
    0.39918E+06         0.47360E+04         0.00000E+00
    0.47360E+04        -0.50783E+05         0.00000E+00
    0.00000E+00         0.00000E+00         0.00000E+00
 
    0.38653E+06         0.54051E+04         0.00000E+00
    0.54051E+04        -0.48701E+05         0.00000E+00
    0.00000E+00         0.00000E+00         0.00000E+00
 
    0.37373E+06         0.60817E+04         0.00000E+00
    0.60817E+04        -0.46353E+05         0.00000E+00
    0.00000E+00         0.00000E+00         0.00000E+00
 
    0.36077E+06         0.67673E+04         0.00000E+00
    0.67673E+04        -0.43735E+05         0.00000E+00
    0.00000E+00         0.00000E+00         0.00000E+00
 
    0.34763E+06         0.74637E+04         0.00000E+00
    0.74637E+04        -0.40843E+05         0.00000E+00
    0.00000E+00         0.00000E+00         0.00000E+00
 
    0.33428E+06         0.81731E+04         0.00000E+00
    0.81731E+04        -0.37672E+05         0.00000E+00
    0.00000E+00         0.00000E+00         0.00000E+00
 
    0.32071E+06         0.88978E+04         0.00000E+00
    0.88978E+04        -0.34217E+05         0.00000E+00
    0.00000E+00         0.00000E+00         0.00000E+00
 
    0.30689E+06         0.96408E+04         0.00000E+00
    0.96408E+04        -0.30470E+05         0.00000E+00
    0.00000E+00         0.00000E+00         0.00000E+00
 
    0.29280E+06         0.10405E+05         0.00000E+00
    0.10405E+05        -0.26423E+05         0.00000E+00
    0.00000E+00         0.00000E+00         0.00000E+00
 
    0.27841E+06         0.11196E+05         0.00000E+00
    0.11196E+05        -0.22068E+05         0.00000E+00
    0.00000E+00         0.00000E+00         0.00000E+00
 
    0.26370E+06         0.12017E+05         0.00000E+00
    0.12017E+05        -0.17394E+05         0.00000E+00
    0.00000E+00         0.00000E+00         0.00000E+00
 
    0.24863E+06         0.12874E+05         0.00000E+00
    0.12874E+05        -0.12386E+05         0.00000E+00
    0.00000E+00         0.00000E+00         0.00000E+00
 
    0.23316E+06         0.13776E+05         0.00000E+00
    0.13776E+05        -0.70293E+04         0.00000E+00
    0.00000E+00         0.00000E+00         0.00000E+00
 
    0.21725E+06         0.14732E+05         0.00000E+00
    0.14732E+05        -0.13048E+04         0.00000E+00
    0.00000E+00         0.00000E+00         0.00000E+00
 
    0.20085E+06         0.15753E+05         0.00000E+00
    0.15753E+05         0.48106E+04         0.00000E+00
    0.00000E+00         0.00000E+00         0.00000E+00
 
    0.18390E+06         0.16856E+05         0.00000E+00
    0.16856E+05         0.11345E+05         0.00000E+00
    0.00000E+00         0.00000E+00         0.00000E+00
 
    0.16633E+06         0.18061E+05         0.00000E+00
    0.18061E+05         0.18333E+05         0.00000E+00
    0.00000E+00         0.00000E+00         0.00000E+00
 
    0.14805E+06         0.19396E+05         0.00000E+00
    0.19396E+05         0.25819E+05         0.00000E+00
    0.00000E+00         0.00000E+00         0.00000E+00
 
    0.12895E+06         0.20903E+05         0.00000E+00
    0.20903E+05         0.33857E+05         0.00000E+00
    0.00000E+00         0.00000E+00         0.00000E+00
 
    0.10889E+06         0.22637E+05         0.00000E+00
    0.22637E+05         0.42519E+05         0.00000E+00
    0.00000E+00         0.00000E+00         0.00000E+00
 
    0.87678E+05         0.24683E+05         0.00000E+00
    0.24683E+05         0.51897E+05         0.00000E+00
    0.00000E+00         0.00000E+00         0.00000E+00
 
    0.65060E+05         0.27174E+05         0.00000E+00
    0.27174E+05         0.62119E+05         0.00000E+00
    0.00000E+00         0.00000E+00         0.00000E+00
 
    0.40676E+05         0.30320E+05         0.00000E+00
    0.30320E+05         0.73358E+05         0.00000E+00
    0.00000E+00         0.00000E+00         0.00000E+00
 
    0.13995E+05         0.34476E+05         0.00000E+00
    0.34476E+05         0.85860E+05         0.00000E+00
    0.00000E+00         0.00000E+00         0.00000E+00
 
    0.72281E+06        -0.48065E+04         0.00000E+00
   -0.48065E+04        -0.67405E+05         0.00000E+00
    0.00000E+00         0.00000E+00         0.00000E+00
 
    0.70484E+06        -0.10104E+05         0.00000E+00
   -0.10104E+05        -0.66651E+05         0.00000E+00
    0.00000E+00         0.00000E+00         0.00000E+00
 
    0.68665E+06        -0.13528E+05         0.00000E+00
   -0.13528E+05        -0.66227E+05         0.00000E+00
    0.00000E+00         0.00000E+00         0.00000E+00
 
    0.66882E+06        -0.15588E+05         0.00000E+00
   -0.15588E+05        -0.66142E+05         0.00000E+00
    0.00000E+00         0.00000E+00         0.00000E+00
 
    0.65158E+06        -0.16656E+05         0.00000E+00
   -0.16656E+05        -0.66352E+05         0.00000E+00
    0.00000E+00         0.00000E+00         0.00000E+00
 
    0.63500E+06        -0.16999E+05         0.00000E+00
   -0.16999E+05        -0.66792E+05         0.00000E+00
    0.00000E+00         0.00000E+00         0.00000E+00
 
    0.61908E+06        -0.16810E+05         0.00000E+00
   -0.16810E+05        -0.67394E+05         0.00000E+00
    0.00000E+00         0.00000E+00         0.00000E+00
 
    0.60377E+06        -0.16226E+05         0.00000E+00
   -0.16226E+05        -0.68097E+05         0.00000E+00
    0.00000E+00         0.00000E+00         0.00000E+00
 
    0.58901E+06        -0.15350E+05         0.00000E+00
   -0.15350E+05        -0.68846E+05         0.00000E+00
    0.00000E+00         0.00000E+00         0.00000E+00
 
    0.57475E+06        -0.14252E+05         0.00000E+00
   -0.14252E+05        -0.69594E+05         0.00000E+00
    0.00000E+00         0.00000E+00         0.00000E+00
 
    0.56091E+06        -0.12987E+05         0.00000E+00
   -0.12987E+05        -0.70303E+05         0.00000E+00
    0.00000E+00         0.00000E+00         0.00000E+00
 
    0.54743E+06        -0.11594E+05         0.00000E+00
   -0.11594E+05        -0.70939E+05         0.00000E+00
    0.00000E+00         0.00000E+00         0.00000E+00
 
    0.53428E+06        -0.10104E+05         0.00000E+00
   -0.10104E+05        -0.71477E+05         0.00000E+00
    0.00000E+00         0.00000E+00         0.00000E+00
 
    0.52138E+06        -0.85373E+04         0.00000E+00
   -0.85373E+04        -0.71892E+05         0.00000E+00
    0.00000E+00         0.00000E+00         0.00000E+00
 
    0.50871E+06        -0.69114E+04         0.00000E+00
   -0.69114E+04        -0.72168E+05         0.00000E+00
    0.00000E+00         0.00000E+00         0.00000E+00
 
    0.49621E+06        -0.52386E+04         0.00000E+00
   -0.52386E+04        -0.72289E+05         0.00000E+00
    0.00000E+00         0.00000E+00         0.00000E+00
 
    0.48386E+06        -0.35282E+04         0.00000E+00
   -0.35282E+04        -0.72241E+05         0.00000E+00
    0.00000E+00         0.00000E+00         0.00000E+00
 
    0.47161E+06        -0.17871E+04         0.00000E+00
   -0.17871E+04        -0.72014E+05         0.00000E+00
    0.00000E+00         0.00000E+00         0.00000E+00
 
    0.45944E+06        -0.20496E+02         0.00000E+00
   -0.20496E+02        -0.71599E+05         0.00000E+00
    0.00000E+00         0.00000E+00         0.00000E+00
 
    0.44733E+06         0.17681E+04         0.00000E+00
    0.17681E+04        -0.70987E+05         0.00000E+00
    0.00000E+00         0.00000E+00         0.00000E+00
 
    0.43523E+06         0.35762E+04         0.00000E+00
    0.35762E+04        -0.70172E+05         0.00000E+00
    0.00000E+00         0.00000E+00         0.00000E+00
 
    0.42314E+06         0.54024E+04         0.00000E+00
    0.54024E+04        -0.69147E+05         0.00000E+00
    0.00000E+00         0.00000E+00         0.00000E+00
 
    0.41103E+06         0.72461E+04         0.00000E+00
    0.72461E+04        -0.67908E+05         0.00000E+00
    0.00000E+00         0.00000E+00         0.00000E+00
 
    0.39887E+06         0.91074E+04         0.00000E+00
    0.91074E+04        -0.66449E+05         0.00000E+00
    0.00000E+00         0.00000E+00         0.00000E+00
 
    0.38665E+06         0.10987E+05         0.00000E+00
    0.10987E+05        -0.64765E+05         0.00000E+00
    0.00000E+00         0.00000E+00         0.00000E+00
 
    0.37436E+06         0.12886E+05         0.00000E+00
    0.12886E+05        -0.62853E+05         0.00000E+00
    0.00000E+00         0.00000E+00         0.00000E+00
 
    0.36196E+06         0.14808E+05         0.00000E+00
    0.14808E+05        -0.60707E+05         0.00000E+00
    0.00000E+00         0.00000E+00         0.00000E+00
 
    0.34945E+06         0.16753E+05         0.00000E+00
    0.16753E+05        -0.58323E+05         0.00000E+00
    0.00000E+00         0.00000E+00         0.00000E+00
 
    0.33681E+06         0.18725E+05         0.00000E+00
    0.18725E+05        -0.55696E+05         0.00000E+00
    0.00000E+00         0.00000E+00         0.00000E+00
 
    0.32402E+06         0.20729E+05         0.00000E+00
    0.20729E+05        -0.52822E+05         0.00000E+00
    0.00000E+00         0.00000E+00         0.00000E+00
 
    0.31106E+06         0.22769E+05         0.00000E+00
    0.22769E+05        -0.49695E+05         0.00000E+00
    0.00000E+00         0.00000E+00         0.00000E+00
 
    0.29792E+06         0.24850E+05         0.00000E+00
    0.24850E+05        -0.46311E+05         0.00000E+00
    0.00000E+00         0.00000E+00         0.00000E+00
 
    0.28458E+06         0.26978E+05         0.00000E+00
    0.26978E+05        -0.42662E+05         0.00000E+00
    0.00000E+00         0.00000E+00         0.00000E+00
 
    0.27102E+06         0.29161E+05         0.00000E+00
    0.29161E+05        -0.38742E+05         0.00000E+00
    0.00000E+00         0.00000E+00         0.00000E+00
 
    0.25722E+06         0.31409E+05         0.00000E+00
    0.31409E+05        -0.34544E+05         0.00000E+00
    0.00000E+00         0.00000E+00         0.00000E+00
 
    0.24317E+06         0.33731E+05         0.00000E+00
    0.33731E+05        -0.30059E+05         0.00000E+00
    0.00000E+00         0.00000E+00         0.00000E+00
 
    0.22883E+06         0.36141E+05         0.00000E+00
    0.36141E+05        -0.25278E+05         0.00000E+00
    0.00000E+00         0.00000E+00         0.00000E+00
 
    0.21420E+06         0.38653E+05         0.00000E+00
    0.38653E+05        -0.20191E+05         0.00000E+00
    0.00000E+00         0.00000E+00         0.00000E+00
 
    0.19925E+06         0.41287E+05         0.00000E+00
    0.41287E+05        -0.14785E+05         0.00000E+00
    0.00000E+00         0.00000E+00         0.00000E+00
 
    0.18395E+06         0.44065E+05         0.00000E+00
    0.44065E+05        -0.90490E+04         0.00000E+00
    0.00000E+00         0.00000E+00         0.00000E+00
 
    0.16827E+06         0.47014E+05         0.00000E+00
    0.47014E+05        -0.29672E+04         0.00000E+00
    0.00000E+00         0.00000E+00         0.00000E+00
 
    0.15220E+06         0.50170E+05         0.00000E+00
    0.50170E+05         0.34758E+04         0.00000E+00
    0.00000E+00         0.00000E+00         0.00000E+00
 
    0.13571E+06         0.53576E+05         0.00000E+00
    0.53576E+05         0.10297E+05         0.00000E+00
    0.00000E+00         0.00000E+00         0.00000E+00
 
    0.11877E+06         0.57287E+05         0.00000E+00
    0.57287E+05         0.17514E+05         0.00000E+00
    0.00000E+00         0.00000E+00         0.00000E+00
 
    0.10138E+06         0.61373E+05         0.00000E+00
    0.61373E+05         0.25144E+05         0.00000E+00
    0.00000E+00         0.00000E+00         0.00000E+00
 
    0.83515E+05         0.65926E+05         0.00000E+00
    0.65926E+05         0.33202E+05         0.00000E+00
    0.00000E+00         0.00000E+00         0.00000E+00
 
    0.65219E+05         0.71064E+05         0.00000E+00
    0.71064E+05         0.41693E+05         0.00000E+00
    0.00000E+00         0.00000E+00         0.00000E+00
 
    0.46568E+05         0.76942E+05         0.00000E+00
    0.76942E+05         0.50610E+05         0.00000E+00
    0.00000E+00         0.00000E+00         0.00000E+00
 
    0.27751E+05         0.83757E+05         0.00000E+00
    0.83757E+05         0.59912E+05         0.00000E+00
    0.00000E+00         0.00000E+00         0.00000E+00
 
    0.91668E+04         0.91764E+05         0.00000E+00
    0.91764E+05         0.69498E+05         0.00000E+00
    0.00000E+00         0.00000E+00         0.00000E+00
 
    0.65272E+06        -0.31474E+04         0.00000E+00
   -0.31474E+04        -0.11147E+06         0.00000E+00
    0.00000E+00         0.00000E+00         0.00000E+00
 
    0.64072E+06        -0.72667E+04         0.00000E+00
   -0.72667E+04        -0.11113E+06         0.00000E+00
    0.00000E+00         0.00000E+00         0.00000E+00
 
    0.62820E+06        -0.10611E+05         0.00000E+00
   -0.10611E+05        -0.11048E+06         0.00000E+00
    0.00000E+00         0.00000E+00         0.00000E+00
 
    0.61530E+06        -0.13119E+05         0.00000E+00
   -0.13119E+05        -0.10967E+06         0.00000E+00
    0.00000E+00         0.00000E+00         0.00000E+00
 
    0.60217E+06        -0.14826E+05         0.00000E+00
   -0.14826E+05        -0.10879E+06         0.00000E+00
    0.00000E+00         0.00000E+00         0.00000E+00
 
    0.58895E+06        -0.15814E+05         0.00000E+00
   -0.15814E+05        -0.10791E+06         0.00000E+00
    0.00000E+00         0.00000E+00         0.00000E+00
 
    0.57575E+06        -0.16174E+05         0.00000E+00
   -0.16174E+05        -0.10706E+06         0.00000E+00
    0.00000E+00         0.00000E+00         0.00000E+00
 
    0.56264E+06        -0.16000E+05         0.00000E+00
   -0.16000E+05        -0.10624E+06         0.00000E+00
    0.00000E+00         0.00000E+00         0.00000E+00
 
    0.54966E+06        -0.15373E+05         0.00000E+00
   -0.15373E+05        -0.10546E+06         0.00000E+00
    0.00000E+00         0.00000E+00         0.00000E+00
 
    0.53683E+06        -0.14369E+05         0.00000E+00
   -0.14369E+05        -0.10470E+06         0.00000E+00
    0.00000E+00         0.00000E+00         0.00000E+00
 
    0.52415E+06        -0.13049E+05         0.00000E+00
   -0.13049E+05        -0.10394E+06         0.00000E+00
    0.00000E+00         0.00000E+00         0.00000E+00
 
    0.51163E+06        -0.11466E+05         0.00000E+00
   -0.11466E+05        -0.10317E+06         0.00000E+00
    0.00000E+00         0.00000E+00         0.00000E+00
 
    0.49925E+06        -0.96630E+04         0.00000E+00
   -0.96630E+04        -0.10237E+06         0.00000E+00
    0.00000E+00         0.00000E+00         0.00000E+00
 
    0.48700E+06        -0.76766E+04         0.00000E+00
   -0.76766E+04        -0.10152E+06         0.00000E+00
    0.00000E+00         0.00000E+00         0.00000E+00
 
    0.47487E+06        -0.55362E+04         0.00000E+00
   -0.55362E+04        -0.10060E+06         0.00000E+00
    0.00000E+00         0.00000E+00         0.00000E+00
 
    0.46283E+06        -0.32659E+04         0.00000E+00
   -0.32659E+04        -0.99594E+05         0.00000E+00
    0.00000E+00         0.00000E+00         0.00000E+00
 
    0.45086E+06        -0.88531E+03         0.00000E+00
   -0.88531E+03        -0.98492E+05         0.00000E+00
    0.00000E+00         0.00000E+00         0.00000E+00
 
    0.43895E+06         0.15897E+04         0.00000E+00
    0.15897E+04        -0.97278E+05         0.00000E+00
    0.00000E+00         0.00000E+00         0.00000E+00
 
    0.42708E+06         0.41464E+04         0.00000E+00
    0.41464E+04        -0.95940E+05         0.00000E+00
    0.00000E+00         0.00000E+00         0.00000E+00
 
    0.41522E+06         0.67749E+04         0.00000E+00
    0.67749E+04        -0.94466E+05         0.00000E+00
    0.00000E+00         0.00000E+00         0.00000E+00
 
    0.40337E+06         0.94674E+04         0.00000E+00
    0.94674E+04        -0.92847E+05         0.00000E+00
    0.00000E+00         0.00000E+00         0.00000E+00
 
    0.39151E+06         0.12218E+05         0.00000E+00
    0.12218E+05        -0.91072E+05         0.00000E+00
    0.00000E+00         0.00000E+00         0.00000E+00
 
    0.37961E+06         0.15022E+05         0.00000E+00
    0.15022E+05        -0.89134E+05         0.00000E+00
    0.00000E+00         0.00000E+00         0.00000E+00
 
    0.36767E+06         0.17878E+05         0.00000E+00
    0.17878E+05        -0.87024E+05         0.00000E+00
    0.00000E+00         0.00000E+00         0.00000E+00
 
    0.35567E+06         0.20784E+05         0.00000E+00
    0.20784E+05        -0.84736E+05         0.00000E+00
    0.00000E+00         0.00000E+00         0.00000E+00
 
    0.34359E+06         0.23739E+05         0.00000E+00
    0.23739E+05        -0.82262E+05         0.00000E+00
    0.00000E+00         0.00000E+00         0.00000E+00
 
    0.33143E+06         0.26745E+05         0.00000E+00
    0.26745E+05        -0.79596E+05         0.00000E+00
    0.00000E+00         0.00000E+00         0.00000E+00
 
    0.31916E+06         0.29803E+05         0.00000E+00
    0.29803E+05        -0.76732E+05         0.00000E+00
    0.00000E+00         0.00000E+00         0.00000E+00
 
    0.30678E+06         0.32917E+05         0.00000E+00
    0.32917E+05        -0.73664E+05         0.00000E+00
    0.00000E+00         0.00000E+00         0.00000E+00
 
    0.29427E+06         0.36090E+05         0.00000E+00
    0.36090E+05        -0.70386E+05         0.00000E+00
    0.00000E+00         0.00000E+00         0.00000E+00
 
    0.28162E+06         0.39329E+05         0.00000E+00
    0.39329E+05        -0.66893E+05         0.00000E+00
    0.00000E+00         0.00000E+00         0.00000E+00
 
    0.26882E+06         0.42638E+05         0.00000E+00
    0.42638E+05        -0.63179E+05         0.00000E+00
    0.00000E+00         0.00000E+00         0.00000E+00
 
    0.25586E+06         0.46028E+05         0.00000E+00
    0.46028E+05        -0.59239E+05         0.00000E+00
    0.00000E+00         0.00000E+00         0.00000E+00
 
    0.24272E+06         0.49505E+05         0.00000E+00
    0.49505E+05        -0.55066E+05         0.00000E+00
    0.00000E+00         0.00000E+00         0.00000E+00
 
    0.22940E+06         0.53083E+05         0.00000E+00
    0.53083E+05        -0.50656E+05         0.00000E+00
    0.00000E+00         0.00000E+00         0.00000E+00
 
    0.21589E+06         0.56772E+05         0.00000E+00
    0.56772E+05        -0.46004E+05         0.00000E+00
    0.00000E+00         0.00000E+00         0.00000E+00
 
    0.20218E+06         0.60588E+05         0.00000E+00
    0.60588E+05        -0.41103E+05         0.00000E+00
    0.00000E+00         0.00000E+00         0.00000E+00
 
    0.18826E+06         0.64549E+05         0.00000E+00
    0.64549E+05        -0.35950E+05         0.00000E+00
    0.00000E+00         0.00000E+00         0.00000E+00
 
    0.17412E+06         0.68674E+05         0.00000E+00
    0.68674E+05        -0.30539E+05         0.00000E+00
    0.00000E+00         0.00000E+00         0.00000E+00
 
    0.15976E+06         0.72987E+05         0.00000E+00
    0.72987E+05        -0.24867E+05         0.00000E+00
    0.00000E+00         0.00000E+00         0.00000E+00
 
    0.14518E+06         0.77515E+05         0.00000E+00
    0.77515E+05        -0.18932E+05         0.00000E+00
    0.00000E+00         0.00000E+00         0.00000E+00
 
    0.13039E+06         0.82287E+05         0.00000E+00
    0.82287E+05        -0.12733E+05         0.00000E+00
    0.00000E+00         0.00000E+00         0.00000E+00
 
    0.11539E+06         0.87339E+05         0.00000E+00
    0.87339E+05        -0.62730E+04         0.00000E+00
    0.00000E+00         0.00000E+00         0.00000E+00
 
    0.10021E+06         0.92709E+05         0.00000E+00
    0.92709E+05         0.44087E+03         0.00000E+00
    0.00000E+00         0.00000E+00         0.00000E+00
 
    0.84871E+05         0.98438E+05         0.00000E+00
    0.98438E+05         0.73957E+04         0.00000E+00
    0.00000E+00         0.00000E+00         0.00000E+00
 
    0.69416E+05         0.10457E+06         0.00000E+00
    0.10457E+06         0.14570E+05         0.00000E+00
    0.00000E+00         0.00000E+00         0.00000E+00
 
    0.53904E+05         0.11114E+06         0.00000E+00
    0.11114E+06         0.21929E+05         0.00000E+00
    0.00000E+00         0.00000E+00         0.00000E+00
 
    0.38405E+05         0.11817E+06         0.00000E+00
    0.11817E+06         0.29425E+05         0.00000E+00
    0.00000E+00         0.00000E+00         0.00000E+00
 
    0.22982E+05         0.12567E+06         0.00000E+00
    0.12567E+06         0.36989E+05         0.00000E+00
    0.00000E+00         0.00000E+00         0.00000E+00
 
    0.76488E+04         0.13356E+06         0.00000E+00
    0.13356E+06         0.44535E+05         0.00000E+00
    0.00000E+00         0.00000E+00         0.00000E+00
 
    0.59112E+06        -0.21645E+04         0.00000E+00
   -0.21645E+04        -0.15404E+06         0.00000E+00
    0.00000E+00         0.00000E+00         0.00000E+00
 
    0.58248E+06        -0.49512E+04         0.00000E+00
   -0.49512E+04        -0.15369E+06         0.00000E+00
    0.00000E+00         0.00000E+00         0.00000E+00
 
    0.57331E+06        -0.71762E+04         0.00000E+00
   -0.71762E+04        -0.15310E+06         0.00000E+00
    0.00000E+00         0.00000E+00         0.00000E+00
 
    0.56369E+06        -0.88667E+04         0.00000E+00
   -0.88667E+04        -0.15227E+06         0.00000E+00
    0.00000E+00         0.00000E+00         0.00000E+00
 
    0.55368E+06        -0.10034E+05         0.00000E+00
   -0.10034E+05        -0.15125E+06         0.00000E+00
    0.00000E+00         0.00000E+00         0.00000E+00
 
    0.54336E+06        -0.10693E+05         0.00000E+00
   -0.10693E+05        -0.15007E+06         0.00000E+00
    0.00000E+00         0.00000E+00         0.00000E+00
 
    0.53278E+06        -0.10867E+05         0.00000E+00
   -0.10867E+05        -0.14876E+06         0.00000E+00
    0.00000E+00         0.00000E+00         0.00000E+00
 
    0.52200E+06        -0.10588E+05         0.00000E+00
   -0.10588E+05        -0.14735E+06         0.00000E+00
    0.00000E+00         0.00000E+00         0.00000E+00
 
    0.51108E+06        -0.98910E+04         0.00000E+00
   -0.98910E+04        -0.14587E+06         0.00000E+00
    0.00000E+00         0.00000E+00         0.00000E+00
 
    0.50004E+06        -0.88141E+04         0.00000E+00
   -0.88141E+04        -0.14432E+06         0.00000E+00
    0.00000E+00         0.00000E+00         0.00000E+00
 
    0.48894E+06        -0.73948E+04         0.00000E+00
   -0.73948E+04        -0.14272E+06         0.00000E+00
    0.00000E+00         0.00000E+00         0.00000E+00
 
    0.47777E+06        -0.56690E+04         0.00000E+00
   -0.56690E+04        -0.14106E+06         0.00000E+00
    0.00000E+00         0.00000E+00         0.00000E+00
 
    0.46658E+06        -0.36703E+04         0.00000E+00
   -0.36703E+04        -0.13934E+06         0.00000E+00
    0.00000E+00         0.00000E+00         0.00000E+00
 
    0.45536E+06        -0.14292E+04         0.00000E+00
   -0.14292E+04        -0.13757E+06         0.00000E+00
    0.00000E+00         0.00000E+00         0.00000E+00
 
    0.44411E+06         0.10269E+04         0.00000E+00
    0.10269E+04        -0.13573E+06         0.00000E+00
    0.00000E+00         0.00000E+00         0.00000E+00
 
    0.43285E+06         0.36739E+04         0.00000E+00
    0.36739E+04        -0.13382E+06         0.00000E+00
    0.00000E+00         0.00000E+00         0.00000E+00
 
    0.42157E+06         0.64907E+04         0.00000E+00
    0.64907E+04        -0.13183E+06         0.00000E+00
    0.00000E+00         0.00000E+00         0.00000E+00
 
    0.41027E+06         0.94590E+04         0.00000E+00
    0.94590E+04        -0.12976E+06         0.00000E+00
    0.00000E+00         0.00000E+00         0.00000E+00
 
    0.39894E+06         0.12563E+05         0.00000E+00
    0.12563E+05        -0.12759E+06         0.00000E+00
    0.00000E+00         0.00000E+00         0.00000E+00
 
    0.38758E+06         0.15791E+05         0.00000E+00
    0.15791E+05        -0.12531E+06         0.00000E+00
    0.00000E+00         0.00000E+00         0.00000E+00
 
    0.37618E+06         0.19130E+05         0.00000E+00
    0.19130E+05        -0.12293E+06         0.00000E+00
    0.00000E+00         0.00000E+00         0.00000E+00
 
    0.36473E+06         0.22573E+05         0.00000E+00
    0.22573E+05        -0.12042E+06         0.00000E+00
    0.00000E+00         0.00000E+00         0.00000E+00
 
    0.35323E+06         0.26111E+05         0.00000E+00
    0.26111E+05        -0.11779E+06         0.00000E+00
    0.00000E+00         0.00000E+00         0.00000E+00
 
    0.34166E+06         0.29741E+05         0.00000E+00
    0.29741E+05        -0.11503E+06         0.00000E+00
    0.00000E+00         0.00000E+00         0.00000E+00
 
    0.33003E+06         0.33457E+05         0.00000E+00
    0.33457E+05        -0.11213E+06         0.00000E+00
    0.00000E+00         0.00000E+00         0.00000E+00
 
    0.31831E+06         0.37258E+05         0.00000E+00
    0.37258E+05        -0.10908E+06         0.00000E+00
    0.00000E+00         0.00000E+00         0.00000E+00
 
    0.30651E+06         0.41143E+05         0.00000E+00
    0.41143E+05        -0.10587E+06         0.00000E+00
    0.00000E+00         0.00000E+00         0.00000E+00
 
    0.29461E+06         0.45111E+05         0.00000E+00
    0.45111E+05        -0.10251E+06         0.00000E+00
    0.00000E+00         0.00000E+00         0.00000E+00
 
    0.28262E+06         0.49165E+05         0.00000E+00
    0.49165E+05        -0.98987E+05         0.00000E+00
    0.00000E+00         0.00000E+00         0.00000E+00
 
    0.27052E+06         0.53307E+05         0.00000E+00
    0.53307E+05        -0.95294E+05         0.00000E+00
    0.00000E+00         0.00000E+00         0.00000E+00
 
    0.25830E+06         0.57542E+05         0.00000E+00
    0.57542E+05        -0.91429E+05         0.00000E+00
    0.00000E+00         0.00000E+00         0.00000E+00
 
    0.24597E+06         0.61873E+05         0.00000E+00
    0.61873E+05        -0.87386E+05         0.00000E+00
    0.00000E+00         0.00000E+00         0.00000E+00
 
    0.23351E+06         0.66309E+05         0.00000E+00
    0.66309E+05        -0.83163E+05         0.00000E+00
    0.00000E+00         0.00000E+00         0.00000E+00
 
    0.22092E+06         0.70855E+05         0.00000E+00
    0.70855E+05        -0.78756E+05         0.00000E+00
    0.00000E+00         0.00000E+00         0.00000E+00
 
    0.20821E+06         0.75523E+05         0.00000E+00
    0.75523E+05        -0.74163E+05         0.00000E+00
    0.00000E+00         0.00000E+00         0.00000E+00
 
    0.19536E+06         0.80320E+05         0.00000E+00
    0.80320E+05        -0.69382E+05         0.00000E+00
    0.00000E+00         0.00000E+00         0.00000E+00
 
    0.18238E+06         0.85261E+05         0.00000E+00
    0.85261E+05        -0.64412E+05         0.00000E+00
    0.00000E+00         0.00000E+00         0.00000E+00
 
    0.16928E+06         0.90356E+05         0.00000E+00
    0.90356E+05        -0.59253E+05         0.00000E+00
    0.00000E+00         0.00000E+00         0.00000E+00
 
    0.15605E+06         0.95620E+05         0.00000E+00
    0.95620E+05        -0.53907E+05         0.00000E+00
    0.00000E+00         0.00000E+00         0.00000E+00
 
    0.14270E+06         0.10107E+06         0.00000E+00
    0.10107E+06        -0.48377E+05         0.00000E+00
    0.00000E+00         0.00000E+00         0.00000E+00
 
    0.12924E+06         0.10672E+06         0.00000E+00
    0.10672E+06        -0.42667E+05         0.00000E+00
    0.00000E+00         0.00000E+00         0.00000E+00
 
    0.11569E+06         0.11259E+06         0.00000E+00
    0.11259E+06        -0.36786E+05         0.00000E+00
    0.00000E+00         0.00000E+00         0.00000E+00
 
    0.10206E+06         0.11869E+06         0.00000E+00
    0.11869E+06        -0.30744E+05         0.00000E+00
    0.00000E+00         0.00000E+00         0.00000E+00
 
    0.88369E+05         0.12505E+06         0.00000E+00
    0.12505E+06        -0.24554E+05         0.00000E+00
    0.00000E+00         0.00000E+00         0.00000E+00
 
    0.74652E+05         0.13167E+06         0.00000E+00
    0.13167E+06        -0.18232E+05         0.00000E+00
    0.00000E+00         0.00000E+00         0.00000E+00
 
    0.60933E+05         0.13856E+06         0.00000E+00
    0.13856E+06        -0.11800E+05         0.00000E+00
    0.00000E+00         0.00000E+00         0.00000E+00
 
    0.47240E+05         0.14574E+06         0.00000E+00
    0.14574E+06        -0.52792E+04         0.00000E+00
    0.00000E+00         0.00000E+00         0.00000E+00
 
    0.33606E+05         0.15321E+06         0.00000E+00
    0.15321E+06         0.13073E+04         0.00000E+00
    0.00000E+00         0.00000E+00         0.00000E+00
 
    0.20062E+05         0.16098E+06         0.00000E+00
    0.16098E+06         0.79405E+04         0.00000E+00
    0.00000E+00         0.00000E+00         0.00000E+00
 
    0.66584E+04         0.16908E+06         0.00000E+00
    0.16908E+06         0.14612E+05         0.00000E+00
    0.00000E+00         0.00000E+00         0.00000E+00
 
    0.53752E+06        -0.12367E+04         0.00000E+00
   -0.12367E+04        -0.19596E+06         0.00000E+00
    0.00000E+00         0.00000E+00         0.00000E+00
 
    0.53123E+06        -0.26603E+04         0.00000E+00
   -0.26603E+04        -0.19563E+06         0.00000E+00
    0.00000E+00         0.00000E+00         0.00000E+00
 
    0.52439E+06        -0.36926E+04         0.00000E+00
   -0.36926E+04        -0.19503E+06         0.00000E+00
    0.00000E+00         0.00000E+00         0.00000E+00
 
    0.51705E+06        -0.43311E+04         0.00000E+00
   -0.43311E+04        -0.19417E+06         0.00000E+00
    0.00000E+00         0.00000E+00         0.00000E+00
 
    0.50927E+06        -0.45830E+04         0.00000E+00
   -0.45830E+04        -0.19310E+06         0.00000E+00
    0.00000E+00         0.00000E+00         0.00000E+00
 
    0.50110E+06        -0.44579E+04         0.00000E+00
   -0.44579E+04        -0.19182E+06         0.00000E+00
    0.00000E+00         0.00000E+00         0.00000E+00
 
    0.49257E+06        -0.39670E+04         0.00000E+00
   -0.39670E+04        -0.19037E+06         0.00000E+00
    0.00000E+00         0.00000E+00         0.00000E+00
 
    0.48373E+06        -0.31234E+04         0.00000E+00
   -0.31234E+04        -0.18876E+06         0.00000E+00
    0.00000E+00         0.00000E+00         0.00000E+00
 
    0.47462E+06        -0.19424E+04         0.00000E+00
   -0.19424E+04        -0.18700E+06         0.00000E+00
    0.00000E+00         0.00000E+00         0.00000E+00
 
    0.46527E+06        -0.44097E+03         0.00000E+00
   -0.44097E+03        -0.18512E+06         0.00000E+00
    0.00000E+00         0.00000E+00         0.00000E+00
 
    0.45570E+06         0.13626E+04         0.00000E+00
    0.13626E+04        -0.18312E+06         0.00000E+00
    0.00000E+00         0.00000E+00         0.00000E+00
 
    0.44596E+06         0.34494E+04         0.00000E+00
    0.34494E+04        -0.18101E+06         0.00000E+00
    0.00000E+00         0.00000E+00         0.00000E+00
 
    0.43605E+06         0.57999E+04         0.00000E+00
    0.57999E+04        -0.17881E+06         0.00000E+00
    0.00000E+00         0.00000E+00         0.00000E+00
 
    0.42600E+06         0.83953E+04         0.00000E+00
    0.83953E+04        -0.17651E+06         0.00000E+00
    0.00000E+00         0.00000E+00         0.00000E+00
 
    0.41582E+06         0.11217E+05         0.00000E+00
    0.11217E+05        -0.17412E+06         0.00000E+00
    0.00000E+00         0.00000E+00         0.00000E+00
 
    0.40553E+06         0.14249E+05         0.00000E+00
    0.14249E+05        -0.17164E+06         0.00000E+00
    0.00000E+00         0.00000E+00         0.00000E+00
 
    0.39513E+06         0.17474E+05         0.00000E+00
    0.17474E+05        -0.16907E+06         0.00000E+00
    0.00000E+00         0.00000E+00         0.00000E+00
 
    0.38463E+06         0.20877E+05         0.00000E+00
    0.20877E+05        -0.16641E+06         0.00000E+00
    0.00000E+00         0.00000E+00         0.00000E+00
 
    0.37403E+06         0.24446E+05         0.00000E+00
    0.24446E+05        -0.16365E+06         0.00000E+00
    0.00000E+00         0.00000E+00         0.00000E+00
 
    0.36335E+06         0.28169E+05         0.00000E+00
    0.28169E+05        -0.16080E+06         0.00000E+00
    0.00000E+00         0.00000E+00         0.00000E+00
 
    0.35258E+06         0.32035E+05         0.00000E+00
    0.32035E+05        -0.15785E+06         0.00000E+00
    0.00000E+00         0.00000E+00         0.00000E+00
 
    0.34172E+06         0.36035E+05         0.00000E+00
    0.36035E+05        -0.15479E+06         0.00000E+00
    0.00000E+00         0.00000E+00         0.00000E+00
 
    0.33078E+06         0.40163E+05         0.00000E+00
    0.40163E+05        -0.15162E+06         0.00000E+00
    0.00000E+00         0.00000E+00         0.00000E+00
 
    0.31974E+06         0.44411E+05         0.00000E+00
    0.44411E+05        -0.14835E+06         0.00000E+00
    0.00000E+00         0.00000E+00         0.00000E+00
 
    0.30862E+06         0.48776E+05         0.00000E+00
    0.48776E+05        -0.14495E+06         0.00000E+00
    0.00000E+00         0.00000E+00         0.00000E+00
 
    0.29741E+06         0.53252E+05         0.00000E+00
    0.53252E+05        -0.14144E+06         0.00000E+00
    0.00000E+00         0.00000E+00         0.00000E+00
 
    0.28610E+06         0.57838E+05         0.00000E+00
    0.57838E+05        -0.13780E+06         0.00000E+00
    0.00000E+00         0.00000E+00         0.00000E+00
 
    0.27470E+06         0.62533E+05         0.00000E+00
    0.62533E+05        -0.13404E+06         0.00000E+00
    0.00000E+00         0.00000E+00         0.00000E+00
 
    0.26321E+06         0.67336E+05         0.00000E+00
    0.67336E+05        -0.13015E+06         0.00000E+00
    0.00000E+00         0.00000E+00         0.00000E+00
 
    0.25162E+06         0.72248E+05         0.00000E+00
    0.72248E+05        -0.12612E+06         0.00000E+00
    0.00000E+00         0.00000E+00         0.00000E+00
 
    0.23993E+06         0.77271E+05         0.00000E+00
    0.77271E+05        -0.12196E+06         0.00000E+00
    0.00000E+00         0.00000E+00         0.00000E+00
 
    0.22815E+06         0.82407E+05         0.00000E+00
    0.82407E+05        -0.11766E+06         0.00000E+00
    0.00000E+00         0.00000E+00         0.00000E+00
 
    0.21628E+06         0.87660E+05         0.00000E+00
    0.87660E+05        -0.11323E+06         0.00000E+00
    0.00000E+00         0.00000E+00         0.00000E+00
 
    0.20430E+06         0.93035E+05         0.00000E+00
    0.93035E+05        -0.10865E+06         0.00000E+00
    0.00000E+00         0.00000E+00         0.00000E+00
 
    0.19224E+06         0.98536E+05         0.00000E+00
    0.98536E+05        -0.10394E+06         0.00000E+00
    0.00000E+00         0.00000E+00         0.00000E+00
 
    0.18008E+06         0.10417E+06         0.00000E+00
    0.10417E+06        -0.99085E+05         0.00000E+00
    0.00000E+00         0.00000E+00         0.00000E+00
 
    0.16785E+06         0.10994E+06         0.00000E+00
    0.10994E+06        -0.94096E+05         0.00000E+00
    0.00000E+00         0.00000E+00         0.00000E+00
 
    0.15553E+06         0.11586E+06         0.00000E+00
    0.11586E+06        -0.88973E+05         0.00000E+00
    0.00000E+00         0.00000E+00         0.00000E+00
 
    0.14314E+06         0.12193E+06         0.00000E+00
    0.12193E+06        -0.83721E+05         0.00000E+00
    0.00000E+00         0.00000E+00         0.00000E+00
 
    0.13069E+06         0.12817E+06         0.00000E+00
    0.12817E+06        -0.78343E+05         0.00000E+00
    0.00000E+00         0.00000E+00         0.00000E+00
 
    0.11819E+06         0.13457E+06         0.00000E+00
    0.13457E+06        -0.72848E+05         0.00000E+00
    0.00000E+00         0.00000E+00         0.00000E+00
 
    0.10566E+06         0.14115E+06         0.00000E+00
    0.14115E+06        -0.67242E+05         0.00000E+00
    0.00000E+00         0.00000E+00         0.00000E+00
 
    0.93094E+05         0.14791E+06         0.00000E+00
    0.14791E+06        -0.61535E+05         0.00000E+00
    0.00000E+00         0.00000E+00         0.00000E+00
 
    0.80526E+05         0.15486E+06         0.00000E+00
    0.15486E+06        -0.55738E+05         0.00000E+00
    0.00000E+00         0.00000E+00         0.00000E+00
 
    0.67968E+05         0.16200E+06         0.00000E+00
    0.16200E+06        -0.49862E+05         0.00000E+00
    0.00000E+00         0.00000E+00         0.00000E+00
 
    0.55439E+05         0.16934E+06         0.00000E+00
    0.16934E+06        -0.43920E+05         0.00000E+00
    0.00000E+00         0.00000E+00         0.00000E+00
 
    0.42961E+05         0.17688E+06         0.00000E+00
    0.17688E+06        -0.37927E+05         0.00000E+00
    0.00000E+00         0.00000E+00         0.00000E+00
 
    0.30556E+05         0.18461E+06         0.00000E+00
    0.18461E+06        -0.31896E+05         0.00000E+00
    0.00000E+00         0.00000E+00         0.00000E+00
 
    0.18249E+05         0.19255E+06         0.00000E+00
    0.19255E+06        -0.25845E+05         0.00000E+00
    0.00000E+00         0.00000E+00         0.00000E+00
 
    0.60617E+04         0.20068E+06         0.00000E+00
    0.20068E+06        -0.19797E+05         0.00000E+00
    0.00000E+00         0.00000E+00         0.00000E+00
 
    0.49162E+06        -0.40178E+03         0.00000E+00
   -0.40178E+03        -0.23737E+06         0.00000E+00
    0.00000E+00         0.00000E+00         0.00000E+00
 
    0.48698E+06        -0.45689E+03         0.00000E+00
   -0.45689E+03        -0.23706E+06         0.00000E+00
    0.00000E+00         0.00000E+00         0.00000E+00
 
    0.48180E+06        -0.23184E+03         0.00000E+00
   -0.23184E+03        -0.23648E+06         0.00000E+00
    0.00000E+00         0.00000E+00         0.00000E+00
 
    0.47613E+06         0.27569E+03         0.00000E+00
    0.27569E+03        -0.23564E+06         0.00000E+00
    0.00000E+00         0.00000E+00         0.00000E+00
 
    0.47000E+06         0.10671E+04         0.00000E+00
    0.10671E+04        -0.23457E+06         0.00000E+00
    0.00000E+00         0.00000E+00         0.00000E+00
 
    0.46345E+06         0.21412E+04         0.00000E+00
    0.21412E+04        -0.23327E+06         0.00000E+00
    0.00000E+00         0.00000E+00         0.00000E+00
 
    0.45650E+06         0.34945E+04         0.00000E+00
    0.34945E+04        -0.23178E+06         0.00000E+00
    0.00000E+00         0.00000E+00         0.00000E+00
 
    0.44919E+06         0.51217E+04         0.00000E+00
    0.51217E+04        -0.23009E+06         0.00000E+00
    0.00000E+00         0.00000E+00         0.00000E+00
 
    0.44155E+06         0.70164E+04         0.00000E+00
    0.70164E+04        -0.22824E+06         0.00000E+00
    0.00000E+00         0.00000E+00         0.00000E+00
 
    0.43360E+06         0.91705E+04         0.00000E+00
    0.91705E+04        -0.22622E+06         0.00000E+00
    0.00000E+00         0.00000E+00         0.00000E+00
 
    0.42538E+06         0.11575E+05         0.00000E+00
    0.11575E+05        -0.22406E+06         0.00000E+00
    0.00000E+00         0.00000E+00         0.00000E+00
 
    0.41690E+06         0.14221E+05         0.00000E+00
    0.14221E+05        -0.22176E+06         0.00000E+00
    0.00000E+00         0.00000E+00         0.00000E+00
 
    0.40819E+06         0.17098E+05         0.00000E+00
    0.17098E+05        -0.21932E+06         0.00000E+00
    0.00000E+00         0.00000E+00         0.00000E+00
 
    0.39926E+06         0.20196E+05         0.00000E+00
    0.20196E+05        -0.21677E+06         0.00000E+00
    0.00000E+00         0.00000E+00         0.00000E+00
 
    0.39014E+06         0.23503E+05         0.00000E+00
    0.23503E+05        -0.21410E+06         0.00000E+00
    0.00000E+00         0.00000E+00         0.00000E+00
 
    0.38083E+06         0.27010E+05         0.00000E+00
    0.27010E+05        -0.21132E+06         0.00000E+00
    0.00000E+00         0.00000E+00         0.00000E+00
 
    0.37136E+06         0.30706E+05         0.00000E+00
    0.30706E+05        -0.20843E+06         0.00000E+00
    0.00000E+00         0.00000E+00         0.00000E+00
 
    0.36173E+06         0.34582E+05         0.00000E+00
    0.34582E+05        -0.20543E+06         0.00000E+00
    0.00000E+00         0.00000E+00         0.00000E+00
 
    0.35195E+06         0.38628E+05         0.00000E+00
    0.38628E+05        -0.20233E+06         0.00000E+00
    0.00000E+00         0.00000E+00         0.00000E+00
 
    0.34204E+06         0.42836E+05         0.00000E+00
    0.42836E+05        -0.19913E+06         0.00000E+00
    0.00000E+00         0.00000E+00         0.00000E+00
 
    0.33199E+06         0.47198E+05         0.00000E+00
    0.47198E+05        -0.19582E+06         0.00000E+00
    0.00000E+00         0.00000E+00         0.00000E+00
 
    0.32182E+06         0.51706E+05         0.00000E+00
    0.51706E+05        -0.19242E+06         0.00000E+00
    0.00000E+00         0.00000E+00         0.00000E+00
 
    0.31154E+06         0.56355E+05         0.00000E+00
    0.56355E+05        -0.18891E+06         0.00000E+00
    0.00000E+00         0.00000E+00         0.00000E+00
 
    0.30113E+06         0.61138E+05         0.00000E+00
    0.61138E+05        -0.18530E+06         0.00000E+00
    0.00000E+00         0.00000E+00         0.00000E+00
 
    0.29062E+06         0.66052E+05         0.00000E+00
    0.66052E+05        -0.18159E+06         0.00000E+00
    0.00000E+00         0.00000E+00         0.00000E+00
 
    0.28000E+06         0.71092E+05         0.00000E+00
    0.71092E+05        -0.17777E+06         0.00000E+00
    0.00000E+00         0.00000E+00         0.00000E+00
 
    0.26928E+06         0.76256E+05         0.00000E+00
    0.76256E+05        -0.17385E+06         0.00000E+00
    0.00000E+00         0.00000E+00         0.00000E+00
 
    0.25846E+06         0.81540E+05         0.00000E+00
    0.81540E+05        -0.16982E+06         0.00000E+00
    0.00000E+00         0.00000E+00         0.00000E+00
 
    0.24754E+06         0.86944E+05         0.00000E+00
    0.86944E+05        -0.16568E+06         0.00000E+00
    0.00000E+00         0.00000E+00         0.00000E+00
 
    0.23652E+06         0.92466E+05         0.00000E+00
    0.92466E+05        -0.16144E+06         0.00000E+00
    0.00000E+00         0.00000E+00         0.00000E+00
 
    0.22542E+06         0.98107E+05         0.00000E+00
    0.98107E+05        -0.15709E+06         0.00000E+00
    0.00000E+00         0.00000E+00         0.00000E+00
 
    0.21422E+06         0.10387E+06         0.00000E+00
    0.10387E+06        -0.15263E+06         0.00000E+00
    0.00000E+00         0.00000E+00         0.00000E+00
 
    0.20295E+06         0.10975E+06         0.00000E+00
    0.10975E+06        -0.14807E+06         0.00000E+00
    0.00000E+00         0.00000E+00         0.00000E+00
 
    0.19160E+06         0.11575E+06         0.00000E+00
    0.11575E+06        -0.14340E+06         0.00000E+00
    0.00000E+00         0.00000E+00         0.00000E+00
 
    0.18017E+06         0.12187E+06         0.00000E+00
    0.12187E+06        -0.13862E+06         0.00000E+00
    0.00000E+00         0.00000E+00         0.00000E+00
 
    0.16867E+06         0.12812E+06         0.00000E+00
    0.12812E+06        -0.13375E+06         0.00000E+00
    0.00000E+00         0.00000E+00         0.00000E+00
 
    0.15712E+06         0.13449E+06         0.00000E+00
    0.13449E+06        -0.12878E+06         0.00000E+00
    0.00000E+00         0.00000E+00         0.00000E+00
 
    0.14550E+06         0.14100E+06         0.00000E+00
    0.14100E+06        -0.12371E+06         0.00000E+00
    0.00000E+00         0.00000E+00         0.00000E+00
 
    0.13385E+06         0.14764E+06         0.00000E+00
    0.14764E+06        -0.11855E+06         0.00000E+00
    0.00000E+00         0.00000E+00         0.00000E+00
 
    0.12215E+06         0.15442E+06         0.00000E+00
    0.15442E+06        -0.11330E+06         0.00000E+00
    0.00000E+00         0.00000E+00         0.00000E+00
 
    0.11043E+06         0.16133E+06         0.00000E+00
    0.16133E+06        -0.10798E+06         0.00000E+00
    0.00000E+00         0.00000E+00         0.00000E+00
 
    0.98685E+05         0.16838E+06         0.00000E+00
    0.16838E+06        -0.10258E+06         0.00000E+00
    0.00000E+00         0.00000E+00         0.00000E+00
 
    0.86938E+05         0.17558E+06         0.00000E+00
    0.17558E+06        -0.97115E+05         0.00000E+00
    0.00000E+00         0.00000E+00         0.00000E+00
 
    0.75198E+05         0.18291E+06         0.00000E+00
    0.18291E+06        -0.91592E+05         0.00000E+00
    0.00000E+00         0.00000E+00         0.00000E+00
 
    0.63478E+05         0.19039E+06         0.00000E+00
    0.19039E+06        -0.86019E+05         0.00000E+00
    0.00000E+00         0.00000E+00         0.00000E+00
 
    0.51791E+05         0.19801E+06         0.00000E+00
    0.19801E+06        -0.80407E+05         0.00000E+00
    0.00000E+00         0.00000E+00         0.00000E+00
 
    0.40152E+05         0.20577E+06         0.00000E+00
    0.20577E+06        -0.74764E+05         0.00000E+00
    0.00000E+00         0.00000E+00         0.00000E+00
 
    0.28577E+05         0.21367E+06         0.00000E+00
    0.21367E+06        -0.69102E+05         0.00000E+00
    0.00000E+00         0.00000E+00         0.00000E+00
 
    0.17080E+05         0.22170E+06         0.00000E+00
    0.22170E+06        -0.63430E+05         0.00000E+00
    0.00000E+00         0.00000E+00         0.00000E+00
 
    0.56761E+04         0.22986E+06         0.00000E+00
    0.22986E+06        -0.57759E+05         0.00000E+00
    0.00000E+00         0.00000E+00         0.00000E+00
 
    0.45297E+06         0.37514E+03         0.00000E+00
    0.37514E+03        -0.27851E+06         0.00000E+00
    0.00000E+00         0.00000E+00         0.00000E+00
 
    0.44950E+06         0.16472E+04         0.00000E+00
    0.16472E+04        -0.27822E+06         0.00000E+00
    0.00000E+00         0.00000E+00         0.00000E+00
 
    0.44553E+06         0.31189E+04         0.00000E+00
    0.31189E+04        -0.27766E+06         0.00000E+00
    0.00000E+00         0.00000E+00         0.00000E+00
 
    0.44107E+06         0.47950E+04         0.00000E+00
    0.47950E+04        -0.27685E+06         0.00000E+00
    0.00000E+00         0.00000E+00         0.00000E+00
 
    0.43616E+06         0.66788E+04         0.00000E+00
    0.66788E+04        -0.27581E+06         0.00000E+00
    0.00000E+00         0.00000E+00         0.00000E+00
 
    0.43082E+06         0.87721E+04         0.00000E+00
    0.87721E+04        -0.27454E+06         0.00000E+00
    0.00000E+00         0.00000E+00         0.00000E+00
 
    0.42507E+06         0.11076E+05         0.00000E+00
    0.11076E+05        -0.27306E+06         0.00000E+00
    0.00000E+00         0.00000E+00         0.00000E+00
 
    0.41895E+06         0.13589E+05         0.00000E+00
    0.13589E+05        -0.27138E+06         0.00000E+00
    0.00000E+00         0.00000E+00         0.00000E+00
 
    0.41248E+06         0.16311E+05         0.00000E+00
    0.16311E+05        -0.26951E+06         0.00000E+00
    0.00000E+00         0.00000E+00         0.00000E+00
 
    0.40567E+06         0.19238E+05         0.00000E+00
    0.19238E+05        -0.26747E+06         0.00000E+00
    0.00000E+00         0.00000E+00         0.00000E+00
 
    0.39855E+06         0.22367E+05         0.00000E+00
    0.22367E+05        -0.26527E+06         0.00000E+00
    0.00000E+00         0.00000E+00         0.00000E+00
 
    0.39114E+06         0.25695E+05         0.00000E+00
    0.25695E+05        -0.26291E+06         0.00000E+00
    0.00000E+00         0.00000E+00         0.00000E+00
 
    0.38346E+06         0.29215E+05         0.00000E+00
    0.29215E+05        -0.26040E+06         0.00000E+00
    0.00000E+00         0.00000E+00         0.00000E+00
 
    0.37553E+06         0.32924E+05         0.00000E+00
    0.32924E+05        -0.25775E+06         0.00000E+00
    0.00000E+00         0.00000E+00         0.00000E+00
 
    0.36736E+06         0.36815E+05         0.00000E+00
    0.36815E+05        -0.25496E+06         0.00000E+00
    0.00000E+00         0.00000E+00         0.00000E+00
 
    0.35897E+06         0.40883E+05         0.00000E+00
    0.40883E+05        -0.25205E+06         0.00000E+00
    0.00000E+00         0.00000E+00         0.00000E+00
 
    0.35037E+06         0.45121E+05         0.00000E+00
    0.45121E+05        -0.24902E+06         0.00000E+00
    0.00000E+00         0.00000E+00         0.00000E+00
 
    0.34158E+06         0.49525E+05         0.00000E+00
    0.49525E+05        -0.24588E+06         0.00000E+00
    0.00000E+00         0.00000E+00         0.00000E+00
 
    0.33260E+06         0.54088E+05         0.00000E+00
    0.54088E+05        -0.24261E+06         0.00000E+00
    0.00000E+00         0.00000E+00         0.00000E+00
 
    0.32346E+06         0.58805E+05         0.00000E+00
    0.58805E+05        -0.23924E+06         0.00000E+00
    0.00000E+00         0.00000E+00         0.00000E+00
 
    0.31415E+06         0.63671E+05         0.00000E+00
    0.63671E+05        -0.23577E+06         0.00000E+00
    0.00000E+00         0.00000E+00         0.00000E+00
 
    0.30469E+06         0.68680E+05         0.00000E+00
    0.68680E+05        -0.23219E+06         0.00000E+00
    0.00000E+00         0.00000E+00         0.00000E+00
 
    0.29508E+06         0.73828E+05         0.00000E+00
    0.73828E+05        -0.22850E+06         0.00000E+00
    0.00000E+00         0.00000E+00         0.00000E+00
 
    0.28534E+06         0.79110E+05         0.00000E+00
    0.79110E+05        -0.22472E+06         0.00000E+00
    0.00000E+00         0.00000E+00         0.00000E+00
 
    0.27547E+06         0.84523E+05         0.00000E+00
    0.84523E+05        -0.22084E+06         0.00000E+00
    0.00000E+00         0.00000E+00         0.00000E+00
 
    0.26547E+06         0.90064E+05         0.00000E+00
    0.90064E+05        -0.21686E+06         0.00000E+00
    0.00000E+00         0.00000E+00         0.00000E+00
 
    0.25536E+06         0.95729E+05         0.00000E+00
    0.95729E+05        -0.21279E+06         0.00000E+00
    0.00000E+00         0.00000E+00         0.00000E+00
 
    0.24514E+06         0.10152E+06         0.00000E+00
    0.10152E+06        -0.20862E+06         0.00000E+00
    0.00000E+00         0.00000E+00         0.00000E+00
 
    0.23481E+06         0.10742E+06         0.00000E+00
    0.10742E+06        -0.20436E+06         0.00000E+00
    0.00000E+00         0.00000E+00         0.00000E+00
 
    0.22438E+06         0.11345E+06         0.00000E+00
    0.11345E+06        -0.20001E+06         0.00000E+00
    0.00000E+00         0.00000E+00         0.00000E+00
 
    0.21386E+06         0.11959E+06         0.00000E+00
    0.11959E+06        -0.19557E+06         0.00000E+00
    0.00000E+00         0.00000E+00         0.00000E+00
 
    0.20325E+06         0.12584E+06         0.00000E+00
    0.12584E+06        -0.19104E+06         0.00000E+00
    0.00000E+00         0.00000E+00         0.00000E+00
 
    0.19256E+06         0.13221E+06         0.00000E+00
    0.13221E+06        -0.18643E+06         0.00000E+00
    0.00000E+00         0.00000E+00         0.00000E+00
 
    0.18179E+06         0.13870E+06         0.00000E+00
    0.13870E+06        -0.18173E+06         0.00000E+00
    0.00000E+00         0.00000E+00         0.00000E+00
 
    0.17096E+06         0.14530E+06         0.00000E+00
    0.14530E+06        -0.17695E+06         0.00000E+00
    0.00000E+00         0.00000E+00         0.00000E+00
 
    0.16006E+06         0.15201E+06         0.00000E+00
    0.15201E+06        -0.17209E+06         0.00000E+00
    0.00000E+00         0.00000E+00         0.00000E+00
 
    0.14911E+06         0.15883E+06         0.00000E+00
    0.15883E+06        -0.16716E+06         0.00000E+00
    0.00000E+00         0.00000E+00         0.00000E+00
 
    0.13810E+06         0.16577E+06         0.00000E+00
    0.16577E+06        -0.16216E+06         0.00000E+00
    0.00000E+00         0.00000E+00         0.00000E+00
 
    0.12706E+06         0.17282E+06         0.00000E+00
    0.17282E+06        -0.15709E+06         0.00000E+00
    0.00000E+00         0.00000E+00         0.00000E+00
 
    0.11598E+06         0.17998E+06         0.00000E+00
    0.17998E+06        -0.15196E+06         0.00000E+00
    0.00000E+00         0.00000E+00         0.00000E+00
 
    0.10488E+06         0.18726E+06         0.00000E+00
    0.18726E+06        -0.14677E+06         0.00000E+00
    0.00000E+00         0.00000E+00         0.00000E+00
 
    0.93762E+05         0.19465E+06         0.00000E+00
    0.19465E+06        -0.14153E+06         0.00000E+00
    0.00000E+00         0.00000E+00         0.00000E+00
 
    0.82639E+05         0.20215E+06         0.00000E+00
    0.20215E+06        -0.13624E+06         0.00000E+00
    0.00000E+00         0.00000E+00         0.00000E+00
 
    0.71518E+05         0.20975E+06         0.00000E+00
    0.20975E+06        -0.13091E+06         0.00000E+00
    0.00000E+00         0.00000E+00         0.00000E+00
 
    0.60411E+05         0.21746E+06         0.00000E+00
    0.21746E+06        -0.12555E+06         0.00000E+00
    0.00000E+00         0.00000E+00         0.00000E+00
 
    0.49327E+05         0.22528E+06         0.00000E+00
    0.22528E+06        -0.12017E+06         0.00000E+00
    0.00000E+00         0.00000E+00         0.00000E+00
 
    0.38276E+05         0.23320E+06         0.00000E+00
    0.23320E+06        -0.11476E+06         0.00000E+00
    0.00000E+00         0.00000E+00         0.00000E+00
 
    0.27269E+05         0.24121E+06         0.00000E+00
    0.24121E+06        -0.10934E+06         0.00000E+00
    0.00000E+00         0.00000E+00         0.00000E+00
 
    0.16316E+05         0.24931E+06         0.00000E+00
    0.24931E+06        -0.10391E+06         0.00000E+00
    0.00000E+00         0.00000E+00         0.00000E+00
 
    0.54270E+04         0.25750E+06         0.00000E+00
    0.25750E+06        -0.98490E+05         0.00000E+00
    0.00000E+00         0.00000E+00         0.00000E+00
 
    0.42107E+06         0.10968E+04         0.00000E+00
    0.10968E+04        -0.31958E+06         0.00000E+00
    0.00000E+00         0.00000E+00         0.00000E+00
 
    0.41843E+06         0.36413E+04         0.00000E+00
    0.36413E+04        -0.31930E+06         0.00000E+00
    0.00000E+00         0.00000E+00         0.00000E+00
 
    0.41530E+06         0.63235E+04         0.00000E+00
    0.63235E+04        -0.31878E+06         0.00000E+00
    0.00000E+00         0.00000E+00         0.00000E+00
 
    0.41172E+06         0.91495E+04         0.00000E+00
    0.91495E+04        -0.31801E+06         0.00000E+00
    0.00000E+00         0.00000E+00         0.00000E+00
 
    0.40770E+06         0.12124E+05         0.00000E+00
    0.12124E+05        -0.31700E+06         0.00000E+00
    0.00000E+00         0.00000E+00         0.00000E+00
 
    0.40326E+06         0.15251E+05         0.00000E+00
    0.15251E+05        -0.31578E+06         0.00000E+00
    0.00000E+00         0.00000E+00         0.00000E+00
 
    0.39842E+06         0.18534E+05         0.00000E+00
    0.18534E+05        -0.31435E+06         0.00000E+00
    0.00000E+00         0.00000E+00         0.00000E+00
 
    0.39320E+06         0.21974E+05         0.00000E+00
    0.21974E+05        -0.31272E+06         0.00000E+00
    0.00000E+00         0.00000E+00         0.00000E+00
 
    0.38763E+06         0.25573E+05         0.00000E+00
    0.25573E+05        -0.31089E+06         0.00000E+00
    0.00000E+00         0.00000E+00         0.00000E+00
 
    0.38172E+06         0.29330E+05         0.00000E+00
    0.29330E+05        -0.30889E+06         0.00000E+00
    0.00000E+00         0.00000E+00         0.00000E+00
 
    0.37548E+06         0.33246E+05         0.00000E+00
    0.33246E+05        -0.30671E+06         0.00000E+00
    0.00000E+00         0.00000E+00         0.00000E+00
 
    0.36895E+06         0.37320E+05         0.00000E+00
    0.37320E+05        -0.30437E+06         0.00000E+00
    0.00000E+00         0.00000E+00         0.00000E+00
 
    0.36212E+06         0.41551E+05         0.00000E+00
    0.41551E+05        -0.30187E+06         0.00000E+00
    0.00000E+00         0.00000E+00         0.00000E+00
 
    0.35503E+06         0.45936E+05         0.00000E+00
    0.45936E+05        -0.29922E+06         0.00000E+00
    0.00000E+00         0.00000E+00         0.00000E+00
 
    0.34767E+06         0.50472E+05         0.00000E+00
    0.50472E+05        -0.29643E+06         0.00000E+00
    0.00000E+00         0.00000E+00         0.00000E+00
 
    0.34008E+06         0.55158E+05         0.00000E+00
    0.55158E+05        -0.29351E+06         0.00000E+00
    0.00000E+00         0.00000E+00         0.00000E+00
 
    0.33225E+06         0.59991E+05         0.00000E+00
    0.59991E+05        -0.29045E+06         0.00000E+00
    0.00000E+00         0.00000E+00         0.00000E+00
 
    0.32421E+06         0.64967E+05         0.00000E+00
    0.64967E+05        -0.28727E+06         0.00000E+00
    0.00000E+00         0.00000E+00         0.00000E+00
 
    0.31597E+06         0.70084E+05         0.00000E+00
    0.70084E+05        -0.28397E+06         0.00000E+00
    0.00000E+00         0.00000E+00         0.00000E+00
 
    0.30753E+06         0.75337E+05         0.00000E+00
    0.75337E+05        -0.28056E+06         0.00000E+00
    0.00000E+00         0.00000E+00         0.00000E+00
 
    0.29891E+06         0.80724E+05         0.00000E+00
    0.80724E+05        -0.27703E+06         0.00000E+00
    0.00000E+00         0.00000E+00         0.00000E+00
 
    0.29012E+06         0.86242E+05         0.00000E+00
    0.86242E+05        -0.27340E+06         0.00000E+00
    0.00000E+00         0.00000E+00         0.00000E+00
 
    0.28116E+06         0.91887E+05         0.00000E+00
    0.91887E+05        -0.26966E+06         0.00000E+00
    0.00000E+00         0.00000E+00         0.00000E+00
 
    0.27205E+06         0.97656E+05         0.00000E+00
    0.97656E+05        -0.26583E+06         0.00000E+00
    0.00000E+00         0.00000E+00         0.00000E+00
 
    0.26279E+06         0.10355E+06         0.00000E+00
    0.10355E+06        -0.26190E+06         0.00000E+00
    0.00000E+00         0.00000E+00         0.00000E+00
 
    0.25340E+06         0.10956E+06         0.00000E+00
    0.10956E+06        -0.25787E+06         0.00000E+00
    0.00000E+00         0.00000E+00         0.00000E+00
 
    0.24388E+06         0.11568E+06         0.00000E+00
    0.11568E+06        -0.25375E+06         0.00000E+00
    0.00000E+00         0.00000E+00         0.00000E+00
 
    0.23423E+06         0.12192E+06         0.00000E+00
    0.12192E+06        -0.24955E+06         0.00000E+00
    0.00000E+00         0.00000E+00         0.00000E+00
 
    0.22447E+06         0.12827E+06         0.00000E+00
    0.12827E+06        -0.24526E+06         0.00000E+00
    0.00000E+00         0.00000E+00         0.00000E+00
 
    0.21460E+06         0.13474E+06         0.00000E+00
    0.13474E+06        -0.24089E+06         0.00000E+00
    0.00000E+00         0.00000E+00         0.00000E+00
 
    0.20463E+06         0.14130E+06         0.00000E+00
    0.14130E+06        -0.23643E+06         0.00000E+00
    0.00000E+00         0.00000E+00         0.00000E+00
 
    0.19456E+06         0.14798E+06         0.00000E+00
    0.14798E+06        -0.23190E+06         0.00000E+00
    0.00000E+00         0.00000E+00         0.00000E+00
 
    0.18441E+06         0.15476E+06         0.00000E+00
    0.15476E+06        -0.22730E+06         0.00000E+00
    0.00000E+00         0.00000E+00         0.00000E+00
 
    0.17418E+06         0.16164E+06         0.00000E+00
    0.16164E+06        -0.22262E+06         0.00000E+00
    0.00000E+00         0.00000E+00         0.00000E+00
 
    0.16387E+06         0.16862E+06         0.00000E+00
    0.16862E+06        -0.21788E+06         0.00000E+00
    0.00000E+00         0.00000E+00         0.00000E+00
 
    0.15350E+06         0.17570E+06         0.00000E+00
    0.17570E+06        -0.21307E+06         0.00000E+00
    0.00000E+00         0.00000E+00         0.00000E+00
 
    0.14306E+06         0.18288E+06         0.00000E+00
    0.18288E+06        -0.20820E+06         0.00000E+00
    0.00000E+00         0.00000E+00         0.00000E+00
 
    0.13258E+06         0.19016E+06         0.00000E+00
    0.19016E+06        -0.20327E+06         0.00000E+00
    0.00000E+00         0.00000E+00         0.00000E+00
 
    0.12204E+06         0.19753E+06         0.00000E+00
    0.19753E+06        -0.19829E+06         0.00000E+00
    0.00000E+00         0.00000E+00         0.00000E+00
 
    0.11147E+06         0.20499E+06         0.00000E+00
    0.20499E+06        -0.19326E+06         0.00000E+00
    0.00000E+00         0.00000E+00         0.00000E+00
 
    0.10087E+06         0.21255E+06         0.00000E+00
    0.21255E+06        -0.18819E+06         0.00000E+00
    0.00000E+00         0.00000E+00         0.00000E+00
 
    0.90240E+05         0.22019E+06         0.00000E+00
    0.22019E+06        -0.18307E+06         0.00000E+00
    0.00000E+00         0.00000E+00         0.00000E+00
 
    0.79596E+05         0.22792E+06         0.00000E+00
    0.22792E+06        -0.17792E+06         0.00000E+00
    0.00000E+00         0.00000E+00         0.00000E+00
 
    0.68944E+05         0.23573E+06         0.00000E+00
    0.23573E+06        -0.17274E+06         0.00000E+00
    0.00000E+00         0.00000E+00         0.00000E+00
 
    0.58290E+05         0.24362E+06         0.00000E+00
    0.24362E+06        -0.16753E+06         0.00000E+00
    0.00000E+00         0.00000E+00         0.00000E+00
 
    0.47642E+05         0.25159E+06         0.00000E+00
    0.25159E+06        -0.16230E+06         0.00000E+00
    0.00000E+00         0.00000E+00         0.00000E+00
 
    0.37009E+05         0.25963E+06         0.00000E+00
    0.25963E+06        -0.15705E+06         0.00000E+00
    0.00000E+00         0.00000E+00         0.00000E+00
 
    0.26396E+05         0.26774E+06         0.00000E+00
    0.26774E+06        -0.15180E+06         0.00000E+00
    0.00000E+00         0.00000E+00         0.00000E+00
 
    0.15813E+05         0.27592E+06         0.00000E+00
    0.27592E+06        -0.14654E+06         0.00000E+00
    0.00000E+00         0.00000E+00         0.00000E+00
 
    0.52644E+04         0.28415E+06         0.00000E+00
    0.28415E+06        -0.14128E+06         0.00000E+00
    0.00000E+00         0.00000E+00         0.00000E+00
 
    0.39540E+06         0.17661E+04         0.00000E+00
    0.17661E+04        -0.36075E+06         0.00000E+00
    0.00000E+00         0.00000E+00         0.00000E+00
 
    0.39331E+06         0.55167E+04         0.00000E+00
    0.55167E+04        -0.36050E+06         0.00000E+00
    0.00000E+00         0.00000E+00         0.00000E+00
 
    0.39076E+06         0.93570E+04         0.00000E+00
    0.93570E+04        -0.36000E+06         0.00000E+00
    0.00000E+00         0.00000E+00         0.00000E+00
 
    0.38778E+06         0.13294E+05         0.00000E+00
    0.13294E+05        -0.35928E+06         0.00000E+00
    0.00000E+00         0.00000E+00         0.00000E+00
 
    0.38439E+06         0.17332E+05         0.00000E+00
    0.17332E+05        -0.35833E+06         0.00000E+00
    0.00000E+00         0.00000E+00         0.00000E+00
 
    0.38060E+06         0.21477E+05         0.00000E+00
    0.21477E+05        -0.35716E+06         0.00000E+00
    0.00000E+00         0.00000E+00         0.00000E+00
 
    0.37642E+06         0.25733E+05         0.00000E+00
    0.25733E+05        -0.35580E+06         0.00000E+00
    0.00000E+00         0.00000E+00         0.00000E+00
 
    0.37188E+06         0.30104E+05         0.00000E+00
    0.30104E+05        -0.35423E+06         0.00000E+00
    0.00000E+00         0.00000E+00         0.00000E+00
 
    0.36699E+06         0.34591E+05         0.00000E+00
    0.34591E+05        -0.35248E+06         0.00000E+00
    0.00000E+00         0.00000E+00         0.00000E+00
 
    0.36177E+06         0.39198E+05         0.00000E+00
    0.39198E+05        -0.35054E+06         0.00000E+00
    0.00000E+00         0.00000E+00         0.00000E+00
 
    0.35622E+06         0.43926E+05         0.00000E+00
    0.43926E+05        -0.34843E+06         0.00000E+00
    0.00000E+00         0.00000E+00         0.00000E+00
 
    0.35037E+06         0.48775E+05         0.00000E+00
    0.48775E+05        -0.34615E+06         0.00000E+00
    0.00000E+00         0.00000E+00         0.00000E+00
 
    0.34423E+06         0.53746E+05         0.00000E+00
    0.53746E+05        -0.34372E+06         0.00000E+00
    0.00000E+00         0.00000E+00         0.00000E+00
 
    0.33781E+06         0.58840E+05         0.00000E+00
    0.58840E+05        -0.34113E+06         0.00000E+00
    0.00000E+00         0.00000E+00         0.00000E+00
 
    0.33113E+06         0.64056E+05         0.00000E+00
    0.64056E+05        -0.33840E+06         0.00000E+00
    0.00000E+00         0.00000E+00         0.00000E+00
 
    0.32420E+06         0.69393E+05         0.00000E+00
    0.69393E+05        -0.33552E+06         0.00000E+00
    0.00000E+00         0.00000E+00         0.00000E+00
 
    0.31703E+06         0.74850E+05         0.00000E+00
    0.74850E+05        -0.33251E+06         0.00000E+00
    0.00000E+00         0.00000E+00         0.00000E+00
 
    0.30963E+06         0.80427E+05         0.00000E+00
    0.80427E+05        -0.32938E+06         0.00000E+00
    0.00000E+00         0.00000E+00         0.00000E+00
 
    0.30201E+06         0.86121E+05         0.00000E+00
    0.86121E+05        -0.32612E+06         0.00000E+00
    0.00000E+00         0.00000E+00         0.00000E+00
 
    0.29419E+06         0.91931E+05         0.00000E+00
    0.91931E+05        -0.32274E+06         0.00000E+00
    0.00000E+00         0.00000E+00         0.00000E+00
 
    0.28617E+06         0.97856E+05         0.00000E+00
    0.97856E+05        -0.31924E+06         0.00000E+00
    0.00000E+00         0.00000E+00         0.00000E+00
 
    0.27797E+06         0.10389E+06         0.00000E+00
    0.10389E+06        -0.31564E+06         0.00000E+00
    0.00000E+00         0.00000E+00         0.00000E+00
 
    0.26959E+06         0.11004E+06         0.00000E+00
    0.11004E+06        -0.31194E+06         0.00000E+00
    0.00000E+00         0.00000E+00         0.00000E+00
 
    0.26105E+06         0.11630E+06         0.00000E+00
    0.11630E+06        -0.30813E+06         0.00000E+00
    0.00000E+00         0.00000E+00         0.00000E+00
 
    0.25235E+06         0.12266E+06         0.00000E+00
    0.12266E+06        -0.30422E+06         0.00000E+00
    0.00000E+00         0.00000E+00         0.00000E+00
 
    0.24350E+06         0.12913E+06         0.00000E+00
    0.12913E+06        -0.30022E+06         0.00000E+00
    0.00000E+00         0.00000E+00         0.00000E+00
 
    0.23451E+06         0.13570E+06         0.00000E+00
    0.13570E+06        -0.29614E+06         0.00000E+00
    0.00000E+00         0.00000E+00         0.00000E+00
 
    0.22538E+06         0.14237E+06         0.00000E+00
    0.14237E+06        -0.29196E+06         0.00000E+00
    0.00000E+00         0.00000E+00         0.00000E+00
 
    0.21613E+06         0.14913E+06         0.00000E+00
    0.14913E+06        -0.28771E+06         0.00000E+00
    0.00000E+00         0.00000E+00         0.00000E+00
 
    0.20677E+06         0.15600E+06         0.00000E+00
    0.15600E+06        -0.28337E+06         0.00000E+00
    0.00000E+00         0.00000E+00         0.00000E+00
 
    0.19729E+06         0.16296E+06         0.00000E+00
    0.16296E+06        -0.27896E+06         0.00000E+00
    0.00000E+00         0.00000E+00         0.00000E+00
 
    0.18771E+06         0.17001E+06         0.00000E+00
    0.17001E+06        -0.27448E+06         0.00000E+00
    0.00000E+00         0.00000E+00         0.00000E+00
 
    0.17803E+06         0.17715E+06         0.00000E+00
    0.17715E+06        -0.26992E+06         0.00000E+00
    0.00000E+00         0.00000E+00         0.00000E+00
 
    0.16826E+06         0.18438E+06         0.00000E+00
    0.18438E+06        -0.26531E+06         0.00000E+00
    0.00000E+00         0.00000E+00         0.00000E+00
 
    0.15841E+06         0.19170E+06         0.00000E+00
    0.19170E+06        -0.26063E+06         0.00000E+00
    0.00000E+00         0.00000E+00         0.00000E+00
 
    0.14849E+06         0.19910E+06         0.00000E+00
    0.19910E+06        -0.25589E+06         0.00000E+00
    0.00000E+00         0.00000E+00         0.00000E+00
 
    0.13849E+06         0.20659E+06         0.00000E+00
    0.20659E+06        -0.25109E+06         0.00000E+00
    0.00000E+00         0.00000E+00         0.00000E+00
 
    0.12843E+06         0.21415E+06         0.00000E+00
    0.21415E+06        -0.24625E+06         0.00000E+00
    0.00000E+00         0.00000E+00         0.00000E+00
 
    0.11832E+06         0.22179E+06         0.00000E+00
    0.22179E+06        -0.24136E+06         0.00000E+00
    0.00000E+00         0.00000E+00         0.00000E+00
 
    0.10816E+06         0.22951E+06         0.00000E+00
    0.22951E+06        -0.23642E+06         0.00000E+00
    0.00000E+00         0.00000E+00         0.00000E+00
 
    0.97949E+05         0.23730E+06         0.00000E+00
    0.23730E+06        -0.23145E+06         0.00000E+00
    0.00000E+00         0.00000E+00         0.00000E+00
 
    0.87705E+05         0.24516E+06         0.00000E+00
    0.24516E+06        -0.22644E+06         0.00000E+00
    0.00000E+00         0.00000E+00         0.00000E+00
 
    0.77431E+05         0.25309E+06         0.00000E+00
    0.25309E+06        -0.22139E+06         0.00000E+00
    0.00000E+00         0.00000E+00         0.00000E+00
 
    0.67133E+05         0.26108E+06         0.00000E+00
    0.26108E+06        -0.21632E+06         0.00000E+00
    0.00000E+00         0.00000E+00         0.00000E+00
 
    0.56816E+05         0.26913E+06         0.00000E+00
    0.26913E+06        -0.21123E+06         0.00000E+00
    0.00000E+00         0.00000E+00         0.00000E+00
 
    0.46486E+05         0.27724E+06         0.00000E+00
    0.27724E+06        -0.20611E+06         0.00000E+00
    0.00000E+00         0.00000E+00         0.00000E+00
 
    0.36151E+05         0.28539E+06         0.00000E+00
    0.28539E+06        -0.20098E+06         0.00000E+00
    0.00000E+00         0.00000E+00         0.00000E+00
 
    0.25814E+05         0.29360E+06         0.00000E+00
    0.29360E+06        -0.19584E+06         0.00000E+00
    0.00000E+00         0.00000E+00         0.00000E+00
 
    0.15482E+05         0.30185E+06         0.00000E+00
    0.30185E+06        -0.19068E+06         0.00000E+00
    0.00000E+00         0.00000E+00         0.00000E+00
 
    0.51586E+04         0.31014E+06         0.00000E+00
    0.31014E+06        -0.18553E+06         0.00000E+00
    0.00000E+00         0.00000E+00         0.00000E+00
 
    0.37541E+06         0.23851E+04         0.00000E+00
    0.23851E+04        -0.40222E+06         0.00000E+00
    0.00000E+00         0.00000E+00         0.00000E+00
 
    0.37365E+06         0.72705E+04         0.00000E+00
    0.72705E+04        -0.40198E+06         0.00000E+00
    0.00000E+00         0.00000E+00         0.00000E+00
 
    0.37146E+06         0.12208E+05         0.00000E+00
    0.12208E+05        -0.40152E+06         0.00000E+00
    0.00000E+00         0.00000E+00         0.00000E+00
 
    0.36888E+06         0.17204E+05         0.00000E+00
    0.17204E+05        -0.40083E+06         0.00000E+00
    0.00000E+00         0.00000E+00         0.00000E+00
 
    0.36591E+06         0.22265E+05         0.00000E+00
    0.22265E+05        -0.39994E+06         0.00000E+00
    0.00000E+00         0.00000E+00         0.00000E+00
 
    0.36257E+06         0.27396E+05         0.00000E+00
    0.27396E+05        -0.39884E+06         0.00000E+00
    0.00000E+00         0.00000E+00         0.00000E+00
 
    0.35886E+06         0.32601E+05         0.00000E+00
    0.32601E+05        -0.39755E+06         0.00000E+00
    0.00000E+00         0.00000E+00         0.00000E+00
 
    0.35480E+06         0.37885E+05         0.00000E+00
    0.37885E+05        -0.39606E+06         0.00000E+00
    0.00000E+00         0.00000E+00         0.00000E+00
 
    0.35041E+06         0.43251E+05         0.00000E+00
    0.43251E+05        -0.39439E+06         0.00000E+00
    0.00000E+00         0.00000E+00         0.00000E+00
 
    0.34569E+06         0.48703E+05         0.00000E+00
    0.48703E+05        -0.39254E+06         0.00000E+00
    0.00000E+00         0.00000E+00         0.00000E+00
 
    0.34066E+06         0.54242E+05         0.00000E+00
    0.54242E+05        -0.39052E+06         0.00000E+00
    0.00000E+00         0.00000E+00         0.00000E+00
 
    0.33533E+06         0.59872E+05         0.00000E+00
    0.59872E+05        -0.38833E+06         0.00000E+00
    0.00000E+00         0.00000E+00         0.00000E+00
 
    0.32972E+06         0.65593E+05         0.00000E+00
    0.65593E+05        -0.38599E+06         0.00000E+00
    0.00000E+00         0.00000E+00         0.00000E+00
 
    0.32383E+06         0.71408E+05         0.00000E+00
    0.71408E+05        -0.38349E+06         0.00000E+00
    0.00000E+00         0.00000E+00         0.00000E+00
 
    0.31768E+06         0.77316E+05         0.00000E+00
    0.77316E+05        -0.38085E+06         0.00000E+00
    0.00000E+00         0.00000E+00         0.00000E+00
 
    0.31128E+06         0.83319E+05         0.00000E+00
    0.83319E+05        -0.37806E+06         0.00000E+00
    0.00000E+00         0.00000E+00         0.00000E+00
 
    0.30463E+06         0.89416E+05         0.00000E+00
    0.89416E+05        -0.37514E+06         0.00000E+00
    0.00000E+00         0.00000E+00         0.00000E+00
 
    0.29775E+06         0.95608E+05         0.00000E+00
    0.95608E+05        -0.37209E+06         0.00000E+00
    0.00000E+00         0.00000E+00         0.00000E+00
 
    0.29065E+06         0.10189E+06         0.00000E+00
    0.10189E+06        -0.36891E+06         0.00000E+00
    0.00000E+00         0.00000E+00         0.00000E+00
 
    0.28334E+06         0.10827E+06         0.00000E+00
    0.10827E+06        -0.36561E+06         0.00000E+00
    0.00000E+00         0.00000E+00         0.00000E+00
 
    0.27583E+06         0.11475E+06         0.00000E+00
    0.11475E+06        -0.36220E+06         0.00000E+00
    0.00000E+00         0.00000E+00         0.00000E+00
 
    0.26813E+06         0.12131E+06         0.00000E+00
    0.12131E+06        -0.35868E+06         0.00000E+00
    0.00000E+00         0.00000E+00         0.00000E+00
 
    0.26024E+06         0.12797E+06         0.00000E+00
    0.12797E+06        -0.35505E+06         0.00000E+00
    0.00000E+00         0.00000E+00         0.00000E+00
 
    0.25218E+06         0.13472E+06         0.00000E+00
    0.13472E+06        -0.35131E+06         0.00000E+00
    0.00000E+00         0.00000E+00         0.00000E+00
 
    0.24395E+06         0.14155E+06         0.00000E+00
    0.14155E+06        -0.34748E+06         0.00000E+00
    0.00000E+00         0.00000E+00         0.00000E+00
 
    0.23557E+06         0.14848E+06         0.00000E+00
    0.14848E+06        -0.34356E+06         0.00000E+00
    0.00000E+00         0.00000E+00         0.00000E+00
 
    0.22704E+06         0.15549E+06         0.00000E+00
    0.15549E+06        -0.33954E+06         0.00000E+00
    0.00000E+00         0.00000E+00         0.00000E+00
 
    0.21836E+06         0.16258E+06         0.00000E+00
    0.16258E+06        -0.33544E+06         0.00000E+00
    0.00000E+00         0.00000E+00         0.00000E+00
 
    0.20955E+06         0.16975E+06         0.00000E+00
    0.16975E+06        -0.33126E+06         0.00000E+00
    0.00000E+00         0.00000E+00         0.00000E+00
 
    0.20061E+06         0.17701E+06         0.00000E+00
    0.17701E+06        -0.32700E+06         0.00000E+00
    0.00000E+00         0.00000E+00         0.00000E+00
 
    0.19155E+06         0.18435E+06         0.00000E+00
    0.18435E+06        -0.32266E+06         0.00000E+00
    0.00000E+00         0.00000E+00         0.00000E+00
 
    0.18238E+06         0.19176E+06         0.00000E+00
    0.19176E+06        -0.31825E+06         0.00000E+00
    0.00000E+00         0.00000E+00         0.00000E+00
 
    0.17311E+06         0.19925E+06         0.00000E+00
    0.19925E+06        -0.31378E+06         0.00000E+00
    0.00000E+00         0.00000E+00         0.00000E+00
 
    0.16373E+06         0.20681E+06         0.00000E+00
    0.20681E+06        -0.30924E+06         0.00000E+00
    0.00000E+00         0.00000E+00         0.00000E+00
 
    0.15426E+06         0.21444E+06         0.00000E+00
    0.21444E+06        -0.30464E+06         0.00000E+00
    0.00000E+00         0.00000E+00         0.00000E+00
 
    0.14471E+06         0.22214E+06         0.00000E+00
    0.22214E+06        -0.29999E+06         0.00000E+00
    0.00000E+00         0.00000E+00         0.00000E+00
 
    0.13507E+06         0.22991E+06         0.00000E+00
    0.22991E+06        -0.29528E+06         0.00000E+00
    0.00000E+00         0.00000E+00         0.00000E+00
 
    0.12536E+06         0.23775E+06         0.00000E+00
    0.23775E+06        -0.29052E+06         0.00000E+00
    0.00000E+00         0.00000E+00         0.00000E+00
 
    0.11559E+06         0.24564E+06         0.00000E+00
    0.24564E+06        -0.28571E+06         0.00000E+00
    0.00000E+00         0.00000E+00         0.00000E+00
 
    0.10575E+06         0.25359E+06         0.00000E+00
    0.25359E+06        -0.28086E+06         0.00000E+00
    0.00000E+00         0.00000E+00         0.00000E+00
 
    0.95849E+05         0.26161E+06         0.00000E+00
    0.26161E+06        -0.27598E+06         0.00000E+00
    0.00000E+00         0.00000E+00         0.00000E+00
 
    0.85902E+05         0.26967E+06         0.00000E+00
    0.26967E+06        -0.27105E+06         0.00000E+00
    0.00000E+00         0.00000E+00         0.00000E+00
 
    0.75908E+05         0.27779E+06         0.00000E+00
    0.27779E+06        -0.26610E+06         0.00000E+00
    0.00000E+00         0.00000E+00         0.00000E+00
 
    0.65874E+05         0.28595E+06         0.00000E+00
    0.28595E+06        -0.26111E+06         0.00000E+00
    0.00000E+00         0.00000E+00         0.00000E+00
 
    0.55805E+05         0.29416E+06         0.00000E+00
    0.29416E+06        -0.25610E+06         0.00000E+00
    0.00000E+00         0.00000E+00         0.00000E+00
 
    0.45706E+05         0.30240E+06         0.00000E+00
    0.30240E+06        -0.25107E+06         0.00000E+00
    0.00000E+00         0.00000E+00         0.00000E+00
 
    0.35580E+05         0.31069E+06         0.00000E+00
    0.31069E+06        -0.24602E+06         0.00000E+00
    0.00000E+00         0.00000E+00         0.00000E+00
 
    0.25433E+05         0.31901E+06         0.00000E+00
    0.31901E+06        -0.24096E+06         0.00000E+00
    0.00000E+00         0.00000E+00         0.00000E+00
 
    0.15269E+05         0.32736E+06         0.00000E+00
    0.32736E+06        -0.23588E+06         0.00000E+00
    0.00000E+00         0.00000E+00         0.00000E+00
 
    0.50917E+04         0.33573E+06         0.00000E+00
    0.33573E+06        -0.23079E+06         0.00000E+00
    0.00000E+00         0.00000E+00         0.00000E+00
 
    0.36055E+06         0.29565E+04         0.00000E+00
    0.29565E+04        -0.44413E+06         0.00000E+00
    0.00000E+00         0.00000E+00         0.00000E+00
 
    0.35895E+06         0.89050E+04         0.00000E+00
    0.89050E+04        -0.44391E+06         0.00000E+00
    0.00000E+00         0.00000E+00         0.00000E+00
 
    0.35696E+06         0.14876E+05         0.00000E+00
    0.14876E+05        -0.44347E+06         0.00000E+00
    0.00000E+00         0.00000E+00         0.00000E+00
 
    0.35461E+06         0.20876E+05         0.00000E+00
    0.20876E+05        -0.44284E+06         0.00000E+00
    0.00000E+00         0.00000E+00         0.00000E+00
 
    0.35190E+06         0.26911E+05         0.00000E+00
    0.26911E+05        -0.44200E+06         0.00000E+00
    0.00000E+00         0.00000E+00         0.00000E+00
 
    0.34883E+06         0.32986E+05         0.00000E+00
    0.32986E+05        -0.44097E+06         0.00000E+00
    0.00000E+00         0.00000E+00         0.00000E+00
 
    0.34543E+06         0.39106E+05         0.00000E+00
    0.39106E+05        -0.43974E+06         0.00000E+00
    0.00000E+00         0.00000E+00         0.00000E+00
 
    0.34169E+06         0.45275E+05         0.00000E+00
    0.45275E+05        -0.43834E+06         0.00000E+00
    0.00000E+00         0.00000E+00         0.00000E+00
 
    0.33764E+06         0.51498E+05         0.00000E+00
    0.51498E+05        -0.43675E+06         0.00000E+00
    0.00000E+00         0.00000E+00         0.00000E+00
 
    0.33328E+06         0.57777E+05         0.00000E+00
    0.57777E+05        -0.43500E+06         0.00000E+00
    0.00000E+00         0.00000E+00         0.00000E+00
 
    0.32862E+06         0.64117E+05         0.00000E+00
    0.64117E+05        -0.43307E+06         0.00000E+00
    0.00000E+00         0.00000E+00         0.00000E+00
 
    0.32367E+06         0.70519E+05         0.00000E+00
    0.70519E+05        -0.43099E+06         0.00000E+00
    0.00000E+00         0.00000E+00         0.00000E+00
 
    0.31844E+06         0.76986E+05         0.00000E+00
    0.76986E+05        -0.42875E+06         0.00000E+00
    0.00000E+00         0.00000E+00         0.00000E+00
 
    0.31295E+06         0.83519E+05         0.00000E+00
    0.83519E+05        -0.42635E+06         0.00000E+00
    0.00000E+00         0.00000E+00         0.00000E+00
 
    0.30719E+06         0.90122E+05         0.00000E+00
    0.90122E+05        -0.42382E+06         0.00000E+00
    0.00000E+00         0.00000E+00         0.00000E+00
 
    0.30119E+06         0.96793E+05         0.00000E+00
    0.96793E+05        -0.42114E+06         0.00000E+00
    0.00000E+00         0.00000E+00         0.00000E+00
 
    0.29495E+06         0.10354E+06         0.00000E+00
    0.10354E+06        -0.41832E+06         0.00000E+00
    0.00000E+00         0.00000E+00         0.00000E+00
 
    0.28848E+06         0.11035E+06         0.00000E+00
    0.11035E+06        -0.41538E+06         0.00000E+00
    0.00000E+00         0.00000E+00         0.00000E+00
 
    0.28179E+06         0.11724E+06         0.00000E+00
    0.11724E+06        -0.41230E+06         0.00000E+00
    0.00000E+00         0.00000E+00         0.00000E+00
 
    0.27488E+06         0.12419E+06         0.00000E+00
    0.12419E+06        -0.40911E+06         0.00000E+00
    0.00000E+00         0.00000E+00         0.00000E+00
 
    0.26777E+06         0.13122E+06         0.00000E+00
    0.13122E+06        -0.40580E+06         0.00000E+00
    0.00000E+00         0.00000E+00         0.00000E+00
 
    0.26047E+06         0.13832E+06         0.00000E+00
    0.13832E+06        -0.40238E+06         0.00000E+00
    0.00000E+00         0.00000E+00         0.00000E+00
 
    0.25298E+06         0.14550E+06         0.00000E+00
    0.14550E+06        -0.39885E+06         0.00000E+00
    0.00000E+00         0.00000E+00         0.00000E+00
 
    0.24531E+06         0.15274E+06         0.00000E+00
    0.15274E+06        -0.39522E+06         0.00000E+00
    0.00000E+00         0.00000E+00         0.00000E+00
 
    0.23746E+06         0.16006E+06         0.00000E+00
    0.16006E+06        -0.39149E+06         0.00000E+00
    0.00000E+00         0.00000E+00         0.00000E+00
 
    0.22946E+06         0.16744E+06         0.00000E+00
    0.16744E+06        -0.38766E+06         0.00000E+00
    0.00000E+00         0.00000E+00         0.00000E+00
 
    0.22130E+06         0.17489E+06         0.00000E+00
    0.17489E+06        -0.38374E+06         0.00000E+00
    0.00000E+00         0.00000E+00         0.00000E+00
 
    0.21299E+06         0.18241E+06         0.00000E+00
    0.18241E+06        -0.37973E+06         0.00000E+00
    0.00000E+00         0.00000E+00         0.00000E+00
 
    0.20454E+06         0.18999E+06         0.00000E+00
    0.18999E+06        -0.37564E+06         0.00000E+00
    0.00000E+00         0.00000E+00         0.00000E+00
 
    0.19595E+06         0.19764E+06         0.00000E+00
    0.19764E+06        -0.37147E+06         0.00000E+00
    0.00000E+00         0.00000E+00         0.00000E+00
 
    0.18723E+06         0.20535E+06         0.00000E+00
    0.20535E+06        -0.36723E+06         0.00000E+00
    0.00000E+00         0.00000E+00         0.00000E+00
 
    0.17840E+06         0.21313E+06         0.00000E+00
    0.21313E+06        -0.36291E+06         0.00000E+00
    0.00000E+00         0.00000E+00         0.00000E+00
 
    0.16945E+06         0.22096E+06         0.00000E+00
    0.22096E+06        -0.35853E+06         0.00000E+00
    0.00000E+00         0.00000E+00         0.00000E+00
 
    0.16038E+06         0.22885E+06         0.00000E+00
    0.22885E+06        -0.35407E+06         0.00000E+00
    0.00000E+00         0.00000E+00         0.00000E+00
 
    0.15122E+06         0.23680E+06         0.00000E+00
    0.23680E+06        -0.34956E+06         0.00000E+00
    0.00000E+00         0.00000E+00         0.00000E+00
 
    0.14196E+06         0.24480E+06         0.00000E+00
    0.24480E+06        -0.34499E+06         0.00000E+00
    0.00000E+00         0.00000E+00         0.00000E+00
 
    0.13261E+06         0.25285E+06         0.00000E+00
    0.25285E+06        -0.34037E+06         0.00000E+00
    0.00000E+00         0.00000E+00         0.00000E+00
 
    0.12317E+06         0.26095E+06         0.00000E+00
    0.26095E+06        -0.33569E+06         0.00000E+00
    0.00000E+00         0.00000E+00         0.00000E+00
 
    0.11365E+06         0.26910E+06         0.00000E+00
    0.26910E+06        -0.33096E+06         0.00000E+00
    0.00000E+00         0.00000E+00         0.00000E+00
 
    0.10406E+06         0.27729E+06         0.00000E+00
    0.27729E+06        -0.32620E+06         0.00000E+00
    0.00000E+00         0.00000E+00         0.00000E+00
 
    0.94399E+05         0.28552E+06         0.00000E+00
    0.28552E+06        -0.32138E+06         0.00000E+00
    0.00000E+00         0.00000E+00         0.00000E+00
 
    0.84673E+05         0.29380E+06         0.00000E+00
    0.29380E+06        -0.31654E+06         0.00000E+00
    0.00000E+00         0.00000E+00         0.00000E+00
 
    0.74886E+05         0.30211E+06         0.00000E+00
    0.30211E+06        -0.31165E+06         0.00000E+00
    0.00000E+00         0.00000E+00         0.00000E+00
 
    0.65043E+05         0.31046E+06         0.00000E+00
    0.31046E+06        -0.30674E+06         0.00000E+00
    0.00000E+00         0.00000E+00         0.00000E+00
 
    0.55150E+05         0.31883E+06         0.00000E+00
    0.31883E+06        -0.30179E+06         0.00000E+00
    0.00000E+00         0.00000E+00         0.00000E+00
 
    0.45209E+05         0.32724E+06         0.00000E+00
    0.32724E+06        -0.29682E+06         0.00000E+00
    0.00000E+00         0.00000E+00         0.00000E+00
 
    0.35226E+05         0.33567E+06         0.00000E+00
    0.33567E+06        -0.29182E+06         0.00000E+00
    0.00000E+00         0.00000E+00         0.00000E+00
 
    0.25203E+05         0.34411E+06         0.00000E+00
    0.34411E+06        -0.28681E+06         0.00000E+00
    0.00000E+00         0.00000E+00         0.00000E+00
 
    0.15145E+05         0.35258E+06         0.00000E+00
    0.35258E+06        -0.28178E+06         0.00000E+00
    0.00000E+00         0.00000E+00         0.00000E+00
 
    0.50534E+04         0.36106E+06         0.00000E+00
    0.36106E+06        -0.27673E+06         0.00000E+00
    0.00000E+00         0.00000E+00         0.00000E+00
 
    0.35028E+06         0.34840E+04         0.00000E+00
    0.34840E+04        -0.48664E+06         0.00000E+00
    0.00000E+00         0.00000E+00         0.00000E+00
 
    0.34872E+06         0.10427E+05         0.00000E+00
    0.10427E+05        -0.48644E+06         0.00000E+00
    0.00000E+00         0.00000E+00         0.00000E+00
 
    0.34680E+06         0.17369E+05         0.00000E+00
    0.17369E+05        -0.48604E+06         0.00000E+00
    0.00000E+00         0.00000E+00         0.00000E+00
 
    0.34454E+06         0.24317E+05         0.00000E+00
    0.24317E+05        -0.48544E+06         0.00000E+00
    0.00000E+00         0.00000E+00         0.00000E+00
 
    0.34195E+06         0.31276E+05         0.00000E+00
    0.31276E+05        -0.48465E+06         0.00000E+00
    0.00000E+00         0.00000E+00         0.00000E+00
 
    0.33904E+06         0.38251E+05         0.00000E+00
    0.38251E+05        -0.48368E+06         0.00000E+00
    0.00000E+00         0.00000E+00         0.00000E+00
 
    0.33580E+06         0.45248E+05         0.00000E+00
    0.45248E+05        -0.48253E+06         0.00000E+00
    0.00000E+00         0.00000E+00         0.00000E+00
 
    0.33226E+06         0.52269E+05         0.00000E+00
    0.52269E+05        -0.48120E+06         0.00000E+00
    0.00000E+00         0.00000E+00         0.00000E+00
 
    0.32842E+06         0.59320E+05         0.00000E+00
    0.59320E+05        -0.47970E+06         0.00000E+00
    0.00000E+00         0.00000E+00         0.00000E+00
 
    0.32428E+06         0.66404E+05         0.00000E+00
    0.66404E+05        -0.47804E+06         0.00000E+00
    0.00000E+00         0.00000E+00         0.00000E+00
 
    0.31986E+06         0.73524E+05         0.00000E+00
    0.73524E+05        -0.47621E+06         0.00000E+00
    0.00000E+00         0.00000E+00         0.00000E+00
 
    0.31517E+06         0.80683E+05         0.00000E+00
    0.80683E+05        -0.47423E+06         0.00000E+00
    0.00000E+00         0.00000E+00         0.00000E+00
 
    0.31020E+06         0.87884E+05         0.00000E+00
    0.87884E+05        -0.47209E+06         0.00000E+00
    0.00000E+00         0.00000E+00         0.00000E+00
 
    0.30498E+06         0.95128E+05         0.00000E+00
    0.95128E+05        -0.46980E+06         0.00000E+00
    0.00000E+00         0.00000E+00         0.00000E+00
 
    0.29951E+06         0.10242E+06         0.00000E+00
    0.10242E+06        -0.46737E+06         0.00000E+00
    0.00000E+00         0.00000E+00         0.00000E+00
 
    0.29380E+06         0.10976E+06         0.00000E+00
    0.10976E+06        -0.46480E+06         0.00000E+00
    0.00000E+00         0.00000E+00         0.00000E+00
 
    0.28785E+06         0.11714E+06         0.00000E+00
    0.11714E+06        -0.46210E+06         0.00000E+00
    0.00000E+00         0.00000E+00         0.00000E+00
 
    0.28167E+06         0.12458E+06         0.00000E+00
    0.12458E+06        -0.45927E+06         0.00000E+00
    0.00000E+00         0.00000E+00         0.00000E+00
 
    0.27528E+06         0.13207E+06         0.00000E+00
    0.13207E+06        -0.45631E+06         0.00000E+00
    0.00000E+00         0.00000E+00         0.00000E+00
 
    0.26868E+06         0.13961E+06         0.00000E+00
    0.13961E+06        -0.45323E+06         0.00000E+00
    0.00000E+00         0.00000E+00         0.00000E+00
 
    0.26187E+06         0.14720E+06         0.00000E+00
    0.14720E+06        -0.45003E+06         0.00000E+00
    0.00000E+00         0.00000E+00         0.00000E+00
 
    0.25487E+06         0.15484E+06         0.00000E+00
    0.15484E+06        -0.44672E+06         0.00000E+00
    0.00000E+00         0.00000E+00         0.00000E+00
 
    0.24768E+06         0.16254E+06         0.00000E+00
    0.16254E+06        -0.44330E+06         0.00000E+00
    0.00000E+00         0.00000E+00         0.00000E+00
 
    0.24030E+06         0.17029E+06         0.00000E+00
    0.17029E+06        -0.43977E+06         0.00000E+00
    0.00000E+00         0.00000E+00         0.00000E+00
 
    0.23276E+06         0.17809E+06         0.00000E+00
    0.17809E+06        -0.43615E+06         0.00000E+00
    0.00000E+00         0.00000E+00         0.00000E+00
 
    0.22504E+06         0.18594E+06         0.00000E+00
    0.18594E+06        -0.43242E+06         0.00000E+00
    0.00000E+00         0.00000E+00         0.00000E+00
 
    0.21717E+06         0.19384E+06         0.00000E+00
    0.19384E+06        -0.42861E+06         0.00000E+00
    0.00000E+00         0.00000E+00         0.00000E+00
 
    0.20914E+06         0.20179E+06         0.00000E+00
    0.20179E+06        -0.42470E+06         0.00000E+00
    0.00000E+00         0.00000E+00         0.00000E+00
 
    0.20096E+06         0.20979E+06         0.00000E+00
    0.20979E+06        -0.42071E+06         0.00000E+00
    0.00000E+00         0.00000E+00         0.00000E+00
 
    0.19265E+06         0.21784E+06         0.00000E+00
    0.21784E+06        -0.41664E+06         0.00000E+00
    0.00000E+00         0.00000E+00         0.00000E+00
 
    0.18419E+06         0.22594E+06         0.00000E+00
    0.22594E+06        -0.41249E+06         0.00000E+00
    0.00000E+00         0.00000E+00         0.00000E+00
 
    0.17561E+06         0.23408E+06         0.00000E+00
    0.23408E+06        -0.40826E+06         0.00000E+00
    0.00000E+00         0.00000E+00         0.00000E+00
 
    0.16691E+06         0.24226E+06         0.00000E+00
    0.24226E+06        -0.40396E+06         0.00000E+00
    0.00000E+00         0.00000E+00         0.00000E+00
 
    0.15809E+06         0.25049E+06         0.00000E+00
    0.25049E+06        -0.39960E+06         0.00000E+00
    0.00000E+00         0.00000E+00         0.00000E+00
 
    0.14915E+06         0.25876E+06         0.00000E+00
    0.25876E+06        -0.39517E+06         0.00000E+00
    0.00000E+00         0.00000E+00         0.00000E+00
 
    0.14011E+06         0.26707E+06         0.00000E+00
    0.26707E+06        -0.39068E+06         0.00000E+00
    0.00000E+00         0.00000E+00         0.00000E+00
 
    0.13097E+06         0.27541E+06         0.00000E+00
    0.27541E+06        -0.38613E+06         0.00000E+00
    0.00000E+00         0.00000E+00         0.00000E+00
 
    0.12174E+06         0.28379E+06         0.00000E+00
    0.28379E+06        -0.38153E+06         0.00000E+00
    0.00000E+00         0.00000E+00         0.00000E+00
 
    0.11241E+06         0.29221E+06         0.00000E+00
    0.29221E+06        -0.37688E+06         0.00000E+00
    0.00000E+00         0.00000E+00         0.00000E+00
 
    0.10300E+06         0.30065E+06         0.00000E+00
    0.30065E+06        -0.37217E+06         0.00000E+00
    0.00000E+00         0.00000E+00         0.00000E+00
 
    0.93500E+05         0.30912E+06         0.00000E+00
    0.30912E+06        -0.36743E+06         0.00000E+00
    0.00000E+00         0.00000E+00         0.00000E+00
 
    0.83927E+05         0.31763E+06         0.00000E+00
    0.31763E+06        -0.36264E+06         0.00000E+00
    0.00000E+00         0.00000E+00         0.00000E+00
 
    0.74282E+05         0.32615E+06         0.00000E+00
    0.32615E+06        -0.35781E+06         0.00000E+00
    0.00000E+00         0.00000E+00         0.00000E+00
 
    0.64567E+05         0.33470E+06         0.00000E+00
    0.33470E+06        -0.35294E+06         0.00000E+00
    0.00000E+00         0.00000E+00         0.00000E+00
 
    0.54788E+05         0.34326E+06         0.00000E+00
    0.34326E+06        -0.34804E+06         0.00000E+00
    0.00000E+00         0.00000E+00         0.00000E+00
 
    0.44947E+05         0.35184E+06         0.00000E+00
    0.35184E+06        -0.34311E+06         0.00000E+00
    0.00000E+00         0.00000E+00         0.00000E+00
 
    0.35048E+05         0.36044E+06         0.00000E+00
    0.36044E+06        -0.33815E+06         0.00000E+00
    0.00000E+00         0.00000E+00         0.00000E+00
 
    0.25096E+05         0.36904E+06         0.00000E+00
    0.36904E+06        -0.33317E+06         0.00000E+00
    0.00000E+00         0.00000E+00         0.00000E+00
 
    0.15091E+05         0.37766E+06         0.00000E+00
    0.37766E+06        -0.32816E+06         0.00000E+00
    0.00000E+00         0.00000E+00         0.00000E+00
 
    0.50383E+04         0.38627E+06         0.00000E+00
    0.38627E+06        -0.32313E+06         0.00000E+00
    0.00000E+00         0.00000E+00         0.00000E+00
 
    0.34412E+06         0.39724E+04         0.00000E+00
    0.39724E+04        -0.52992E+06         0.00000E+00
    0.00000E+00         0.00000E+00         0.00000E+00
 
    0.34249E+06         0.11846E+05         0.00000E+00
    0.11846E+05        -0.52973E+06         0.00000E+00
    0.00000E+00         0.00000E+00         0.00000E+00
 
    0.34054E+06         0.19702E+05         0.00000E+00
    0.19702E+05        -0.52935E+06         0.00000E+00
    0.00000E+00         0.00000E+00         0.00000E+00
 
    0.33827E+06         0.27544E+05         0.00000E+00
    0.27544E+05        -0.52879E+06         0.00000E+00
    0.00000E+00         0.00000E+00         0.00000E+00
 
    0.33570E+06         0.35380E+05         0.00000E+00
    0.35380E+05        -0.52805E+06         0.00000E+00
    0.00000E+00         0.00000E+00         0.00000E+00
 
    0.33283E+06         0.43212E+05         0.00000E+00
    0.43212E+05        -0.52714E+06         0.00000E+00
    0.00000E+00         0.00000E+00         0.00000E+00
 
    0.32966E+06         0.51047E+05         0.00000E+00
    0.51047E+05        -0.52605E+06         0.00000E+00
    0.00000E+00         0.00000E+00         0.00000E+00
 
    0.32619E+06         0.58887E+05         0.00000E+00
    0.58887E+05        -0.52479E+06         0.00000E+00
    0.00000E+00         0.00000E+00         0.00000E+00
 
    0.32245E+06         0.66736E+05         0.00000E+00
    0.66736E+05        -0.52337E+06         0.00000E+00
    0.00000E+00         0.00000E+00         0.00000E+00
 
    0.31843E+06         0.74598E+05         0.00000E+00
    0.74598E+05        -0.52179E+06         0.00000E+00
    0.00000E+00         0.00000E+00         0.00000E+00
 
    0.31415E+06         0.82477E+05         0.00000E+00
    0.82477E+05        -0.52005E+06         0.00000E+00
    0.00000E+00         0.00000E+00         0.00000E+00
 
    0.30960E+06         0.90375E+05         0.00000E+00
    0.90375E+05        -0.51816E+06         0.00000E+00
    0.00000E+00         0.00000E+00         0.00000E+00
 
    0.30479E+06         0.98294E+05         0.00000E+00
    0.98294E+05        -0.51612E+06         0.00000E+00
    0.00000E+00         0.00000E+00         0.00000E+00
 
    0.29974E+06         0.10624E+06         0.00000E+00
    0.10624E+06        -0.51394E+06         0.00000E+00
    0.00000E+00         0.00000E+00         0.00000E+00
 
    0.29445E+06         0.11421E+06         0.00000E+00
    0.11421E+06        -0.51161E+06         0.00000E+00
    0.00000E+00         0.00000E+00         0.00000E+00
 
    0.28892E+06         0.12220E+06         0.00000E+00
    0.12220E+06        -0.50915E+06         0.00000E+00
    0.00000E+00         0.00000E+00         0.00000E+00
 
    0.28316E+06         0.13023E+06         0.00000E+00
    0.13023E+06        -0.50655E+06         0.00000E+00
    0.00000E+00         0.00000E+00         0.00000E+00
 
    0.27719E+06         0.13829E+06         0.00000E+00
    0.13829E+06        -0.50383E+06         0.00000E+00
    0.00000E+00         0.00000E+00         0.00000E+00
 
    0.27100E+06         0.14638E+06         0.00000E+00
    0.14638E+06        -0.50097E+06         0.00000E+00
    0.00000E+00         0.00000E+00         0.00000E+00
 
    0.26460E+06         0.15450E+06         0.00000E+00
    0.15450E+06        -0.49800E+06         0.00000E+00
    0.00000E+00         0.00000E+00         0.00000E+00
 
    0.25800E+06         0.16266E+06         0.00000E+00
    0.16266E+06        -0.49491E+06         0.00000E+00
    0.00000E+00         0.00000E+00         0.00000E+00
 
    0.25120E+06         0.17085E+06         0.00000E+00
    0.17085E+06        -0.49171E+06         0.00000E+00
    0.00000E+00         0.00000E+00         0.00000E+00
 
    0.24422E+06         0.17907E+06         0.00000E+00
    0.17907E+06        -0.48839E+06         0.00000E+00
    0.00000E+00         0.00000E+00         0.00000E+00
 
    0.23706E+06         0.18733E+06         0.00000E+00
    0.18733E+06        -0.48497E+06         0.00000E+00
    0.00000E+00         0.00000E+00         0.00000E+00
 
    0.22972E+06         0.19563E+06         0.00000E+00
    0.19563E+06        -0.48145E+06         0.00000E+00
    0.00000E+00         0.00000E+00         0.00000E+00
 
    0.22221E+06         0.20396E+06         0.00000E+00
    0.20396E+06        -0.47783E+06         0.00000E+00
    0.00000E+00         0.00000E+00         0.00000E+00
 
    0.21454E+06         0.21232E+06         0.00000E+00
    0.21232E+06        -0.47411E+06         0.00000E+00
    0.00000E+00         0.00000E+00         0.00000E+00
 
    0.20671E+06         0.22072E+06         0.00000E+00
    0.22072E+06        -0.47030E+06         0.00000E+00
    0.00000E+00         0.00000E+00         0.00000E+00
 
    0.19873E+06         0.22914E+06         0.00000E+00
    0.22914E+06        -0.46640E+06         0.00000E+00
    0.00000E+00         0.00000E+00         0.00000E+00
 
    0.19061E+06         0.23761E+06         0.00000E+00
    0.23761E+06        -0.46242E+06         0.00000E+00
    0.00000E+00         0.00000E+00         0.00000E+00
 
    0.18234E+06         0.24610E+06         0.00000E+00
    0.24610E+06        -0.45836E+06         0.00000E+00
    0.00000E+00         0.00000E+00         0.00000E+00
 
    0.17394E+06         0.25462E+06         0.00000E+00
    0.25462E+06        -0.45422E+06         0.00000E+00
    0.00000E+00         0.00000E+00         0.00000E+00
 
    0.16541E+06         0.26318E+06         0.00000E+00
    0.26318E+06        -0.45000E+06         0.00000E+00
    0.00000E+00         0.00000E+00         0.00000E+00
 
    0.15675E+06         0.27176E+06         0.00000E+00
    0.27176E+06        -0.44572E+06         0.00000E+00
    0.00000E+00         0.00000E+00         0.00000E+00
 
    0.14798E+06         0.28036E+06         0.00000E+00
    0.28036E+06        -0.44136E+06         0.00000E+00
    0.00000E+00         0.00000E+00         0.00000E+00
 
    0.13909E+06         0.28899E+06         0.00000E+00
    0.28899E+06        -0.43694E+06         0.00000E+00
    0.00000E+00         0.00000E+00         0.00000E+00
 
    0.13009E+06         0.29765E+06         0.00000E+00
    0.29765E+06        -0.43246E+06         0.00000E+00
    0.00000E+00         0.00000E+00         0.00000E+00
 
    0.12099E+06         0.30633E+06         0.00000E+00
    0.30633E+06        -0.42792E+06         0.00000E+00
    0.00000E+00         0.00000E+00         0.00000E+00
 
    0.11179E+06         0.31503E+06         0.00000E+00
    0.31503E+06        -0.42332E+06         0.00000E+00
    0.00000E+00         0.00000E+00         0.00000E+00
 
    0.10249E+06         0.32374E+06         0.00000E+00
    0.32374E+06        -0.41867E+06         0.00000E+00
    0.00000E+00         0.00000E+00         0.00000E+00
 
    0.93094E+05         0.33248E+06         0.00000E+00
    0.33248E+06        -0.41398E+06         0.00000E+00
    0.00000E+00         0.00000E+00         0.00000E+00
 
    0.83614E+05         0.34122E+06         0.00000E+00
    0.34122E+06        -0.40923E+06         0.00000E+00
    0.00000E+00         0.00000E+00         0.00000E+00
 
    0.74050E+05         0.34998E+06         0.00000E+00
    0.34998E+06        -0.40444E+06         0.00000E+00
    0.00000E+00         0.00000E+00         0.00000E+00
 
    0.64406E+05         0.35875E+06         0.00000E+00
    0.35875E+06        -0.39961E+06         0.00000E+00
    0.00000E+00         0.00000E+00         0.00000E+00
 
    0.54685E+05         0.36753E+06         0.00000E+00
    0.36753E+06        -0.39473E+06         0.00000E+00
    0.00000E+00         0.00000E+00         0.00000E+00
 
    0.44891E+05         0.37632E+06         0.00000E+00
    0.37632E+06        -0.38982E+06         0.00000E+00
    0.00000E+00         0.00000E+00         0.00000E+00
 
    0.35027E+05         0.38510E+06         0.00000E+00
    0.38510E+06        -0.38488E+06         0.00000E+00
    0.00000E+00         0.00000E+00         0.00000E+00
 
    0.25096E+05         0.39389E+06         0.00000E+00
    0.39389E+06        -0.37991E+06         0.00000E+00
    0.00000E+00         0.00000E+00         0.00000E+00
 
    0.15101E+05         0.40268E+06         0.00000E+00
    0.40268E+06        -0.37490E+06         0.00000E+00
    0.00000E+00         0.00000E+00         0.00000E+00
 
    0.50436E+04         0.41146E+06         0.00000E+00
    0.41146E+06        -0.36987E+06         0.00000E+00
    0.00000E+00         0.00000E+00         0.00000E+00
 
    0.34159E+06         0.44268E+04         0.00000E+00
    0.44268E+04        -0.57410E+06         0.00000E+00
    0.00000E+00         0.00000E+00         0.00000E+00
 
    0.33983E+06         0.13175E+05         0.00000E+00
    0.13175E+05        -0.57392E+06         0.00000E+00
    0.00000E+00         0.00000E+00         0.00000E+00
 
    0.33776E+06         0.21892E+05         0.00000E+00
    0.21892E+05        -0.57356E+06         0.00000E+00
    0.00000E+00         0.00000E+00         0.00000E+00
 
    0.33541E+06         0.30582E+05         0.00000E+00
    0.30582E+05        -0.57304E+06         0.00000E+00
    0.00000E+00         0.00000E+00         0.00000E+00
 
    0.33277E+06         0.39250E+05         0.00000E+00
    0.39250E+05        -0.57234E+06         0.00000E+00
    0.00000E+00         0.00000E+00         0.00000E+00
 
    0.32985E+06         0.47900E+05         0.00000E+00
    0.47900E+05        -0.57147E+06         0.00000E+00
    0.00000E+00         0.00000E+00         0.00000E+00
 
    0.32666E+06         0.56536E+05         0.00000E+00
    0.56536E+05        -0.57044E+06         0.00000E+00
    0.00000E+00         0.00000E+00         0.00000E+00
 
    0.32319E+06         0.65163E+05         0.00000E+00
    0.65163E+05        -0.56925E+06         0.00000E+00
    0.00000E+00         0.00000E+00         0.00000E+00
 
    0.31946E+06         0.73782E+05         0.00000E+00
    0.73782E+05        -0.56790E+06         0.00000E+00
    0.00000E+00         0.00000E+00         0.00000E+00
 
    0.31547E+06         0.82398E+05         0.00000E+00
    0.82398E+05        -0.56639E+06         0.00000E+00
    0.00000E+00         0.00000E+00         0.00000E+00
 
    0.31123E+06         0.91014E+05         0.00000E+00
    0.91014E+05        -0.56473E+06         0.00000E+00
    0.00000E+00         0.00000E+00         0.00000E+00
 
    0.30673E+06         0.99631E+05         0.00000E+00
    0.99631E+05        -0.56293E+06         0.00000E+00
    0.00000E+00         0.00000E+00         0.00000E+00
 
    0.30199E+06         0.10825E+06         0.00000E+00
    0.10825E+06        -0.56097E+06         0.00000E+00
    0.00000E+00         0.00000E+00         0.00000E+00
 
    0.29702E+06         0.11688E+06         0.00000E+00
    0.11688E+06        -0.55888E+06         0.00000E+00
    0.00000E+00         0.00000E+00         0.00000E+00
 
    0.29181E+06         0.12552E+06         0.00000E+00
    0.12552E+06        -0.55664E+06         0.00000E+00
    0.00000E+00         0.00000E+00         0.00000E+00
 
    0.28638E+06         0.13417E+06         0.00000E+00
    0.13417E+06        -0.55428E+06         0.00000E+00
    0.00000E+00         0.00000E+00         0.00000E+00
 
    0.28073E+06         0.14283E+06         0.00000E+00
    0.14283E+06        -0.55177E+06         0.00000E+00
    0.00000E+00         0.00000E+00         0.00000E+00
 
    0.27486E+06         0.15151E+06         0.00000E+00
    0.15151E+06        -0.54915E+06         0.00000E+00
    0.00000E+00         0.00000E+00         0.00000E+00
 
    0.26879E+06         0.16020E+06         0.00000E+00
    0.16020E+06        -0.54639E+06         0.00000E+00
    0.00000E+00         0.00000E+00         0.00000E+00
 
    0.26251E+06         0.16891E+06         0.00000E+00
    0.16891E+06        -0.54352E+06         0.00000E+00
    0.00000E+00         0.00000E+00         0.00000E+00
 
    0.25603E+06         0.17763E+06         0.00000E+00
    0.17763E+06        -0.54052E+06         0.00000E+00
    0.00000E+00         0.00000E+00         0.00000E+00
 
    0.24936E+06         0.18638E+06         0.00000E+00
    0.18638E+06        -0.53741E+06         0.00000E+00
    0.00000E+00         0.00000E+00         0.00000E+00
 
    0.24251E+06         0.19514E+06         0.00000E+00
    0.19514E+06        -0.53419E+06         0.00000E+00
    0.00000E+00         0.00000E+00         0.00000E+00
 
    0.23547E+06         0.20392E+06         0.00000E+00
    0.20392E+06        -0.53087E+06         0.00000E+00
    0.00000E+00         0.00000E+00         0.00000E+00
 
    0.22826E+06         0.21271E+06         0.00000E+00
    0.21271E+06        -0.52744E+06         0.00000E+00
    0.00000E+00         0.00000E+00         0.00000E+00
 
    0.22088E+06         0.22153E+06         0.00000E+00
    0.22153E+06        -0.52390E+06         0.00000E+00
    0.00000E+00         0.00000E+00         0.00000E+00
 
    0.21333E+06         0.23037E+06         0.00000E+00
    0.23037E+06        -0.52027E+06         0.00000E+00
    0.00000E+00         0.00000E+00         0.00000E+00
 
    0.20563E+06         0.23922E+06         0.00000E+00
    0.23922E+06        -0.51655E+06         0.00000E+00
    0.00000E+00         0.00000E+00         0.00000E+00
 
    0.19777E+06         0.24809E+06         0.00000E+00
    0.24809E+06        -0.51274E+06         0.00000E+00
    0.00000E+00         0.00000E+00         0.00000E+00
 
    0.18976E+06         0.25698E+06         0.00000E+00
    0.25698E+06        -0.50883E+06         0.00000E+00
    0.00000E+00         0.00000E+00         0.00000E+00
 
    0.18160E+06         0.26589E+06         0.00000E+00
    0.26589E+06        -0.50485E+06         0.00000E+00
    0.00000E+00         0.00000E+00         0.00000E+00
 
    0.17331E+06         0.27481E+06         0.00000E+00
    0.27481E+06        -0.50078E+06         0.00000E+00
    0.00000E+00         0.00000E+00         0.00000E+00
 
    0.16488E+06         0.28375E+06         0.00000E+00
    0.28375E+06        -0.49663E+06         0.00000E+00
    0.00000E+00         0.00000E+00         0.00000E+00
 
    0.15632E+06         0.29270E+06         0.00000E+00
    0.29270E+06        -0.49241E+06         0.00000E+00
    0.00000E+00         0.00000E+00         0.00000E+00
 
    0.14764E+06         0.30166E+06         0.00000E+00
    0.30166E+06        -0.48811E+06         0.00000E+00
    0.00000E+00         0.00000E+00         0.00000E+00
 
    0.13884E+06         0.31064E+06         0.00000E+00
    0.31064E+06        -0.48375E+06         0.00000E+00
    0.00000E+00         0.00000E+00         0.00000E+00
 
    0.12992E+06         0.31963E+06         0.00000E+00
    0.31963E+06        -0.47932E+06         0.00000E+00
    0.00000E+00         0.00000E+00         0.00000E+00
 
    0.12088E+06         0.32862E+06         0.00000E+00
    0.32862E+06        -0.47483E+06         0.00000E+00
    0.00000E+00         0.00000E+00         0.00000E+00
 
    0.11174E+06         0.33763E+06         0.00000E+00
    0.33763E+06        -0.47027E+06         0.00000E+00
    0.00000E+00         0.00000E+00         0.00000E+00
 
    0.10249E+06         0.34664E+06         0.00000E+00
    0.34664E+06        -0.46566E+06         0.00000E+00
    0.00000E+00         0.00000E+00         0.00000E+00
 
    0.93147E+05         0.35566E+06         0.00000E+00
    0.35566E+06        -0.46099E+06         0.00000E+00
    0.00000E+00         0.00000E+00         0.00000E+00
 
    0.83703E+05         0.36468E+06         0.00000E+00
    0.36468E+06        -0.45627E+06         0.00000E+00
    0.00000E+00         0.00000E+00         0.00000E+00
 
    0.74166E+05         0.37370E+06         0.00000E+00
    0.37370E+06        -0.45150E+06         0.00000E+00
    0.00000E+00         0.00000E+00         0.00000E+00
 
    0.64540E+05         0.38272E+06         0.00000E+00
    0.38272E+06        -0.44668E+06         0.00000E+00
    0.00000E+00         0.00000E+00         0.00000E+00
 
    0.54826E+05         0.39174E+06         0.00000E+00
    0.39174E+06        -0.44182E+06         0.00000E+00
    0.00000E+00         0.00000E+00         0.00000E+00
 
    0.45030E+05         0.40075E+06         0.00000E+00
    0.40075E+06        -0.43691E+06         0.00000E+00
    0.00000E+00         0.00000E+00         0.00000E+00
 
    0.35153E+05         0.40976E+06         0.00000E+00
    0.40976E+06        -0.43197E+06         0.00000E+00
    0.00000E+00         0.00000E+00         0.00000E+00
 
    0.25199E+05         0.41876E+06         0.00000E+00
    0.41876E+06        -0.42698E+06         0.00000E+00
    0.00000E+00         0.00000E+00         0.00000E+00
 
    0.15170E+05         0.42775E+06         0.00000E+00
    0.42775E+06        -0.42196E+06         0.00000E+00
    0.00000E+00         0.00000E+00         0.00000E+00
 
    0.50684E+04         0.43673E+06         0.00000E+00
    0.43673E+06        -0.41691E+06         0.00000E+00
    0.00000E+00         0.00000E+00         0.00000E+00
 
    0.34230E+06         0.48524E+04         0.00000E+00
    0.48524E+04        -0.61933E+06         0.00000E+00
    0.00000E+00         0.00000E+00         0.00000E+00
 
    0.34033E+06         0.14427E+05         0.00000E+00
    0.14427E+05        -0.61916E+06         0.00000E+00
    0.00000E+00         0.00000E+00         0.00000E+00
 
    0.33810E+06         0.23961E+05         0.00000E+00
    0.23961E+05        -0.61882E+06         0.00000E+00
    0.00000E+00         0.00000E+00         0.00000E+00
 
    0.33560E+06         0.33457E+05         0.00000E+00
    0.33457E+05        -0.61832E+06         0.00000E+00
    0.00000E+00         0.00000E+00         0.00000E+00
 
    0.33283E+06         0.42919E+05         0.00000E+00
    0.42919E+05        -0.61766E+06         0.00000E+00
    0.00000E+00         0.00000E+00         0.00000E+00
 
    0.32980E+06         0.52352E+05         0.00000E+00
    0.52352E+05        -0.61683E+06         0.00000E+00
    0.00000E+00         0.00000E+00         0.00000E+00
 
    0.32651E+06         0.61759E+05         0.00000E+00
    0.61759E+05        -0.61585E+06         0.00000E+00
    0.00000E+00         0.00000E+00         0.00000E+00
 
    0.32296E+06         0.71143E+05         0.00000E+00
    0.71143E+05        -0.61471E+06         0.00000E+00
    0.00000E+00         0.00000E+00         0.00000E+00
 
    0.31917E+06         0.80507E+05         0.00000E+00
    0.80507E+05        -0.61342E+06         0.00000E+00
    0.00000E+00         0.00000E+00         0.00000E+00
 
    0.31513E+06         0.89854E+05         0.00000E+00
    0.89854E+05        -0.61197E+06         0.00000E+00
    0.00000E+00         0.00000E+00         0.00000E+00
 
    0.31086E+06         0.99187E+05         0.00000E+00
    0.99187E+05        -0.61038E+06         0.00000E+00
    0.00000E+00         0.00000E+00         0.00000E+00
 
    0.30634E+06         0.10851E+06         0.00000E+00
    0.10851E+06        -0.60865E+06         0.00000E+00
    0.00000E+00         0.00000E+00         0.00000E+00
 
    0.30159E+06         0.11782E+06         0.00000E+00
    0.11782E+06        -0.60677E+06         0.00000E+00
    0.00000E+00         0.00000E+00         0.00000E+00
 
    0.29662E+06         0.12712E+06         0.00000E+00
    0.12712E+06        -0.60475E+06         0.00000E+00
    0.00000E+00         0.00000E+00         0.00000E+00
 
    0.29142E+06         0.13642E+06         0.00000E+00
    0.13642E+06        -0.60259E+06         0.00000E+00
    0.00000E+00         0.00000E+00         0.00000E+00
 
    0.28601E+06         0.14572E+06         0.00000E+00
    0.14572E+06        -0.60030E+06         0.00000E+00
    0.00000E+00         0.00000E+00         0.00000E+00
 
    0.28038E+06         0.15501E+06         0.00000E+00
    0.15501E+06        -0.59788E+06         0.00000E+00
    0.00000E+00         0.00000E+00         0.00000E+00
 
    0.27455E+06         0.16430E+06         0.00000E+00
    0.16430E+06        -0.59534E+06         0.00000E+00
    0.00000E+00         0.00000E+00         0.00000E+00
 
    0.26851E+06         0.17360E+06         0.00000E+00
    0.17360E+06        -0.59267E+06         0.00000E+00
    0.00000E+00         0.00000E+00         0.00000E+00
 
    0.26227E+06         0.18289E+06         0.00000E+00
    0.18289E+06        -0.58987E+06         0.00000E+00
    0.00000E+00         0.00000E+00         0.00000E+00
 
    0.25584E+06         0.19219E+06         0.00000E+00
    0.19219E+06        -0.58696E+06         0.00000E+00
    0.00000E+00         0.00000E+00         0.00000E+00
 
    0.24922E+06         0.20149E+06         0.00000E+00
    0.20149E+06        -0.58393E+06         0.00000E+00
    0.00000E+00         0.00000E+00         0.00000E+00
 
    0.24241E+06         0.21079E+06         0.00000E+00
    0.21079E+06        -0.58079E+06         0.00000E+00
    0.00000E+00         0.00000E+00         0.00000E+00
 
    0.23543E+06         0.22010E+06         0.00000E+00
    0.22010E+06        -0.57755E+06         0.00000E+00
    0.00000E+00         0.00000E+00         0.00000E+00
 
    0.22827E+06         0.22941E+06         0.00000E+00
    0.22941E+06        -0.57419E+06         0.00000E+00
    0.00000E+00         0.00000E+00         0.00000E+00
 
    0.22095E+06         0.23872E+06         0.00000E+00
    0.23872E+06        -0.57073E+06         0.00000E+00
    0.00000E+00         0.00000E+00         0.00000E+00
 
    0.21345E+06         0.24804E+06         0.00000E+00
    0.24804E+06        -0.56717E+06         0.00000E+00
    0.00000E+00         0.00000E+00         0.00000E+00
 
    0.20580E+06         0.25737E+06         0.00000E+00
    0.25737E+06        -0.56352E+06         0.00000E+00
    0.00000E+00         0.00000E+00         0.00000E+00
 
    0.19799E+06         0.26670E+06         0.00000E+00
    0.26670E+06        -0.55977E+06         0.00000E+00
    0.00000E+00         0.00000E+00         0.00000E+00
 
    0.19003E+06         0.27603E+06         0.00000E+00
    0.27603E+06        -0.55593E+06         0.00000E+00
    0.00000E+00         0.00000E+00         0.00000E+00
 
    0.18192E+06         0.28537E+06         0.00000E+00
    0.28537E+06        -0.55200E+06         0.00000E+00
    0.00000E+00         0.00000E+00         0.00000E+00
 
    0.17367E+06         0.29471E+06         0.00000E+00
    0.29471E+06        -0.54799E+06         0.00000E+00
    0.00000E+00         0.00000E+00         0.00000E+00
 
    0.16527E+06         0.30405E+06         0.00000E+00
    0.30405E+06        -0.54389E+06         0.00000E+00
    0.00000E+00         0.00000E+00         0.00000E+00
 
    0.15675E+06         0.31339E+06         0.00000E+00
    0.31339E+06        -0.53972E+06         0.00000E+00
    0.00000E+00         0.00000E+00         0.00000E+00
 
    0.14809E+06         0.32274E+06         0.00000E+00
    0.32274E+06        -0.53547E+06         0.00000E+00
    0.00000E+00         0.00000E+00         0.00000E+00
 
    0.13931E+06         0.33208E+06         0.00000E+00
    0.33208E+06        -0.53114E+06         0.00000E+00
    0.00000E+00         0.00000E+00         0.00000E+00
 
    0.13041E+06         0.34142E+06         0.00000E+00
    0.34142E+06        -0.52675E+06         0.00000E+00
    0.00000E+00         0.00000E+00         0.00000E+00
 
    0.12138E+06         0.35076E+06         0.00000E+00
    0.35076E+06        -0.52228E+06         0.00000E+00
    0.00000E+00         0.00000E+00         0.00000E+00
 
    0.11225E+06         0.36010E+06         0.00000E+00
    0.36010E+06        -0.51775E+06         0.00000E+00
    0.00000E+00         0.00000E+00         0.00000E+00
 
    0.10300E+06         0.36943E+06         0.00000E+00
    0.36943E+06        -0.51316E+06         0.00000E+00
    0.00000E+00         0.00000E+00         0.00000E+00
 
    0.93640E+05         0.37875E+06         0.00000E+00
    0.37875E+06        -0.50850E+06         0.00000E+00
    0.00000E+00         0.00000E+00         0.00000E+00
 
    0.84179E+05         0.38807E+06         0.00000E+00
    0.38807E+06        -0.50379E+06         0.00000E+00
    0.00000E+00         0.00000E+00         0.00000E+00
 
    0.74617E+05         0.39738E+06         0.00000E+00
    0.39738E+06        -0.49902E+06         0.00000E+00
    0.00000E+00         0.00000E+00         0.00000E+00
 
    0.64957E+05         0.40668E+06         0.00000E+00
    0.40668E+06        -0.49420E+06         0.00000E+00
    0.00000E+00         0.00000E+00         0.00000E+00
 
    0.55203E+05         0.41596E+06         0.00000E+00
    0.41596E+06        -0.48933E+06         0.00000E+00
    0.00000E+00         0.00000E+00         0.00000E+00
 
    0.45357E+05         0.42524E+06         0.00000E+00
    0.42524E+06        -0.48441E+06         0.00000E+00
    0.00000E+00         0.00000E+00         0.00000E+00
 
    0.35422E+05         0.43449E+06         0.00000E+00
    0.43449E+06        -0.47944E+06         0.00000E+00
    0.00000E+00         0.00000E+00         0.00000E+00
 
    0.25401E+05         0.44374E+06         0.00000E+00
    0.44374E+06        -0.47442E+06         0.00000E+00
    0.00000E+00         0.00000E+00         0.00000E+00
 
    0.15297E+05         0.45296E+06         0.00000E+00
    0.45296E+06        -0.46937E+06         0.00000E+00
    0.00000E+00         0.00000E+00         0.00000E+00
 
    0.51123E+04         0.46216E+06         0.00000E+00
    0.46216E+06        -0.46428E+06         0.00000E+00
    0.00000E+00         0.00000E+00         0.00000E+00
 
    0.34586E+06         0.52548E+04         0.00000E+00
    0.52548E+04        -0.66575E+06         0.00000E+00
    0.00000E+00         0.00000E+00         0.00000E+00
 
    0.34366E+06         0.15617E+05         0.00000E+00
    0.15617E+05        -0.66559E+06         0.00000E+00
    0.00000E+00         0.00000E+00         0.00000E+00
 
    0.34121E+06         0.25930E+05         0.00000E+00
    0.25930E+05        -0.66527E+06         0.00000E+00
    0.00000E+00         0.00000E+00         0.00000E+00
 
    0.33851E+06         0.36197E+05         0.00000E+00
    0.36197E+05        -0.66479E+06         0.00000E+00
    0.00000E+00         0.00000E+00         0.00000E+00
 
    0.33556E+06         0.46423E+05         0.00000E+00
    0.46423E+05        -0.66415E+06         0.00000E+00
    0.00000E+00         0.00000E+00         0.00000E+00
 
    0.33236E+06         0.56610E+05         0.00000E+00
    0.56610E+05        -0.66336E+06         0.00000E+00
    0.00000E+00         0.00000E+00         0.00000E+00
 
    0.32892E+06         0.66760E+05         0.00000E+00
    0.66760E+05        -0.66241E+06         0.00000E+00
    0.00000E+00         0.00000E+00         0.00000E+00
 
    0.32524E+06         0.76878E+05         0.00000E+00
    0.76878E+05        -0.66132E+06         0.00000E+00
    0.00000E+00         0.00000E+00         0.00000E+00
 
    0.32133E+06         0.86965E+05         0.00000E+00
    0.86965E+05        -0.66007E+06         0.00000E+00
    0.00000E+00         0.00000E+00         0.00000E+00
 
    0.31719E+06         0.97024E+05         0.00000E+00
    0.97024E+05        -0.65868E+06         0.00000E+00
    0.00000E+00         0.00000E+00         0.00000E+00
 
    0.31281E+06         0.10706E+06         0.00000E+00
    0.10706E+06        -0.65714E+06         0.00000E+00
    0.00000E+00         0.00000E+00         0.00000E+00
 
    0.30821E+06         0.11707E+06         0.00000E+00
    0.11707E+06        -0.65546E+06         0.00000E+00
    0.00000E+00         0.00000E+00         0.00000E+00
 
    0.30339E+06         0.12706E+06         0.00000E+00
    0.12706E+06        -0.65364E+06         0.00000E+00
    0.00000E+00         0.00000E+00         0.00000E+00
 
    0.29835E+06         0.13703E+06         0.00000E+00
    0.13703E+06        -0.65168E+06         0.00000E+00
    0.00000E+00         0.00000E+00         0.00000E+00
 
    0.29310E+06         0.14698E+06         0.00000E+00
    0.14698E+06        -0.64959E+06         0.00000E+00
    0.00000E+00         0.00000E+00         0.00000E+00
 
    0.28763E+06         0.15691E+06         0.00000E+00
    0.15691E+06        -0.64737E+06         0.00000E+00
    0.00000E+00         0.00000E+00         0.00000E+00
 
    0.28196E+06         0.16683E+06         0.00000E+00
    0.16683E+06        -0.64501E+06         0.00000E+00
    0.00000E+00         0.00000E+00         0.00000E+00
 
    0.27609E+06         0.17674E+06         0.00000E+00
    0.17674E+06        -0.64253E+06         0.00000E+00
    0.00000E+00         0.00000E+00         0.00000E+00
 
    0.27002E+06         0.18664E+06         0.00000E+00
    0.18664E+06        -0.63992E+06         0.00000E+00
    0.00000E+00         0.00000E+00         0.00000E+00
 
    0.26376E+06         0.19652E+06         0.00000E+00
    0.19652E+06        -0.63719E+06         0.00000E+00
    0.00000E+00         0.00000E+00         0.00000E+00
 
    0.25731E+06         0.20639E+06         0.00000E+00
    0.20639E+06        -0.63435E+06         0.00000E+00
    0.00000E+00         0.00000E+00         0.00000E+00
 
    0.25067E+06         0.21625E+06         0.00000E+00
    0.21625E+06        -0.63138E+06         0.00000E+00
    0.00000E+00         0.00000E+00         0.00000E+00
 
    0.24385E+06         0.22611E+06         0.00000E+00
    0.22611E+06        -0.62831E+06         0.00000E+00
    0.00000E+00         0.00000E+00         0.00000E+00
 
    0.23685E+06         0.23595E+06         0.00000E+00
    0.23595E+06        -0.62512E+06         0.00000E+00
    0.00000E+00         0.00000E+00         0.00000E+00
 
    0.22968E+06         0.24579E+06         0.00000E+00
    0.24579E+06        -0.62182E+06         0.00000E+00
    0.00000E+00         0.00000E+00         0.00000E+00
 
    0.22234E+06         0.25561E+06         0.00000E+00
    0.25561E+06        -0.61842E+06         0.00000E+00
    0.00000E+00         0.00000E+00         0.00000E+00
 
    0.21483E+06         0.26543E+06         0.00000E+00
    0.26543E+06        -0.61491E+06         0.00000E+00
    0.00000E+00         0.00000E+00         0.00000E+00
 
    0.20716E+06         0.27524E+06         0.00000E+00
    0.27524E+06        -0.61131E+06         0.00000E+00
    0.00000E+00         0.00000E+00         0.00000E+00
 
    0.19934E+06         0.28505E+06         0.00000E+00
    0.28505E+06        -0.60761E+06         0.00000E+00
    0.00000E+00         0.00000E+00         0.00000E+00
 
    0.19136E+06         0.29484E+06         0.00000E+00
    0.29484E+06        -0.60381E+06         0.00000E+00
    0.00000E+00         0.00000E+00         0.00000E+00
 
    0.18323E+06         0.30463E+06         0.00000E+00
    0.30463E+06        -0.59992E+06         0.00000E+00
    0.00000E+00         0.00000E+00         0.00000E+00
 
    0.17496E+06         0.31440E+06         0.00000E+00
    0.31440E+06        -0.59595E+06         0.00000E+00
    0.00000E+00         0.00000E+00         0.00000E+00
 
    0.16654E+06         0.32417E+06         0.00000E+00
    0.32417E+06        -0.59188E+06         0.00000E+00
    0.00000E+00         0.00000E+00         0.00000E+00
 
    0.15799E+06         0.33392E+06         0.00000E+00
    0.33392E+06        -0.58774E+06         0.00000E+00
    0.00000E+00         0.00000E+00         0.00000E+00
 
    0.14930E+06         0.34367E+06         0.00000E+00
    0.34367E+06        -0.58351E+06         0.00000E+00
    0.00000E+00         0.00000E+00         0.00000E+00
 
    0.14049E+06         0.35340E+06         0.00000E+00
    0.35340E+06        -0.57920E+06         0.00000E+00
    0.00000E+00         0.00000E+00         0.00000E+00
 
    0.13154E+06         0.36312E+06         0.00000E+00
    0.36312E+06        -0.57482E+06         0.00000E+00
    0.00000E+00         0.00000E+00         0.00000E+00
 
    0.12247E+06         0.37283E+06         0.00000E+00
    0.37283E+06        -0.57037E+06         0.00000E+00
    0.00000E+00         0.00000E+00         0.00000E+00
 
    0.11328E+06         0.38252E+06         0.00000E+00
    0.38252E+06        -0.56584E+06         0.00000E+00
    0.00000E+00         0.00000E+00         0.00000E+00
 
    0.10398E+06         0.39220E+06         0.00000E+00
    0.39220E+06        -0.56124E+06         0.00000E+00
    0.00000E+00         0.00000E+00         0.00000E+00
 
    0.94560E+05         0.40186E+06         0.00000E+00
    0.40186E+06        -0.55658E+06         0.00000E+00
    0.00000E+00         0.00000E+00         0.00000E+00
 
    0.85031E+05         0.41150E+06         0.00000E+00
    0.41150E+06        -0.55186E+06         0.00000E+00
    0.00000E+00         0.00000E+00         0.00000E+00
 
    0.75394E+05         0.42113E+06         0.00000E+00
    0.42113E+06        -0.54707E+06         0.00000E+00
    0.00000E+00         0.00000E+00         0.00000E+00
 
    0.65653E+05         0.43073E+06         0.00000E+00
    0.43073E+06        -0.54223E+06         0.00000E+00
    0.00000E+00         0.00000E+00         0.00000E+00
 
    0.55810E+05         0.44031E+06         0.00000E+00
    0.44031E+06        -0.53733E+06         0.00000E+00
    0.00000E+00         0.00000E+00         0.00000E+00
 
    0.45870E+05         0.44987E+06         0.00000E+00
    0.44987E+06        -0.53237E+06         0.00000E+00
    0.00000E+00         0.00000E+00         0.00000E+00
 
    0.35833E+05         0.45941E+06         0.00000E+00
    0.45941E+06        -0.52736E+06         0.00000E+00
    0.00000E+00         0.00000E+00         0.00000E+00
 
    0.25704E+05         0.46892E+06         0.00000E+00
    0.46892E+06        -0.52230E+06         0.00000E+00
    0.00000E+00         0.00000E+00         0.00000E+00
 
    0.15484E+05         0.47840E+06         0.00000E+00
    0.47840E+06        -0.51719E+06         0.00000E+00
    0.00000E+00         0.00000E+00         0.00000E+00
 
    0.51756E+04         0.48786E+06         0.00000E+00
    0.48786E+06        -0.51204E+06         0.00000E+00
    0.00000E+00         0.00000E+00         0.00000E+00
 
    0.35196E+06         0.56389E+04         0.00000E+00
    0.56389E+04        -0.71350E+06         0.00000E+00
    0.00000E+00         0.00000E+00         0.00000E+00
 
    0.34949E+06         0.16757E+05         0.00000E+00
    0.16757E+05        -0.71335E+06         0.00000E+00
    0.00000E+00         0.00000E+00         0.00000E+00
 
    0.34679E+06         0.27820E+05         0.00000E+00
    0.27820E+05        -0.71304E+06         0.00000E+00
    0.00000E+00         0.00000E+00         0.00000E+00
 
    0.34385E+06         0.38833E+05         0.00000E+00
    0.38833E+05        -0.71257E+06         0.00000E+00
    0.00000E+00         0.00000E+00         0.00000E+00
 
    0.34068E+06         0.49796E+05         0.00000E+00
    0.49796E+05        -0.71196E+06         0.00000E+00
    0.00000E+00         0.00000E+00         0.00000E+00
 
    0.33728E+06         0.60714E+05         0.00000E+00
    0.60714E+05        -0.71119E+06         0.00000E+00
    0.00000E+00         0.00000E+00         0.00000E+00
 
    0.33365E+06         0.71588E+05         0.00000E+00
    0.71588E+05        -0.71027E+06         0.00000E+00
    0.00000E+00         0.00000E+00         0.00000E+00
 
    0.32979E+06         0.82420E+05         0.00000E+00
    0.82420E+05        -0.70921E+06         0.00000E+00
    0.00000E+00         0.00000E+00         0.00000E+00
 
    0.32571E+06         0.93214E+05         0.00000E+00
    0.93214E+05        -0.70800E+06         0.00000E+00
    0.00000E+00         0.00000E+00         0.00000E+00
 
    0.32140E+06         0.10397E+06         0.00000E+00
    0.10397E+06        -0.70664E+06         0.00000E+00
    0.00000E+00         0.00000E+00         0.00000E+00
 
    0.31688E+06         0.11469E+06         0.00000E+00
    0.11469E+06        -0.70515E+06         0.00000E+00
    0.00000E+00         0.00000E+00         0.00000E+00
 
    0.31214E+06         0.12538E+06         0.00000E+00
    0.12538E+06        -0.70351E+06         0.00000E+00
    0.00000E+00         0.00000E+00         0.00000E+00
 
    0.30719E+06         0.13604E+06         0.00000E+00
    0.13604E+06        -0.70173E+06         0.00000E+00
    0.00000E+00         0.00000E+00         0.00000E+00
 
    0.30203E+06         0.14667E+06         0.00000E+00
    0.14667E+06        -0.69982E+06         0.00000E+00
    0.00000E+00         0.00000E+00         0.00000E+00
 
    0.29667E+06         0.15727E+06         0.00000E+00
    0.15727E+06        -0.69778E+06         0.00000E+00
    0.00000E+00         0.00000E+00         0.00000E+00
 
    0.29110E+06         0.16784E+06         0.00000E+00
    0.16784E+06        -0.69560E+06         0.00000E+00
    0.00000E+00         0.00000E+00         0.00000E+00
 
    0.28533E+06         0.17838E+06         0.00000E+00
    0.17838E+06        -0.69329E+06         0.00000E+00
    0.00000E+00         0.00000E+00         0.00000E+00
 
    0.27936E+06         0.18891E+06         0.00000E+00
    0.18891E+06        -0.69086E+06         0.00000E+00
    0.00000E+00         0.00000E+00         0.00000E+00
 
    0.27320E+06         0.19940E+06         0.00000E+00
    0.19940E+06        -0.68830E+06         0.00000E+00
    0.00000E+00         0.00000E+00         0.00000E+00
 
    0.26685E+06         0.20988E+06         0.00000E+00
    0.20988E+06        -0.68562E+06         0.00000E+00
    0.00000E+00         0.00000E+00         0.00000E+00
 
    0.26032E+06         0.22033E+06         0.00000E+00
    0.22033E+06        -0.68282E+06         0.00000E+00
    0.00000E+00         0.00000E+00         0.00000E+00
 
    0.25360E+06         0.23077E+06         0.00000E+00
    0.23077E+06        -0.67990E+06         0.00000E+00
    0.00000E+00         0.00000E+00         0.00000E+00
 
    0.24670E+06         0.24118E+06         0.00000E+00
    0.24118E+06        -0.67686E+06         0.00000E+00
    0.00000E+00         0.00000E+00         0.00000E+00
 
    0.23963E+06         0.25157E+06         0.00000E+00
    0.25157E+06        -0.67371E+06         0.00000E+00
    0.00000E+00         0.00000E+00         0.00000E+00
 
    0.23238E+06         0.26194E+06         0.00000E+00
    0.26194E+06        -0.67046E+06         0.00000E+00
    0.00000E+00         0.00000E+00         0.00000E+00
 
    0.22497E+06         0.27229E+06         0.00000E+00
    0.27229E+06        -0.66709E+06         0.00000E+00
    0.00000E+00         0.00000E+00         0.00000E+00
 
    0.21739E+06         0.28262E+06         0.00000E+00
    0.28262E+06        -0.66362E+06         0.00000E+00
    0.00000E+00         0.00000E+00         0.00000E+00
 
    0.20965E+06         0.29294E+06         0.00000E+00
    0.29294E+06        -0.66004E+06         0.00000E+00
    0.00000E+00         0.00000E+00         0.00000E+00
 
    0.20175E+06         0.30323E+06         0.00000E+00
    0.30323E+06        -0.65637E+06         0.00000E+00
    0.00000E+00         0.00000E+00         0.00000E+00
 
    0.19370E+06         0.31350E+06         0.00000E+00
    0.31350E+06        -0.65260E+06         0.00000E+00
    0.00000E+00         0.00000E+00         0.00000E+00
 
    0.18550E+06         0.32376E+06         0.00000E+00
    0.32376E+06        -0.64873E+06         0.00000E+00
    0.00000E+00         0.00000E+00         0.00000E+00
 
    0.17715E+06         0.33399E+06         0.00000E+00
    0.33399E+06        -0.64477E+06         0.00000E+00
    0.00000E+00         0.00000E+00         0.00000E+00
 
    0.16865E+06         0.34420E+06         0.00000E+00
    0.34420E+06        -0.64072E+06         0.00000E+00
    0.00000E+00         0.00000E+00         0.00000E+00
 
    0.16002E+06         0.35439E+06         0.00000E+00
    0.35439E+06        -0.63658E+06         0.00000E+00
    0.00000E+00         0.00000E+00         0.00000E+00
 
    0.15124E+06         0.36456E+06         0.00000E+00
    0.36456E+06        -0.63236E+06         0.00000E+00
    0.00000E+00         0.00000E+00         0.00000E+00
 
    0.14234E+06         0.37470E+06         0.00000E+00
    0.37470E+06        -0.62805E+06         0.00000E+00
    0.00000E+00         0.00000E+00         0.00000E+00
 
    0.13330E+06         0.38483E+06         0.00000E+00
    0.38483E+06        -0.62366E+06         0.00000E+00
    0.00000E+00         0.00000E+00         0.00000E+00
 
    0.12413E+06         0.39492E+06         0.00000E+00
    0.39492E+06        -0.61920E+06         0.00000E+00
    0.00000E+00         0.00000E+00         0.00000E+00
 
    0.11484E+06         0.40500E+06         0.00000E+00
    0.40500E+06        -0.61465E+06         0.00000E+00
    0.00000E+00         0.00000E+00         0.00000E+00
 
    0.10543E+06         0.41505E+06         0.00000E+00
    0.41505E+06        -0.61004E+06         0.00000E+00
    0.00000E+00         0.00000E+00         0.00000E+00
 
    0.95897E+05         0.42507E+06         0.00000E+00
    0.42507E+06        -0.60535E+06         0.00000E+00
    0.00000E+00         0.00000E+00         0.00000E+00
 
    0.86251E+05         0.43506E+06         0.00000E+00
    0.43506E+06        -0.60059E+06         0.00000E+00
    0.00000E+00         0.00000E+00         0.00000E+00
 
    0.76492E+05         0.44503E+06         0.00000E+00
    0.44503E+06        -0.59577E+06         0.00000E+00
    0.00000E+00         0.00000E+00         0.00000E+00
 
    0.66623E+05         0.45497E+06         0.00000E+00
    0.45497E+06        -0.59088E+06         0.00000E+00
    0.00000E+00         0.00000E+00         0.00000E+00
 
    0.56648E+05         0.46488E+06         0.00000E+00
    0.46488E+06        -0.58593E+06         0.00000E+00
    0.00000E+00         0.00000E+00         0.00000E+00
 
    0.46568E+05         0.47475E+06         0.00000E+00
    0.47475E+06        -0.58092E+06         0.00000E+00
    0.00000E+00         0.00000E+00         0.00000E+00
 
    0.36386E+05         0.48459E+06         0.00000E+00
    0.48459E+06        -0.57585E+06         0.00000E+00
    0.00000E+00         0.00000E+00         0.00000E+00
 
    0.26106E+05         0.49440E+06         0.00000E+00
    0.49440E+06        -0.57072E+06         0.00000E+00
    0.00000E+00         0.00000E+00         0.00000E+00
 
    0.15729E+05         0.50418E+06         0.00000E+00
    0.50418E+06        -0.56554E+06         0.00000E+00
    0.00000E+00         0.00000E+00         0.00000E+00
 
    0.52585E+04         0.51392E+06         0.00000E+00
    0.51392E+06        -0.56031E+06         0.00000E+00
    0.00000E+00         0.00000E+00         0.00000E+00
 
    0.36032E+06         0.60096E+04         0.00000E+00
    0.60096E+04        -0.76273E+06         0.00000E+00
    0.00000E+00         0.00000E+00         0.00000E+00
 
    0.35756E+06         0.17860E+05         0.00000E+00
    0.17860E+05        -0.76258E+06         0.00000E+00
    0.00000E+00         0.00000E+00         0.00000E+00
 
    0.35459E+06         0.29653E+05         0.00000E+00
    0.29653E+05        -0.76227E+06         0.00000E+00
    0.00000E+00         0.00000E+00         0.00000E+00
 
    0.35139E+06         0.41390E+05         0.00000E+00
    0.41390E+05        -0.76182E+06         0.00000E+00
    0.00000E+00         0.00000E+00         0.00000E+00
 
    0.34797E+06         0.53073E+05         0.00000E+00
    0.53073E+05        -0.76122E+06         0.00000E+00
    0.00000E+00         0.00000E+00         0.00000E+00
 
    0.34432E+06         0.64705E+05         0.00000E+00
    0.64705E+05        -0.76047E+06         0.00000E+00
    0.00000E+00         0.00000E+00         0.00000E+00
 
    0.34046E+06         0.76286E+05         0.00000E+00
    0.76286E+05        -0.75957E+06         0.00000E+00
    0.00000E+00         0.00000E+00         0.00000E+00
 
    0.33639E+06         0.87821E+05         0.00000E+00
    0.87821E+05        -0.75853E+06         0.00000E+00
    0.00000E+00         0.00000E+00         0.00000E+00
 
    0.33210E+06         0.99309E+05         0.00000E+00
    0.99309E+05        -0.75734E+06         0.00000E+00
    0.00000E+00         0.00000E+00         0.00000E+00
 
    0.32759E+06         0.11075E+06         0.00000E+00
    0.11075E+06        -0.75602E+06         0.00000E+00
    0.00000E+00         0.00000E+00         0.00000E+00
 
    0.32288E+06         0.12215E+06         0.00000E+00
    0.12215E+06        -0.75455E+06         0.00000E+00
    0.00000E+00         0.00000E+00         0.00000E+00
 
    0.31796E+06         0.13351E+06         0.00000E+00
    0.13351E+06        -0.75294E+06         0.00000E+00
    0.00000E+00         0.00000E+00         0.00000E+00
 
    0.31283E+06         0.14483E+06         0.00000E+00
    0.14483E+06        -0.75119E+06         0.00000E+00
    0.00000E+00         0.00000E+00         0.00000E+00
 
    0.30751E+06         0.15612E+06         0.00000E+00
    0.15612E+06        -0.74931E+06         0.00000E+00
    0.00000E+00         0.00000E+00         0.00000E+00
 
    0.30198E+06         0.16736E+06         0.00000E+00
    0.16736E+06        -0.74730E+06         0.00000E+00
    0.00000E+00         0.00000E+00         0.00000E+00
 
    0.29625E+06         0.17857E+06         0.00000E+00
    0.17857E+06        -0.74515E+06         0.00000E+00
    0.00000E+00         0.00000E+00         0.00000E+00
 
    0.29033E+06         0.18975E+06         0.00000E+00
    0.18975E+06        -0.74287E+06         0.00000E+00
    0.00000E+00         0.00000E+00         0.00000E+00
 
    0.28422E+06         0.20089E+06         0.00000E+00
    0.20089E+06        -0.74047E+06         0.00000E+00
    0.00000E+00         0.00000E+00         0.00000E+00
 
    0.27792E+06         0.21199E+06         0.00000E+00
    0.21199E+06        -0.73794E+06         0.00000E+00
    0.00000E+00         0.00000E+00         0.00000E+00
 
    0.27143E+06         0.22307E+06         0.00000E+00
    0.22307E+06        -0.73529E+06         0.00000E+00
    0.00000E+00         0.00000E+00         0.00000E+00
 
    0.26476E+06         0.23411E+06         0.00000E+00
    0.23411E+06        -0.73251E+06         0.00000E+00
    0.00000E+00         0.00000E+00         0.00000E+00
 
    0.25791E+06         0.24512E+06         0.00000E+00
    0.24512E+06        -0.72962E+06         0.00000E+00
    0.00000E+00         0.00000E+00         0.00000E+00
 
    0.25089E+06         0.25610E+06         0.00000E+00
    0.25610E+06        -0.72661E+06         0.00000E+00
    0.00000E+00         0.00000E+00         0.00000E+00
 
    0.24369E+06         0.26705E+06         0.00000E+00
    0.26705E+06        -0.72348E+06         0.00000E+00
    0.00000E+00         0.00000E+00         0.00000E+00
 
    0.23631E+06         0.27797E+06         0.00000E+00
    0.27797E+06        -0.72024E+06         0.00000E+00
    0.00000E+00         0.00000E+00         0.00000E+00
 
    0.22877E+06         0.28886E+06         0.00000E+00
    0.28886E+06        -0.71689E+06         0.00000E+00
    0.00000E+00         0.00000E+00         0.00000E+00
 
    0.22107E+06         0.29972E+06         0.00000E+00
    0.29972E+06        -0.71343E+06         0.00000E+00
    0.00000E+00         0.00000E+00         0.00000E+00
 
    0.21320E+06         0.31054E+06         0.00000E+00
    0.31054E+06        -0.70987E+06         0.00000E+00
    0.00000E+00         0.00000E+00         0.00000E+00
 
    0.20518E+06         0.32134E+06         0.00000E+00
    0.32134E+06        -0.70620E+06         0.00000E+00
    0.00000E+00         0.00000E+00         0.00000E+00
 
    0.19700E+06         0.33211E+06         0.00000E+00
    0.33211E+06        -0.70243E+06         0.00000E+00
    0.00000E+00         0.00000E+00         0.00000E+00
 
    0.18867E+06         0.34285E+06         0.00000E+00
    0.34285E+06        -0.69857E+06         0.00000E+00
    0.00000E+00         0.00000E+00         0.00000E+00
 
    0.18019E+06         0.35356E+06         0.00000E+00
    0.35356E+06        -0.69460E+06         0.00000E+00
    0.00000E+00         0.00000E+00         0.00000E+00
 
    0.17156E+06         0.36424E+06         0.00000E+00
    0.36424E+06        -0.69054E+06         0.00000E+00
    0.00000E+00         0.00000E+00         0.00000E+00
 
    0.16279E+06         0.37488E+06         0.00000E+00
    0.37488E+06        -0.68639E+06         0.00000E+00
    0.00000E+00         0.00000E+00         0.00000E+00
 
    0.15388E+06         0.38550E+06         0.00000E+00
    0.38550E+06        -0.68215E+06         0.00000E+00
    0.00000E+00         0.00000E+00         0.00000E+00
 
    0.14483E+06         0.39608E+06         0.00000E+00
    0.39608E+06        -0.67782E+06         0.00000E+00
    0.00000E+00         0.00000E+00         0.00000E+00
 
    0.13565E+06         0.40663E+06         0.00000E+00
    0.40663E+06        -0.67341E+06         0.00000E+00
    0.00000E+00         0.00000E+00         0.00000E+00
 
    0.12634E+06         0.41714E+06         0.00000E+00
    0.41714E+06        -0.66891E+06         0.00000E+00
    0.00000E+00         0.00000E+00         0.00000E+00
 
    0.11690E+06         0.42763E+06         0.00000E+00
    0.42763E+06        -0.66433E+06         0.00000E+00
    0.00000E+00         0.00000E+00         0.00000E+00
 
    0.10733E+06         0.43807E+06         0.00000E+00
    0.43807E+06        -0.65967E+06         0.00000E+00
    0.00000E+00         0.00000E+00         0.00000E+00
 
    0.97641E+05         0.44848E+06         0.00000E+00
    0.44848E+06        -0.65494E+06         0.00000E+00
    0.00000E+00         0.00000E+00         0.00000E+00
 
    0.87832E+05         0.45886E+06         0.00000E+00
    0.45886E+06        -0.65013E+06         0.00000E+00
    0.00000E+00         0.00000E+00         0.00000E+00
 
    0.77905E+05         0.46919E+06         0.00000E+00
    0.46919E+06        -0.64525E+06         0.00000E+00
    0.00000E+00         0.00000E+00         0.00000E+00
 
    0.67864E+05         0.47949E+06         0.00000E+00
    0.47949E+06        -0.64029E+06         0.00000E+00
    0.00000E+00         0.00000E+00         0.00000E+00
 
    0.57711E+05         0.48975E+06         0.00000E+00
    0.48975E+06        -0.63528E+06         0.00000E+00
    0.00000E+00         0.00000E+00         0.00000E+00
 
    0.47450E+05         0.49997E+06         0.00000E+00
    0.49997E+06        -0.63019E+06         0.00000E+00
    0.00000E+00         0.00000E+00         0.00000E+00
 
    0.37081E+05         0.51015E+06         0.00000E+00
    0.51015E+06        -0.62504E+06         0.00000E+00
    0.00000E+00         0.00000E+00         0.00000E+00
 
    0.26608E+05         0.52029E+06         0.00000E+00
    0.52029E+06        -0.61983E+06         0.00000E+00
    0.00000E+00         0.00000E+00         0.00000E+00
 
    0.16034E+05         0.53038E+06         0.00000E+00
    0.53038E+06        -0.61455E+06         0.00000E+00
    0.00000E+00         0.00000E+00         0.00000E+00
 
    0.53611E+04         0.54043E+06         0.00000E+00
    0.54043E+06        -0.60922E+06         0.00000E+00
    0.00000E+00         0.00000E+00         0.00000E+00
 
    0.37069E+06         0.63712E+04         0.00000E+00
    0.63712E+04        -0.81356E+06         0.00000E+00
    0.00000E+00         0.00000E+00         0.00000E+00
 
    0.36764E+06         0.18940E+05         0.00000E+00
    0.18940E+05        -0.81341E+06         0.00000E+00
    0.00000E+00         0.00000E+00         0.00000E+00
 
    0.36437E+06         0.31447E+05         0.00000E+00
    0.31447E+05        -0.81311E+06         0.00000E+00
    0.00000E+00         0.00000E+00         0.00000E+00
 
    0.36089E+06         0.43895E+05         0.00000E+00
    0.43895E+05        -0.81267E+06         0.00000E+00
    0.00000E+00         0.00000E+00         0.00000E+00
 
    0.35719E+06         0.56286E+05         0.00000E+00
    0.56286E+05        -0.81207E+06         0.00000E+00
    0.00000E+00         0.00000E+00         0.00000E+00
 
    0.35329E+06         0.68620E+05         0.00000E+00
    0.68620E+05        -0.81133E+06         0.00000E+00
    0.00000E+00         0.00000E+00         0.00000E+00
 
    0.34917E+06         0.80901E+05         0.00000E+00
    0.80901E+05        -0.81045E+06         0.00000E+00
    0.00000E+00         0.00000E+00         0.00000E+00
 
    0.34484E+06         0.93128E+05         0.00000E+00
    0.93128E+05        -0.80942E+06         0.00000E+00
    0.00000E+00         0.00000E+00         0.00000E+00
 
    0.34031E+06         0.10530E+06         0.00000E+00
    0.10530E+06        -0.80825E+06         0.00000E+00
    0.00000E+00         0.00000E+00         0.00000E+00
 
    0.33558E+06         0.11743E+06         0.00000E+00
    0.11743E+06        -0.80694E+06         0.00000E+00
    0.00000E+00         0.00000E+00         0.00000E+00
 
    0.33064E+06         0.12951E+06         0.00000E+00
    0.12951E+06        -0.80548E+06         0.00000E+00
    0.00000E+00         0.00000E+00         0.00000E+00
 
    0.32550E+06         0.14153E+06         0.00000E+00
    0.14153E+06        -0.80389E+06         0.00000E+00
    0.00000E+00         0.00000E+00         0.00000E+00
 
    0.32016E+06         0.15352E+06         0.00000E+00
    0.15352E+06        -0.80216E+06         0.00000E+00
    0.00000E+00         0.00000E+00         0.00000E+00
 
    0.31462E+06         0.16545E+06         0.00000E+00
    0.16545E+06        -0.80030E+06         0.00000E+00
    0.00000E+00         0.00000E+00         0.00000E+00
 
    0.30889E+06         0.17734E+06         0.00000E+00
    0.17734E+06        -0.79830E+06         0.00000E+00
    0.00000E+00         0.00000E+00         0.00000E+00
 
    0.30297E+06         0.18919E+06         0.00000E+00
    0.18919E+06        -0.79617E+06         0.00000E+00
    0.00000E+00         0.00000E+00         0.00000E+00
 
    0.29686E+06         0.20100E+06         0.00000E+00
    0.20100E+06        -0.79390E+06         0.00000E+00
    0.00000E+00         0.00000E+00         0.00000E+00
 
    0.29056E+06         0.21276E+06         0.00000E+00
    0.21276E+06        -0.79151E+06         0.00000E+00
    0.00000E+00         0.00000E+00         0.00000E+00
 
    0.28407E+06         0.22448E+06         0.00000E+00
    0.22448E+06        -0.78899E+06         0.00000E+00
    0.00000E+00         0.00000E+00         0.00000E+00
 
    0.27740E+06         0.23616E+06         0.00000E+00
    0.23616E+06        -0.78635E+06         0.00000E+00
    0.00000E+00         0.00000E+00         0.00000E+00
 
    0.27055E+06         0.24780E+06         0.00000E+00
    0.24780E+06        -0.78358E+06         0.00000E+00
    0.00000E+00         0.00000E+00         0.00000E+00
 
    0.26352E+06         0.25940E+06         0.00000E+00
    0.25940E+06        -0.78070E+06         0.00000E+00
    0.00000E+00         0.00000E+00         0.00000E+00
 
    0.25632E+06         0.27096E+06         0.00000E+00
    0.27096E+06        -0.77769E+06         0.00000E+00
    0.00000E+00         0.00000E+00         0.00000E+00
 
    0.24894E+06         0.28248E+06         0.00000E+00
    0.28248E+06        -0.77457E+06         0.00000E+00
    0.00000E+00         0.00000E+00         0.00000E+00
 
    0.24139E+06         0.29396E+06         0.00000E+00
    0.29396E+06        -0.77133E+06         0.00000E+00
    0.00000E+00         0.00000E+00         0.00000E+00
 
    0.23368E+06         0.30540E+06         0.00000E+00
    0.30540E+06        -0.76797E+06         0.00000E+00
    0.00000E+00         0.00000E+00         0.00000E+00
 
    0.22580E+06         0.31680E+06         0.00000E+00
    0.31680E+06        -0.76451E+06         0.00000E+00
    0.00000E+00         0.00000E+00         0.00000E+00
 
    0.21776E+06         0.32816E+06         0.00000E+00
    0.32816E+06        -0.76093E+06         0.00000E+00
    0.00000E+00         0.00000E+00         0.00000E+00
 
    0.20956E+06         0.33949E+06         0.00000E+00
    0.33949E+06        -0.75725E+06         0.00000E+00
    0.00000E+00         0.00000E+00         0.00000E+00
 
    0.20121E+06         0.35077E+06         0.00000E+00
    0.35077E+06        -0.75347E+06         0.00000E+00
    0.00000E+00         0.00000E+00         0.00000E+00
 
    0.19270E+06         0.36202E+06         0.00000E+00
    0.36202E+06        -0.74958E+06         0.00000E+00
    0.00000E+00         0.00000E+00         0.00000E+00
 
    0.18404E+06         0.37322E+06         0.00000E+00
    0.37322E+06        -0.74559E+06         0.00000E+00
    0.00000E+00         0.00000E+00         0.00000E+00
 
    0.17524E+06         0.38439E+06         0.00000E+00
    0.38439E+06        -0.74150E+06         0.00000E+00
    0.00000E+00         0.00000E+00         0.00000E+00
 
    0.16628E+06         0.39551E+06         0.00000E+00
    0.39551E+06        -0.73732E+06         0.00000E+00
    0.00000E+00         0.00000E+00         0.00000E+00
 
    0.15719E+06         0.40659E+06         0.00000E+00
    0.40659E+06        -0.73304E+06         0.00000E+00
    0.00000E+00         0.00000E+00         0.00000E+00
 
    0.14796E+06         0.41763E+06         0.00000E+00
    0.41763E+06        -0.72867E+06         0.00000E+00
    0.00000E+00         0.00000E+00         0.00000E+00
 
    0.13858E+06         0.42863E+06         0.00000E+00
    0.42863E+06        -0.72421E+06         0.00000E+00
    0.00000E+00         0.00000E+00         0.00000E+00
 
    0.12908E+06         0.43959E+06         0.00000E+00
    0.43959E+06        -0.71966E+06         0.00000E+00
    0.00000E+00         0.00000E+00         0.00000E+00
 
    0.11944E+06         0.45050E+06         0.00000E+00
    0.45050E+06        -0.71502E+06         0.00000E+00
    0.00000E+00         0.00000E+00         0.00000E+00
 
    0.10967E+06         0.46137E+06         0.00000E+00
    0.46137E+06        -0.71030E+06         0.00000E+00
    0.00000E+00         0.00000E+00         0.00000E+00
 
    0.99782E+05         0.47220E+06         0.00000E+00
    0.47220E+06        -0.70550E+06         0.00000E+00
    0.00000E+00         0.00000E+00         0.00000E+00
 
    0.89766E+05         0.48298E+06         0.00000E+00
    0.48298E+06        -0.70062E+06         0.00000E+00
    0.00000E+00         0.00000E+00         0.00000E+00
 
    0.79628E+05         0.49371E+06         0.00000E+00
    0.49371E+06        -0.69566E+06         0.00000E+00
    0.00000E+00         0.00000E+00         0.00000E+00
 
    0.69372E+05         0.50440E+06         0.00000E+00
    0.50440E+06        -0.69063E+06         0.00000E+00
    0.00000E+00         0.00000E+00         0.00000E+00
 
    0.58999E+05         0.51504E+06         0.00000E+00
    0.51504E+06        -0.68552E+06         0.00000E+00
    0.00000E+00         0.00000E+00         0.00000E+00
 
    0.48513E+05         0.52563E+06         0.00000E+00
    0.52563E+06        -0.68034E+06         0.00000E+00
    0.00000E+00         0.00000E+00         0.00000E+00
 
    0.37916E+05         0.53618E+06         0.00000E+00
    0.53618E+06        -0.67509E+06         0.00000E+00
    0.00000E+00         0.00000E+00         0.00000E+00
 
    0.27211E+05         0.54667E+06         0.00000E+00
    0.54667E+06        -0.66977E+06         0.00000E+00
    0.00000E+00         0.00000E+00         0.00000E+00
 
    0.16399E+05         0.55711E+06         0.00000E+00
    0.55711E+06        -0.66438E+06         0.00000E+00
    0.00000E+00         0.00000E+00         0.00000E+00
 
    0.54834E+04         0.56750E+06         0.00000E+00
    0.56750E+06        -0.65893E+06         0.00000E+00
    0.00000E+00         0.00000E+00         0.00000E+00
 
    0.38289E+06         0.67276E+04         0.00000E+00
    0.67276E+04        -0.86614E+06         0.00000E+00
    0.00000E+00         0.00000E+00         0.00000E+00
 
    0.37952E+06         0.20005E+05         0.00000E+00
    0.20005E+05        -0.86600E+06         0.00000E+00
    0.00000E+00         0.00000E+00         0.00000E+00
 
    0.37595E+06         0.33219E+05         0.00000E+00
    0.33219E+05        -0.86570E+06         0.00000E+00
    0.00000E+00         0.00000E+00         0.00000E+00
 
    0.37217E+06         0.46372E+05         0.00000E+00
    0.46372E+05        -0.86526E+06         0.00000E+00
    0.00000E+00         0.00000E+00         0.00000E+00
 
    0.36818E+06         0.59464E+05         0.00000E+00
    0.59464E+05        -0.86467E+06         0.00000E+00
    0.00000E+00         0.00000E+00         0.00000E+00
 
    0.36399E+06         0.72497E+05         0.00000E+00
    0.72497E+05        -0.86393E+06         0.00000E+00
    0.00000E+00         0.00000E+00         0.00000E+00
 
    0.35959E+06         0.85471E+05         0.00000E+00
    0.85471E+05        -0.86305E+06         0.00000E+00
    0.00000E+00         0.00000E+00         0.00000E+00
 
    0.35500E+06         0.98388E+05         0.00000E+00
    0.98388E+05        -0.86203E+06         0.00000E+00
    0.00000E+00         0.00000E+00         0.00000E+00
 
    0.35020E+06         0.11125E+06         0.00000E+00
    0.11125E+06        -0.86086E+06         0.00000E+00
    0.00000E+00         0.00000E+00         0.00000E+00
 
    0.34520E+06         0.12406E+06         0.00000E+00
    0.12406E+06        -0.85955E+06         0.00000E+00
    0.00000E+00         0.00000E+00         0.00000E+00
 
    0.34001E+06         0.13681E+06         0.00000E+00
    0.13681E+06        -0.85810E+06         0.00000E+00
    0.00000E+00         0.00000E+00         0.00000E+00
 
    0.33462E+06         0.14950E+06         0.00000E+00
    0.14950E+06        -0.85651E+06         0.00000E+00
    0.00000E+00         0.00000E+00         0.00000E+00
 
    0.32903E+06         0.16215E+06         0.00000E+00
    0.16215E+06        -0.85479E+06         0.00000E+00
    0.00000E+00         0.00000E+00         0.00000E+00
 
    0.32326E+06         0.17474E+06         0.00000E+00
    0.17474E+06        -0.85292E+06         0.00000E+00
    0.00000E+00         0.00000E+00         0.00000E+00
 
    0.31729E+06         0.18729E+06         0.00000E+00
    0.18729E+06        -0.85093E+06         0.00000E+00
    0.00000E+00         0.00000E+00         0.00000E+00
 
    0.31113E+06         0.19978E+06         0.00000E+00
    0.19978E+06        -0.84879E+06         0.00000E+00
    0.00000E+00         0.00000E+00         0.00000E+00
 
    0.30479E+06         0.21222E+06         0.00000E+00
    0.21222E+06        -0.84653E+06         0.00000E+00
    0.00000E+00         0.00000E+00         0.00000E+00
 
    0.29826E+06         0.22461E+06         0.00000E+00
    0.22461E+06        -0.84414E+06         0.00000E+00
    0.00000E+00         0.00000E+00         0.00000E+00
 
    0.29155E+06         0.23696E+06         0.00000E+00
    0.23696E+06        -0.84161E+06         0.00000E+00
    0.00000E+00         0.00000E+00         0.00000E+00
 
    0.28465E+06         0.24925E+06         0.00000E+00
    0.24925E+06        -0.83896E+06         0.00000E+00
    0.00000E+00         0.00000E+00         0.00000E+00
 
    0.27758E+06         0.26150E+06         0.00000E+00
    0.26150E+06        -0.83619E+06         0.00000E+00
    0.00000E+00         0.00000E+00         0.00000E+00
 
    0.27033E+06         0.27370E+06         0.00000E+00
    0.27370E+06        -0.83329E+06         0.00000E+00
    0.00000E+00         0.00000E+00         0.00000E+00
 
    0.26291E+06         0.28585E+06         0.00000E+00
    0.28585E+06        -0.83027E+06         0.00000E+00
    0.00000E+00         0.00000E+00         0.00000E+00
 
    0.25532E+06         0.29795E+06         0.00000E+00
    0.29795E+06        -0.82713E+06         0.00000E+00
    0.00000E+00         0.00000E+00         0.00000E+00
 
    0.24755E+06         0.31001E+06         0.00000E+00
    0.31001E+06        -0.82387E+06         0.00000E+00
    0.00000E+00         0.00000E+00         0.00000E+00
 
    0.23962E+06         0.32202E+06         0.00000E+00
    0.32202E+06        -0.82049E+06         0.00000E+00
    0.00000E+00         0.00000E+00         0.00000E+00
 
    0.23153E+06         0.33398E+06         0.00000E+00
    0.33398E+06        -0.81700E+06         0.00000E+00
    0.00000E+00         0.00000E+00         0.00000E+00
 
    0.22327E+06         0.34589E+06         0.00000E+00
    0.34589E+06        -0.81340E+06         0.00000E+00
    0.00000E+00         0.00000E+00         0.00000E+00
 
    0.21486E+06         0.35776E+06         0.00000E+00
    0.35776E+06        -0.80969E+06         0.00000E+00
    0.00000E+00         0.00000E+00         0.00000E+00
 
    0.20628E+06         0.36958E+06         0.00000E+00
    0.36958E+06        -0.80587E+06         0.00000E+00
    0.00000E+00         0.00000E+00         0.00000E+00
 
    0.19755E+06         0.38135E+06         0.00000E+00
    0.38135E+06        -0.80194E+06         0.00000E+00
    0.00000E+00         0.00000E+00         0.00000E+00
 
    0.18867E+06         0.39307E+06         0.00000E+00
    0.39307E+06        -0.79790E+06         0.00000E+00
    0.00000E+00         0.00000E+00         0.00000E+00
 
    0.17964E+06         0.40474E+06         0.00000E+00
    0.40474E+06        -0.79377E+06         0.00000E+00
    0.00000E+00         0.00000E+00         0.00000E+00
 
    0.17046E+06         0.41637E+06         0.00000E+00
    0.41637E+06        -0.78953E+06         0.00000E+00
    0.00000E+00         0.00000E+00         0.00000E+00
 
    0.16114E+06         0.42794E+06         0.00000E+00
    0.42794E+06        -0.78519E+06         0.00000E+00
    0.00000E+00         0.00000E+00         0.00000E+00
 
    0.15168E+06         0.43946E+06         0.00000E+00
    0.43946E+06        -0.78076E+06         0.00000E+00
    0.00000E+00         0.00000E+00         0.00000E+00
 
    0.14207E+06         0.45094E+06         0.00000E+00
    0.45094E+06        -0.77623E+06         0.00000E+00
    0.00000E+00         0.00000E+00         0.00000E+00
 
    0.13233E+06         0.46236E+06         0.00000E+00
    0.46236E+06        -0.77161E+06         0.00000E+00
    0.00000E+00         0.00000E+00         0.00000E+00
 
    0.12246E+06         0.47373E+06         0.00000E+00
    0.47373E+06        -0.76690E+06         0.00000E+00
    0.00000E+00         0.00000E+00         0.00000E+00
 
    0.11245E+06         0.48505E+06         0.00000E+00
    0.48505E+06        -0.76210E+06         0.00000E+00
    0.00000E+00         0.00000E+00         0.00000E+00
 
    0.10231E+06         0.49632E+06         0.00000E+00
    0.49632E+06        -0.75721E+06         0.00000E+00
    0.00000E+00         0.00000E+00         0.00000E+00
 
    0.92044E+05         0.50753E+06         0.00000E+00
    0.50753E+06        -0.75224E+06         0.00000E+00
    0.00000E+00         0.00000E+00         0.00000E+00
 
    0.81653E+05         0.51869E+06         0.00000E+00
    0.51869E+06        -0.74718E+06         0.00000E+00
    0.00000E+00         0.00000E+00         0.00000E+00
 
    0.71140E+05         0.52979E+06         0.00000E+00
    0.52979E+06        -0.74204E+06         0.00000E+00
    0.00000E+00         0.00000E+00         0.00000E+00
 
    0.60507E+05         0.54084E+06         0.00000E+00
    0.54084E+06        -0.73682E+06         0.00000E+00
    0.00000E+00         0.00000E+00         0.00000E+00
 
    0.49756E+05         0.55183E+06         0.00000E+00
    0.55183E+06        -0.73153E+06         0.00000E+00
    0.00000E+00         0.00000E+00         0.00000E+00
 
    0.38891E+05         0.56277E+06         0.00000E+00
    0.56277E+06        -0.72616E+06         0.00000E+00
    0.00000E+00         0.00000E+00         0.00000E+00
 
    0.27912E+05         0.57364E+06         0.00000E+00
    0.57364E+06        -0.72071E+06         0.00000E+00
    0.00000E+00         0.00000E+00         0.00000E+00
 
    0.16823E+05         0.58446E+06         0.00000E+00
    0.58446E+06        -0.71520E+06         0.00000E+00
    0.00000E+00         0.00000E+00         0.00000E+00
 
    0.56254E+04         0.59522E+06         0.00000E+00
    0.59522E+06        -0.70961E+06         0.00000E+00
    0.00000E+00         0.00000E+00         0.00000E+00
 
    0.39674E+06         0.70823E+04         0.00000E+00
    0.70823E+04        -0.92062E+06         0.00000E+00
    0.00000E+00         0.00000E+00         0.00000E+00
 
    0.39305E+06         0.21066E+05         0.00000E+00
    0.21066E+05        -0.92047E+06         0.00000E+00
    0.00000E+00         0.00000E+00         0.00000E+00
 
    0.38916E+06         0.34986E+05         0.00000E+00
    0.34986E+05        -0.92017E+06         0.00000E+00
    0.00000E+00         0.00000E+00         0.00000E+00
 
    0.38506E+06         0.48841E+05         0.00000E+00
    0.48841E+05        -0.91973E+06         0.00000E+00
    0.00000E+00         0.00000E+00         0.00000E+00
 
    0.38077E+06         0.62634E+05         0.00000E+00
    0.62634E+05        -0.91914E+06         0.00000E+00
    0.00000E+00         0.00000E+00         0.00000E+00
 
    0.37628E+06         0.76365E+05         0.00000E+00
    0.76365E+05        -0.91840E+06         0.00000E+00
    0.00000E+00         0.00000E+00         0.00000E+00
 
    0.37159E+06         0.90034E+05         0.00000E+00
    0.90034E+05        -0.91752E+06         0.00000E+00
    0.00000E+00         0.00000E+00         0.00000E+00
 
    0.36670E+06         0.10364E+06         0.00000E+00
    0.10364E+06        -0.91649E+06         0.00000E+00
    0.00000E+00         0.00000E+00         0.00000E+00
 
    0.36162E+06         0.11719E+06         0.00000E+00
    0.11719E+06        -0.91532E+06         0.00000E+00
    0.00000E+00         0.00000E+00         0.00000E+00
 
    0.35634E+06         0.13068E+06         0.00000E+00
    0.13068E+06        -0.91400E+06         0.00000E+00
    0.00000E+00         0.00000E+00         0.00000E+00
 
    0.35086E+06         0.14411E+06         0.00000E+00
    0.14411E+06        -0.91255E+06         0.00000E+00
    0.00000E+00         0.00000E+00         0.00000E+00
 
    0.34519E+06         0.15748E+06         0.00000E+00
    0.15748E+06        -0.91095E+06         0.00000E+00
    0.00000E+00         0.00000E+00         0.00000E+00
 
    0.33934E+06         0.17080E+06         0.00000E+00
    0.17080E+06        -0.90922E+06         0.00000E+00
    0.00000E+00         0.00000E+00         0.00000E+00
 
    0.33329E+06         0.18405E+06         0.00000E+00
    0.18405E+06        -0.90735E+06         0.00000E+00
    0.00000E+00         0.00000E+00         0.00000E+00
 
    0.32705E+06         0.19726E+06         0.00000E+00
    0.19726E+06        -0.90534E+06         0.00000E+00
    0.00000E+00         0.00000E+00         0.00000E+00
 
    0.32063E+06         0.21040E+06         0.00000E+00
    0.21040E+06        -0.90319E+06         0.00000E+00
    0.00000E+00         0.00000E+00         0.00000E+00
 
    0.31402E+06         0.22349E+06         0.00000E+00
    0.22349E+06        -0.90091E+06         0.00000E+00
    0.00000E+00         0.00000E+00         0.00000E+00
 
    0.30723E+06         0.23652E+06         0.00000E+00
    0.23652E+06        -0.89850E+06         0.00000E+00
    0.00000E+00         0.00000E+00         0.00000E+00
 
    0.30026E+06         0.24950E+06         0.00000E+00
    0.24950E+06        -0.89596E+06         0.00000E+00
    0.00000E+00         0.00000E+00         0.00000E+00
 
    0.29311E+06         0.26242E+06         0.00000E+00
    0.26242E+06        -0.89328E+06         0.00000E+00
    0.00000E+00         0.00000E+00         0.00000E+00
 
    0.28578E+06         0.27529E+06         0.00000E+00
    0.27529E+06        -0.89048E+06         0.00000E+00
    0.00000E+00         0.00000E+00         0.00000E+00
 
    0.27828E+06         0.28810E+06         0.00000E+00
    0.28810E+06        -0.88756E+06         0.00000E+00
    0.00000E+00         0.00000E+00         0.00000E+00
 
    0.27060E+06         0.30086E+06         0.00000E+00
    0.30086E+06        -0.88451E+06         0.00000E+00
    0.00000E+00         0.00000E+00         0.00000E+00
 
    0.26275E+06         0.31356E+06         0.00000E+00
    0.31356E+06        -0.88133E+06         0.00000E+00
    0.00000E+00         0.00000E+00         0.00000E+00
 
    0.25473E+06         0.32621E+06         0.00000E+00
    0.32621E+06        -0.87804E+06         0.00000E+00
    0.00000E+00         0.00000E+00         0.00000E+00
 
    0.24654E+06         0.33880E+06         0.00000E+00
    0.33880E+06        -0.87462E+06         0.00000E+00
    0.00000E+00         0.00000E+00         0.00000E+00
 
    0.23819E+06         0.35134E+06         0.00000E+00
    0.35134E+06        -0.87109E+06         0.00000E+00
    0.00000E+00         0.00000E+00         0.00000E+00
 
    0.22968E+06         0.36382E+06         0.00000E+00
    0.36382E+06        -0.86744E+06         0.00000E+00
    0.00000E+00         0.00000E+00         0.00000E+00
 
    0.22101E+06         0.37625E+06         0.00000E+00
    0.37625E+06        -0.86367E+06         0.00000E+00
    0.00000E+00         0.00000E+00         0.00000E+00
 
    0.21217E+06         0.38862E+06         0.00000E+00
    0.38862E+06        -0.85980E+06         0.00000E+00
    0.00000E+00         0.00000E+00         0.00000E+00
 
    0.20318E+06         0.40094E+06         0.00000E+00
    0.40094E+06        -0.85581E+06         0.00000E+00
    0.00000E+00         0.00000E+00         0.00000E+00
 
    0.19404E+06         0.41320E+06         0.00000E+00
    0.41320E+06        -0.85171E+06         0.00000E+00
    0.00000E+00         0.00000E+00         0.00000E+00
 
    0.18475E+06         0.42540E+06         0.00000E+00
    0.42540E+06        -0.84751E+06         0.00000E+00
    0.00000E+00         0.00000E+00         0.00000E+00
 
    0.17530E+06         0.43755E+06         0.00000E+00
    0.43755E+06        -0.84320E+06         0.00000E+00
    0.00000E+00         0.00000E+00         0.00000E+00
 
    0.16571E+06         0.44963E+06         0.00000E+00
    0.44963E+06        -0.83878E+06         0.00000E+00
    0.00000E+00         0.00000E+00         0.00000E+00
 
    0.15598E+06         0.46167E+06         0.00000E+00
    0.46167E+06        -0.83427E+06         0.00000E+00
    0.00000E+00         0.00000E+00         0.00000E+00
 
    0.14610E+06         0.47364E+06         0.00000E+00
    0.47364E+06        -0.82965E+06         0.00000E+00
    0.00000E+00         0.00000E+00         0.00000E+00
 
    0.13608E+06         0.48555E+06         0.00000E+00
    0.48555E+06        -0.82494E+06         0.00000E+00
    0.00000E+00         0.00000E+00         0.00000E+00
 
    0.12593E+06         0.49741E+06         0.00000E+00
    0.49741E+06        -0.82013E+06         0.00000E+00
    0.00000E+00         0.00000E+00         0.00000E+00
 
    0.11563E+06         0.50920E+06         0.00000E+00
    0.50920E+06        -0.81523E+06         0.00000E+00
    0.00000E+00         0.00000E+00         0.00000E+00
 
    0.10521E+06         0.52093E+06         0.00000E+00
    0.52093E+06        -0.81023E+06         0.00000E+00
    0.00000E+00         0.00000E+00         0.00000E+00
 
    0.94656E+05         0.53261E+06         0.00000E+00
    0.53261E+06        -0.80515E+06         0.00000E+00
    0.00000E+00         0.00000E+00         0.00000E+00
 
    0.83973E+05         0.54422E+06         0.00000E+00
    0.54422E+06        -0.79997E+06         0.00000E+00
    0.00000E+00         0.00000E+00         0.00000E+00
 
    0.73163E+05         0.55576E+06         0.00000E+00
    0.55576E+06        -0.79471E+06         0.00000E+00
    0.00000E+00         0.00000E+00         0.00000E+00
 
    0.62230E+05         0.56725E+06         0.00000E+00
    0.56725E+06        -0.78937E+06         0.00000E+00
    0.00000E+00         0.00000E+00         0.00000E+00
 
    0.51175E+05         0.57867E+06         0.00000E+00
    0.57867E+06        -0.78394E+06         0.00000E+00
    0.00000E+00         0.00000E+00         0.00000E+00
 
    0.40001E+05         0.59002E+06         0.00000E+00
    0.59002E+06        -0.77843E+06         0.00000E+00
    0.00000E+00         0.00000E+00         0.00000E+00
 
    0.28710E+05         0.60131E+06         0.00000E+00
    0.60131E+06        -0.77284E+06         0.00000E+00
    0.00000E+00         0.00000E+00         0.00000E+00
 
    0.17305E+05         0.61253E+06         0.00000E+00
    0.61253E+06        -0.76717E+06         0.00000E+00
    0.00000E+00         0.00000E+00         0.00000E+00
 
    0.57867E+04         0.62369E+06         0.00000E+00
    0.62369E+06        -0.76143E+06         0.00000E+00
    0.00000E+00         0.00000E+00         0.00000E+00
 
    0.41210E+06         0.74383E+04         0.00000E+00
    0.74383E+04        -0.97712E+06         0.00000E+00
    0.00000E+00         0.00000E+00         0.00000E+00
 
    0.40808E+06         0.22132E+05         0.00000E+00
    0.22132E+05        -0.97697E+06         0.00000E+00
    0.00000E+00         0.00000E+00         0.00000E+00
 
    0.40386E+06         0.36760E+05         0.00000E+00
    0.36760E+05        -0.97667E+06         0.00000E+00
    0.00000E+00         0.00000E+00         0.00000E+00
 
    0.39945E+06         0.51323E+05         0.00000E+00
    0.51323E+05        -0.97622E+06         0.00000E+00
    0.00000E+00         0.00000E+00         0.00000E+00
 
    0.39484E+06         0.65821E+05         0.00000E+00
    0.65821E+05        -0.97563E+06         0.00000E+00
    0.00000E+00         0.00000E+00         0.00000E+00
 
    0.39003E+06         0.80254E+05         0.00000E+00
    0.80254E+05        -0.97488E+06         0.00000E+00
    0.00000E+00         0.00000E+00         0.00000E+00
 
    0.38503E+06         0.94624E+05         0.00000E+00
    0.94624E+05        -0.97399E+06         0.00000E+00
    0.00000E+00         0.00000E+00         0.00000E+00
 
    0.37983E+06         0.10893E+06         0.00000E+00
    0.10893E+06        -0.97295E+06         0.00000E+00
    0.00000E+00         0.00000E+00         0.00000E+00
 
    0.37444E+06         0.12317E+06         0.00000E+00
    0.12317E+06        -0.97177E+06         0.00000E+00
    0.00000E+00         0.00000E+00         0.00000E+00
 
    0.36886E+06         0.13735E+06         0.00000E+00
    0.13735E+06        -0.97044E+06         0.00000E+00
    0.00000E+00         0.00000E+00         0.00000E+00
 
    0.36308E+06         0.15147E+06         0.00000E+00
    0.15147E+06        -0.96897E+06         0.00000E+00
    0.00000E+00         0.00000E+00         0.00000E+00
 
    0.35712E+06         0.16552E+06         0.00000E+00
    0.16552E+06        -0.96736E+06         0.00000E+00
    0.00000E+00         0.00000E+00         0.00000E+00
 
    0.35096E+06         0.17951E+06         0.00000E+00
    0.17951E+06        -0.96561E+06         0.00000E+00
    0.00000E+00         0.00000E+00         0.00000E+00
 
    0.34462E+06         0.19344E+06         0.00000E+00
    0.19344E+06        -0.96371E+06         0.00000E+00
    0.00000E+00         0.00000E+00         0.00000E+00
 
    0.33809E+06         0.20731E+06         0.00000E+00
    0.20731E+06        -0.96168E+06         0.00000E+00
    0.00000E+00         0.00000E+00         0.00000E+00
 
    0.33137E+06         0.22112E+06         0.00000E+00
    0.22112E+06        -0.95951E+06         0.00000E+00
    0.00000E+00         0.00000E+00         0.00000E+00
 
    0.32447E+06         0.23487E+06         0.00000E+00
    0.23487E+06        -0.95720E+06         0.00000E+00
    0.00000E+00         0.00000E+00         0.00000E+00
 
    0.31739E+06         0.24855E+06         0.00000E+00
    0.24855E+06        -0.95476E+06         0.00000E+00
    0.00000E+00         0.00000E+00         0.00000E+00
 
    0.31013E+06         0.26218E+06         0.00000E+00
    0.26218E+06        -0.95218E+06         0.00000E+00
    0.00000E+00         0.00000E+00         0.00000E+00
 
    0.30269E+06         0.27574E+06         0.00000E+00
    0.27574E+06        -0.94947E+06         0.00000E+00
    0.00000E+00         0.00000E+00         0.00000E+00
 
    0.29507E+06         0.28924E+06         0.00000E+00
    0.28924E+06        -0.94663E+06         0.00000E+00
    0.00000E+00         0.00000E+00         0.00000E+00
 
    0.28728E+06         0.30268E+06         0.00000E+00
    0.30268E+06        -0.94366E+06         0.00000E+00
    0.00000E+00         0.00000E+00         0.00000E+00
 
    0.27931E+06         0.31606E+06         0.00000E+00
    0.31606E+06        -0.94056E+06         0.00000E+00
    0.00000E+00         0.00000E+00         0.00000E+00
 
    0.27117E+06         0.32938E+06         0.00000E+00
    0.32938E+06        -0.93734E+06         0.00000E+00
    0.00000E+00         0.00000E+00         0.00000E+00
 
    0.26286E+06         0.34263E+06         0.00000E+00
    0.34263E+06        -0.93399E+06         0.00000E+00
    0.00000E+00         0.00000E+00         0.00000E+00
 
    0.25439E+06         0.35583E+06         0.00000E+00
    0.35583E+06        -0.93051E+06         0.00000E+00
    0.00000E+00         0.00000E+00         0.00000E+00
 
    0.24574E+06         0.36896E+06         0.00000E+00
    0.36896E+06        -0.92692E+06         0.00000E+00
    0.00000E+00         0.00000E+00         0.00000E+00
 
    0.23694E+06         0.38203E+06         0.00000E+00
    0.38203E+06        -0.92320E+06         0.00000E+00
    0.00000E+00         0.00000E+00         0.00000E+00
 
    0.22797E+06         0.39504E+06         0.00000E+00
    0.39504E+06        -0.91937E+06         0.00000E+00
    0.00000E+00         0.00000E+00         0.00000E+00
 
    0.21884E+06         0.40799E+06         0.00000E+00
    0.40799E+06        -0.91542E+06         0.00000E+00
    0.00000E+00         0.00000E+00         0.00000E+00
 
    0.20956E+06         0.42087E+06         0.00000E+00
    0.42087E+06        -0.91136E+06         0.00000E+00
    0.00000E+00         0.00000E+00         0.00000E+00
 
    0.20011E+06         0.43369E+06         0.00000E+00
    0.43369E+06        -0.90718E+06         0.00000E+00
    0.00000E+00         0.00000E+00         0.00000E+00
 
    0.19052E+06         0.44645E+06         0.00000E+00
    0.44645E+06        -0.90289E+06         0.00000E+00
    0.00000E+00         0.00000E+00         0.00000E+00
 
    0.18077E+06         0.45914E+06         0.00000E+00
    0.45914E+06        -0.89849E+06         0.00000E+00
    0.00000E+00         0.00000E+00         0.00000E+00
 
    0.17087E+06         0.47177E+06         0.00000E+00
    0.47177E+06        -0.89398E+06         0.00000E+00
    0.00000E+00         0.00000E+00         0.00000E+00
 
    0.16083E+06         0.48433E+06         0.00000E+00
    0.48433E+06        -0.88936E+06         0.00000E+00
    0.00000E+00         0.00000E+00         0.00000E+00
 
    0.15064E+06         0.49683E+06         0.00000E+00
    0.49683E+06        -0.88465E+06         0.00000E+00
    0.00000E+00         0.00000E+00         0.00000E+00
 
    0.14031E+06         0.50926E+06         0.00000E+00
    0.50926E+06        -0.87982E+06         0.00000E+00
    0.00000E+00         0.00000E+00         0.00000E+00
 
    0.12983E+06         0.52162E+06         0.00000E+00
    0.52162E+06        -0.87490E+06         0.00000E+00
    0.00000E+00         0.00000E+00         0.00000E+00
 
    0.11922E+06         0.53392E+06         0.00000E+00
    0.53392E+06        -0.86988E+06         0.00000E+00
    0.00000E+00         0.00000E+00         0.00000E+00
 
    0.10847E+06         0.54614E+06         0.00000E+00
    0.54614E+06        -0.86476E+06         0.00000E+00
    0.00000E+00         0.00000E+00         0.00000E+00
 
    0.97592E+05         0.55830E+06         0.00000E+00
    0.55830E+06        -0.85954E+06         0.00000E+00
    0.00000E+00         0.00000E+00         0.00000E+00
 
    0.86578E+05         0.57039E+06         0.00000E+00
    0.57039E+06        -0.85423E+06         0.00000E+00
    0.00000E+00         0.00000E+00         0.00000E+00
 
    0.75434E+05         0.58241E+06         0.00000E+00
    0.58241E+06        -0.84883E+06         0.00000E+00
    0.00000E+00         0.00000E+00         0.00000E+00
 
    0.64162E+05         0.59436E+06         0.00000E+00
    0.59436E+06        -0.84333E+06         0.00000E+00
    0.00000E+00         0.00000E+00         0.00000E+00
 
    0.52765E+05         0.60623E+06         0.00000E+00
    0.60623E+06        -0.83775E+06         0.00000E+00
    0.00000E+00         0.00000E+00         0.00000E+00
 
    0.41245E+05         0.61803E+06         0.00000E+00
    0.61803E+06        -0.83208E+06         0.00000E+00
    0.00000E+00         0.00000E+00         0.00000E+00
 
    0.29603E+05         0.62976E+06         0.00000E+00
    0.62976E+06        -0.82633E+06         0.00000E+00
    0.00000E+00         0.00000E+00         0.00000E+00
 
    0.17843E+05         0.64142E+06         0.00000E+00
    0.64142E+06        -0.82050E+06         0.00000E+00
    0.00000E+00         0.00000E+00         0.00000E+00
 
    0.59671E+04         0.65300E+06         0.00000E+00
    0.65300E+06        -0.81458E+06         0.00000E+00
    0.00000E+00         0.00000E+00         0.00000E+00
 
    0.42885E+06         0.77983E+04         0.00000E+00
    0.77983E+04        -0.10358E+07         0.00000E+00
    0.00000E+00         0.00000E+00         0.00000E+00
 
    0.42450E+06         0.23210E+05         0.00000E+00
    0.23210E+05        -0.10356E+07         0.00000E+00
    0.00000E+00         0.00000E+00         0.00000E+00
 
    0.41995E+06         0.38556E+05         0.00000E+00
    0.38556E+05        -0.10353E+07         0.00000E+00
    0.00000E+00         0.00000E+00         0.00000E+00
 
    0.41521E+06         0.53834E+05         0.00000E+00
    0.53834E+05        -0.10349E+07         0.00000E+00
    0.00000E+00         0.00000E+00         0.00000E+00
 
    0.41027E+06         0.69046E+05         0.00000E+00
    0.69046E+05        -0.10343E+07         0.00000E+00
    0.00000E+00         0.00000E+00         0.00000E+00
 
    0.40514E+06         0.84191E+05         0.00000E+00
    0.84191E+05        -0.10335E+07         0.00000E+00
    0.00000E+00         0.00000E+00         0.00000E+00
 
    0.39981E+06         0.99270E+05         0.00000E+00
    0.99270E+05        -0.10326E+07         0.00000E+00
    0.00000E+00         0.00000E+00         0.00000E+00
 
    0.39429E+06         0.11428E+06         0.00000E+00
    0.11428E+06        -0.10316E+07         0.00000E+00
    0.00000E+00         0.00000E+00         0.00000E+00
 
    0.38858E+06         0.12923E+06         0.00000E+00
    0.12923E+06        -0.10304E+07         0.00000E+00
    0.00000E+00         0.00000E+00         0.00000E+00
 
    0.38267E+06         0.14411E+06         0.00000E+00
    0.14411E+06        -0.10290E+07         0.00000E+00
    0.00000E+00         0.00000E+00         0.00000E+00
 
    0.37658E+06         0.15892E+06         0.00000E+00
    0.15892E+06        -0.10275E+07         0.00000E+00
    0.00000E+00         0.00000E+00         0.00000E+00
 
    0.37029E+06         0.17367E+06         0.00000E+00
    0.17367E+06        -0.10259E+07         0.00000E+00
    0.00000E+00         0.00000E+00         0.00000E+00
 
    0.36382E+06         0.18835E+06         0.00000E+00
    0.18835E+06        -0.10241E+07         0.00000E+00
    0.00000E+00         0.00000E+00         0.00000E+00
 
    0.35716E+06         0.20297E+06         0.00000E+00
    0.20297E+06        -0.10222E+07         0.00000E+00
    0.00000E+00         0.00000E+00         0.00000E+00
 
    0.35031E+06         0.21752E+06         0.00000E+00
    0.21752E+06        -0.10201E+07         0.00000E+00
    0.00000E+00         0.00000E+00         0.00000E+00
 
    0.34328E+06         0.23200E+06         0.00000E+00
    0.23200E+06        -0.10179E+07         0.00000E+00
    0.00000E+00         0.00000E+00         0.00000E+00
 
    0.33606E+06         0.24642E+06         0.00000E+00
    0.24642E+06        -0.10155E+07         0.00000E+00
    0.00000E+00         0.00000E+00         0.00000E+00
 
    0.32866E+06         0.26077E+06         0.00000E+00
    0.26077E+06        -0.10131E+07         0.00000E+00
    0.00000E+00         0.00000E+00         0.00000E+00
 
    0.32108E+06         0.27506E+06         0.00000E+00
    0.27506E+06        -0.10104E+07         0.00000E+00
    0.00000E+00         0.00000E+00         0.00000E+00
 
    0.31333E+06         0.28928E+06         0.00000E+00
    0.28928E+06        -0.10077E+07         0.00000E+00
    0.00000E+00         0.00000E+00         0.00000E+00
 
    0.30539E+06         0.30343E+06         0.00000E+00
    0.30343E+06        -0.10048E+07         0.00000E+00
    0.00000E+00         0.00000E+00         0.00000E+00
 
    0.29728E+06         0.31752E+06         0.00000E+00
    0.31752E+06        -0.10018E+07         0.00000E+00
    0.00000E+00         0.00000E+00         0.00000E+00
 
    0.28899E+06         0.33154E+06         0.00000E+00
    0.33154E+06        -0.99860E+06         0.00000E+00
    0.00000E+00         0.00000E+00         0.00000E+00
 
    0.28053E+06         0.34549E+06         0.00000E+00
    0.34549E+06        -0.99531E+06         0.00000E+00
    0.00000E+00         0.00000E+00         0.00000E+00
 
    0.27190E+06         0.35937E+06         0.00000E+00
    0.35937E+06        -0.99189E+06         0.00000E+00
    0.00000E+00         0.00000E+00         0.00000E+00
 
    0.26310E+06         0.37319E+06         0.00000E+00
    0.37319E+06        -0.98834E+06         0.00000E+00
    0.00000E+00         0.00000E+00         0.00000E+00
 
    0.25414E+06         0.38694E+06         0.00000E+00
    0.38694E+06        -0.98467E+06         0.00000E+00
    0.00000E+00         0.00000E+00         0.00000E+00
 
    0.24500E+06         0.40062E+06         0.00000E+00
    0.40062E+06        -0.98088E+06         0.00000E+00
    0.00000E+00         0.00000E+00         0.00000E+00
 
    0.23571E+06         0.41423E+06         0.00000E+00
    0.41423E+06        -0.97696E+06         0.00000E+00
    0.00000E+00         0.00000E+00         0.00000E+00
 
    0.22625E+06         0.42777E+06         0.00000E+00
    0.42777E+06        -0.97292E+06         0.00000E+00
    0.00000E+00         0.00000E+00         0.00000E+00
 
    0.21663E+06         0.44125E+06         0.00000E+00
    0.44125E+06        -0.96876E+06         0.00000E+00
    0.00000E+00         0.00000E+00         0.00000E+00
 
    0.20686E+06         0.45465E+06         0.00000E+00
    0.45465E+06        -0.96448E+06         0.00000E+00
    0.00000E+00         0.00000E+00         0.00000E+00
 
    0.19692E+06         0.46798E+06         0.00000E+00
    0.46798E+06        -0.96009E+06         0.00000E+00
    0.00000E+00         0.00000E+00         0.00000E+00
 
    0.18684E+06         0.48124E+06         0.00000E+00
    0.48124E+06        -0.95558E+06         0.00000E+00
    0.00000E+00         0.00000E+00         0.00000E+00
 
    0.17660E+06         0.49443E+06         0.00000E+00
    0.49443E+06        -0.95096E+06         0.00000E+00
    0.00000E+00         0.00000E+00         0.00000E+00
 
    0.16621E+06         0.50755E+06         0.00000E+00
    0.50755E+06        -0.94623E+06         0.00000E+00
    0.00000E+00         0.00000E+00         0.00000E+00
 
    0.15568E+06         0.52060E+06         0.00000E+00
    0.52060E+06        -0.94139E+06         0.00000E+00
    0.00000E+00         0.00000E+00         0.00000E+00
 
    0.14499E+06         0.53357E+06         0.00000E+00
    0.53357E+06        -0.93644E+06         0.00000E+00
    0.00000E+00         0.00000E+00         0.00000E+00
 
    0.13417E+06         0.54647E+06         0.00000E+00
    0.54647E+06        -0.93138E+06         0.00000E+00
    0.00000E+00         0.00000E+00         0.00000E+00
 
    0.12320E+06         0.55929E+06         0.00000E+00
    0.55929E+06        -0.92622E+06         0.00000E+00
    0.00000E+00         0.00000E+00         0.00000E+00
 
    0.11209E+06         0.57204E+06         0.00000E+00
    0.57204E+06        -0.92095E+06         0.00000E+00
    0.00000E+00         0.00000E+00         0.00000E+00
 
    0.10084E+06         0.58471E+06         0.00000E+00
    0.58471E+06        -0.91559E+06         0.00000E+00
    0.00000E+00         0.00000E+00         0.00000E+00
 
    0.89460E+05         0.59730E+06         0.00000E+00
    0.59730E+06        -0.91012E+06         0.00000E+00
    0.00000E+00         0.00000E+00         0.00000E+00
 
    0.77945E+05         0.60982E+06         0.00000E+00
    0.60982E+06        -0.90456E+06         0.00000E+00
    0.00000E+00         0.00000E+00         0.00000E+00
 
    0.66298E+05         0.62226E+06         0.00000E+00
    0.62226E+06        -0.89890E+06         0.00000E+00
    0.00000E+00         0.00000E+00         0.00000E+00
 
    0.54522E+05         0.63462E+06         0.00000E+00
    0.63462E+06        -0.89315E+06         0.00000E+00
    0.00000E+00         0.00000E+00         0.00000E+00
 
    0.42618E+05         0.64690E+06         0.00000E+00
    0.64690E+06        -0.88731E+06         0.00000E+00
    0.00000E+00         0.00000E+00         0.00000E+00
 
    0.30590E+05         0.65910E+06         0.00000E+00
    0.65910E+06        -0.88137E+06         0.00000E+00
    0.00000E+00         0.00000E+00         0.00000E+00
 
    0.18438E+05         0.67122E+06         0.00000E+00
    0.67122E+06        -0.87535E+06         0.00000E+00
    0.00000E+00         0.00000E+00         0.00000E+00
 
    0.61660E+04         0.68325E+06         0.00000E+00
    0.68325E+06        -0.86924E+06         0.00000E+00
    0.00000E+00         0.00000E+00         0.00000E+00
 
    0.44691E+06         0.81646E+04         0.00000E+00
    0.81646E+04        -0.10968E+07         0.00000E+00
    0.00000E+00         0.00000E+00         0.00000E+00
 
    0.44222E+06         0.24307E+05         0.00000E+00
    0.24307E+05        -0.10966E+07         0.00000E+00
    0.00000E+00         0.00000E+00         0.00000E+00
 
    0.43734E+06         0.40382E+05         0.00000E+00
    0.40382E+05        -0.10963E+07         0.00000E+00
    0.00000E+00         0.00000E+00         0.00000E+00
 
    0.43226E+06         0.56389E+05         0.00000E+00
    0.56389E+05        -0.10959E+07         0.00000E+00
    0.00000E+00         0.00000E+00         0.00000E+00
 
    0.42698E+06         0.72328E+05         0.00000E+00
    0.72328E+05        -0.10953E+07         0.00000E+00
    0.00000E+00         0.00000E+00         0.00000E+00
 
    0.42151E+06         0.88198E+05         0.00000E+00
    0.88198E+05        -0.10945E+07         0.00000E+00
    0.00000E+00         0.00000E+00         0.00000E+00
 
    0.41585E+06         0.10400E+06         0.00000E+00
    0.10400E+06        -0.10936E+07         0.00000E+00
    0.00000E+00         0.00000E+00         0.00000E+00
 
    0.40999E+06         0.11973E+06         0.00000E+00
    0.11973E+06        -0.10925E+07         0.00000E+00
    0.00000E+00         0.00000E+00         0.00000E+00
 
    0.40394E+06         0.13540E+06         0.00000E+00
    0.13540E+06        -0.10913E+07         0.00000E+00
    0.00000E+00         0.00000E+00         0.00000E+00
 
    0.39770E+06         0.15099E+06         0.00000E+00
    0.15099E+06        -0.10899E+07         0.00000E+00
    0.00000E+00         0.00000E+00         0.00000E+00
 
    0.39127E+06         0.16652E+06         0.00000E+00
    0.16652E+06        -0.10884E+07         0.00000E+00
    0.00000E+00         0.00000E+00         0.00000E+00
 
    0.38464E+06         0.18197E+06         0.00000E+00
    0.18197E+06        -0.10867E+07         0.00000E+00
    0.00000E+00         0.00000E+00         0.00000E+00
 
    0.37783E+06         0.19736E+06         0.00000E+00
    0.19736E+06        -0.10849E+07         0.00000E+00
    0.00000E+00         0.00000E+00         0.00000E+00
 
    0.37083E+06         0.21268E+06         0.00000E+00
    0.21268E+06        -0.10829E+07         0.00000E+00
    0.00000E+00         0.00000E+00         0.00000E+00
 
    0.36365E+06         0.22792E+06         0.00000E+00
    0.22792E+06        -0.10808E+07         0.00000E+00
    0.00000E+00         0.00000E+00         0.00000E+00
 
    0.35627E+06         0.24310E+06         0.00000E+00
    0.24310E+06        -0.10785E+07         0.00000E+00
    0.00000E+00         0.00000E+00         0.00000E+00
 
    0.34872E+06         0.25821E+06         0.00000E+00
    0.25821E+06        -0.10761E+07         0.00000E+00
    0.00000E+00         0.00000E+00         0.00000E+00
 
    0.34098E+06         0.27324E+06         0.00000E+00
    0.27324E+06        -0.10736E+07         0.00000E+00
    0.00000E+00         0.00000E+00         0.00000E+00
 
    0.33306E+06         0.28821E+06         0.00000E+00
    0.28821E+06        -0.10709E+07         0.00000E+00
    0.00000E+00         0.00000E+00         0.00000E+00
 
    0.32496E+06         0.30310E+06         0.00000E+00
    0.30310E+06        -0.10681E+07         0.00000E+00
    0.00000E+00         0.00000E+00         0.00000E+00
 
    0.31668E+06         0.31793E+06         0.00000E+00
    0.31793E+06        -0.10651E+07         0.00000E+00
    0.00000E+00         0.00000E+00         0.00000E+00
 
    0.30822E+06         0.33268E+06         0.00000E+00
    0.33268E+06        -0.10620E+07         0.00000E+00
    0.00000E+00         0.00000E+00         0.00000E+00
 
    0.29959E+06         0.34735E+06         0.00000E+00
    0.34735E+06        -0.10588E+07         0.00000E+00
    0.00000E+00         0.00000E+00         0.00000E+00
 
    0.29078E+06         0.36196E+06         0.00000E+00
    0.36196E+06        -0.10554E+07         0.00000E+00
    0.00000E+00         0.00000E+00         0.00000E+00
 
    0.28180E+06         0.37649E+06         0.00000E+00
    0.37649E+06        -0.10519E+07         0.00000E+00
    0.00000E+00         0.00000E+00         0.00000E+00
 
    0.27265E+06         0.39095E+06         0.00000E+00
    0.39095E+06        -0.10483E+07         0.00000E+00
    0.00000E+00         0.00000E+00         0.00000E+00
 
    0.26333E+06         0.40534E+06         0.00000E+00
    0.40534E+06        -0.10445E+07         0.00000E+00
    0.00000E+00         0.00000E+00         0.00000E+00
 
    0.25384E+06         0.41965E+06         0.00000E+00
    0.41965E+06        -0.10406E+07         0.00000E+00
    0.00000E+00         0.00000E+00         0.00000E+00
 
    0.24418E+06         0.43389E+06         0.00000E+00
    0.43389E+06        -0.10366E+07         0.00000E+00
    0.00000E+00         0.00000E+00         0.00000E+00
 
    0.23436E+06         0.44805E+06         0.00000E+00
    0.44805E+06        -0.10325E+07         0.00000E+00
    0.00000E+00         0.00000E+00         0.00000E+00
 
    0.22438E+06         0.46214E+06         0.00000E+00
    0.46214E+06        -0.10282E+07         0.00000E+00
    0.00000E+00         0.00000E+00         0.00000E+00
 
    0.21424E+06         0.47615E+06         0.00000E+00
    0.47615E+06        -0.10238E+07         0.00000E+00
    0.00000E+00         0.00000E+00         0.00000E+00
 
    0.20394E+06         0.49008E+06         0.00000E+00
    0.49008E+06        -0.10193E+07         0.00000E+00
    0.00000E+00         0.00000E+00         0.00000E+00
 
    0.19348E+06         0.50393E+06         0.00000E+00
    0.50393E+06        -0.10147E+07         0.00000E+00
    0.00000E+00         0.00000E+00         0.00000E+00
 
    0.18287E+06         0.51771E+06         0.00000E+00
    0.51771E+06        -0.10099E+07         0.00000E+00
    0.00000E+00         0.00000E+00         0.00000E+00
 
    0.17210E+06         0.53141E+06         0.00000E+00
    0.53141E+06        -0.10050E+07         0.00000E+00
    0.00000E+00         0.00000E+00         0.00000E+00
 
    0.16119E+06         0.54503E+06         0.00000E+00
    0.54503E+06        -0.10001E+07         0.00000E+00
    0.00000E+00         0.00000E+00         0.00000E+00
 
    0.15012E+06         0.55857E+06         0.00000E+00
    0.55857E+06        -0.99496E+06         0.00000E+00
    0.00000E+00         0.00000E+00         0.00000E+00
 
    0.13890E+06         0.57203E+06         0.00000E+00
    0.57203E+06        -0.98975E+06         0.00000E+00
    0.00000E+00         0.00000E+00         0.00000E+00
 
    0.12754E+06         0.58541E+06         0.00000E+00
    0.58541E+06        -0.98444E+06         0.00000E+00
    0.00000E+00         0.00000E+00         0.00000E+00
 
    0.11604E+06         0.59870E+06         0.00000E+00
    0.59870E+06        -0.97901E+06         0.00000E+00
    0.00000E+00         0.00000E+00         0.00000E+00
 
    0.10440E+06         0.61191E+06         0.00000E+00
    0.61191E+06        -0.97348E+06         0.00000E+00
    0.00000E+00         0.00000E+00         0.00000E+00
 
    0.92610E+05         0.62504E+06         0.00000E+00
    0.62504E+06        -0.96785E+06         0.00000E+00
    0.00000E+00         0.00000E+00         0.00000E+00
 
    0.80688E+05         0.63809E+06         0.00000E+00
    0.63809E+06        -0.96211E+06         0.00000E+00
    0.00000E+00         0.00000E+00         0.00000E+00
 
    0.68631E+05         0.65105E+06         0.00000E+00
    0.65105E+06        -0.95627E+06         0.00000E+00
    0.00000E+00         0.00000E+00         0.00000E+00
 
    0.56440E+05         0.66392E+06         0.00000E+00
    0.66392E+06        -0.95032E+06         0.00000E+00
    0.00000E+00         0.00000E+00         0.00000E+00
 
    0.44117E+05         0.67671E+06         0.00000E+00
    0.67671E+06        -0.94428E+06         0.00000E+00
    0.00000E+00         0.00000E+00         0.00000E+00
 
    0.31666E+05         0.68940E+06         0.00000E+00
    0.68940E+06        -0.93815E+06         0.00000E+00
    0.00000E+00         0.00000E+00         0.00000E+00
 
    0.19087E+05         0.70201E+06         0.00000E+00
    0.70201E+06        -0.93192E+06         0.00000E+00
    0.00000E+00         0.00000E+00         0.00000E+00
 
    0.63830E+04         0.71453E+06         0.00000E+00
    0.71453E+06        -0.92560E+06         0.00000E+00
    0.00000E+00         0.00000E+00         0.00000E+00
 
    0.46619E+06         0.85392E+04         0.00000E+00
    0.85392E+04        -0.11603E+07         0.00000E+00
    0.00000E+00         0.00000E+00         0.00000E+00
 
    0.46116E+06         0.25429E+05         0.00000E+00
    0.25429E+05        -0.11601E+07         0.00000E+00
    0.00000E+00         0.00000E+00         0.00000E+00
 
    0.45593E+06         0.42250E+05         0.00000E+00
    0.42250E+05        -0.11598E+07         0.00000E+00
    0.00000E+00         0.00000E+00         0.00000E+00
 
    0.45051E+06         0.59002E+05         0.00000E+00
    0.59002E+05        -0.11593E+07         0.00000E+00
    0.00000E+00         0.00000E+00         0.00000E+00
 
    0.44489E+06         0.75684E+05         0.00000E+00
    0.75684E+05        -0.11587E+07         0.00000E+00
    0.00000E+00         0.00000E+00         0.00000E+00
 
    0.43907E+06         0.92295E+05         0.00000E+00
    0.92295E+05        -0.11579E+07         0.00000E+00
    0.00000E+00         0.00000E+00         0.00000E+00
 
    0.43306E+06         0.10884E+06         0.00000E+00
    0.10884E+06        -0.11569E+07         0.00000E+00
    0.00000E+00         0.00000E+00         0.00000E+00
 
    0.42686E+06         0.12531E+06         0.00000E+00
    0.12531E+06        -0.11558E+07         0.00000E+00
    0.00000E+00         0.00000E+00         0.00000E+00
 
    0.42046E+06         0.14170E+06         0.00000E+00
    0.14170E+06        -0.11546E+07         0.00000E+00
    0.00000E+00         0.00000E+00         0.00000E+00
 
    0.41386E+06         0.15803E+06         0.00000E+00
    0.15803E+06        -0.11532E+07         0.00000E+00
    0.00000E+00         0.00000E+00         0.00000E+00
 
    0.40708E+06         0.17429E+06         0.00000E+00
    0.17429E+06        -0.11516E+07         0.00000E+00
    0.00000E+00         0.00000E+00         0.00000E+00
 
    0.40010E+06         0.19047E+06         0.00000E+00
    0.19047E+06        -0.11499E+07         0.00000E+00
    0.00000E+00         0.00000E+00         0.00000E+00
 
    0.39293E+06         0.20658E+06         0.00000E+00
    0.20658E+06        -0.11480E+07         0.00000E+00
    0.00000E+00         0.00000E+00         0.00000E+00
 
    0.38558E+06         0.22261E+06         0.00000E+00
    0.22261E+06        -0.11460E+07         0.00000E+00
    0.00000E+00         0.00000E+00         0.00000E+00
 
    0.37803E+06         0.23858E+06         0.00000E+00
    0.23858E+06        -0.11438E+07         0.00000E+00
    0.00000E+00         0.00000E+00         0.00000E+00
 
    0.37030E+06         0.25447E+06         0.00000E+00
    0.25447E+06        -0.11415E+07         0.00000E+00
    0.00000E+00         0.00000E+00         0.00000E+00
 
    0.36239E+06         0.27028E+06         0.00000E+00
    0.27028E+06        -0.11391E+07         0.00000E+00
    0.00000E+00         0.00000E+00         0.00000E+00
 
    0.35428E+06         0.28602E+06         0.00000E+00
    0.28602E+06        -0.11365E+07         0.00000E+00
    0.00000E+00         0.00000E+00         0.00000E+00
 
    0.34600E+06         0.30168E+06         0.00000E+00
    0.30168E+06        -0.11337E+07         0.00000E+00
    0.00000E+00         0.00000E+00         0.00000E+00
 
    0.33753E+06         0.31727E+06         0.00000E+00
    0.31727E+06        -0.11308E+07         0.00000E+00
    0.00000E+00         0.00000E+00         0.00000E+00
 
    0.32888E+06         0.33279E+06         0.00000E+00
    0.33279E+06        -0.11278E+07         0.00000E+00
    0.00000E+00         0.00000E+00         0.00000E+00
 
    0.32005E+06         0.34822E+06         0.00000E+00
    0.34822E+06        -0.11246E+07         0.00000E+00
    0.00000E+00         0.00000E+00         0.00000E+00
 
    0.31105E+06         0.36358E+06         0.00000E+00
    0.36358E+06        -0.11213E+07         0.00000E+00
    0.00000E+00         0.00000E+00         0.00000E+00
 
    0.30187E+06         0.37886E+06         0.00000E+00
    0.37886E+06        -0.11178E+07         0.00000E+00
    0.00000E+00         0.00000E+00         0.00000E+00
 
    0.29251E+06         0.39407E+06         0.00000E+00
    0.39407E+06        -0.11142E+07         0.00000E+00
    0.00000E+00         0.00000E+00         0.00000E+00
 
    0.28298E+06         0.40919E+06         0.00000E+00
    0.40919E+06        -0.11105E+07         0.00000E+00
    0.00000E+00         0.00000E+00         0.00000E+00
 
    0.27328E+06         0.42424E+06         0.00000E+00
    0.42424E+06        -0.11066E+07         0.00000E+00
    0.00000E+00         0.00000E+00         0.00000E+00
 
    0.26340E+06         0.43920E+06         0.00000E+00
    0.43920E+06        -0.11026E+07         0.00000E+00
    0.00000E+00         0.00000E+00         0.00000E+00
 
    0.25336E+06         0.45409E+06         0.00000E+00
    0.45409E+06        -0.10985E+07         0.00000E+00
    0.00000E+00         0.00000E+00         0.00000E+00
 
    0.24315E+06         0.46889E+06         0.00000E+00
    0.46889E+06        -0.10942E+07         0.00000E+00
    0.00000E+00         0.00000E+00         0.00000E+00
 
    0.23278E+06         0.48362E+06         0.00000E+00
    0.48362E+06        -0.10898E+07         0.00000E+00
    0.00000E+00         0.00000E+00         0.00000E+00
 
    0.22224E+06         0.49826E+06         0.00000E+00
    0.49826E+06        -0.10853E+07         0.00000E+00
    0.00000E+00         0.00000E+00         0.00000E+00
 
    0.21154E+06         0.51282E+06         0.00000E+00
    0.51282E+06        -0.10807E+07         0.00000E+00
    0.00000E+00         0.00000E+00         0.00000E+00
 
    0.20068E+06         0.52729E+06         0.00000E+00
    0.52729E+06        -0.10759E+07         0.00000E+00
    0.00000E+00         0.00000E+00         0.00000E+00
 
    0.18966E+06         0.54168E+06         0.00000E+00
    0.54168E+06        -0.10710E+07         0.00000E+00
    0.00000E+00         0.00000E+00         0.00000E+00
 
    0.17848E+06         0.55599E+06         0.00000E+00
    0.55599E+06        -0.10660E+07         0.00000E+00
    0.00000E+00         0.00000E+00         0.00000E+00
 
    0.16715E+06         0.57021E+06         0.00000E+00
    0.57021E+06        -0.10608E+07         0.00000E+00
    0.00000E+00         0.00000E+00         0.00000E+00
 
    0.15567E+06         0.58434E+06         0.00000E+00
    0.58434E+06        -0.10556E+07         0.00000E+00
    0.00000E+00         0.00000E+00         0.00000E+00
 
    0.14403E+06         0.59839E+06         0.00000E+00
    0.59839E+06        -0.10502E+07         0.00000E+00
    0.00000E+00         0.00000E+00         0.00000E+00
 
    0.13225E+06         0.61235E+06         0.00000E+00
    0.61235E+06        -0.10447E+07         0.00000E+00
    0.00000E+00         0.00000E+00         0.00000E+00
 
    0.12032E+06         0.62622E+06         0.00000E+00
    0.62622E+06        -0.10391E+07         0.00000E+00
    0.00000E+00         0.00000E+00         0.00000E+00
 
    0.10824E+06         0.64000E+06         0.00000E+00
    0.64000E+06        -0.10334E+07         0.00000E+00
    0.00000E+00         0.00000E+00         0.00000E+00
 
    0.96019E+05         0.65369E+06         0.00000E+00
    0.65369E+06        -0.10276E+07         0.00000E+00
    0.00000E+00         0.00000E+00         0.00000E+00
 
    0.83657E+05         0.66729E+06         0.00000E+00
    0.66729E+06        -0.10216E+07         0.00000E+00
    0.00000E+00         0.00000E+00         0.00000E+00
 
    0.71155E+05         0.68080E+06         0.00000E+00
    0.68080E+06        -0.10156E+07         0.00000E+00
    0.00000E+00         0.00000E+00         0.00000E+00
 
    0.58515E+05         0.69422E+06         0.00000E+00
    0.69422E+06        -0.10095E+07         0.00000E+00
    0.00000E+00         0.00000E+00         0.00000E+00
 
    0.45739E+05         0.70754E+06         0.00000E+00
    0.70754E+06        -0.10032E+07         0.00000E+00
    0.00000E+00         0.00000E+00         0.00000E+00
 
    0.32830E+05         0.72077E+06         0.00000E+00
    0.72077E+06        -0.99685E+06         0.00000E+00
    0.00000E+00         0.00000E+00         0.00000E+00
 
    0.19788E+05         0.73390E+06         0.00000E+00
    0.73390E+06        -0.99040E+06         0.00000E+00
    0.00000E+00         0.00000E+00         0.00000E+00
 
    0.66176E+04         0.74694E+06         0.00000E+00
    0.74694E+06        -0.98384E+06         0.00000E+00
    0.00000E+00         0.00000E+00         0.00000E+00
 
    0.48663E+06         0.89240E+04         0.00000E+00
    0.89240E+04        -0.12264E+07         0.00000E+00
    0.00000E+00         0.00000E+00         0.00000E+00
 
    0.48126E+06         0.26581E+05         0.00000E+00
    0.26581E+05        -0.12262E+07         0.00000E+00
    0.00000E+00         0.00000E+00         0.00000E+00
 
    0.47568E+06         0.44168E+05         0.00000E+00
    0.44168E+05        -0.12259E+07         0.00000E+00
    0.00000E+00         0.00000E+00         0.00000E+00
 
    0.46991E+06         0.61684E+05         0.00000E+00
    0.61684E+05        -0.12254E+07         0.00000E+00
    0.00000E+00         0.00000E+00         0.00000E+00
 
    0.46393E+06         0.79129E+05         0.00000E+00
    0.79129E+05        -0.12247E+07         0.00000E+00
    0.00000E+00         0.00000E+00         0.00000E+00
 
    0.45776E+06         0.96501E+05         0.00000E+00
    0.96501E+05        -0.12239E+07         0.00000E+00
    0.00000E+00         0.00000E+00         0.00000E+00
 
    0.45139E+06         0.11380E+06         0.00000E+00
    0.11380E+06        -0.12229E+07         0.00000E+00
    0.00000E+00         0.00000E+00         0.00000E+00
 
    0.44483E+06         0.13103E+06         0.00000E+00
    0.13103E+06        -0.12218E+07         0.00000E+00
    0.00000E+00         0.00000E+00         0.00000E+00
 
    0.43806E+06         0.14818E+06         0.00000E+00
    0.14818E+06        -0.12205E+07         0.00000E+00
    0.00000E+00         0.00000E+00         0.00000E+00
 
    0.43111E+06         0.16526E+06         0.00000E+00
    0.16526E+06        -0.12191E+07         0.00000E+00
    0.00000E+00         0.00000E+00         0.00000E+00
 
    0.42395E+06         0.18226E+06         0.00000E+00
    0.18226E+06        -0.12175E+07         0.00000E+00
    0.00000E+00         0.00000E+00         0.00000E+00
 
    0.41661E+06         0.19919E+06         0.00000E+00
    0.19919E+06        -0.12157E+07         0.00000E+00
    0.00000E+00         0.00000E+00         0.00000E+00
 
    0.40907E+06         0.21604E+06         0.00000E+00
    0.21604E+06        -0.12138E+07         0.00000E+00
    0.00000E+00         0.00000E+00         0.00000E+00
 
    0.40134E+06         0.23282E+06         0.00000E+00
    0.23282E+06        -0.12117E+07         0.00000E+00
    0.00000E+00         0.00000E+00         0.00000E+00
 
    0.39342E+06         0.24952E+06         0.00000E+00
    0.24952E+06        -0.12095E+07         0.00000E+00
    0.00000E+00         0.00000E+00         0.00000E+00
 
    0.38531E+06         0.26614E+06         0.00000E+00
    0.26614E+06        -0.12071E+07         0.00000E+00
    0.00000E+00         0.00000E+00         0.00000E+00
 
    0.37701E+06         0.28268E+06         0.00000E+00
    0.28268E+06        -0.12046E+07         0.00000E+00
    0.00000E+00         0.00000E+00         0.00000E+00
 
    0.36853E+06         0.29915E+06         0.00000E+00
    0.29915E+06        -0.12019E+07         0.00000E+00
    0.00000E+00         0.00000E+00         0.00000E+00
 
    0.35986E+06         0.31554E+06         0.00000E+00
    0.31554E+06        -0.11990E+07         0.00000E+00
    0.00000E+00         0.00000E+00         0.00000E+00
 
    0.35100E+06         0.33184E+06         0.00000E+00
    0.33184E+06        -0.11961E+07         0.00000E+00
    0.00000E+00         0.00000E+00         0.00000E+00
 
    0.34196E+06         0.34807E+06         0.00000E+00
    0.34807E+06        -0.11929E+07         0.00000E+00
    0.00000E+00         0.00000E+00         0.00000E+00
 
    0.33274E+06         0.36421E+06         0.00000E+00
    0.36421E+06        -0.11897E+07         0.00000E+00
    0.00000E+00         0.00000E+00         0.00000E+00
 
    0.32334E+06         0.38027E+06         0.00000E+00
    0.38027E+06        -0.11862E+07         0.00000E+00
    0.00000E+00         0.00000E+00         0.00000E+00
 
    0.31376E+06         0.39625E+06         0.00000E+00
    0.39625E+06        -0.11827E+07         0.00000E+00
    0.00000E+00         0.00000E+00         0.00000E+00
 
    0.30400E+06         0.41215E+06         0.00000E+00
    0.41215E+06        -0.11790E+07         0.00000E+00
    0.00000E+00         0.00000E+00         0.00000E+00
 
    0.29406E+06         0.42796E+06         0.00000E+00
    0.42796E+06        -0.11751E+07         0.00000E+00
    0.00000E+00         0.00000E+00         0.00000E+00
 
    0.28395E+06         0.44369E+06         0.00000E+00
    0.44369E+06        -0.11711E+07         0.00000E+00
    0.00000E+00         0.00000E+00         0.00000E+00
 
    0.27367E+06         0.45934E+06         0.00000E+00
    0.45934E+06        -0.11670E+07         0.00000E+00
    0.00000E+00         0.00000E+00         0.00000E+00
 
    0.26321E+06         0.47490E+06         0.00000E+00
    0.47490E+06        -0.11628E+07         0.00000E+00
    0.00000E+00         0.00000E+00         0.00000E+00
 
    0.25258E+06         0.49037E+06         0.00000E+00
    0.49037E+06        -0.11584E+07         0.00000E+00
    0.00000E+00         0.00000E+00         0.00000E+00
 
    0.24179E+06         0.50576E+06         0.00000E+00
    0.50576E+06        -0.11538E+07         0.00000E+00
    0.00000E+00         0.00000E+00         0.00000E+00
 
    0.23082E+06         0.52106E+06         0.00000E+00
    0.52106E+06        -0.11492E+07         0.00000E+00
    0.00000E+00         0.00000E+00         0.00000E+00
 
    0.21969E+06         0.53627E+06         0.00000E+00
    0.53627E+06        -0.11444E+07         0.00000E+00
    0.00000E+00         0.00000E+00         0.00000E+00
 
    0.20840E+06         0.55139E+06         0.00000E+00
    0.55139E+06        -0.11394E+07         0.00000E+00
    0.00000E+00         0.00000E+00         0.00000E+00
 
    0.19695E+06         0.56642E+06         0.00000E+00
    0.56642E+06        -0.11344E+07         0.00000E+00
    0.00000E+00         0.00000E+00         0.00000E+00
 
    0.18533E+06         0.58136E+06         0.00000E+00
    0.58136E+06        -0.11292E+07         0.00000E+00
    0.00000E+00         0.00000E+00         0.00000E+00
 
    0.17356E+06         0.59621E+06         0.00000E+00
    0.59621E+06        -0.11239E+07         0.00000E+00
    0.00000E+00         0.00000E+00         0.00000E+00
 
    0.16163E+06         0.61097E+06         0.00000E+00
    0.61097E+06        -0.11185E+07         0.00000E+00
    0.00000E+00         0.00000E+00         0.00000E+00
 
    0.14954E+06         0.62563E+06         0.00000E+00
    0.62563E+06        -0.11129E+07         0.00000E+00
    0.00000E+00         0.00000E+00         0.00000E+00
 
    0.13730E+06         0.64020E+06         0.00000E+00
    0.64020E+06        -0.11072E+07         0.00000E+00
    0.00000E+00         0.00000E+00         0.00000E+00
 
    0.12491E+06         0.65468E+06         0.00000E+00
    0.65468E+06        -0.11014E+07         0.00000E+00
    0.00000E+00         0.00000E+00         0.00000E+00
 
    0.11237E+06         0.66906E+06         0.00000E+00
    0.66906E+06        -0.10955E+07         0.00000E+00
    0.00000E+00         0.00000E+00         0.00000E+00
 
    0.99678E+05         0.68334E+06         0.00000E+00
    0.68334E+06        -0.10895E+07         0.00000E+00
    0.00000E+00         0.00000E+00         0.00000E+00
 
    0.86842E+05         0.69753E+06         0.00000E+00
    0.69753E+06        -0.10834E+07         0.00000E+00
    0.00000E+00         0.00000E+00         0.00000E+00
 
    0.73863E+05         0.71161E+06         0.00000E+00
    0.71161E+06        -0.10771E+07         0.00000E+00
    0.00000E+00         0.00000E+00         0.00000E+00
 
    0.60741E+05         0.72560E+06         0.00000E+00
    0.72560E+06        -0.10707E+07         0.00000E+00
    0.00000E+00         0.00000E+00         0.00000E+00
 
    0.47479E+05         0.73949E+06         0.00000E+00
    0.73949E+06        -0.10643E+07         0.00000E+00
    0.00000E+00         0.00000E+00         0.00000E+00
 
    0.34078E+05         0.75328E+06         0.00000E+00
    0.75328E+06        -0.10577E+07         0.00000E+00
    0.00000E+00         0.00000E+00         0.00000E+00
 
    0.20541E+05         0.76696E+06         0.00000E+00
    0.76696E+06        -0.10510E+07         0.00000E+00
    0.00000E+00         0.00000E+00         0.00000E+00
 
    0.68693E+04         0.78054E+06         0.00000E+00
    0.78054E+06        -0.10442E+07         0.00000E+00
    0.00000E+00         0.00000E+00         0.00000E+00
 
    0.50820E+06         0.93206E+04         0.00000E+00
    0.93206E+04        -0.12952E+07         0.00000E+00
    0.00000E+00         0.00000E+00         0.00000E+00
 
    0.50247E+06         0.27768E+05         0.00000E+00
    0.27768E+05        -0.12951E+07         0.00000E+00
    0.00000E+00         0.00000E+00         0.00000E+00
 
    0.49654E+06         0.46143E+05         0.00000E+00
    0.46143E+05        -0.12947E+07         0.00000E+00
    0.00000E+00         0.00000E+00         0.00000E+00
 
    0.49040E+06         0.64446E+05         0.00000E+00
    0.64446E+05        -0.12942E+07         0.00000E+00
    0.00000E+00         0.00000E+00         0.00000E+00
 
    0.48407E+06         0.82676E+05         0.00000E+00
    0.82676E+05        -0.12935E+07         0.00000E+00
    0.00000E+00         0.00000E+00         0.00000E+00
 
    0.47753E+06         0.10083E+06         0.00000E+00
    0.10083E+06        -0.12927E+07         0.00000E+00
    0.00000E+00         0.00000E+00         0.00000E+00
 
    0.47079E+06         0.11891E+06         0.00000E+00
    0.11891E+06        -0.12917E+07         0.00000E+00
    0.00000E+00         0.00000E+00         0.00000E+00
 
    0.46385E+06         0.13692E+06         0.00000E+00
    0.13692E+06        -0.12905E+07         0.00000E+00
    0.00000E+00         0.00000E+00         0.00000E+00
 
    0.45672E+06         0.15485E+06         0.00000E+00
    0.15485E+06        -0.12892E+07         0.00000E+00
    0.00000E+00         0.00000E+00         0.00000E+00
 
    0.44938E+06         0.17270E+06         0.00000E+00
    0.17270E+06        -0.12877E+07         0.00000E+00
    0.00000E+00         0.00000E+00         0.00000E+00
 
    0.44185E+06         0.19048E+06         0.00000E+00
    0.19048E+06        -0.12861E+07         0.00000E+00
    0.00000E+00         0.00000E+00         0.00000E+00
 
    0.43412E+06         0.20818E+06         0.00000E+00
    0.20818E+06        -0.12842E+07         0.00000E+00
    0.00000E+00         0.00000E+00         0.00000E+00
 
    0.42619E+06         0.22580E+06         0.00000E+00
    0.22580E+06        -0.12823E+07         0.00000E+00
    0.00000E+00         0.00000E+00         0.00000E+00
 
    0.41807E+06         0.24333E+06         0.00000E+00
    0.24333E+06        -0.12801E+07         0.00000E+00
    0.00000E+00         0.00000E+00         0.00000E+00
 
    0.40976E+06         0.26079E+06         0.00000E+00
    0.26079E+06        -0.12778E+07         0.00000E+00
    0.00000E+00         0.00000E+00         0.00000E+00
 
    0.40125E+06         0.27817E+06         0.00000E+00
    0.27817E+06        -0.12754E+07         0.00000E+00
    0.00000E+00         0.00000E+00         0.00000E+00
 
    0.39256E+06         0.29547E+06         0.00000E+00
    0.29547E+06        -0.12728E+07         0.00000E+00
    0.00000E+00         0.00000E+00         0.00000E+00
 
    0.38367E+06         0.31268E+06         0.00000E+00
    0.31268E+06        -0.12700E+07         0.00000E+00
    0.00000E+00         0.00000E+00         0.00000E+00
 
    0.37459E+06         0.32981E+06         0.00000E+00
    0.32981E+06        -0.12671E+07         0.00000E+00
    0.00000E+00         0.00000E+00         0.00000E+00
 
    0.36533E+06         0.34686E+06         0.00000E+00
    0.34686E+06        -0.12640E+07         0.00000E+00
    0.00000E+00         0.00000E+00         0.00000E+00
 
    0.35588E+06         0.36382E+06         0.00000E+00
    0.36382E+06        -0.12608E+07         0.00000E+00
    0.00000E+00         0.00000E+00         0.00000E+00
 
    0.34624E+06         0.38070E+06         0.00000E+00
    0.38070E+06        -0.12574E+07         0.00000E+00
    0.00000E+00         0.00000E+00         0.00000E+00
 
    0.33642E+06         0.39749E+06         0.00000E+00
    0.39749E+06        -0.12539E+07         0.00000E+00
    0.00000E+00         0.00000E+00         0.00000E+00
 
    0.32641E+06         0.41419E+06         0.00000E+00
    0.41419E+06        -0.12502E+07         0.00000E+00
    0.00000E+00         0.00000E+00         0.00000E+00
 
    0.31623E+06         0.43081E+06         0.00000E+00
    0.43081E+06        -0.12464E+07         0.00000E+00
    0.00000E+00         0.00000E+00         0.00000E+00
 
    0.30586E+06         0.44734E+06         0.00000E+00
    0.44734E+06        -0.12424E+07         0.00000E+00
    0.00000E+00         0.00000E+00         0.00000E+00
 
    0.29532E+06         0.46378E+06         0.00000E+00
    0.46378E+06        -0.12383E+07         0.00000E+00
    0.00000E+00         0.00000E+00         0.00000E+00
 
    0.28460E+06         0.48013E+06         0.00000E+00
    0.48013E+06        -0.12340E+07         0.00000E+00
    0.00000E+00         0.00000E+00         0.00000E+00
 
    0.27370E+06         0.49639E+06         0.00000E+00
    0.49639E+06        -0.12296E+07         0.00000E+00
    0.00000E+00         0.00000E+00         0.00000E+00
 
    0.26263E+06         0.51255E+06         0.00000E+00
    0.51255E+06        -0.12251E+07         0.00000E+00
    0.00000E+00         0.00000E+00         0.00000E+00
 
    0.25139E+06         0.52863E+06         0.00000E+00
    0.52863E+06        -0.12204E+07         0.00000E+00
    0.00000E+00         0.00000E+00         0.00000E+00
 
    0.23997E+06         0.54461E+06         0.00000E+00
    0.54461E+06        -0.12156E+07         0.00000E+00
    0.00000E+00         0.00000E+00         0.00000E+00
 
    0.22839E+06         0.56050E+06         0.00000E+00
    0.56050E+06        -0.12106E+07         0.00000E+00
    0.00000E+00         0.00000E+00         0.00000E+00
 
    0.21663E+06         0.57630E+06         0.00000E+00
    0.57630E+06        -0.12055E+07         0.00000E+00
    0.00000E+00         0.00000E+00         0.00000E+00
 
    0.20471E+06         0.59200E+06         0.00000E+00
    0.59200E+06        -0.12003E+07         0.00000E+00
    0.00000E+00         0.00000E+00         0.00000E+00
 
    0.19263E+06         0.60760E+06         0.00000E+00
    0.60760E+06        -0.11949E+07         0.00000E+00
    0.00000E+00         0.00000E+00         0.00000E+00
 
    0.18038E+06         0.62311E+06         0.00000E+00
    0.62311E+06        -0.11894E+07         0.00000E+00
    0.00000E+00         0.00000E+00         0.00000E+00
 
    0.16798E+06         0.63852E+06         0.00000E+00
    0.63852E+06        -0.11838E+07         0.00000E+00
    0.00000E+00         0.00000E+00         0.00000E+00
 
    0.15541E+06         0.65383E+06         0.00000E+00
    0.65383E+06        -0.11781E+07         0.00000E+00
    0.00000E+00         0.00000E+00         0.00000E+00
 
    0.14268E+06         0.66904E+06         0.00000E+00
    0.66904E+06        -0.11722E+07         0.00000E+00
    0.00000E+00         0.00000E+00         0.00000E+00
 
    0.12980E+06         0.68415E+06         0.00000E+00
    0.68415E+06        -0.11662E+07         0.00000E+00
    0.00000E+00         0.00000E+00         0.00000E+00
 
    0.11677E+06         0.69915E+06         0.00000E+00
    0.69915E+06        -0.11601E+07         0.00000E+00
    0.00000E+00         0.00000E+00         0.00000E+00
 
    0.10358E+06         0.71406E+06         0.00000E+00
    0.71406E+06        -0.11538E+07         0.00000E+00
    0.00000E+00         0.00000E+00         0.00000E+00
 
    0.90238E+05         0.72886E+06         0.00000E+00
    0.72886E+06        -0.11474E+07         0.00000E+00
    0.00000E+00         0.00000E+00         0.00000E+00
 
    0.76750E+05         0.74356E+06         0.00000E+00
    0.74356E+06        -0.11410E+07         0.00000E+00
    0.00000E+00         0.00000E+00         0.00000E+00
 
    0.63114E+05         0.75815E+06         0.00000E+00
    0.75815E+06        -0.11344E+07         0.00000E+00
    0.00000E+00         0.00000E+00         0.00000E+00
 
    0.49333E+05         0.77264E+06         0.00000E+00
    0.77264E+06        -0.11276E+07         0.00000E+00
    0.00000E+00         0.00000E+00         0.00000E+00
 
    0.35409E+05         0.78701E+06         0.00000E+00
    0.78701E+06        -0.11208E+07         0.00000E+00
    0.00000E+00         0.00000E+00         0.00000E+00
 
    0.21343E+05         0.80128E+06         0.00000E+00
    0.80128E+06        -0.11138E+07         0.00000E+00
    0.00000E+00         0.00000E+00         0.00000E+00
 
    0.71374E+04         0.81544E+06         0.00000E+00
    0.81544E+06        -0.11068E+07         0.00000E+00
    0.00000E+00         0.00000E+00         0.00000E+00
 
    0.53084E+06         0.97301E+04         0.00000E+00
    0.97301E+04        -0.13670E+07         0.00000E+00
    0.00000E+00         0.00000E+00         0.00000E+00
 
    0.52475E+06         0.28993E+05         0.00000E+00
    0.28993E+05        -0.13669E+07         0.00000E+00
    0.00000E+00         0.00000E+00         0.00000E+00
 
    0.51846E+06         0.48182E+05         0.00000E+00
    0.48182E+05        -0.13665E+07         0.00000E+00
    0.00000E+00         0.00000E+00         0.00000E+00
 
    0.51196E+06         0.67298E+05         0.00000E+00
    0.67298E+05        -0.13660E+07         0.00000E+00
    0.00000E+00         0.00000E+00         0.00000E+00
 
    0.50525E+06         0.86339E+05         0.00000E+00
    0.86339E+05        -0.13653E+07         0.00000E+00
    0.00000E+00         0.00000E+00         0.00000E+00
 
    0.49834E+06         0.10530E+06         0.00000E+00
    0.10530E+06        -0.13644E+07         0.00000E+00
    0.00000E+00         0.00000E+00         0.00000E+00
 
    0.49122E+06         0.12419E+06         0.00000E+00
    0.12419E+06        -0.13634E+07         0.00000E+00
    0.00000E+00         0.00000E+00         0.00000E+00
 
    0.48390E+06         0.14300E+06         0.00000E+00
    0.14300E+06        -0.13622E+07         0.00000E+00
    0.00000E+00         0.00000E+00         0.00000E+00
 
    0.47637E+06         0.16173E+06         0.00000E+00
    0.16173E+06        -0.13608E+07         0.00000E+00
    0.00000E+00         0.00000E+00         0.00000E+00
 
    0.46865E+06         0.18039E+06         0.00000E+00
    0.18039E+06        -0.13593E+07         0.00000E+00
    0.00000E+00         0.00000E+00         0.00000E+00
 
    0.46072E+06         0.19896E+06         0.00000E+00
    0.19896E+06        -0.13576E+07         0.00000E+00
    0.00000E+00         0.00000E+00         0.00000E+00
 
    0.45259E+06         0.21745E+06         0.00000E+00
    0.21745E+06        -0.13557E+07         0.00000E+00
    0.00000E+00         0.00000E+00         0.00000E+00
 
    0.44426E+06         0.23586E+06         0.00000E+00
    0.23586E+06        -0.13536E+07         0.00000E+00
    0.00000E+00         0.00000E+00         0.00000E+00
 
    0.43574E+06         0.25419E+06         0.00000E+00
    0.25419E+06        -0.13514E+07         0.00000E+00
    0.00000E+00         0.00000E+00         0.00000E+00
 
    0.42701E+06         0.27243E+06         0.00000E+00
    0.27243E+06        -0.13491E+07         0.00000E+00
    0.00000E+00         0.00000E+00         0.00000E+00
 
    0.41809E+06         0.29059E+06         0.00000E+00
    0.29059E+06        -0.13465E+07         0.00000E+00
    0.00000E+00         0.00000E+00         0.00000E+00
 
    0.40898E+06         0.30866E+06         0.00000E+00
    0.30866E+06        -0.13438E+07         0.00000E+00
    0.00000E+00         0.00000E+00         0.00000E+00
 
    0.39967E+06         0.32665E+06         0.00000E+00
    0.32665E+06        -0.13410E+07         0.00000E+00
    0.00000E+00         0.00000E+00         0.00000E+00
 
    0.39017E+06         0.34455E+06         0.00000E+00
    0.34455E+06        -0.13379E+07         0.00000E+00
    0.00000E+00         0.00000E+00         0.00000E+00
 
    0.38048E+06         0.36237E+06         0.00000E+00
    0.36237E+06        -0.13348E+07         0.00000E+00
    0.00000E+00         0.00000E+00         0.00000E+00
 
    0.37059E+06         0.38009E+06         0.00000E+00
    0.38009E+06        -0.13314E+07         0.00000E+00
    0.00000E+00         0.00000E+00         0.00000E+00
 
    0.36052E+06         0.39773E+06         0.00000E+00
    0.39773E+06        -0.13279E+07         0.00000E+00
    0.00000E+00         0.00000E+00         0.00000E+00
 
    0.35026E+06         0.41527E+06         0.00000E+00
    0.41527E+06        -0.13243E+07         0.00000E+00
    0.00000E+00         0.00000E+00         0.00000E+00
 
    0.33981E+06         0.43273E+06         0.00000E+00
    0.43273E+06        -0.13205E+07         0.00000E+00
    0.00000E+00         0.00000E+00         0.00000E+00
 
    0.32917E+06         0.45009E+06         0.00000E+00
    0.45009E+06        -0.13165E+07         0.00000E+00
    0.00000E+00         0.00000E+00         0.00000E+00
 
    0.31836E+06         0.46736E+06         0.00000E+00
    0.46736E+06        -0.13124E+07         0.00000E+00
    0.00000E+00         0.00000E+00         0.00000E+00
 
    0.30735E+06         0.48454E+06         0.00000E+00
    0.48454E+06        -0.13082E+07         0.00000E+00
    0.00000E+00         0.00000E+00         0.00000E+00
 
    0.29617E+06         0.50162E+06         0.00000E+00
    0.50162E+06        -0.13038E+07         0.00000E+00
    0.00000E+00         0.00000E+00         0.00000E+00
 
    0.28481E+06         0.51861E+06         0.00000E+00
    0.51861E+06        -0.12992E+07         0.00000E+00
    0.00000E+00         0.00000E+00         0.00000E+00
 
    0.27327E+06         0.53550E+06         0.00000E+00
    0.53550E+06        -0.12945E+07         0.00000E+00
    0.00000E+00         0.00000E+00         0.00000E+00
 
    0.26155E+06         0.55229E+06         0.00000E+00
    0.55229E+06        -0.12897E+07         0.00000E+00
    0.00000E+00         0.00000E+00         0.00000E+00
 
    0.24966E+06         0.56899E+06         0.00000E+00
    0.56899E+06        -0.12847E+07         0.00000E+00
    0.00000E+00         0.00000E+00         0.00000E+00
 
    0.23759E+06         0.58559E+06         0.00000E+00
    0.58559E+06        -0.12796E+07         0.00000E+00
    0.00000E+00         0.00000E+00         0.00000E+00
 
    0.22535E+06         0.60209E+06         0.00000E+00
    0.60209E+06        -0.12743E+07         0.00000E+00
    0.00000E+00         0.00000E+00         0.00000E+00
 
    0.21294E+06         0.61848E+06         0.00000E+00
    0.61848E+06        -0.12689E+07         0.00000E+00
    0.00000E+00         0.00000E+00         0.00000E+00
 
    0.20037E+06         0.63478E+06         0.00000E+00
    0.63478E+06        -0.12633E+07         0.00000E+00
    0.00000E+00         0.00000E+00         0.00000E+00
 
    0.18762E+06         0.65097E+06         0.00000E+00
    0.65097E+06        -0.12576E+07         0.00000E+00
    0.00000E+00         0.00000E+00         0.00000E+00
 
    0.17471E+06         0.66706E+06         0.00000E+00
    0.66706E+06        -0.12518E+07         0.00000E+00
    0.00000E+00         0.00000E+00         0.00000E+00
 
    0.16163E+06         0.68305E+06         0.00000E+00
    0.68305E+06        -0.12459E+07         0.00000E+00
    0.00000E+00         0.00000E+00         0.00000E+00
 
    0.14839E+06         0.69893E+06         0.00000E+00
    0.69893E+06        -0.12398E+07         0.00000E+00
    0.00000E+00         0.00000E+00         0.00000E+00
 
    0.13499E+06         0.71470E+06         0.00000E+00
    0.71470E+06        -0.12335E+07         0.00000E+00
    0.00000E+00         0.00000E+00         0.00000E+00
 
    0.12143E+06         0.73037E+06         0.00000E+00
    0.73037E+06        -0.12272E+07         0.00000E+00
    0.00000E+00         0.00000E+00         0.00000E+00
 
    0.10771E+06         0.74593E+06         0.00000E+00
    0.74593E+06        -0.12207E+07         0.00000E+00
    0.00000E+00         0.00000E+00         0.00000E+00
 
    0.93836E+05         0.76138E+06         0.00000E+00
    0.76138E+06        -0.12141E+07         0.00000E+00
    0.00000E+00         0.00000E+00         0.00000E+00
 
    0.79809E+05         0.77671E+06         0.00000E+00
    0.77671E+06        -0.12074E+07         0.00000E+00
    0.00000E+00         0.00000E+00         0.00000E+00
 
    0.65629E+05         0.79194E+06         0.00000E+00
    0.79194E+06        -0.12005E+07         0.00000E+00
    0.00000E+00         0.00000E+00         0.00000E+00
 
    0.51298E+05         0.80706E+06         0.00000E+00
    0.80706E+06        -0.11935E+07         0.00000E+00
    0.00000E+00         0.00000E+00         0.00000E+00
 
    0.36819E+05         0.82206E+06         0.00000E+00
    0.82206E+06        -0.11864E+07         0.00000E+00
    0.00000E+00         0.00000E+00         0.00000E+00
 
    0.22193E+05         0.83694E+06         0.00000E+00
    0.83694E+06        -0.11792E+07         0.00000E+00
    0.00000E+00         0.00000E+00         0.00000E+00
 
    0.74216E+04         0.85171E+06         0.00000E+00
    0.85171E+06        -0.11718E+07         0.00000E+00
    0.00000E+00         0.00000E+00         0.00000E+00
 
    0.55453E+06         0.10154E+05         0.00000E+00
    0.10154E+05        -0.14419E+07         0.00000E+00
    0.00000E+00         0.00000E+00         0.00000E+00
 
    0.54808E+06         0.30260E+05         0.00000E+00
    0.30260E+05        -0.14418E+07         0.00000E+00
    0.00000E+00         0.00000E+00         0.00000E+00
 
    0.54141E+06         0.50292E+05         0.00000E+00
    0.50292E+05        -0.14414E+07         0.00000E+00
    0.00000E+00         0.00000E+00         0.00000E+00
 
    0.53453E+06         0.70247E+05         0.00000E+00
    0.70247E+05        -0.14409E+07         0.00000E+00
    0.00000E+00         0.00000E+00         0.00000E+00
 
    0.52745E+06         0.90126E+05         0.00000E+00
    0.90126E+05        -0.14401E+07         0.00000E+00
    0.00000E+00         0.00000E+00         0.00000E+00
 
    0.52015E+06         0.10993E+06         0.00000E+00
    0.10993E+06        -0.14393E+07         0.00000E+00
    0.00000E+00         0.00000E+00         0.00000E+00
 
    0.51264E+06         0.12965E+06         0.00000E+00
    0.12965E+06        -0.14382E+07         0.00000E+00
    0.00000E+00         0.00000E+00         0.00000E+00
 
    0.50492E+06         0.14929E+06         0.00000E+00
    0.14929E+06        -0.14369E+07         0.00000E+00
    0.00000E+00         0.00000E+00         0.00000E+00
 
    0.49700E+06         0.16885E+06         0.00000E+00
    0.16885E+06        -0.14355E+07         0.00000E+00
    0.00000E+00         0.00000E+00         0.00000E+00
 
    0.48887E+06         0.18833E+06         0.00000E+00
    0.18833E+06        -0.14339E+07         0.00000E+00
    0.00000E+00         0.00000E+00         0.00000E+00
 
    0.48053E+06         0.20773E+06         0.00000E+00
    0.20773E+06        -0.14321E+07         0.00000E+00
    0.00000E+00         0.00000E+00         0.00000E+00
 
    0.47199E+06         0.22704E+06         0.00000E+00
    0.22704E+06        -0.14302E+07         0.00000E+00
    0.00000E+00         0.00000E+00         0.00000E+00
 
    0.46325E+06         0.24627E+06         0.00000E+00
    0.24627E+06        -0.14281E+07         0.00000E+00
    0.00000E+00         0.00000E+00         0.00000E+00
 
    0.45430E+06         0.26541E+06         0.00000E+00
    0.26541E+06        -0.14258E+07         0.00000E+00
    0.00000E+00         0.00000E+00         0.00000E+00
 
    0.44515E+06         0.28447E+06         0.00000E+00
    0.28447E+06        -0.14233E+07         0.00000E+00
    0.00000E+00         0.00000E+00         0.00000E+00
 
    0.43580E+06         0.30343E+06         0.00000E+00
    0.30343E+06        -0.14207E+07         0.00000E+00
    0.00000E+00         0.00000E+00         0.00000E+00
 
    0.42625E+06         0.32231E+06         0.00000E+00
    0.32231E+06        -0.14179E+07         0.00000E+00
    0.00000E+00         0.00000E+00         0.00000E+00
 
    0.41650E+06         0.34110E+06         0.00000E+00
    0.34110E+06        -0.14150E+07         0.00000E+00
    0.00000E+00         0.00000E+00         0.00000E+00
 
    0.40656E+06         0.35980E+06         0.00000E+00
    0.35980E+06        -0.14119E+07         0.00000E+00
    0.00000E+00         0.00000E+00         0.00000E+00
 
    0.39642E+06         0.37841E+06         0.00000E+00
    0.37841E+06        -0.14086E+07         0.00000E+00
    0.00000E+00         0.00000E+00         0.00000E+00
 
    0.38608E+06         0.39693E+06         0.00000E+00
    0.39693E+06        -0.14051E+07         0.00000E+00
    0.00000E+00         0.00000E+00         0.00000E+00
 
    0.37555E+06         0.41535E+06         0.00000E+00
    0.41535E+06        -0.14015E+07         0.00000E+00
    0.00000E+00         0.00000E+00         0.00000E+00
 
    0.36483E+06         0.43368E+06         0.00000E+00
    0.43368E+06        -0.13977E+07         0.00000E+00
    0.00000E+00         0.00000E+00         0.00000E+00
 
    0.35391E+06         0.45191E+06         0.00000E+00
    0.45191E+06        -0.13938E+07         0.00000E+00
    0.00000E+00         0.00000E+00         0.00000E+00
 
    0.34281E+06         0.47005E+06         0.00000E+00
    0.47005E+06        -0.13897E+07         0.00000E+00
    0.00000E+00         0.00000E+00         0.00000E+00
 
    0.33151E+06         0.48809E+06         0.00000E+00
    0.48809E+06        -0.13855E+07         0.00000E+00
    0.00000E+00         0.00000E+00         0.00000E+00
 
    0.32003E+06         0.50603E+06         0.00000E+00
    0.50603E+06        -0.13811E+07         0.00000E+00
    0.00000E+00         0.00000E+00         0.00000E+00
 
    0.30837E+06         0.52388E+06         0.00000E+00
    0.52388E+06        -0.13765E+07         0.00000E+00
    0.00000E+00         0.00000E+00         0.00000E+00
 
    0.29652E+06         0.54162E+06         0.00000E+00
    0.54162E+06        -0.13718E+07         0.00000E+00
    0.00000E+00         0.00000E+00         0.00000E+00
 
    0.28448E+06         0.55927E+06         0.00000E+00
    0.55927E+06        -0.13669E+07         0.00000E+00
    0.00000E+00         0.00000E+00         0.00000E+00
 
    0.27227E+06         0.57681E+06         0.00000E+00
    0.57681E+06        -0.13619E+07         0.00000E+00
    0.00000E+00         0.00000E+00         0.00000E+00
 
    0.25987E+06         0.59425E+06         0.00000E+00
    0.59425E+06        -0.13567E+07         0.00000E+00
    0.00000E+00         0.00000E+00         0.00000E+00
 
    0.24730E+06         0.61158E+06         0.00000E+00
    0.61158E+06        -0.13514E+07         0.00000E+00
    0.00000E+00         0.00000E+00         0.00000E+00
 
    0.23455E+06         0.62881E+06         0.00000E+00
    0.62881E+06        -0.13459E+07         0.00000E+00
    0.00000E+00         0.00000E+00         0.00000E+00
 
    0.22162E+06         0.64594E+06         0.00000E+00
    0.64594E+06        -0.13403E+07         0.00000E+00
    0.00000E+00         0.00000E+00         0.00000E+00
 
    0.20852E+06         0.66296E+06         0.00000E+00
    0.66296E+06        -0.13346E+07         0.00000E+00
    0.00000E+00         0.00000E+00         0.00000E+00
 
    0.19525E+06         0.67987E+06         0.00000E+00
    0.67987E+06        -0.13287E+07         0.00000E+00
    0.00000E+00         0.00000E+00         0.00000E+00
 
    0.18180E+06         0.69667E+06         0.00000E+00
    0.69667E+06        -0.13226E+07         0.00000E+00
    0.00000E+00         0.00000E+00         0.00000E+00
 
    0.16819E+06         0.71336E+06         0.00000E+00
    0.71336E+06        -0.13165E+07         0.00000E+00
    0.00000E+00         0.00000E+00         0.00000E+00
 
    0.15441E+06         0.72994E+06         0.00000E+00
    0.72994E+06        -0.13101E+07         0.00000E+00
    0.00000E+00         0.00000E+00         0.00000E+00
 
    0.14046E+06         0.74641E+06         0.00000E+00
    0.74641E+06        -0.13037E+07         0.00000E+00
    0.00000E+00         0.00000E+00         0.00000E+00
 
    0.12634E+06         0.76277E+06         0.00000E+00
    0.76277E+06        -0.12971E+07         0.00000E+00
    0.00000E+00         0.00000E+00         0.00000E+00
 
    0.11207E+06         0.77901E+06         0.00000E+00
    0.77901E+06        -0.12903E+07         0.00000E+00
    0.00000E+00         0.00000E+00         0.00000E+00
 
    0.97632E+05         0.79514E+06         0.00000E+00
    0.79514E+06        -0.12835E+07         0.00000E+00
    0.00000E+00         0.00000E+00         0.00000E+00
 
    0.83035E+05         0.81115E+06         0.00000E+00
    0.81115E+06        -0.12765E+07         0.00000E+00
    0.00000E+00         0.00000E+00         0.00000E+00
 
    0.68281E+05         0.82705E+06         0.00000E+00
    0.82705E+06        -0.12694E+07         0.00000E+00
    0.00000E+00         0.00000E+00         0.00000E+00
 
    0.53371E+05         0.84283E+06         0.00000E+00
    0.84283E+06        -0.12621E+07         0.00000E+00
    0.00000E+00         0.00000E+00         0.00000E+00
 
    0.38306E+05         0.85848E+06         0.00000E+00
    0.85848E+06        -0.12547E+07         0.00000E+00
    0.00000E+00         0.00000E+00         0.00000E+00
 
    0.23089E+05         0.87402E+06         0.00000E+00
    0.87402E+06        -0.12472E+07         0.00000E+00
    0.00000E+00         0.00000E+00         0.00000E+00
 
    0.77214E+04         0.88943E+06         0.00000E+00
    0.88943E+06        -0.12396E+07         0.00000E+00
    0.00000E+00         0.00000E+00         0.00000E+00
 
    0.57925E+06         0.10593E+05         0.00000E+00
    0.10593E+05        -0.15201E+07         0.00000E+00
    0.00000E+00         0.00000E+00         0.00000E+00
 
    0.57242E+06         0.31573E+05         0.00000E+00
    0.31573E+05        -0.15199E+07         0.00000E+00
    0.00000E+00         0.00000E+00         0.00000E+00
 
    0.56538E+06         0.52476E+05         0.00000E+00
    0.52476E+05        -0.15196E+07         0.00000E+00
    0.00000E+00         0.00000E+00         0.00000E+00
 
    0.55811E+06         0.73302E+05         0.00000E+00
    0.73302E+05        -0.15190E+07         0.00000E+00
    0.00000E+00         0.00000E+00         0.00000E+00
 
    0.55063E+06         0.94049E+05         0.00000E+00
    0.94049E+05        -0.15183E+07         0.00000E+00
    0.00000E+00         0.00000E+00         0.00000E+00
 
    0.54294E+06         0.11472E+06         0.00000E+00
    0.11472E+06        -0.15173E+07         0.00000E+00
    0.00000E+00         0.00000E+00         0.00000E+00
 
    0.53503E+06         0.13530E+06         0.00000E+00
    0.13530E+06        -0.15162E+07         0.00000E+00
    0.00000E+00         0.00000E+00         0.00000E+00
 
    0.52690E+06         0.15580E+06         0.00000E+00
    0.15580E+06        -0.15149E+07         0.00000E+00
    0.00000E+00         0.00000E+00         0.00000E+00
 
    0.51857E+06         0.17622E+06         0.00000E+00
    0.17622E+06        -0.15135E+07         0.00000E+00
    0.00000E+00         0.00000E+00         0.00000E+00
 
    0.51002E+06         0.19656E+06         0.00000E+00
    0.19656E+06        -0.15118E+07         0.00000E+00
    0.00000E+00         0.00000E+00         0.00000E+00
 
    0.50126E+06         0.21681E+06         0.00000E+00
    0.21681E+06        -0.15100E+07         0.00000E+00
    0.00000E+00         0.00000E+00         0.00000E+00
 
    0.49229E+06         0.23697E+06         0.00000E+00
    0.23697E+06        -0.15080E+07         0.00000E+00
    0.00000E+00         0.00000E+00         0.00000E+00
 
    0.48312E+06         0.25705E+06         0.00000E+00
    0.25705E+06        -0.15058E+07         0.00000E+00
    0.00000E+00         0.00000E+00         0.00000E+00
 
    0.47373E+06         0.27703E+06         0.00000E+00
    0.27703E+06        -0.15034E+07         0.00000E+00
    0.00000E+00         0.00000E+00         0.00000E+00
 
    0.46414E+06         0.29693E+06         0.00000E+00
    0.29693E+06        -0.15009E+07         0.00000E+00
    0.00000E+00         0.00000E+00         0.00000E+00
 
    0.45434E+06         0.31673E+06         0.00000E+00
    0.31673E+06        -0.14982E+07         0.00000E+00
    0.00000E+00         0.00000E+00         0.00000E+00
 
    0.44434E+06         0.33645E+06         0.00000E+00
    0.33645E+06        -0.14953E+07         0.00000E+00
    0.00000E+00         0.00000E+00         0.00000E+00
 
    0.43414E+06         0.35607E+06         0.00000E+00
    0.35607E+06        -0.14922E+07         0.00000E+00
    0.00000E+00         0.00000E+00         0.00000E+00
 
    0.42373E+06         0.37560E+06         0.00000E+00
    0.37560E+06        -0.14890E+07         0.00000E+00
    0.00000E+00         0.00000E+00         0.00000E+00
 
    0.41312E+06         0.39503E+06         0.00000E+00
    0.39503E+06        -0.14856E+07         0.00000E+00
    0.00000E+00         0.00000E+00         0.00000E+00
 
    0.40231E+06         0.41436E+06         0.00000E+00
    0.41436E+06        -0.14820E+07         0.00000E+00
    0.00000E+00         0.00000E+00         0.00000E+00
 
    0.39131E+06         0.43360E+06         0.00000E+00
    0.43360E+06        -0.14783E+07         0.00000E+00
    0.00000E+00         0.00000E+00         0.00000E+00
 
    0.38010E+06         0.45275E+06         0.00000E+00
    0.45275E+06        -0.14743E+07         0.00000E+00
    0.00000E+00         0.00000E+00         0.00000E+00
 
    0.36870E+06         0.47179E+06         0.00000E+00
    0.47179E+06        -0.14703E+07         0.00000E+00
    0.00000E+00         0.00000E+00         0.00000E+00
 
    0.35711E+06         0.49073E+06         0.00000E+00
    0.49073E+06        -0.14660E+07         0.00000E+00
    0.00000E+00         0.00000E+00         0.00000E+00
 
    0.34532E+06         0.50957E+06         0.00000E+00
    0.50957E+06        -0.14616E+07         0.00000E+00
    0.00000E+00         0.00000E+00         0.00000E+00
 
    0.33334E+06         0.52831E+06         0.00000E+00
    0.52831E+06        -0.14571E+07         0.00000E+00
    0.00000E+00         0.00000E+00         0.00000E+00
 
    0.32116E+06         0.54695E+06         0.00000E+00
    0.54695E+06        -0.14523E+07         0.00000E+00
    0.00000E+00         0.00000E+00         0.00000E+00
 
    0.30880E+06         0.56548E+06         0.00000E+00
    0.56548E+06        -0.14475E+07         0.00000E+00
    0.00000E+00         0.00000E+00         0.00000E+00
 
    0.29625E+06         0.58391E+06         0.00000E+00
    0.58391E+06        -0.14424E+07         0.00000E+00
    0.00000E+00         0.00000E+00         0.00000E+00
 
    0.28352E+06         0.60223E+06         0.00000E+00
    0.60223E+06        -0.14372E+07         0.00000E+00
    0.00000E+00         0.00000E+00         0.00000E+00
 
    0.27059E+06         0.62044E+06         0.00000E+00
    0.62044E+06        -0.14318E+07         0.00000E+00
    0.00000E+00         0.00000E+00         0.00000E+00
 
    0.25749E+06         0.63854E+06         0.00000E+00
    0.63854E+06        -0.14263E+07         0.00000E+00
    0.00000E+00         0.00000E+00         0.00000E+00
 
    0.24420E+06         0.65654E+06         0.00000E+00
    0.65654E+06        -0.14207E+07         0.00000E+00
    0.00000E+00         0.00000E+00         0.00000E+00
 
    0.23073E+06         0.67442E+06         0.00000E+00
    0.67442E+06        -0.14148E+07         0.00000E+00
    0.00000E+00         0.00000E+00         0.00000E+00
 
    0.21708E+06         0.69220E+06         0.00000E+00
    0.69220E+06        -0.14089E+07         0.00000E+00
    0.00000E+00         0.00000E+00         0.00000E+00
 
    0.20326E+06         0.70986E+06         0.00000E+00
    0.70986E+06        -0.14028E+07         0.00000E+00
    0.00000E+00         0.00000E+00         0.00000E+00
 
    0.18925E+06         0.72740E+06         0.00000E+00
    0.72740E+06        -0.13965E+07         0.00000E+00
    0.00000E+00         0.00000E+00         0.00000E+00
 
    0.17507E+06         0.74484E+06         0.00000E+00
    0.74484E+06        -0.13901E+07         0.00000E+00
    0.00000E+00         0.00000E+00         0.00000E+00
 
    0.16072E+06         0.76215E+06         0.00000E+00
    0.76215E+06        -0.13835E+07         0.00000E+00
    0.00000E+00         0.00000E+00         0.00000E+00
 
    0.14620E+06         0.77935E+06         0.00000E+00
    0.77935E+06        -0.13768E+07         0.00000E+00
    0.00000E+00         0.00000E+00         0.00000E+00
 
    0.13151E+06         0.79643E+06         0.00000E+00
    0.79643E+06        -0.13699E+07         0.00000E+00
    0.00000E+00         0.00000E+00         0.00000E+00
 
    0.11665E+06         0.81339E+06         0.00000E+00
    0.81339E+06        -0.13629E+07         0.00000E+00
    0.00000E+00         0.00000E+00         0.00000E+00
 
    0.10162E+06         0.83023E+06         0.00000E+00
    0.83023E+06        -0.13558E+07         0.00000E+00
    0.00000E+00         0.00000E+00         0.00000E+00
 
    0.86424E+05         0.84695E+06         0.00000E+00
    0.84695E+06        -0.13485E+07         0.00000E+00
    0.00000E+00         0.00000E+00         0.00000E+00
 
    0.71066E+05         0.86355E+06         0.00000E+00
    0.86355E+06        -0.13411E+07         0.00000E+00
    0.00000E+00         0.00000E+00         0.00000E+00
 
    0.55547E+05         0.88002E+06         0.00000E+00
    0.88002E+06        -0.13336E+07         0.00000E+00
    0.00000E+00         0.00000E+00         0.00000E+00
 
    0.39868E+05         0.89637E+06         0.00000E+00
    0.89637E+06        -0.13259E+07         0.00000E+00
    0.00000E+00         0.00000E+00         0.00000E+00
 
    0.24030E+05         0.91259E+06         0.00000E+00
    0.91259E+06        -0.13181E+07         0.00000E+00
    0.00000E+00         0.00000E+00         0.00000E+00
 
    0.80361E+04         0.92868E+06         0.00000E+00
    0.92868E+06        -0.13101E+07         0.00000E+00
    0.00000E+00         0.00000E+00         0.00000E+00
 
    0.60498E+06         0.11049E+05         0.00000E+00
    0.11049E+05        -0.16017E+07         0.00000E+00
    0.00000E+00         0.00000E+00         0.00000E+00
 
    0.59777E+06         0.32934E+05         0.00000E+00
    0.32934E+05        -0.16015E+07         0.00000E+00
    0.00000E+00         0.00000E+00         0.00000E+00
 
    0.59033E+06         0.54741E+05         0.00000E+00
    0.54741E+05        -0.16012E+07         0.00000E+00
    0.00000E+00         0.00000E+00         0.00000E+00
 
    0.58267E+06         0.76468E+05         0.00000E+00
    0.76468E+05        -0.16006E+07         0.00000E+00
    0.00000E+00         0.00000E+00         0.00000E+00
 
    0.57479E+06         0.98114E+05         0.00000E+00
    0.98114E+05        -0.15998E+07         0.00000E+00
    0.00000E+00         0.00000E+00         0.00000E+00
 
    0.56668E+06         0.11968E+06         0.00000E+00
    0.11968E+06        -0.15988E+07         0.00000E+00
    0.00000E+00         0.00000E+00         0.00000E+00
 
    0.55836E+06         0.14116E+06         0.00000E+00
    0.14116E+06        -0.15977E+07         0.00000E+00
    0.00000E+00         0.00000E+00         0.00000E+00
 
    0.54981E+06         0.16255E+06         0.00000E+00
    0.16255E+06        -0.15964E+07         0.00000E+00
    0.00000E+00         0.00000E+00         0.00000E+00
 
    0.54105E+06         0.18386E+06         0.00000E+00
    0.18386E+06        -0.15948E+07         0.00000E+00
    0.00000E+00         0.00000E+00         0.00000E+00
 
    0.53207E+06         0.20508E+06         0.00000E+00
    0.20508E+06        -0.15931E+07         0.00000E+00
    0.00000E+00         0.00000E+00         0.00000E+00
 
    0.52288E+06         0.22622E+06         0.00000E+00
    0.22622E+06        -0.15912E+07         0.00000E+00
    0.00000E+00         0.00000E+00         0.00000E+00
 
    0.51347E+06         0.24726E+06         0.00000E+00
    0.24726E+06        -0.15891E+07         0.00000E+00
    0.00000E+00         0.00000E+00         0.00000E+00
 
    0.50385E+06         0.26821E+06         0.00000E+00
    0.26821E+06        -0.15869E+07         0.00000E+00
    0.00000E+00         0.00000E+00         0.00000E+00
 
    0.49401E+06         0.28908E+06         0.00000E+00
    0.28908E+06        -0.15844E+07         0.00000E+00
    0.00000E+00         0.00000E+00         0.00000E+00
 
    0.48396E+06         0.30984E+06         0.00000E+00
    0.30984E+06        -0.15818E+07         0.00000E+00
    0.00000E+00         0.00000E+00         0.00000E+00
 
    0.47370E+06         0.33052E+06         0.00000E+00
    0.33052E+06        -0.15790E+07         0.00000E+00
    0.00000E+00         0.00000E+00         0.00000E+00
 
    0.46323E+06         0.35110E+06         0.00000E+00
    0.35110E+06        -0.15760E+07         0.00000E+00
    0.00000E+00         0.00000E+00         0.00000E+00
 
    0.45255E+06         0.37158E+06         0.00000E+00
    0.37158E+06        -0.15728E+07         0.00000E+00
    0.00000E+00         0.00000E+00         0.00000E+00
 
    0.44166E+06         0.39197E+06         0.00000E+00
    0.39197E+06        -0.15695E+07         0.00000E+00
    0.00000E+00         0.00000E+00         0.00000E+00
 
    0.43057E+06         0.41225E+06         0.00000E+00
    0.41225E+06        -0.15659E+07         0.00000E+00
    0.00000E+00         0.00000E+00         0.00000E+00
 
    0.41927E+06         0.43244E+06         0.00000E+00
    0.43244E+06        -0.15622E+07         0.00000E+00
    0.00000E+00         0.00000E+00         0.00000E+00
 
    0.40777E+06         0.45253E+06         0.00000E+00
    0.45253E+06        -0.15584E+07         0.00000E+00
    0.00000E+00         0.00000E+00         0.00000E+00
 
    0.39606E+06         0.47252E+06         0.00000E+00
    0.47252E+06        -0.15543E+07         0.00000E+00
    0.00000E+00         0.00000E+00         0.00000E+00
 
    0.38416E+06         0.49240E+06         0.00000E+00
    0.49240E+06        -0.15501E+07         0.00000E+00
    0.00000E+00         0.00000E+00         0.00000E+00
 
    0.37205E+06         0.51218E+06         0.00000E+00
    0.51218E+06        -0.15457E+07         0.00000E+00
    0.00000E+00         0.00000E+00         0.00000E+00
 
    0.35974E+06         0.53185E+06         0.00000E+00
    0.53185E+06        -0.15411E+07         0.00000E+00
    0.00000E+00         0.00000E+00         0.00000E+00
 
    0.34724E+06         0.55142E+06         0.00000E+00
    0.55142E+06        -0.15364E+07         0.00000E+00
    0.00000E+00         0.00000E+00         0.00000E+00
 
    0.33454E+06         0.57088E+06         0.00000E+00
    0.57088E+06        -0.15315E+07         0.00000E+00
    0.00000E+00         0.00000E+00         0.00000E+00
 
    0.32164E+06         0.59023E+06         0.00000E+00
    0.59023E+06        -0.15264E+07         0.00000E+00
    0.00000E+00         0.00000E+00         0.00000E+00
 
    0.30856E+06         0.60947E+06         0.00000E+00
    0.60947E+06        -0.15212E+07         0.00000E+00
    0.00000E+00         0.00000E+00         0.00000E+00
 
    0.29528E+06         0.62860E+06         0.00000E+00
    0.62860E+06        -0.15158E+07         0.00000E+00
    0.00000E+00         0.00000E+00         0.00000E+00
 
    0.28180E+06         0.64762E+06         0.00000E+00
    0.64762E+06        -0.15102E+07         0.00000E+00
    0.00000E+00         0.00000E+00         0.00000E+00
 
    0.26814E+06         0.66653E+06         0.00000E+00
    0.66653E+06        -0.15045E+07         0.00000E+00
    0.00000E+00         0.00000E+00         0.00000E+00
 
    0.25429E+06         0.68532E+06         0.00000E+00
    0.68532E+06        -0.14986E+07         0.00000E+00
    0.00000E+00         0.00000E+00         0.00000E+00
 
    0.24026E+06         0.70400E+06         0.00000E+00
    0.70400E+06        -0.14926E+07         0.00000E+00
    0.00000E+00         0.00000E+00         0.00000E+00
 
    0.22604E+06         0.72256E+06         0.00000E+00
    0.72256E+06        -0.14864E+07         0.00000E+00
    0.00000E+00         0.00000E+00         0.00000E+00
 
    0.21163E+06         0.74100E+06         0.00000E+00
    0.74100E+06        -0.14800E+07         0.00000E+00
    0.00000E+00         0.00000E+00         0.00000E+00
 
    0.19705E+06         0.75932E+06         0.00000E+00
    0.75932E+06        -0.14735E+07         0.00000E+00
    0.00000E+00         0.00000E+00         0.00000E+00
 
    0.18228E+06         0.77753E+06         0.00000E+00
    0.77753E+06        -0.14669E+07         0.00000E+00
    0.00000E+00         0.00000E+00         0.00000E+00
 
    0.16733E+06         0.79561E+06         0.00000E+00
    0.79561E+06        -0.14601E+07         0.00000E+00
    0.00000E+00         0.00000E+00         0.00000E+00
 
    0.15221E+06         0.81357E+06         0.00000E+00
    0.81357E+06        -0.14531E+07         0.00000E+00
    0.00000E+00         0.00000E+00         0.00000E+00
 
    0.13691E+06         0.83141E+06         0.00000E+00
    0.83141E+06        -0.14460E+07         0.00000E+00
    0.00000E+00         0.00000E+00         0.00000E+00
 
    0.12143E+06         0.84912E+06         0.00000E+00
    0.84912E+06        -0.14387E+07         0.00000E+00
    0.00000E+00         0.00000E+00         0.00000E+00
 
    0.10579E+06         0.86671E+06         0.00000E+00
    0.86671E+06        -0.14313E+07         0.00000E+00
    0.00000E+00         0.00000E+00         0.00000E+00
 
    0.89969E+05         0.88417E+06         0.00000E+00
    0.88417E+06        -0.14237E+07         0.00000E+00
    0.00000E+00         0.00000E+00         0.00000E+00
 
    0.73981E+05         0.90150E+06         0.00000E+00
    0.90150E+06        -0.14160E+07         0.00000E+00
    0.00000E+00         0.00000E+00         0.00000E+00
 
    0.57825E+05         0.91871E+06         0.00000E+00
    0.91871E+06        -0.14082E+07         0.00000E+00
    0.00000E+00         0.00000E+00         0.00000E+00
 
    0.41503E+05         0.93578E+06         0.00000E+00
    0.93578E+06        -0.14002E+07         0.00000E+00
    0.00000E+00         0.00000E+00         0.00000E+00
 
    0.25016E+05         0.95272E+06         0.00000E+00
    0.95272E+06        -0.13921E+07         0.00000E+00
    0.00000E+00         0.00000E+00         0.00000E+00
 
    0.83655E+04         0.96953E+06         0.00000E+00
    0.96953E+06        -0.13838E+07         0.00000E+00
    0.00000E+00         0.00000E+00         0.00000E+00
 
    0.63171E+06         0.11521E+05         0.00000E+00
    0.11521E+05        -0.16870E+07         0.00000E+00
    0.00000E+00         0.00000E+00         0.00000E+00
 
    0.62410E+06         0.34347E+05         0.00000E+00
    0.34347E+05        -0.16868E+07         0.00000E+00
    0.00000E+00         0.00000E+00         0.00000E+00
 
    0.61626E+06         0.57091E+05         0.00000E+00
    0.57091E+05        -0.16864E+07         0.00000E+00
    0.00000E+00         0.00000E+00         0.00000E+00
 
    0.60819E+06         0.79753E+05         0.00000E+00
    0.79753E+05        -0.16858E+07         0.00000E+00
    0.00000E+00         0.00000E+00         0.00000E+00
 
    0.59989E+06         0.10233E+06         0.00000E+00
    0.10233E+06        -0.16850E+07         0.00000E+00
    0.00000E+00         0.00000E+00         0.00000E+00
 
    0.59137E+06         0.12482E+06         0.00000E+00
    0.12482E+06        -0.16840E+07         0.00000E+00
    0.00000E+00         0.00000E+00         0.00000E+00
 
    0.58262E+06         0.14723E+06         0.00000E+00
    0.14723E+06        -0.16828E+07         0.00000E+00
    0.00000E+00         0.00000E+00         0.00000E+00
 
    0.57364E+06         0.16955E+06         0.00000E+00
    0.16955E+06        -0.16814E+07         0.00000E+00
    0.00000E+00         0.00000E+00         0.00000E+00
 
    0.56444E+06         0.19178E+06         0.00000E+00
    0.19178E+06        -0.16798E+07         0.00000E+00
    0.00000E+00         0.00000E+00         0.00000E+00
 
    0.55502E+06         0.21392E+06         0.00000E+00
    0.21392E+06        -0.16781E+07         0.00000E+00
    0.00000E+00         0.00000E+00         0.00000E+00
 
    0.54537E+06         0.23597E+06         0.00000E+00
    0.23597E+06        -0.16761E+07         0.00000E+00
    0.00000E+00         0.00000E+00         0.00000E+00
 
    0.53550E+06         0.25793E+06         0.00000E+00
    0.25793E+06        -0.16739E+07         0.00000E+00
    0.00000E+00         0.00000E+00         0.00000E+00
 
    0.52542E+06         0.27980E+06         0.00000E+00
    0.27980E+06        -0.16716E+07         0.00000E+00
    0.00000E+00         0.00000E+00         0.00000E+00
 
    0.51511E+06         0.30157E+06         0.00000E+00
    0.30157E+06        -0.16690E+07         0.00000E+00
    0.00000E+00         0.00000E+00         0.00000E+00
 
    0.50459E+06         0.32324E+06         0.00000E+00
    0.32324E+06        -0.16663E+07         0.00000E+00
    0.00000E+00         0.00000E+00         0.00000E+00
 
    0.49385E+06         0.34482E+06         0.00000E+00
    0.34482E+06        -0.16634E+07         0.00000E+00
    0.00000E+00         0.00000E+00         0.00000E+00
 
    0.48289E+06         0.36629E+06         0.00000E+00
    0.36629E+06        -0.16603E+07         0.00000E+00
    0.00000E+00         0.00000E+00         0.00000E+00
 
    0.47172E+06         0.38767E+06         0.00000E+00
    0.38767E+06        -0.16570E+07         0.00000E+00
    0.00000E+00         0.00000E+00         0.00000E+00
 
    0.46033E+06         0.40895E+06         0.00000E+00
    0.40895E+06        -0.16535E+07         0.00000E+00
    0.00000E+00         0.00000E+00         0.00000E+00
 
    0.44874E+06         0.43012E+06         0.00000E+00
    0.43012E+06        -0.16499E+07         0.00000E+00
    0.00000E+00         0.00000E+00         0.00000E+00
 
    0.43693E+06         0.45119E+06         0.00000E+00
    0.45119E+06        -0.16460E+07         0.00000E+00
    0.00000E+00         0.00000E+00         0.00000E+00
 
    0.42491E+06         0.47216E+06         0.00000E+00
    0.47216E+06        -0.16420E+07         0.00000E+00
    0.00000E+00         0.00000E+00         0.00000E+00
 
    0.41269E+06         0.49302E+06         0.00000E+00
    0.49302E+06        -0.16378E+07         0.00000E+00
    0.00000E+00         0.00000E+00         0.00000E+00
 
    0.40026E+06         0.51378E+06         0.00000E+00
    0.51378E+06        -0.16334E+07         0.00000E+00
    0.00000E+00         0.00000E+00         0.00000E+00
 
    0.38762E+06         0.53443E+06         0.00000E+00
    0.53443E+06        -0.16289E+07         0.00000E+00
    0.00000E+00         0.00000E+00         0.00000E+00
 
    0.37477E+06         0.55497E+06         0.00000E+00
    0.55497E+06        -0.16242E+07         0.00000E+00
    0.00000E+00         0.00000E+00         0.00000E+00
 
    0.36173E+06         0.57539E+06         0.00000E+00
    0.57539E+06        -0.16192E+07         0.00000E+00
    0.00000E+00         0.00000E+00         0.00000E+00
 
    0.34848E+06         0.59571E+06         0.00000E+00
    0.59571E+06        -0.16142E+07         0.00000E+00
    0.00000E+00         0.00000E+00         0.00000E+00
 
    0.33503E+06         0.61591E+06         0.00000E+00
    0.61591E+06        -0.16089E+07         0.00000E+00
    0.00000E+00         0.00000E+00         0.00000E+00
 
    0.32138E+06         0.63600E+06         0.00000E+00
    0.63600E+06        -0.16035E+07         0.00000E+00
    0.00000E+00         0.00000E+00         0.00000E+00
 
    0.30753E+06         0.65598E+06         0.00000E+00
    0.65598E+06        -0.15979E+07         0.00000E+00
    0.00000E+00         0.00000E+00         0.00000E+00
 
    0.29349E+06         0.67584E+06         0.00000E+00
    0.67584E+06        -0.15921E+07         0.00000E+00
    0.00000E+00         0.00000E+00         0.00000E+00
 
    0.27925E+06         0.69558E+06         0.00000E+00
    0.69558E+06        -0.15862E+07         0.00000E+00
    0.00000E+00         0.00000E+00         0.00000E+00
 
    0.26482E+06         0.71520E+06         0.00000E+00
    0.71520E+06        -0.15801E+07         0.00000E+00
    0.00000E+00         0.00000E+00         0.00000E+00
 
    0.25019E+06         0.73471E+06         0.00000E+00
    0.73471E+06        -0.15738E+07         0.00000E+00
    0.00000E+00         0.00000E+00         0.00000E+00
 
    0.23537E+06         0.75409E+06         0.00000E+00
    0.75409E+06        -0.15674E+07         0.00000E+00
    0.00000E+00         0.00000E+00         0.00000E+00
 
    0.22037E+06         0.77335E+06         0.00000E+00
    0.77335E+06        -0.15608E+07         0.00000E+00
    0.00000E+00         0.00000E+00         0.00000E+00
 
    0.20517E+06         0.79249E+06         0.00000E+00
    0.79249E+06        -0.15540E+07         0.00000E+00
    0.00000E+00         0.00000E+00         0.00000E+00
 
    0.18979E+06         0.81150E+06         0.00000E+00
    0.81150E+06        -0.15471E+07         0.00000E+00
    0.00000E+00         0.00000E+00         0.00000E+00
 
    0.17423E+06         0.83039E+06         0.00000E+00
    0.83039E+06        -0.15400E+07         0.00000E+00
    0.00000E+00         0.00000E+00         0.00000E+00
 
    0.15847E+06         0.84915E+06         0.00000E+00
    0.84915E+06        -0.15328E+07         0.00000E+00
    0.00000E+00         0.00000E+00         0.00000E+00
 
    0.14254E+06         0.86778E+06         0.00000E+00
    0.86778E+06        -0.15254E+07         0.00000E+00
    0.00000E+00         0.00000E+00         0.00000E+00
 
    0.12643E+06         0.88628E+06         0.00000E+00
    0.88628E+06        -0.15178E+07         0.00000E+00
    0.00000E+00         0.00000E+00         0.00000E+00
 
    0.11014E+06         0.90465E+06         0.00000E+00
    0.90465E+06        -0.15101E+07         0.00000E+00
    0.00000E+00         0.00000E+00         0.00000E+00
 
    0.93667E+05         0.92289E+06         0.00000E+00
    0.92289E+06        -0.15022E+07         0.00000E+00
    0.00000E+00         0.00000E+00         0.00000E+00
 
    0.77021E+05         0.94099E+06         0.00000E+00
    0.94099E+06        -0.14942E+07         0.00000E+00
    0.00000E+00         0.00000E+00         0.00000E+00
 
    0.60200E+05         0.95896E+06         0.00000E+00
    0.95896E+06        -0.14861E+07         0.00000E+00
    0.00000E+00         0.00000E+00         0.00000E+00
 
    0.43207E+05         0.97679E+06         0.00000E+00
    0.97679E+06        -0.14777E+07         0.00000E+00
    0.00000E+00         0.00000E+00         0.00000E+00
 
    0.26043E+05         0.99449E+06         0.00000E+00
    0.99449E+06        -0.14693E+07         0.00000E+00
    0.00000E+00         0.00000E+00         0.00000E+00
 
    0.87091E+04         0.10120E+07         0.00000E+00
    0.10120E+07        -0.14607E+07         0.00000E+00
    0.00000E+00         0.00000E+00         0.00000E+00
 
    0.65942E+06         0.12012E+05         0.00000E+00
    0.12012E+05        -0.17760E+07         0.00000E+00
    0.00000E+00         0.00000E+00         0.00000E+00
 
    0.65140E+06         0.35812E+05         0.00000E+00
    0.35812E+05        -0.17758E+07         0.00000E+00
    0.00000E+00         0.00000E+00         0.00000E+00
 
    0.64315E+06         0.59529E+05         0.00000E+00
    0.59529E+05        -0.17754E+07         0.00000E+00
    0.00000E+00         0.00000E+00         0.00000E+00
 
    0.63466E+06         0.83161E+05         0.00000E+00
    0.83161E+05        -0.17748E+07         0.00000E+00
    0.00000E+00         0.00000E+00         0.00000E+00
 
    0.62593E+06         0.10671E+06         0.00000E+00
    0.10671E+06        -0.17740E+07         0.00000E+00
    0.00000E+00         0.00000E+00         0.00000E+00
 
    0.61697E+06         0.13016E+06         0.00000E+00
    0.13016E+06        -0.17729E+07         0.00000E+00
    0.00000E+00         0.00000E+00         0.00000E+00
 
    0.60778E+06         0.15353E+06         0.00000E+00
    0.15353E+06        -0.17717E+07         0.00000E+00
    0.00000E+00         0.00000E+00         0.00000E+00
 
    0.59836E+06         0.17681E+06         0.00000E+00
    0.17681E+06        -0.17703E+07         0.00000E+00
    0.00000E+00         0.00000E+00         0.00000E+00
 
    0.58871E+06         0.20000E+06         0.00000E+00
    0.20000E+06        -0.17686E+07         0.00000E+00
    0.00000E+00         0.00000E+00         0.00000E+00
 
    0.57882E+06         0.22310E+06         0.00000E+00
    0.22310E+06        -0.17668E+07         0.00000E+00
    0.00000E+00         0.00000E+00         0.00000E+00
 
    0.56871E+06         0.24610E+06         0.00000E+00
    0.24610E+06        -0.17647E+07         0.00000E+00
    0.00000E+00         0.00000E+00         0.00000E+00
 
    0.55837E+06         0.26900E+06         0.00000E+00
    0.26900E+06        -0.17625E+07         0.00000E+00
    0.00000E+00         0.00000E+00         0.00000E+00
 
    0.54781E+06         0.29181E+06         0.00000E+00
    0.29181E+06        -0.17601E+07         0.00000E+00
    0.00000E+00         0.00000E+00         0.00000E+00
 
    0.53702E+06         0.31452E+06         0.00000E+00
    0.31452E+06        -0.17574E+07         0.00000E+00
    0.00000E+00         0.00000E+00         0.00000E+00
 
    0.52600E+06         0.33713E+06         0.00000E+00
    0.33713E+06        -0.17546E+07         0.00000E+00
    0.00000E+00         0.00000E+00         0.00000E+00
 
    0.51477E+06         0.35965E+06         0.00000E+00
    0.35965E+06        -0.17516E+07         0.00000E+00
    0.00000E+00         0.00000E+00         0.00000E+00
 
    0.50331E+06         0.38206E+06         0.00000E+00
    0.38206E+06        -0.17484E+07         0.00000E+00
    0.00000E+00         0.00000E+00         0.00000E+00
 
    0.49163E+06         0.40436E+06         0.00000E+00
    0.40436E+06        -0.17450E+07         0.00000E+00
    0.00000E+00         0.00000E+00         0.00000E+00
 
    0.47973E+06         0.42656E+06         0.00000E+00
    0.42656E+06        -0.17414E+07         0.00000E+00
    0.00000E+00         0.00000E+00         0.00000E+00
 
    0.46761E+06         0.44866E+06         0.00000E+00
    0.44866E+06        -0.17376E+07         0.00000E+00
    0.00000E+00         0.00000E+00         0.00000E+00
 
    0.45528E+06         0.47065E+06         0.00000E+00
    0.47065E+06        -0.17336E+07         0.00000E+00
    0.00000E+00         0.00000E+00         0.00000E+00
 
    0.44273E+06         0.49253E+06         0.00000E+00
    0.49253E+06        -0.17294E+07         0.00000E+00
    0.00000E+00         0.00000E+00         0.00000E+00
 
    0.42996E+06         0.51431E+06         0.00000E+00
    0.51431E+06        -0.17251E+07         0.00000E+00
    0.00000E+00         0.00000E+00         0.00000E+00
 
    0.41698E+06         0.53597E+06         0.00000E+00
    0.53597E+06        -0.17205E+07         0.00000E+00
    0.00000E+00         0.00000E+00         0.00000E+00
 
    0.40379E+06         0.55752E+06         0.00000E+00
    0.55752E+06        -0.17158E+07         0.00000E+00
    0.00000E+00         0.00000E+00         0.00000E+00
 
    0.39039E+06         0.57896E+06         0.00000E+00
    0.57896E+06        -0.17109E+07         0.00000E+00
    0.00000E+00         0.00000E+00         0.00000E+00
 
    0.37678E+06         0.60028E+06         0.00000E+00
    0.60028E+06        -0.17058E+07         0.00000E+00
    0.00000E+00         0.00000E+00         0.00000E+00
 
    0.36297E+06         0.62149E+06         0.00000E+00
    0.62149E+06        -0.17005E+07         0.00000E+00
    0.00000E+00         0.00000E+00         0.00000E+00
 
    0.34894E+06         0.64258E+06         0.00000E+00
    0.64258E+06        -0.16951E+07         0.00000E+00
    0.00000E+00         0.00000E+00         0.00000E+00
 
    0.33471E+06         0.66356E+06         0.00000E+00
    0.66356E+06        -0.16894E+07         0.00000E+00
    0.00000E+00         0.00000E+00         0.00000E+00
 
    0.32027E+06         0.68441E+06         0.00000E+00
    0.68441E+06        -0.16836E+07         0.00000E+00
    0.00000E+00         0.00000E+00         0.00000E+00
 
    0.30564E+06         0.70515E+06         0.00000E+00
    0.70515E+06        -0.16776E+07         0.00000E+00
    0.00000E+00         0.00000E+00         0.00000E+00
 
    0.29080E+06         0.72576E+06         0.00000E+00
    0.72576E+06        -0.16715E+07         0.00000E+00
    0.00000E+00         0.00000E+00         0.00000E+00
 
    0.27576E+06         0.74625E+06         0.00000E+00
    0.74625E+06        -0.16651E+07         0.00000E+00
    0.00000E+00         0.00000E+00         0.00000E+00
 
    0.26052E+06         0.76661E+06         0.00000E+00
    0.76661E+06        -0.16586E+07         0.00000E+00
    0.00000E+00         0.00000E+00         0.00000E+00
 
    0.24508E+06         0.78685E+06         0.00000E+00
    0.78685E+06        -0.16520E+07         0.00000E+00
    0.00000E+00         0.00000E+00         0.00000E+00
 
    0.22945E+06         0.80697E+06         0.00000E+00
    0.80697E+06        -0.16451E+07         0.00000E+00
    0.00000E+00         0.00000E+00         0.00000E+00
 
    0.21362E+06         0.82695E+06         0.00000E+00
    0.82695E+06        -0.16381E+07         0.00000E+00
    0.00000E+00         0.00000E+00         0.00000E+00
 
    0.19760E+06         0.84681E+06         0.00000E+00
    0.84681E+06        -0.16309E+07         0.00000E+00
    0.00000E+00         0.00000E+00         0.00000E+00
 
    0.18139E+06         0.86653E+06         0.00000E+00
    0.86653E+06        -0.16235E+07         0.00000E+00
    0.00000E+00         0.00000E+00         0.00000E+00
 
    0.16499E+06         0.88613E+06         0.00000E+00
    0.88613E+06        -0.16160E+07         0.00000E+00
    0.00000E+00         0.00000E+00         0.00000E+00
 
    0.14840E+06         0.90559E+06         0.00000E+00
    0.90559E+06        -0.16083E+07         0.00000E+00
    0.00000E+00         0.00000E+00         0.00000E+00
 
    0.13162E+06         0.92491E+06         0.00000E+00
    0.92491E+06        -0.16005E+07         0.00000E+00
    0.00000E+00         0.00000E+00         0.00000E+00
 
    0.11466E+06         0.94410E+06         0.00000E+00
    0.94410E+06        -0.15924E+07         0.00000E+00
    0.00000E+00         0.00000E+00         0.00000E+00
 
    0.97512E+05         0.96315E+06         0.00000E+00
    0.96315E+06        -0.15843E+07         0.00000E+00
    0.00000E+00         0.00000E+00         0.00000E+00
 
    0.80182E+05         0.98207E+06         0.00000E+00
    0.98207E+06        -0.15759E+07         0.00000E+00
    0.00000E+00         0.00000E+00         0.00000E+00
 
    0.62671E+05         0.10008E+07         0.00000E+00
    0.10008E+07        -0.15674E+07         0.00000E+00
    0.00000E+00         0.00000E+00         0.00000E+00
 
    0.44980E+05         0.10195E+07         0.00000E+00
    0.10195E+07        -0.15588E+07         0.00000E+00
    0.00000E+00         0.00000E+00         0.00000E+00
 
    0.27112E+05         0.10380E+07         0.00000E+00
    0.10380E+07        -0.15500E+07         0.00000E+00
    0.00000E+00         0.00000E+00         0.00000E+00
 
    0.90665E+04         0.10563E+07         0.00000E+00
    0.10563E+07        -0.15410E+07         0.00000E+00
    0.00000E+00         0.00000E+00         0.00000E+00
 
    0.68810E+06         0.12521E+05         0.00000E+00
    0.12521E+05        -0.18691E+07         0.00000E+00
    0.00000E+00         0.00000E+00         0.00000E+00
 
    0.67966E+06         0.37333E+05         0.00000E+00
    0.37333E+05        -0.18689E+07         0.00000E+00
    0.00000E+00         0.00000E+00         0.00000E+00
 
    0.67098E+06         0.62059E+05         0.00000E+00
    0.62059E+05        -0.18684E+07         0.00000E+00
    0.00000E+00         0.00000E+00         0.00000E+00
 
    0.66206E+06         0.86697E+05         0.00000E+00
    0.86697E+05        -0.18678E+07         0.00000E+00
    0.00000E+00         0.00000E+00         0.00000E+00
 
    0.65289E+06         0.11125E+06         0.00000E+00
    0.11125E+06        -0.18669E+07         0.00000E+00
    0.00000E+00         0.00000E+00         0.00000E+00
 
    0.64349E+06         0.13571E+06         0.00000E+00
    0.13571E+06        -0.18659E+07         0.00000E+00
    0.00000E+00         0.00000E+00         0.00000E+00
 
    0.63384E+06         0.16007E+06         0.00000E+00
    0.16007E+06        -0.18646E+07         0.00000E+00
    0.00000E+00         0.00000E+00         0.00000E+00
 
    0.62396E+06         0.18435E+06         0.00000E+00
    0.18435E+06        -0.18631E+07         0.00000E+00
    0.00000E+00         0.00000E+00         0.00000E+00
 
    0.61384E+06         0.20853E+06         0.00000E+00
    0.20853E+06        -0.18614E+07         0.00000E+00
    0.00000E+00         0.00000E+00         0.00000E+00
 
    0.60348E+06         0.23261E+06         0.00000E+00
    0.23261E+06        -0.18595E+07         0.00000E+00
    0.00000E+00         0.00000E+00         0.00000E+00
 
    0.59289E+06         0.25660E+06         0.00000E+00
    0.25660E+06        -0.18574E+07         0.00000E+00
    0.00000E+00         0.00000E+00         0.00000E+00
 
    0.58206E+06         0.28049E+06         0.00000E+00
    0.28049E+06        -0.18551E+07         0.00000E+00
    0.00000E+00         0.00000E+00         0.00000E+00
 
    0.57100E+06         0.30428E+06         0.00000E+00
    0.30428E+06        -0.18525E+07         0.00000E+00
    0.00000E+00         0.00000E+00         0.00000E+00
 
    0.55971E+06         0.32797E+06         0.00000E+00
    0.32797E+06        -0.18498E+07         0.00000E+00
    0.00000E+00         0.00000E+00         0.00000E+00
 
    0.54819E+06         0.35155E+06         0.00000E+00
    0.35155E+06        -0.18469E+07         0.00000E+00
    0.00000E+00         0.00000E+00         0.00000E+00
 
    0.53644E+06         0.37503E+06         0.00000E+00
    0.37503E+06        -0.18437E+07         0.00000E+00
    0.00000E+00         0.00000E+00         0.00000E+00
 
    0.52446E+06         0.39841E+06         0.00000E+00
    0.39841E+06        -0.18404E+07         0.00000E+00
    0.00000E+00         0.00000E+00         0.00000E+00
 
    0.51226E+06         0.42168E+06         0.00000E+00
    0.42168E+06        -0.18369E+07         0.00000E+00
    0.00000E+00         0.00000E+00         0.00000E+00
 
    0.49983E+06         0.44485E+06         0.00000E+00
    0.44485E+06        -0.18331E+07         0.00000E+00
    0.00000E+00         0.00000E+00         0.00000E+00
 
    0.48717E+06         0.46790E+06         0.00000E+00
    0.46790E+06        -0.18292E+07         0.00000E+00
    0.00000E+00         0.00000E+00         0.00000E+00
 
    0.47429E+06         0.49084E+06         0.00000E+00
    0.49084E+06        -0.18251E+07         0.00000E+00
    0.00000E+00         0.00000E+00         0.00000E+00
 
    0.46119E+06         0.51368E+06         0.00000E+00
    0.51368E+06        -0.18208E+07         0.00000E+00
    0.00000E+00         0.00000E+00         0.00000E+00
 
    0.44787E+06         0.53640E+06         0.00000E+00
    0.53640E+06        -0.18162E+07         0.00000E+00
    0.00000E+00         0.00000E+00         0.00000E+00
 
    0.43432E+06         0.55900E+06         0.00000E+00
    0.55900E+06        -0.18115E+07         0.00000E+00
    0.00000E+00         0.00000E+00         0.00000E+00
 
    0.42056E+06         0.58149E+06         0.00000E+00
    0.58149E+06        -0.18066E+07         0.00000E+00
    0.00000E+00         0.00000E+00         0.00000E+00
 
    0.40659E+06         0.60386E+06         0.00000E+00
    0.60386E+06        -0.18015E+07         0.00000E+00
    0.00000E+00         0.00000E+00         0.00000E+00
 
    0.39239E+06         0.62612E+06         0.00000E+00
    0.62612E+06        -0.17963E+07         0.00000E+00
    0.00000E+00         0.00000E+00         0.00000E+00
 
    0.37798E+06         0.64826E+06         0.00000E+00
    0.64826E+06        -0.17908E+07         0.00000E+00
    0.00000E+00         0.00000E+00         0.00000E+00
 
    0.36336E+06         0.67027E+06         0.00000E+00
    0.67027E+06        -0.17851E+07         0.00000E+00
    0.00000E+00         0.00000E+00         0.00000E+00
 
    0.34853E+06         0.69217E+06         0.00000E+00
    0.69217E+06        -0.17793E+07         0.00000E+00
    0.00000E+00         0.00000E+00         0.00000E+00
 
    0.33348E+06         0.71394E+06         0.00000E+00
    0.71394E+06        -0.17733E+07         0.00000E+00
    0.00000E+00         0.00000E+00         0.00000E+00
 
    0.31823E+06         0.73558E+06         0.00000E+00
    0.73558E+06        -0.17671E+07         0.00000E+00
    0.00000E+00         0.00000E+00         0.00000E+00
 
    0.30277E+06         0.75710E+06         0.00000E+00
    0.75710E+06        -0.17607E+07         0.00000E+00
    0.00000E+00         0.00000E+00         0.00000E+00
 
    0.28710E+06         0.77849E+06         0.00000E+00
    0.77849E+06        -0.17541E+07         0.00000E+00
    0.00000E+00         0.00000E+00         0.00000E+00
 
    0.27123E+06         0.79976E+06         0.00000E+00
    0.79976E+06        -0.17473E+07         0.00000E+00
    0.00000E+00         0.00000E+00         0.00000E+00
 
    0.25515E+06         0.82089E+06         0.00000E+00
    0.82089E+06        -0.17404E+07         0.00000E+00
    0.00000E+00         0.00000E+00         0.00000E+00
 
    0.23887E+06         0.84190E+06         0.00000E+00
    0.84190E+06        -0.17333E+07         0.00000E+00
    0.00000E+00         0.00000E+00         0.00000E+00
 
    0.22239E+06         0.86277E+06         0.00000E+00
    0.86277E+06        -0.17260E+07         0.00000E+00
    0.00000E+00         0.00000E+00         0.00000E+00
 
    0.20571E+06         0.88350E+06         0.00000E+00
    0.88350E+06        -0.17185E+07         0.00000E+00
    0.00000E+00         0.00000E+00         0.00000E+00
 
    0.18883E+06         0.90411E+06         0.00000E+00
    0.90411E+06        -0.17108E+07         0.00000E+00
    0.00000E+00         0.00000E+00         0.00000E+00
 
    0.17175E+06         0.92457E+06         0.00000E+00
    0.92457E+06        -0.17030E+07         0.00000E+00
    0.00000E+00         0.00000E+00         0.00000E+00
 
    0.15448E+06         0.94490E+06         0.00000E+00
    0.94490E+06        -0.16950E+07         0.00000E+00
    0.00000E+00         0.00000E+00         0.00000E+00
 
    0.13701E+06         0.96508E+06         0.00000E+00
    0.96508E+06        -0.16869E+07         0.00000E+00
    0.00000E+00         0.00000E+00         0.00000E+00
 
    0.11935E+06         0.98513E+06         0.00000E+00
    0.98513E+06        -0.16785E+07         0.00000E+00
    0.00000E+00         0.00000E+00         0.00000E+00
 
    0.10150E+06         0.10050E+07         0.00000E+00
    0.10050E+07        -0.16700E+07         0.00000E+00
    0.00000E+00         0.00000E+00         0.00000E+00
 
    0.83462E+05         0.10248E+07         0.00000E+00
    0.10248E+07        -0.16614E+07         0.00000E+00
    0.00000E+00         0.00000E+00         0.00000E+00
 
    0.65234E+05         0.10444E+07         0.00000E+00
    0.10444E+07        -0.16525E+07         0.00000E+00
    0.00000E+00         0.00000E+00         0.00000E+00
 
    0.46820E+05         0.10639E+07         0.00000E+00
    0.10639E+07        -0.16435E+07         0.00000E+00
    0.00000E+00         0.00000E+00         0.00000E+00
 
    0.28220E+05         0.10832E+07         0.00000E+00
    0.10832E+07        -0.16344E+07         0.00000E+00
    0.00000E+00         0.00000E+00         0.00000E+00
 
    0.94372E+04         0.11024E+07         0.00000E+00
    0.11024E+07        -0.16251E+07         0.00000E+00
    0.00000E+00         0.00000E+00         0.00000E+00
 
    0.71774E+06         0.13050E+05         0.00000E+00
    0.13050E+05        -0.19663E+07         0.00000E+00
    0.00000E+00         0.00000E+00         0.00000E+00
 
    0.70887E+06         0.38911E+05         0.00000E+00
    0.38911E+05        -0.19661E+07         0.00000E+00
    0.00000E+00         0.00000E+00         0.00000E+00
 
    0.69975E+06         0.64684E+05         0.00000E+00
    0.64684E+05        -0.19656E+07         0.00000E+00
    0.00000E+00         0.00000E+00         0.00000E+00
 
    0.69038E+06         0.90367E+05         0.00000E+00
    0.90367E+05        -0.19650E+07         0.00000E+00
    0.00000E+00         0.00000E+00         0.00000E+00
 
    0.68076E+06         0.11596E+06         0.00000E+00
    0.11596E+06        -0.19641E+07         0.00000E+00
    0.00000E+00         0.00000E+00         0.00000E+00
 
    0.67090E+06         0.14146E+06         0.00000E+00
    0.14146E+06        -0.19630E+07         0.00000E+00
    0.00000E+00         0.00000E+00         0.00000E+00
 
    0.66078E+06         0.16686E+06         0.00000E+00
    0.16686E+06        -0.19617E+07         0.00000E+00
    0.00000E+00         0.00000E+00         0.00000E+00
 
    0.65042E+06         0.19217E+06         0.00000E+00
    0.19217E+06        -0.19601E+07         0.00000E+00
    0.00000E+00         0.00000E+00         0.00000E+00
 
    0.63982E+06         0.21738E+06         0.00000E+00
    0.21738E+06        -0.19584E+07         0.00000E+00
    0.00000E+00         0.00000E+00         0.00000E+00
 
    0.62897E+06         0.24249E+06         0.00000E+00
    0.24249E+06        -0.19564E+07         0.00000E+00
    0.00000E+00         0.00000E+00         0.00000E+00
 
    0.61789E+06         0.26750E+06         0.00000E+00
    0.26750E+06        -0.19542E+07         0.00000E+00
    0.00000E+00         0.00000E+00         0.00000E+00
 
    0.60656E+06         0.29241E+06         0.00000E+00
    0.29241E+06        -0.19518E+07         0.00000E+00
    0.00000E+00         0.00000E+00         0.00000E+00
 
    0.59499E+06         0.31721E+06         0.00000E+00
    0.31721E+06        -0.19492E+07         0.00000E+00
    0.00000E+00         0.00000E+00         0.00000E+00
 
    0.58318E+06         0.34192E+06         0.00000E+00
    0.34192E+06        -0.19463E+07         0.00000E+00
    0.00000E+00         0.00000E+00         0.00000E+00
 
    0.57114E+06         0.36651E+06         0.00000E+00
    0.36651E+06        -0.19433E+07         0.00000E+00
    0.00000E+00         0.00000E+00         0.00000E+00
 
    0.55886E+06         0.39100E+06         0.00000E+00
    0.39100E+06        -0.19401E+07         0.00000E+00
    0.00000E+00         0.00000E+00         0.00000E+00
 
    0.54634E+06         0.41538E+06         0.00000E+00
    0.41538E+06        -0.19366E+07         0.00000E+00
    0.00000E+00         0.00000E+00         0.00000E+00
 
    0.53359E+06         0.43965E+06         0.00000E+00
    0.43965E+06        -0.19329E+07         0.00000E+00
    0.00000E+00         0.00000E+00         0.00000E+00
 
    0.52061E+06         0.46382E+06         0.00000E+00
    0.46382E+06        -0.19291E+07         0.00000E+00
    0.00000E+00         0.00000E+00         0.00000E+00
 
    0.50740E+06         0.48786E+06         0.00000E+00
    0.48786E+06        -0.19250E+07         0.00000E+00
    0.00000E+00         0.00000E+00         0.00000E+00
 
    0.49395E+06         0.51180E+06         0.00000E+00
    0.51180E+06        -0.19207E+07         0.00000E+00
    0.00000E+00         0.00000E+00         0.00000E+00
 
    0.48028E+06         0.53562E+06         0.00000E+00
    0.53562E+06        -0.19163E+07         0.00000E+00
    0.00000E+00         0.00000E+00         0.00000E+00
 
    0.46638E+06         0.55932E+06         0.00000E+00
    0.55932E+06        -0.19116E+07         0.00000E+00
    0.00000E+00         0.00000E+00         0.00000E+00
 
    0.45226E+06         0.58291E+06         0.00000E+00
    0.58291E+06        -0.19067E+07         0.00000E+00
    0.00000E+00         0.00000E+00         0.00000E+00
 
    0.43791E+06         0.60637E+06         0.00000E+00
    0.60637E+06        -0.19016E+07         0.00000E+00
    0.00000E+00         0.00000E+00         0.00000E+00
 
    0.42334E+06         0.62972E+06         0.00000E+00
    0.62972E+06        -0.18963E+07         0.00000E+00
    0.00000E+00         0.00000E+00         0.00000E+00
 
    0.40854E+06         0.65294E+06         0.00000E+00
    0.65294E+06        -0.18908E+07         0.00000E+00
    0.00000E+00         0.00000E+00         0.00000E+00
 
    0.39352E+06         0.67604E+06         0.00000E+00
    0.67604E+06        -0.18852E+07         0.00000E+00
    0.00000E+00         0.00000E+00         0.00000E+00
 
    0.37828E+06         0.69902E+06         0.00000E+00
    0.69902E+06        -0.18793E+07         0.00000E+00
    0.00000E+00         0.00000E+00         0.00000E+00
 
    0.36283E+06         0.72187E+06         0.00000E+00
    0.72187E+06        -0.18732E+07         0.00000E+00
    0.00000E+00         0.00000E+00         0.00000E+00
 
    0.34715E+06         0.74459E+06         0.00000E+00
    0.74459E+06        -0.18670E+07         0.00000E+00
    0.00000E+00         0.00000E+00         0.00000E+00
 
    0.33126E+06         0.76719E+06         0.00000E+00
    0.76719E+06        -0.18605E+07         0.00000E+00
    0.00000E+00         0.00000E+00         0.00000E+00
 
    0.31516E+06         0.78965E+06         0.00000E+00
    0.78965E+06        -0.18539E+07         0.00000E+00
    0.00000E+00         0.00000E+00         0.00000E+00
 
    0.29884E+06         0.81199E+06         0.00000E+00
    0.81199E+06        -0.18471E+07         0.00000E+00
    0.00000E+00         0.00000E+00         0.00000E+00
 
    0.28231E+06         0.83419E+06         0.00000E+00
    0.83419E+06        -0.18401E+07         0.00000E+00
    0.00000E+00         0.00000E+00         0.00000E+00
 
    0.26557E+06         0.85626E+06         0.00000E+00
    0.85626E+06        -0.18329E+07         0.00000E+00
    0.00000E+00         0.00000E+00         0.00000E+00
 
    0.24861E+06         0.87819E+06         0.00000E+00
    0.87819E+06        -0.18255E+07         0.00000E+00
    0.00000E+00         0.00000E+00         0.00000E+00
 
    0.23146E+06         0.89998E+06         0.00000E+00
    0.89998E+06        -0.18179E+07         0.00000E+00
    0.00000E+00         0.00000E+00         0.00000E+00
 
    0.21409E+06         0.92164E+06         0.00000E+00
    0.92164E+06        -0.18101E+07         0.00000E+00
    0.00000E+00         0.00000E+00         0.00000E+00
 
    0.19652E+06         0.94316E+06         0.00000E+00
    0.94316E+06        -0.18022E+07         0.00000E+00
    0.00000E+00         0.00000E+00         0.00000E+00
 
    0.17874E+06         0.96453E+06         0.00000E+00
    0.96453E+06        -0.17941E+07         0.00000E+00
    0.00000E+00         0.00000E+00         0.00000E+00
 
    0.16077E+06         0.98576E+06         0.00000E+00
    0.98576E+06        -0.17858E+07         0.00000E+00
    0.00000E+00         0.00000E+00         0.00000E+00
 
    0.14259E+06         0.10069E+07         0.00000E+00
    0.10069E+07        -0.17773E+07         0.00000E+00
    0.00000E+00         0.00000E+00         0.00000E+00
 
    0.12421E+06         0.10278E+07         0.00000E+00
    0.10278E+07        -0.17686E+07         0.00000E+00
    0.00000E+00         0.00000E+00         0.00000E+00
 
    0.10563E+06         0.10486E+07         0.00000E+00
    0.10486E+07        -0.17598E+07         0.00000E+00
    0.00000E+00         0.00000E+00         0.00000E+00
 
    0.86856E+05         0.10692E+07         0.00000E+00
    0.10692E+07        -0.17508E+07         0.00000E+00
    0.00000E+00         0.00000E+00         0.00000E+00
 
    0.67887E+05         0.10897E+07         0.00000E+00
    0.10897E+07        -0.17416E+07         0.00000E+00
    0.00000E+00         0.00000E+00         0.00000E+00
 
    0.48724E+05         0.11101E+07         0.00000E+00
    0.11101E+07        -0.17322E+07         0.00000E+00
    0.00000E+00         0.00000E+00         0.00000E+00
 
    0.29368E+05         0.11303E+07         0.00000E+00
    0.11303E+07        -0.17227E+07         0.00000E+00
    0.00000E+00         0.00000E+00         0.00000E+00
 
    0.98209E+04         0.11503E+07         0.00000E+00
    0.11503E+07        -0.17130E+07         0.00000E+00
    0.00000E+00         0.00000E+00         0.00000E+00
 
    0.74834E+06         0.13599E+05         0.00000E+00
    0.13599E+05        -0.20680E+07         0.00000E+00
    0.00000E+00         0.00000E+00         0.00000E+00
 
    0.73903E+06         0.40549E+05         0.00000E+00
    0.40549E+05        -0.20677E+07         0.00000E+00
    0.00000E+00         0.00000E+00         0.00000E+00
 
    0.72945E+06         0.67408E+05         0.00000E+00
    0.67408E+05        -0.20673E+07         0.00000E+00
    0.00000E+00         0.00000E+00         0.00000E+00
 
    0.71962E+06         0.94173E+05         0.00000E+00
    0.94173E+05        -0.20666E+07         0.00000E+00
    0.00000E+00         0.00000E+00         0.00000E+00
 
    0.70953E+06         0.12084E+06         0.00000E+00
    0.12084E+06        -0.20657E+07         0.00000E+00
    0.00000E+00         0.00000E+00         0.00000E+00
 
    0.69918E+06         0.14742E+06         0.00000E+00
    0.14742E+06        -0.20645E+07         0.00000E+00
    0.00000E+00         0.00000E+00         0.00000E+00
 
    0.68859E+06         0.17390E+06         0.00000E+00
    0.17390E+06        -0.20631E+07         0.00000E+00
    0.00000E+00         0.00000E+00         0.00000E+00
 
    0.67774E+06         0.20027E+06         0.00000E+00
    0.20027E+06        -0.20615E+07         0.00000E+00
    0.00000E+00         0.00000E+00         0.00000E+00
 
    0.66664E+06         0.22655E+06         0.00000E+00
    0.22655E+06        -0.20597E+07         0.00000E+00
    0.00000E+00         0.00000E+00         0.00000E+00
 
    0.65528E+06         0.25273E+06         0.00000E+00
    0.25273E+06        -0.20577E+07         0.00000E+00
    0.00000E+00         0.00000E+00         0.00000E+00
 
    0.64368E+06         0.27880E+06         0.00000E+00
    0.27880E+06        -0.20554E+07         0.00000E+00
    0.00000E+00         0.00000E+00         0.00000E+00
 
    0.63184E+06         0.30477E+06         0.00000E+00
    0.30477E+06        -0.20529E+07         0.00000E+00
    0.00000E+00         0.00000E+00         0.00000E+00
 
    0.61974E+06         0.33063E+06         0.00000E+00
    0.33063E+06        -0.20502E+07         0.00000E+00
    0.00000E+00         0.00000E+00         0.00000E+00
 
    0.60740E+06         0.35638E+06         0.00000E+00
    0.35638E+06        -0.20473E+07         0.00000E+00
    0.00000E+00         0.00000E+00         0.00000E+00
 
    0.59482E+06         0.38203E+06         0.00000E+00
    0.38203E+06        -0.20441E+07         0.00000E+00
    0.00000E+00         0.00000E+00         0.00000E+00
 
    0.58199E+06         0.40757E+06         0.00000E+00
    0.40757E+06        -0.20408E+07         0.00000E+00
    0.00000E+00         0.00000E+00         0.00000E+00
 
    0.56892E+06         0.43299E+06         0.00000E+00
    0.43299E+06        -0.20372E+07         0.00000E+00
    0.00000E+00         0.00000E+00         0.00000E+00
 
    0.55561E+06         0.45830E+06         0.00000E+00
    0.45830E+06        -0.20334E+07         0.00000E+00
    0.00000E+00         0.00000E+00         0.00000E+00
 
    0.54206E+06         0.48350E+06         0.00000E+00
    0.48350E+06        -0.20294E+07         0.00000E+00
    0.00000E+00         0.00000E+00         0.00000E+00
 
    0.52828E+06         0.50858E+06         0.00000E+00
    0.50858E+06        -0.20252E+07         0.00000E+00
    0.00000E+00         0.00000E+00         0.00000E+00
 
    0.51425E+06         0.53354E+06         0.00000E+00
    0.53354E+06        -0.20207E+07         0.00000E+00
    0.00000E+00         0.00000E+00         0.00000E+00
 
    0.49999E+06         0.55838E+06         0.00000E+00
    0.55838E+06        -0.20161E+07         0.00000E+00
    0.00000E+00         0.00000E+00         0.00000E+00
 
    0.48550E+06         0.58311E+06         0.00000E+00
    0.58311E+06        -0.20112E+07         0.00000E+00
    0.00000E+00         0.00000E+00         0.00000E+00
 
    0.47077E+06         0.60771E+06         0.00000E+00
    0.60771E+06        -0.20062E+07         0.00000E+00
    0.00000E+00         0.00000E+00         0.00000E+00
 
    0.45581E+06         0.63219E+06         0.00000E+00
    0.63219E+06        -0.20009E+07         0.00000E+00
    0.00000E+00         0.00000E+00         0.00000E+00
 
    0.44062E+06         0.65655E+06         0.00000E+00
    0.65655E+06        -0.19954E+07         0.00000E+00
    0.00000E+00         0.00000E+00         0.00000E+00
 
    0.42521E+06         0.68078E+06         0.00000E+00
    0.68078E+06        -0.19898E+07         0.00000E+00
    0.00000E+00         0.00000E+00         0.00000E+00
 
    0.40956E+06         0.70489E+06         0.00000E+00
    0.70489E+06        -0.19839E+07         0.00000E+00
    0.00000E+00         0.00000E+00         0.00000E+00
 
    0.39368E+06         0.72886E+06         0.00000E+00
    0.72886E+06        -0.19778E+07         0.00000E+00
    0.00000E+00         0.00000E+00         0.00000E+00
 
    0.37758E+06         0.75271E+06         0.00000E+00
    0.75271E+06        -0.19715E+07         0.00000E+00
    0.00000E+00         0.00000E+00         0.00000E+00
 
    0.36126E+06         0.77643E+06         0.00000E+00
    0.77643E+06        -0.19650E+07         0.00000E+00
    0.00000E+00         0.00000E+00         0.00000E+00
 
    0.34471E+06         0.80001E+06         0.00000E+00
    0.80001E+06        -0.19583E+07         0.00000E+00
    0.00000E+00         0.00000E+00         0.00000E+00
 
    0.32794E+06         0.82346E+06         0.00000E+00
    0.82346E+06        -0.19514E+07         0.00000E+00
    0.00000E+00         0.00000E+00         0.00000E+00
 
    0.31096E+06         0.84677E+06         0.00000E+00
    0.84677E+06        -0.19443E+07         0.00000E+00
    0.00000E+00         0.00000E+00         0.00000E+00
 
    0.29375E+06         0.86995E+06         0.00000E+00
    0.86995E+06        -0.19371E+07         0.00000E+00
    0.00000E+00         0.00000E+00         0.00000E+00
 
    0.27632E+06         0.89299E+06         0.00000E+00
    0.89299E+06        -0.19296E+07         0.00000E+00
    0.00000E+00         0.00000E+00         0.00000E+00
 
    0.25868E+06         0.91589E+06         0.00000E+00
    0.91589E+06        -0.19219E+07         0.00000E+00
    0.00000E+00         0.00000E+00         0.00000E+00
 
    0.24082E+06         0.93865E+06         0.00000E+00
    0.93865E+06        -0.19141E+07         0.00000E+00
    0.00000E+00         0.00000E+00         0.00000E+00
 
    0.22275E+06         0.96126E+06         0.00000E+00
    0.96126E+06        -0.19060E+07         0.00000E+00
    0.00000E+00         0.00000E+00         0.00000E+00
 
    0.20446E+06         0.98374E+06         0.00000E+00
    0.98374E+06        -0.18977E+07         0.00000E+00
    0.00000E+00         0.00000E+00         0.00000E+00
 
    0.18596E+06         0.10061E+07         0.00000E+00
    0.10061E+07        -0.18893E+07         0.00000E+00
    0.00000E+00         0.00000E+00         0.00000E+00
 
    0.16726E+06         0.10282E+07         0.00000E+00
    0.10282E+07        -0.18807E+07         0.00000E+00
    0.00000E+00         0.00000E+00         0.00000E+00
 
    0.14834E+06         0.10503E+07         0.00000E+00
    0.10503E+07        -0.18719E+07         0.00000E+00
    0.00000E+00         0.00000E+00         0.00000E+00
 
    0.12922E+06         0.10722E+07         0.00000E+00
    0.10722E+07        -0.18629E+07         0.00000E+00
    0.00000E+00         0.00000E+00         0.00000E+00
 
    0.10989E+06         0.10939E+07         0.00000E+00
    0.10939E+07        -0.18537E+07         0.00000E+00
    0.00000E+00         0.00000E+00         0.00000E+00
 
    0.90361E+05         0.11155E+07         0.00000E+00
    0.11155E+07        -0.18443E+07         0.00000E+00
    0.00000E+00         0.00000E+00         0.00000E+00
 
    0.70626E+05         0.11369E+07         0.00000E+00
    0.11369E+07        -0.18348E+07         0.00000E+00
    0.00000E+00         0.00000E+00         0.00000E+00
 
    0.50689E+05         0.11581E+07         0.00000E+00
    0.11581E+07        -0.18250E+07         0.00000E+00
    0.00000E+00         0.00000E+00         0.00000E+00
 
    0.30553E+05         0.11793E+07         0.00000E+00
    0.11793E+07        -0.18151E+07         0.00000E+00
    0.00000E+00         0.00000E+00         0.00000E+00
 
    0.10217E+05         0.12002E+07         0.00000E+00
    0.12002E+07        -0.18050E+07         0.00000E+00
    0.00000E+00         0.00000E+00         0.00000E+00
 
    0.77988E+06         0.14167E+05         0.00000E+00
    0.14167E+05        -0.21742E+07         0.00000E+00
    0.00000E+00         0.00000E+00         0.00000E+00
 
    0.77010E+06         0.42247E+05         0.00000E+00
    0.42247E+05        -0.21740E+07         0.00000E+00
    0.00000E+00         0.00000E+00         0.00000E+00
 
    0.76006E+06         0.70232E+05         0.00000E+00
    0.70232E+05        -0.21735E+07         0.00000E+00
    0.00000E+00         0.00000E+00         0.00000E+00
 
    0.74975E+06         0.98120E+05         0.00000E+00
    0.98120E+05        -0.21728E+07         0.00000E+00
    0.00000E+00         0.00000E+00         0.00000E+00
 
    0.73917E+06         0.12591E+06         0.00000E+00
    0.12591E+06        -0.21718E+07         0.00000E+00
    0.00000E+00         0.00000E+00         0.00000E+00
 
    0.72834E+06         0.15360E+06         0.00000E+00
    0.15360E+06        -0.21706E+07         0.00000E+00
    0.00000E+00         0.00000E+00         0.00000E+00
 
    0.71724E+06         0.18119E+06         0.00000E+00
    0.18119E+06        -0.21692E+07         0.00000E+00
    0.00000E+00         0.00000E+00         0.00000E+00
 
    0.70588E+06         0.20868E+06         0.00000E+00
    0.20868E+06        -0.21676E+07         0.00000E+00
    0.00000E+00         0.00000E+00         0.00000E+00
 
    0.69427E+06         0.23607E+06         0.00000E+00
    0.23607E+06        -0.21657E+07         0.00000E+00
    0.00000E+00         0.00000E+00         0.00000E+00
 
    0.68240E+06         0.26335E+06         0.00000E+00
    0.26335E+06        -0.21636E+07         0.00000E+00
    0.00000E+00         0.00000E+00         0.00000E+00
 
    0.67027E+06         0.29052E+06         0.00000E+00
    0.29052E+06        -0.21612E+07         0.00000E+00
    0.00000E+00         0.00000E+00         0.00000E+00
 
    0.65788E+06         0.31759E+06         0.00000E+00
    0.31759E+06        -0.21586E+07         0.00000E+00
    0.00000E+00         0.00000E+00         0.00000E+00
 
    0.64525E+06         0.34454E+06         0.00000E+00
    0.34454E+06        -0.21558E+07         0.00000E+00
    0.00000E+00         0.00000E+00         0.00000E+00
 
    0.63236E+06         0.37139E+06         0.00000E+00
    0.37139E+06        -0.21528E+07         0.00000E+00
    0.00000E+00         0.00000E+00         0.00000E+00
 
    0.61922E+06         0.39812E+06         0.00000E+00
    0.39812E+06        -0.21495E+07         0.00000E+00
    0.00000E+00         0.00000E+00         0.00000E+00
 
    0.60582E+06         0.42474E+06         0.00000E+00
    0.42474E+06        -0.21461E+07         0.00000E+00
    0.00000E+00         0.00000E+00         0.00000E+00
 
    0.59218E+06         0.45125E+06         0.00000E+00
    0.45125E+06        -0.21424E+07         0.00000E+00
    0.00000E+00         0.00000E+00         0.00000E+00
 
    0.57830E+06         0.47764E+06         0.00000E+00
    0.47764E+06        -0.21384E+07         0.00000E+00
    0.00000E+00         0.00000E+00         0.00000E+00
 
    0.56416E+06         0.50391E+06         0.00000E+00
    0.50391E+06        -0.21343E+07         0.00000E+00
    0.00000E+00         0.00000E+00         0.00000E+00
 
    0.54979E+06         0.53006E+06         0.00000E+00
    0.53006E+06        -0.21299E+07         0.00000E+00
    0.00000E+00         0.00000E+00         0.00000E+00
 
    0.53516E+06         0.55609E+06         0.00000E+00
    0.55609E+06        -0.21253E+07         0.00000E+00
    0.00000E+00         0.00000E+00         0.00000E+00
 
    0.52030E+06         0.58200E+06         0.00000E+00
    0.58200E+06        -0.21205E+07         0.00000E+00
    0.00000E+00         0.00000E+00         0.00000E+00
 
    0.50519E+06         0.60779E+06         0.00000E+00
    0.60779E+06        -0.21155E+07         0.00000E+00
    0.00000E+00         0.00000E+00         0.00000E+00
 
    0.48985E+06         0.63345E+06         0.00000E+00
    0.63345E+06        -0.21102E+07         0.00000E+00
    0.00000E+00         0.00000E+00         0.00000E+00
 
    0.47426E+06         0.65898E+06         0.00000E+00
    0.65898E+06        -0.21048E+07         0.00000E+00
    0.00000E+00         0.00000E+00         0.00000E+00
 
    0.45844E+06         0.68439E+06         0.00000E+00
    0.68439E+06        -0.20991E+07         0.00000E+00
    0.00000E+00         0.00000E+00         0.00000E+00
 
    0.44238E+06         0.70967E+06         0.00000E+00
    0.70967E+06        -0.20932E+07         0.00000E+00
    0.00000E+00         0.00000E+00         0.00000E+00
 
    0.42608E+06         0.73482E+06         0.00000E+00
    0.73482E+06        -0.20871E+07         0.00000E+00
    0.00000E+00         0.00000E+00         0.00000E+00
 
    0.40955E+06         0.75983E+06         0.00000E+00
    0.75983E+06        -0.20808E+07         0.00000E+00
    0.00000E+00         0.00000E+00         0.00000E+00
 
    0.39279E+06         0.78472E+06         0.00000E+00
    0.78472E+06        -0.20743E+07         0.00000E+00
    0.00000E+00         0.00000E+00         0.00000E+00
 
    0.37580E+06         0.80946E+06         0.00000E+00
    0.80946E+06        -0.20676E+07         0.00000E+00
    0.00000E+00         0.00000E+00         0.00000E+00
 
    0.35857E+06         0.83408E+06         0.00000E+00
    0.83408E+06        -0.20606E+07         0.00000E+00
    0.00000E+00         0.00000E+00         0.00000E+00
 
    0.34112E+06         0.85855E+06         0.00000E+00
    0.85855E+06        -0.20535E+07         0.00000E+00
    0.00000E+00         0.00000E+00         0.00000E+00
 
    0.32344E+06         0.88288E+06         0.00000E+00
    0.88288E+06        -0.20461E+07         0.00000E+00
    0.00000E+00         0.00000E+00         0.00000E+00
 
    0.30553E+06         0.90708E+06         0.00000E+00
    0.90708E+06        -0.20386E+07         0.00000E+00
    0.00000E+00         0.00000E+00         0.00000E+00
 
    0.28740E+06         0.93113E+06         0.00000E+00
    0.93113E+06        -0.20308E+07         0.00000E+00
    0.00000E+00         0.00000E+00         0.00000E+00
 
    0.26904E+06         0.95504E+06         0.00000E+00
    0.95504E+06        -0.20229E+07         0.00000E+00
    0.00000E+00         0.00000E+00         0.00000E+00
 
    0.25047E+06         0.97880E+06         0.00000E+00
    0.97880E+06        -0.20147E+07         0.00000E+00
    0.00000E+00         0.00000E+00         0.00000E+00
 
    0.23166E+06         0.10024E+07         0.00000E+00
    0.10024E+07        -0.20063E+07         0.00000E+00
    0.00000E+00         0.00000E+00         0.00000E+00
 
    0.21264E+06         0.10259E+07         0.00000E+00
    0.10259E+07        -0.19978E+07         0.00000E+00
    0.00000E+00         0.00000E+00         0.00000E+00
 
    0.19341E+06         0.10492E+07         0.00000E+00
    0.10492E+07        -0.19890E+07         0.00000E+00
    0.00000E+00         0.00000E+00         0.00000E+00
 
    0.17395E+06         0.10724E+07         0.00000E+00
    0.10724E+07        -0.19801E+07         0.00000E+00
    0.00000E+00         0.00000E+00         0.00000E+00
 
    0.15428E+06         0.10954E+07         0.00000E+00
    0.10954E+07        -0.19709E+07         0.00000E+00
    0.00000E+00         0.00000E+00         0.00000E+00
 
    0.13439E+06         0.11183E+07         0.00000E+00
    0.11183E+07        -0.19616E+07         0.00000E+00
    0.00000E+00         0.00000E+00         0.00000E+00
 
    0.11429E+06         0.11410E+07         0.00000E+00
    0.11410E+07        -0.19520E+07         0.00000E+00
    0.00000E+00         0.00000E+00         0.00000E+00
 
    0.93973E+05         0.11635E+07         0.00000E+00
    0.11635E+07        -0.19423E+07         0.00000E+00
    0.00000E+00         0.00000E+00         0.00000E+00
 
    0.73449E+05         0.11859E+07         0.00000E+00
    0.11859E+07        -0.19324E+07         0.00000E+00
    0.00000E+00         0.00000E+00         0.00000E+00
 
    0.52716E+05         0.12081E+07         0.00000E+00
    0.12081E+07        -0.19222E+07         0.00000E+00
    0.00000E+00         0.00000E+00         0.00000E+00
 
    0.31774E+05         0.12302E+07         0.00000E+00
    0.12302E+07        -0.19119E+07         0.00000E+00
    0.00000E+00         0.00000E+00         0.00000E+00
 
    0.10626E+05         0.12521E+07         0.00000E+00
    0.12521E+07        -0.19014E+07         0.00000E+00
    0.00000E+00         0.00000E+00         0.00000E+00
 
    0.81235E+06         0.14757E+05         0.00000E+00
    0.14757E+05        -0.22853E+07         0.00000E+00
    0.00000E+00         0.00000E+00         0.00000E+00
 
    0.80209E+06         0.44007E+05         0.00000E+00
    0.44007E+05        -0.22851E+07         0.00000E+00
    0.00000E+00         0.00000E+00         0.00000E+00
 
    0.79156E+06         0.73159E+05         0.00000E+00
    0.73159E+05        -0.22846E+07         0.00000E+00
    0.00000E+00         0.00000E+00         0.00000E+00
 
    0.78075E+06         0.10221E+06         0.00000E+00
    0.10221E+06        -0.22838E+07         0.00000E+00
    0.00000E+00         0.00000E+00         0.00000E+00
 
    0.76968E+06         0.13116E+06         0.00000E+00
    0.13116E+06        -0.22828E+07         0.00000E+00
    0.00000E+00         0.00000E+00         0.00000E+00
 
    0.75834E+06         0.16001E+06         0.00000E+00
    0.16001E+06        -0.22816E+07         0.00000E+00
    0.00000E+00         0.00000E+00         0.00000E+00
 
    0.74672E+06         0.18876E+06         0.00000E+00
    0.18876E+06        -0.22801E+07         0.00000E+00
    0.00000E+00         0.00000E+00         0.00000E+00
 
    0.73484E+06         0.21740E+06         0.00000E+00
    0.21740E+06        -0.22784E+07         0.00000E+00
    0.00000E+00         0.00000E+00         0.00000E+00
 
    0.72270E+06         0.24593E+06         0.00000E+00
    0.24593E+06        -0.22765E+07         0.00000E+00
    0.00000E+00         0.00000E+00         0.00000E+00
 
    0.71029E+06         0.27435E+06         0.00000E+00
    0.27435E+06        -0.22743E+07         0.00000E+00
    0.00000E+00         0.00000E+00         0.00000E+00
 
    0.69761E+06         0.30267E+06         0.00000E+00
    0.30267E+06        -0.22719E+07         0.00000E+00
    0.00000E+00         0.00000E+00         0.00000E+00
 
    0.68468E+06         0.33087E+06         0.00000E+00
    0.33087E+06        -0.22692E+07         0.00000E+00
    0.00000E+00         0.00000E+00         0.00000E+00
 
    0.67148E+06         0.35896E+06         0.00000E+00
    0.35896E+06        -0.22663E+07         0.00000E+00
    0.00000E+00         0.00000E+00         0.00000E+00
 
    0.65803E+06         0.38694E+06         0.00000E+00
    0.38694E+06        -0.22631E+07         0.00000E+00
    0.00000E+00         0.00000E+00         0.00000E+00
 
    0.64431E+06         0.41480E+06         0.00000E+00
    0.41480E+06        -0.22598E+07         0.00000E+00
    0.00000E+00         0.00000E+00         0.00000E+00
 
    0.63034E+06         0.44255E+06         0.00000E+00
    0.44255E+06        -0.22562E+07         0.00000E+00
    0.00000E+00         0.00000E+00         0.00000E+00
 
    0.61611E+06         0.47018E+06         0.00000E+00
    0.47018E+06        -0.22523E+07         0.00000E+00
    0.00000E+00         0.00000E+00         0.00000E+00
 
    0.60163E+06         0.49768E+06         0.00000E+00
    0.49768E+06        -0.22483E+07         0.00000E+00
    0.00000E+00         0.00000E+00         0.00000E+00
 
    0.58690E+06         0.52507E+06         0.00000E+00
    0.52507E+06        -0.22440E+07         0.00000E+00
    0.00000E+00         0.00000E+00         0.00000E+00
 
    0.57191E+06         0.55233E+06         0.00000E+00
    0.55233E+06        -0.22394E+07         0.00000E+00
    0.00000E+00         0.00000E+00         0.00000E+00
 
    0.55667E+06         0.57947E+06         0.00000E+00
    0.57947E+06        -0.22347E+07         0.00000E+00
    0.00000E+00         0.00000E+00         0.00000E+00
 
    0.54118E+06         0.60649E+06         0.00000E+00
    0.60649E+06        -0.22297E+07         0.00000E+00
    0.00000E+00         0.00000E+00         0.00000E+00
 
    0.52544E+06         0.63338E+06         0.00000E+00
    0.63338E+06        -0.22245E+07         0.00000E+00
    0.00000E+00         0.00000E+00         0.00000E+00
 
    0.50946E+06         0.66014E+06         0.00000E+00
    0.66014E+06        -0.22191E+07         0.00000E+00
    0.00000E+00         0.00000E+00         0.00000E+00
 
    0.49323E+06         0.68677E+06         0.00000E+00
    0.68677E+06        -0.22134E+07         0.00000E+00
    0.00000E+00         0.00000E+00         0.00000E+00
 
    0.47675E+06         0.71326E+06         0.00000E+00
    0.71326E+06        -0.22075E+07         0.00000E+00
    0.00000E+00         0.00000E+00         0.00000E+00
 
    0.46003E+06         0.73963E+06         0.00000E+00
    0.73963E+06        -0.22014E+07         0.00000E+00
    0.00000E+00         0.00000E+00         0.00000E+00
 
    0.44307E+06         0.76586E+06         0.00000E+00
    0.76586E+06        -0.21951E+07         0.00000E+00
    0.00000E+00         0.00000E+00         0.00000E+00
 
    0.42587E+06         0.79196E+06         0.00000E+00
    0.79196E+06        -0.21886E+07         0.00000E+00
    0.00000E+00         0.00000E+00         0.00000E+00
 
    0.40843E+06         0.81792E+06         0.00000E+00
    0.81792E+06        -0.21818E+07         0.00000E+00
    0.00000E+00         0.00000E+00         0.00000E+00
 
    0.39075E+06         0.84374E+06         0.00000E+00
    0.84374E+06        -0.21749E+07         0.00000E+00
    0.00000E+00         0.00000E+00         0.00000E+00
 
    0.37283E+06         0.86942E+06         0.00000E+00
    0.86942E+06        -0.21677E+07         0.00000E+00
    0.00000E+00         0.00000E+00         0.00000E+00
 
    0.35467E+06         0.89497E+06         0.00000E+00
    0.89497E+06        -0.21603E+07         0.00000E+00
    0.00000E+00         0.00000E+00         0.00000E+00
 
    0.33628E+06         0.92036E+06         0.00000E+00
    0.92036E+06        -0.21526E+07         0.00000E+00
    0.00000E+00         0.00000E+00         0.00000E+00
 
    0.31765E+06         0.94562E+06         0.00000E+00
    0.94562E+06        -0.21448E+07         0.00000E+00
    0.00000E+00         0.00000E+00         0.00000E+00
 
    0.29880E+06         0.97072E+06         0.00000E+00
    0.97072E+06        -0.21368E+07         0.00000E+00
    0.00000E+00         0.00000E+00         0.00000E+00
 
    0.27971E+06         0.99568E+06         0.00000E+00
    0.99568E+06        -0.21285E+07         0.00000E+00
    0.00000E+00         0.00000E+00         0.00000E+00
 
    0.26039E+06         0.10205E+07         0.00000E+00
    0.10205E+07        -0.21200E+07         0.00000E+00
    0.00000E+00         0.00000E+00         0.00000E+00
 
    0.24084E+06         0.10452E+07         0.00000E+00
    0.10452E+07        -0.21114E+07         0.00000E+00
    0.00000E+00         0.00000E+00         0.00000E+00
 
    0.22106E+06         0.10697E+07         0.00000E+00
    0.10697E+07        -0.21025E+07         0.00000E+00
    0.00000E+00         0.00000E+00         0.00000E+00
 
    0.20106E+06         0.10940E+07         0.00000E+00
    0.10940E+07        -0.20934E+07         0.00000E+00
    0.00000E+00         0.00000E+00         0.00000E+00
 
    0.18083E+06         0.11182E+07         0.00000E+00
    0.11182E+07        -0.20841E+07         0.00000E+00
    0.00000E+00         0.00000E+00         0.00000E+00
 
    0.16038E+06         0.11423E+07         0.00000E+00
    0.11423E+07        -0.20746E+07         0.00000E+00
    0.00000E+00         0.00000E+00         0.00000E+00
 
    0.13970E+06         0.11661E+07         0.00000E+00
    0.11661E+07        -0.20649E+07         0.00000E+00
    0.00000E+00         0.00000E+00         0.00000E+00
 
    0.11880E+06         0.11899E+07         0.00000E+00
    0.11899E+07        -0.20550E+07         0.00000E+00
    0.00000E+00         0.00000E+00         0.00000E+00
 
    0.97688E+05         0.12134E+07         0.00000E+00
    0.12134E+07        -0.20449E+07         0.00000E+00
    0.00000E+00         0.00000E+00         0.00000E+00
 
    0.76352E+05         0.12368E+07         0.00000E+00
    0.12368E+07        -0.20346E+07         0.00000E+00
    0.00000E+00         0.00000E+00         0.00000E+00
 
    0.54799E+05         0.12601E+07         0.00000E+00
    0.12601E+07        -0.20240E+07         0.00000E+00
    0.00000E+00         0.00000E+00         0.00000E+00
 
    0.33030E+05         0.12831E+07         0.00000E+00
    0.12831E+07        -0.20133E+07         0.00000E+00
    0.00000E+00         0.00000E+00         0.00000E+00
 
    0.11046E+05         0.13060E+07         0.00000E+00
    0.13060E+07        -0.20024E+07         0.00000E+00
    0.00000E+00         0.00000E+00         0.00000E+00
 
    0.84572E+06         0.15368E+05         0.00000E+00
    0.15368E+05        -0.24015E+07         0.00000E+00
    0.00000E+00         0.00000E+00         0.00000E+00
 
    0.83497E+06         0.45830E+05         0.00000E+00
    0.45830E+05        -0.24012E+07         0.00000E+00
    0.00000E+00         0.00000E+00         0.00000E+00
 
    0.82393E+06         0.76191E+05         0.00000E+00
    0.76191E+05        -0.24007E+07         0.00000E+00
    0.00000E+00         0.00000E+00         0.00000E+00
 
    0.81262E+06         0.10645E+06         0.00000E+00
    0.10645E+06        -0.23999E+07         0.00000E+00
    0.00000E+00         0.00000E+00         0.00000E+00
 
    0.80103E+06         0.13660E+06         0.00000E+00
    0.13660E+06        -0.23989E+07         0.00000E+00
    0.00000E+00         0.00000E+00         0.00000E+00
 
    0.78916E+06         0.16665E+06         0.00000E+00
    0.16665E+06        -0.23976E+07         0.00000E+00
    0.00000E+00         0.00000E+00         0.00000E+00
 
    0.77701E+06         0.19659E+06         0.00000E+00
    0.19659E+06        -0.23961E+07         0.00000E+00
    0.00000E+00         0.00000E+00         0.00000E+00
 
    0.76459E+06         0.22642E+06         0.00000E+00
    0.22642E+06        -0.23943E+07         0.00000E+00
    0.00000E+00         0.00000E+00         0.00000E+00
 
    0.75190E+06         0.25615E+06         0.00000E+00
    0.25615E+06        -0.23923E+07         0.00000E+00
    0.00000E+00         0.00000E+00         0.00000E+00
 
    0.73894E+06         0.28576E+06         0.00000E+00
    0.28576E+06        -0.23901E+07         0.00000E+00
    0.00000E+00         0.00000E+00         0.00000E+00
 
    0.72570E+06         0.31525E+06         0.00000E+00
    0.31525E+06        -0.23875E+07         0.00000E+00
    0.00000E+00         0.00000E+00         0.00000E+00
 
    0.71220E+06         0.34464E+06         0.00000E+00
    0.34464E+06        -0.23848E+07         0.00000E+00
    0.00000E+00         0.00000E+00         0.00000E+00
 
    0.69843E+06         0.37391E+06         0.00000E+00
    0.37391E+06        -0.23818E+07         0.00000E+00
    0.00000E+00         0.00000E+00         0.00000E+00
 
    0.68439E+06         0.40306E+06         0.00000E+00
    0.40306E+06        -0.23785E+07         0.00000E+00
    0.00000E+00         0.00000E+00         0.00000E+00
 
    0.67008E+06         0.43209E+06         0.00000E+00
    0.43209E+06        -0.23750E+07         0.00000E+00
    0.00000E+00         0.00000E+00         0.00000E+00
 
    0.65551E+06         0.46100E+06         0.00000E+00
    0.46100E+06        -0.23713E+07         0.00000E+00
    0.00000E+00         0.00000E+00         0.00000E+00
 
    0.64068E+06         0.48979E+06         0.00000E+00
    0.48979E+06        -0.23673E+07         0.00000E+00
    0.00000E+00         0.00000E+00         0.00000E+00
 
    0.62559E+06         0.51846E+06         0.00000E+00
    0.51846E+06        -0.23631E+07         0.00000E+00
    0.00000E+00         0.00000E+00         0.00000E+00
 
    0.61023E+06         0.54700E+06         0.00000E+00
    0.54700E+06        -0.23587E+07         0.00000E+00
    0.00000E+00         0.00000E+00         0.00000E+00
 
    0.59462E+06         0.57542E+06         0.00000E+00
    0.57542E+06        -0.23540E+07         0.00000E+00
    0.00000E+00         0.00000E+00         0.00000E+00
 
    0.57875E+06         0.60371E+06         0.00000E+00
    0.60371E+06        -0.23491E+07         0.00000E+00
    0.00000E+00         0.00000E+00         0.00000E+00
 
    0.56262E+06         0.63187E+06         0.00000E+00
    0.63187E+06        -0.23439E+07         0.00000E+00
    0.00000E+00         0.00000E+00         0.00000E+00
 
    0.54623E+06         0.65990E+06         0.00000E+00
    0.65990E+06        -0.23386E+07         0.00000E+00
    0.00000E+00         0.00000E+00         0.00000E+00
 
    0.52959E+06         0.68780E+06         0.00000E+00
    0.68780E+06        -0.23329E+07         0.00000E+00
    0.00000E+00         0.00000E+00         0.00000E+00
 
    0.51270E+06         0.71557E+06         0.00000E+00
    0.71557E+06        -0.23271E+07         0.00000E+00
    0.00000E+00         0.00000E+00         0.00000E+00
 
    0.49556E+06         0.74320E+06         0.00000E+00
    0.74320E+06        -0.23210E+07         0.00000E+00
    0.00000E+00         0.00000E+00         0.00000E+00
 
    0.47816E+06         0.77069E+06         0.00000E+00
    0.77069E+06        -0.23147E+07         0.00000E+00
    0.00000E+00         0.00000E+00         0.00000E+00
 
    0.46051E+06         0.79805E+06         0.00000E+00
    0.79805E+06        -0.23081E+07         0.00000E+00
    0.00000E+00         0.00000E+00         0.00000E+00
 
    0.44262E+06         0.82527E+06         0.00000E+00
    0.82527E+06        -0.23014E+07         0.00000E+00
    0.00000E+00         0.00000E+00         0.00000E+00
 
    0.42448E+06         0.85235E+06         0.00000E+00
    0.85235E+06        -0.22944E+07         0.00000E+00
    0.00000E+00         0.00000E+00         0.00000E+00
 
    0.40609E+06         0.87929E+06         0.00000E+00
    0.87929E+06        -0.22871E+07         0.00000E+00
    0.00000E+00         0.00000E+00         0.00000E+00
 
    0.38745E+06         0.90609E+06         0.00000E+00
    0.90609E+06        -0.22797E+07         0.00000E+00
    0.00000E+00         0.00000E+00         0.00000E+00
 
    0.36858E+06         0.93274E+06         0.00000E+00
    0.93274E+06        -0.22720E+07         0.00000E+00
    0.00000E+00         0.00000E+00         0.00000E+00
 
    0.34946E+06         0.95924E+06         0.00000E+00
    0.95924E+06        -0.22641E+07         0.00000E+00
    0.00000E+00         0.00000E+00         0.00000E+00
 
    0.33009E+06         0.98560E+06         0.00000E+00
    0.98560E+06        -0.22560E+07         0.00000E+00
    0.00000E+00         0.00000E+00         0.00000E+00
 
    0.31049E+06         0.10118E+07         0.00000E+00
    0.10118E+07        -0.22477E+07         0.00000E+00
    0.00000E+00         0.00000E+00         0.00000E+00
 
    0.29065E+06         0.10379E+07         0.00000E+00
    0.10379E+07        -0.22391E+07         0.00000E+00
    0.00000E+00         0.00000E+00         0.00000E+00
 
    0.27057E+06         0.10638E+07         0.00000E+00
    0.10638E+07        -0.22303E+07         0.00000E+00
    0.00000E+00         0.00000E+00         0.00000E+00
 
    0.25025E+06         0.10895E+07         0.00000E+00
    0.10895E+07        -0.22213E+07         0.00000E+00
    0.00000E+00         0.00000E+00         0.00000E+00
 
    0.22970E+06         0.11151E+07         0.00000E+00
    0.11151E+07        -0.22121E+07         0.00000E+00
    0.00000E+00         0.00000E+00         0.00000E+00
 
    0.20891E+06         0.11405E+07         0.00000E+00
    0.11405E+07        -0.22027E+07         0.00000E+00
    0.00000E+00         0.00000E+00         0.00000E+00
 
    0.18789E+06         0.11658E+07         0.00000E+00
    0.11658E+07        -0.21930E+07         0.00000E+00
    0.00000E+00         0.00000E+00         0.00000E+00
 
    0.16664E+06         0.11909E+07         0.00000E+00
    0.11909E+07        -0.21832E+07         0.00000E+00
    0.00000E+00         0.00000E+00         0.00000E+00
 
    0.14516E+06         0.12159E+07         0.00000E+00
    0.12159E+07        -0.21731E+07         0.00000E+00
    0.00000E+00         0.00000E+00         0.00000E+00
 
    0.12344E+06         0.12407E+07         0.00000E+00
    0.12407E+07        -0.21628E+07         0.00000E+00
    0.00000E+00         0.00000E+00         0.00000E+00
 
    0.10150E+06         0.12653E+07         0.00000E+00
    0.12653E+07        -0.21523E+07         0.00000E+00
    0.00000E+00         0.00000E+00         0.00000E+00
 
    0.79333E+05         0.12897E+07         0.00000E+00
    0.12897E+07        -0.21416E+07         0.00000E+00
    0.00000E+00         0.00000E+00         0.00000E+00
 
    0.56938E+05         0.13140E+07         0.00000E+00
    0.13140E+07        -0.21307E+07         0.00000E+00
    0.00000E+00         0.00000E+00         0.00000E+00
 
    0.34319E+05         0.13381E+07         0.00000E+00
    0.13381E+07        -0.21196E+07         0.00000E+00
    0.00000E+00         0.00000E+00         0.00000E+00
 
    0.11477E+05         0.13621E+07         0.00000E+00
    0.13621E+07        -0.21083E+07         0.00000E+00
    0.00000E+00         0.00000E+00         0.00000E+00
 
    0.87998E+06         0.16000E+05         0.00000E+00
    0.16000E+05        -0.25229E+07         0.00000E+00
    0.00000E+00         0.00000E+00         0.00000E+00
 
    0.86871E+06         0.47718E+05         0.00000E+00
    0.47718E+05        -0.25226E+07         0.00000E+00
    0.00000E+00         0.00000E+00         0.00000E+00
 
    0.85716E+06         0.79331E+05         0.00000E+00
    0.79331E+05        -0.25221E+07         0.00000E+00
    0.00000E+00         0.00000E+00         0.00000E+00
 
    0.84532E+06         0.11084E+06         0.00000E+00
    0.11084E+06        -0.25213E+07         0.00000E+00
    0.00000E+00         0.00000E+00         0.00000E+00
 
    0.83319E+06         0.14224E+06         0.00000E+00
    0.14224E+06        -0.25203E+07         0.00000E+00
    0.00000E+00         0.00000E+00         0.00000E+00
 
    0.82078E+06         0.17352E+06         0.00000E+00
    0.17352E+06        -0.25189E+07         0.00000E+00
    0.00000E+00         0.00000E+00         0.00000E+00
 
    0.80809E+06         0.20470E+06         0.00000E+00
    0.20470E+06        -0.25174E+07         0.00000E+00
    0.00000E+00         0.00000E+00         0.00000E+00
 
    0.79511E+06         0.23577E+06         0.00000E+00
    0.23577E+06        -0.25155E+07         0.00000E+00
    0.00000E+00         0.00000E+00         0.00000E+00
 
    0.78186E+06         0.26672E+06         0.00000E+00
    0.26672E+06        -0.25135E+07         0.00000E+00
    0.00000E+00         0.00000E+00         0.00000E+00
 
    0.76832E+06         0.29756E+06         0.00000E+00
    0.29756E+06        -0.25111E+07         0.00000E+00
    0.00000E+00         0.00000E+00         0.00000E+00
 
    0.75451E+06         0.32828E+06         0.00000E+00
    0.32828E+06        -0.25085E+07         0.00000E+00
    0.00000E+00         0.00000E+00         0.00000E+00
 
    0.74042E+06         0.35889E+06         0.00000E+00
    0.35889E+06        -0.25057E+07         0.00000E+00
    0.00000E+00         0.00000E+00         0.00000E+00
 
    0.72605E+06         0.38938E+06         0.00000E+00
    0.38938E+06        -0.25026E+07         0.00000E+00
    0.00000E+00         0.00000E+00         0.00000E+00
 
    0.71141E+06         0.41974E+06         0.00000E+00
    0.41974E+06        -0.24992E+07         0.00000E+00
    0.00000E+00         0.00000E+00         0.00000E+00
 
    0.69650E+06         0.44998E+06         0.00000E+00
    0.44998E+06        -0.24956E+07         0.00000E+00
    0.00000E+00         0.00000E+00         0.00000E+00
 
    0.68132E+06         0.48010E+06         0.00000E+00
    0.48010E+06        -0.24918E+07         0.00000E+00
    0.00000E+00         0.00000E+00         0.00000E+00
 
    0.66587E+06         0.51010E+06         0.00000E+00
    0.51010E+06        -0.24876E+07         0.00000E+00
    0.00000E+00         0.00000E+00         0.00000E+00
 
    0.65014E+06         0.53997E+06         0.00000E+00
    0.53997E+06        -0.24833E+07         0.00000E+00
    0.00000E+00         0.00000E+00         0.00000E+00
 
    0.63415E+06         0.56971E+06         0.00000E+00
    0.56971E+06        -0.24787E+07         0.00000E+00
    0.00000E+00         0.00000E+00         0.00000E+00
 
    0.61790E+06         0.59932E+06         0.00000E+00
    0.59932E+06        -0.24739E+07         0.00000E+00
    0.00000E+00         0.00000E+00         0.00000E+00
 
    0.60137E+06         0.62881E+06         0.00000E+00
    0.62881E+06        -0.24688E+07         0.00000E+00
    0.00000E+00         0.00000E+00         0.00000E+00
 
    0.58459E+06         0.65816E+06         0.00000E+00
    0.65816E+06        -0.24634E+07         0.00000E+00
    0.00000E+00         0.00000E+00         0.00000E+00
 
    0.56754E+06         0.68737E+06         0.00000E+00
    0.68737E+06        -0.24579E+07         0.00000E+00
    0.00000E+00         0.00000E+00         0.00000E+00
 
    0.55023E+06         0.71646E+06         0.00000E+00
    0.71646E+06        -0.24521E+07         0.00000E+00
    0.00000E+00         0.00000E+00         0.00000E+00
 
    0.53265E+06         0.74540E+06         0.00000E+00
    0.74540E+06        -0.24460E+07         0.00000E+00
    0.00000E+00         0.00000E+00         0.00000E+00
 
    0.51482E+06         0.77421E+06         0.00000E+00
    0.77421E+06        -0.24397E+07         0.00000E+00
    0.00000E+00         0.00000E+00         0.00000E+00
 
    0.49673E+06         0.80288E+06         0.00000E+00
    0.80288E+06        -0.24332E+07         0.00000E+00
    0.00000E+00         0.00000E+00         0.00000E+00
 
    0.47838E+06         0.83141E+06         0.00000E+00
    0.83141E+06        -0.24264E+07         0.00000E+00
    0.00000E+00         0.00000E+00         0.00000E+00
 
    0.45978E+06         0.85980E+06         0.00000E+00
    0.85980E+06        -0.24194E+07         0.00000E+00
    0.00000E+00         0.00000E+00         0.00000E+00
 
    0.44092E+06         0.88804E+06         0.00000E+00
    0.88804E+06        -0.24122E+07         0.00000E+00
    0.00000E+00         0.00000E+00         0.00000E+00
 
    0.42181E+06         0.91614E+06         0.00000E+00
    0.91614E+06        -0.24047E+07         0.00000E+00
    0.00000E+00         0.00000E+00         0.00000E+00
 
    0.40244E+06         0.94409E+06         0.00000E+00
    0.94409E+06        -0.23970E+07         0.00000E+00
    0.00000E+00         0.00000E+00         0.00000E+00
 
    0.38282E+06         0.97190E+06         0.00000E+00
    0.97190E+06        -0.23890E+07         0.00000E+00
    0.00000E+00         0.00000E+00         0.00000E+00
 
    0.36295E+06         0.99955E+06         0.00000E+00
    0.99955E+06        -0.23808E+07         0.00000E+00
    0.00000E+00         0.00000E+00         0.00000E+00
 
    0.34284E+06         0.10271E+07         0.00000E+00
    0.10271E+07        -0.23724E+07         0.00000E+00
    0.00000E+00         0.00000E+00         0.00000E+00
 
    0.32247E+06         0.10544E+07         0.00000E+00
    0.10544E+07        -0.23638E+07         0.00000E+00
    0.00000E+00         0.00000E+00         0.00000E+00
 
    0.30186E+06         0.10816E+07         0.00000E+00
    0.10816E+07        -0.23549E+07         0.00000E+00
    0.00000E+00         0.00000E+00         0.00000E+00
 
    0.28100E+06         0.11086E+07         0.00000E+00
    0.11086E+07        -0.23458E+07         0.00000E+00
    0.00000E+00         0.00000E+00         0.00000E+00
 
    0.25990E+06         0.11355E+07         0.00000E+00
    0.11355E+07        -0.23365E+07         0.00000E+00
    0.00000E+00         0.00000E+00         0.00000E+00
 
    0.23855E+06         0.11622E+07         0.00000E+00
    0.11622E+07        -0.23270E+07         0.00000E+00
    0.00000E+00         0.00000E+00         0.00000E+00
 
    0.21696E+06         0.11888E+07         0.00000E+00
    0.11888E+07        -0.23172E+07         0.00000E+00
    0.00000E+00         0.00000E+00         0.00000E+00
 
    0.19513E+06         0.12152E+07         0.00000E+00
    0.12152E+07        -0.23072E+07         0.00000E+00
    0.00000E+00         0.00000E+00         0.00000E+00
 
    0.17305E+06         0.12414E+07         0.00000E+00
    0.12414E+07        -0.22970E+07         0.00000E+00
    0.00000E+00         0.00000E+00         0.00000E+00
 
    0.15074E+06         0.12675E+07         0.00000E+00
    0.12675E+07        -0.22865E+07         0.00000E+00
    0.00000E+00         0.00000E+00         0.00000E+00
 
    0.12819E+06         0.12934E+07         0.00000E+00
    0.12934E+07        -0.22758E+07         0.00000E+00
    0.00000E+00         0.00000E+00         0.00000E+00
 
    0.10541E+06         0.13191E+07         0.00000E+00
    0.13191E+07        -0.22649E+07         0.00000E+00
    0.00000E+00         0.00000E+00         0.00000E+00
 
    0.82386E+05         0.13447E+07         0.00000E+00
    0.13447E+07        -0.22538E+07         0.00000E+00
    0.00000E+00         0.00000E+00         0.00000E+00
 
    0.59130E+05         0.13701E+07         0.00000E+00
    0.13701E+07        -0.22425E+07         0.00000E+00
    0.00000E+00         0.00000E+00         0.00000E+00
 
    0.35640E+05         0.13953E+07         0.00000E+00
    0.13953E+07        -0.22310E+07         0.00000E+00
    0.00000E+00         0.00000E+00         0.00000E+00
 
    0.11919E+05         0.14203E+07         0.00000E+00
    0.14203E+07        -0.22192E+07         0.00000E+00
    0.00000E+00         0.00000E+00         0.00000E+00
 
    0.91509E+06         0.16655E+05         0.00000E+00
    0.16655E+05        -0.26499E+07         0.00000E+00
    0.00000E+00         0.00000E+00         0.00000E+00
 
    0.90330E+06         0.49670E+05         0.00000E+00
    0.49670E+05        -0.26496E+07         0.00000E+00
    0.00000E+00         0.00000E+00         0.00000E+00
 
    0.89121E+06         0.82578E+05         0.00000E+00
    0.82578E+05        -0.26490E+07         0.00000E+00
    0.00000E+00         0.00000E+00         0.00000E+00
 
    0.87882E+06         0.11538E+06         0.00000E+00
    0.11538E+06        -0.26482E+07         0.00000E+00
    0.00000E+00         0.00000E+00         0.00000E+00
 
    0.86614E+06         0.14806E+06         0.00000E+00
    0.14806E+06        -0.26471E+07         0.00000E+00
    0.00000E+00         0.00000E+00         0.00000E+00
 
    0.85317E+06         0.18064E+06         0.00000E+00
    0.18064E+06        -0.26458E+07         0.00000E+00
    0.00000E+00         0.00000E+00         0.00000E+00
 
    0.83991E+06         0.21309E+06         0.00000E+00
    0.21309E+06        -0.26442E+07         0.00000E+00
    0.00000E+00         0.00000E+00         0.00000E+00
 
    0.82636E+06         0.24544E+06         0.00000E+00
    0.24544E+06        -0.26423E+07         0.00000E+00
    0.00000E+00         0.00000E+00         0.00000E+00
 
    0.81253E+06         0.27767E+06         0.00000E+00
    0.27767E+06        -0.26401E+07         0.00000E+00
    0.00000E+00         0.00000E+00         0.00000E+00
 
    0.79840E+06         0.30978E+06         0.00000E+00
    0.30978E+06        -0.26377E+07         0.00000E+00
    0.00000E+00         0.00000E+00         0.00000E+00
 
    0.78400E+06         0.34177E+06         0.00000E+00
    0.34177E+06        -0.26350E+07         0.00000E+00
    0.00000E+00         0.00000E+00         0.00000E+00
 
    0.76931E+06         0.37363E+06         0.00000E+00
    0.37363E+06        -0.26321E+07         0.00000E+00
    0.00000E+00         0.00000E+00         0.00000E+00
 
    0.75433E+06         0.40538E+06         0.00000E+00
    0.40538E+06        -0.26289E+07         0.00000E+00
    0.00000E+00         0.00000E+00         0.00000E+00
 
    0.73908E+06         0.43700E+06         0.00000E+00
    0.43700E+06        -0.26254E+07         0.00000E+00
    0.00000E+00         0.00000E+00         0.00000E+00
 
    0.72354E+06         0.46850E+06         0.00000E+00
    0.46850E+06        -0.26217E+07         0.00000E+00
    0.00000E+00         0.00000E+00         0.00000E+00
 
    0.70773E+06         0.49987E+06         0.00000E+00
    0.49987E+06        -0.26177E+07         0.00000E+00
    0.00000E+00         0.00000E+00         0.00000E+00
 
    0.69164E+06         0.53112E+06         0.00000E+00
    0.53112E+06        -0.26135E+07         0.00000E+00
    0.00000E+00         0.00000E+00         0.00000E+00
 
    0.67527E+06         0.56223E+06         0.00000E+00
    0.56223E+06        -0.26090E+07         0.00000E+00
    0.00000E+00         0.00000E+00         0.00000E+00
 
    0.65863E+06         0.59322E+06         0.00000E+00
    0.59322E+06        -0.26042E+07         0.00000E+00
    0.00000E+00         0.00000E+00         0.00000E+00
 
    0.64171E+06         0.62407E+06         0.00000E+00
    0.62407E+06        -0.25992E+07         0.00000E+00
    0.00000E+00         0.00000E+00         0.00000E+00
 
    0.62452E+06         0.65479E+06         0.00000E+00
    0.65479E+06        -0.25940E+07         0.00000E+00
    0.00000E+00         0.00000E+00         0.00000E+00
 
    0.60706E+06         0.68537E+06         0.00000E+00
    0.68537E+06        -0.25885E+07         0.00000E+00
    0.00000E+00         0.00000E+00         0.00000E+00
 
    0.58933E+06         0.71582E+06         0.00000E+00
    0.71582E+06        -0.25827E+07         0.00000E+00
    0.00000E+00         0.00000E+00         0.00000E+00
 
    0.57133E+06         0.74613E+06         0.00000E+00
    0.74613E+06        -0.25767E+07         0.00000E+00
    0.00000E+00         0.00000E+00         0.00000E+00
 
    0.55306E+06         0.77630E+06         0.00000E+00
    0.77630E+06        -0.25704E+07         0.00000E+00
    0.00000E+00         0.00000E+00         0.00000E+00
 
    0.53452E+06         0.80633E+06         0.00000E+00
    0.80633E+06        -0.25639E+07         0.00000E+00
    0.00000E+00         0.00000E+00         0.00000E+00
 
    0.51572E+06         0.83621E+06         0.00000E+00
    0.83621E+06        -0.25572E+07         0.00000E+00
    0.00000E+00         0.00000E+00         0.00000E+00
 
    0.49666E+06         0.86596E+06         0.00000E+00
    0.86596E+06        -0.25502E+07         0.00000E+00
    0.00000E+00         0.00000E+00         0.00000E+00
 
    0.47733E+06         0.89556E+06         0.00000E+00
    0.89556E+06        -0.25429E+07         0.00000E+00
    0.00000E+00         0.00000E+00         0.00000E+00
 
    0.45773E+06         0.92501E+06         0.00000E+00
    0.92501E+06        -0.25354E+07         0.00000E+00
    0.00000E+00         0.00000E+00         0.00000E+00
 
    0.43788E+06         0.95431E+06         0.00000E+00
    0.95431E+06        -0.25277E+07         0.00000E+00
    0.00000E+00         0.00000E+00         0.00000E+00
 
    0.41776E+06         0.98347E+06         0.00000E+00
    0.98347E+06        -0.25197E+07         0.00000E+00
    0.00000E+00         0.00000E+00         0.00000E+00
 
    0.39739E+06         0.10125E+07         0.00000E+00
    0.10125E+07        -0.25115E+07         0.00000E+00
    0.00000E+00         0.00000E+00         0.00000E+00
 
    0.37676E+06         0.10413E+07         0.00000E+00
    0.10413E+07        -0.25030E+07         0.00000E+00
    0.00000E+00         0.00000E+00         0.00000E+00
 
    0.35587E+06         0.10700E+07         0.00000E+00
    0.10700E+07        -0.24943E+07         0.00000E+00
    0.00000E+00         0.00000E+00         0.00000E+00
 
    0.33472E+06         0.10986E+07         0.00000E+00
    0.10986E+07        -0.24854E+07         0.00000E+00
    0.00000E+00         0.00000E+00         0.00000E+00
 
    0.31332E+06         0.11269E+07         0.00000E+00
    0.11269E+07        -0.24762E+07         0.00000E+00
    0.00000E+00         0.00000E+00         0.00000E+00
 
    0.29166E+06         0.11552E+07         0.00000E+00
    0.11552E+07        -0.24668E+07         0.00000E+00
    0.00000E+00         0.00000E+00         0.00000E+00
 
    0.26976E+06         0.11832E+07         0.00000E+00
    0.11832E+07        -0.24571E+07         0.00000E+00
    0.00000E+00         0.00000E+00         0.00000E+00
 
    0.24760E+06         0.12111E+07         0.00000E+00
    0.12111E+07        -0.24472E+07         0.00000E+00
    0.00000E+00         0.00000E+00         0.00000E+00
 
    0.22518E+06         0.12388E+07         0.00000E+00
    0.12388E+07        -0.24371E+07         0.00000E+00
    0.00000E+00         0.00000E+00         0.00000E+00
 
    0.20252E+06         0.12664E+07         0.00000E+00
    0.12664E+07        -0.24267E+07         0.00000E+00
    0.00000E+00         0.00000E+00         0.00000E+00
 
    0.17961E+06         0.12938E+07         0.00000E+00
    0.12938E+07        -0.24161E+07         0.00000E+00
    0.00000E+00         0.00000E+00         0.00000E+00
 
    0.15646E+06         0.13210E+07         0.00000E+00
    0.13210E+07        -0.24053E+07         0.00000E+00
    0.00000E+00         0.00000E+00         0.00000E+00
 
    0.13305E+06         0.13481E+07         0.00000E+00
    0.13481E+07        -0.23942E+07         0.00000E+00
    0.00000E+00         0.00000E+00         0.00000E+00
 
    0.10940E+06         0.13750E+07         0.00000E+00
    0.13750E+07        -0.23830E+07         0.00000E+00
    0.00000E+00         0.00000E+00         0.00000E+00
 
    0.85508E+05         0.14017E+07         0.00000E+00
    0.14017E+07        -0.23714E+07         0.00000E+00
    0.00000E+00         0.00000E+00         0.00000E+00
 
    0.61371E+05         0.14282E+07         0.00000E+00
    0.14282E+07        -0.23597E+07         0.00000E+00
    0.00000E+00         0.00000E+00         0.00000E+00
 
    0.36991E+05         0.14546E+07         0.00000E+00
    0.14546E+07        -0.23477E+07         0.00000E+00
    0.00000E+00         0.00000E+00         0.00000E+00
 
    0.12371E+05         0.14808E+07         0.00000E+00
    0.14808E+07        -0.23355E+07         0.00000E+00
    0.00000E+00         0.00000E+00         0.00000E+00
 
    0.95103E+06         0.17331E+05         0.00000E+00
    0.17331E+05        -0.27826E+07         0.00000E+00
    0.00000E+00         0.00000E+00         0.00000E+00
 
    0.93869E+06         0.51688E+05         0.00000E+00
    0.51688E+05        -0.27823E+07         0.00000E+00
    0.00000E+00         0.00000E+00         0.00000E+00
 
    0.92604E+06         0.85934E+05         0.00000E+00
    0.85934E+05        -0.27818E+07         0.00000E+00
    0.00000E+00         0.00000E+00         0.00000E+00
 
    0.91310E+06         0.12007E+06         0.00000E+00
    0.12007E+06        -0.27809E+07         0.00000E+00
    0.00000E+00         0.00000E+00         0.00000E+00
 
    0.89985E+06         0.15408E+06         0.00000E+00
    0.15408E+06        -0.27798E+07         0.00000E+00
    0.00000E+00         0.00000E+00         0.00000E+00
 
    0.88630E+06         0.18798E+06         0.00000E+00
    0.18798E+06        -0.27784E+07         0.00000E+00
    0.00000E+00         0.00000E+00         0.00000E+00
 
    0.87246E+06         0.22177E+06         0.00000E+00
    0.22177E+06        -0.27767E+07         0.00000E+00
    0.00000E+00         0.00000E+00         0.00000E+00
 
    0.85832E+06         0.25543E+06         0.00000E+00
    0.25543E+06        -0.27748E+07         0.00000E+00
    0.00000E+00         0.00000E+00         0.00000E+00
 
    0.84388E+06         0.28898E+06         0.00000E+00
    0.28898E+06        -0.27726E+07         0.00000E+00
    0.00000E+00         0.00000E+00         0.00000E+00
 
    0.82916E+06         0.32240E+06         0.00000E+00
    0.32240E+06        -0.27701E+07         0.00000E+00
    0.00000E+00         0.00000E+00         0.00000E+00
 
    0.81414E+06         0.35570E+06         0.00000E+00
    0.35570E+06        -0.27673E+07         0.00000E+00
    0.00000E+00         0.00000E+00         0.00000E+00
 
    0.79883E+06         0.38888E+06         0.00000E+00
    0.38888E+06        -0.27643E+07         0.00000E+00
    0.00000E+00         0.00000E+00         0.00000E+00
 
    0.78323E+06         0.42193E+06         0.00000E+00
    0.42193E+06        -0.27610E+07         0.00000E+00
    0.00000E+00         0.00000E+00         0.00000E+00
 
    0.76734E+06         0.45485E+06         0.00000E+00
    0.45485E+06        -0.27574E+07         0.00000E+00
    0.00000E+00         0.00000E+00         0.00000E+00
 
    0.75116E+06         0.48765E+06         0.00000E+00
    0.48765E+06        -0.27536E+07         0.00000E+00
    0.00000E+00         0.00000E+00         0.00000E+00
 
    0.73470E+06         0.52032E+06         0.00000E+00
    0.52032E+06        -0.27495E+07         0.00000E+00
    0.00000E+00         0.00000E+00         0.00000E+00
 
    0.71796E+06         0.55285E+06         0.00000E+00
    0.55285E+06        -0.27451E+07         0.00000E+00
    0.00000E+00         0.00000E+00         0.00000E+00
 
    0.70093E+06         0.58526E+06         0.00000E+00
    0.58526E+06        -0.27404E+07         0.00000E+00
    0.00000E+00         0.00000E+00         0.00000E+00
 
    0.68362E+06         0.61753E+06         0.00000E+00
    0.61753E+06        -0.27355E+07         0.00000E+00
    0.00000E+00         0.00000E+00         0.00000E+00
 
    0.66602E+06         0.64966E+06         0.00000E+00
    0.64966E+06        -0.27304E+07         0.00000E+00
    0.00000E+00         0.00000E+00         0.00000E+00
 
    0.64815E+06         0.68166E+06         0.00000E+00
    0.68166E+06        -0.27249E+07         0.00000E+00
    0.00000E+00         0.00000E+00         0.00000E+00
 
    0.63000E+06         0.71352E+06         0.00000E+00
    0.71352E+06        -0.27193E+07         0.00000E+00
    0.00000E+00         0.00000E+00         0.00000E+00
 
    0.61157E+06         0.74524E+06         0.00000E+00
    0.74524E+06        -0.27133E+07         0.00000E+00
    0.00000E+00         0.00000E+00         0.00000E+00
 
    0.59287E+06         0.77682E+06         0.00000E+00
    0.77682E+06        -0.27071E+07         0.00000E+00
    0.00000E+00         0.00000E+00         0.00000E+00
 
    0.57389E+06         0.80826E+06         0.00000E+00
    0.80826E+06        -0.27006E+07         0.00000E+00
    0.00000E+00         0.00000E+00         0.00000E+00
 
    0.55463E+06         0.83956E+06         0.00000E+00
    0.83956E+06        -0.26939E+07         0.00000E+00
    0.00000E+00         0.00000E+00         0.00000E+00
 
    0.53511E+06         0.87071E+06         0.00000E+00
    0.87071E+06        -0.26869E+07         0.00000E+00
    0.00000E+00         0.00000E+00         0.00000E+00
 
    0.51531E+06         0.90171E+06         0.00000E+00
    0.90171E+06        -0.26797E+07         0.00000E+00
    0.00000E+00         0.00000E+00         0.00000E+00
 
    0.49523E+06         0.93257E+06         0.00000E+00
    0.93257E+06        -0.26722E+07         0.00000E+00
    0.00000E+00         0.00000E+00         0.00000E+00
 
    0.47489E+06         0.96327E+06         0.00000E+00
    0.96327E+06        -0.26645E+07         0.00000E+00
    0.00000E+00         0.00000E+00         0.00000E+00
 
    0.45428E+06         0.99383E+06         0.00000E+00
    0.99383E+06        -0.26565E+07         0.00000E+00
    0.00000E+00         0.00000E+00         0.00000E+00
 
    0.43340E+06         0.10242E+07         0.00000E+00
    0.10242E+07        -0.26482E+07         0.00000E+00
    0.00000E+00         0.00000E+00         0.00000E+00
 
    0.41225E+06         0.10545E+07         0.00000E+00
    0.10545E+07        -0.26397E+07         0.00000E+00
    0.00000E+00         0.00000E+00         0.00000E+00
 
    0.39084E+06         0.10846E+07         0.00000E+00
    0.10846E+07        -0.26310E+07         0.00000E+00
    0.00000E+00         0.00000E+00         0.00000E+00
 
    0.36916E+06         0.11145E+07         0.00000E+00
    0.11145E+07        -0.26220E+07         0.00000E+00
    0.00000E+00         0.00000E+00         0.00000E+00
 
    0.34722E+06         0.11443E+07         0.00000E+00
    0.11443E+07        -0.26127E+07         0.00000E+00
    0.00000E+00         0.00000E+00         0.00000E+00
 
    0.32501E+06         0.11739E+07         0.00000E+00
    0.11739E+07        -0.26032E+07         0.00000E+00
    0.00000E+00         0.00000E+00         0.00000E+00
 
    0.30255E+06         0.12033E+07         0.00000E+00
    0.12033E+07        -0.25935E+07         0.00000E+00
    0.00000E+00         0.00000E+00         0.00000E+00
 
    0.27982E+06         0.12326E+07         0.00000E+00
    0.12326E+07        -0.25835E+07         0.00000E+00
    0.00000E+00         0.00000E+00         0.00000E+00
 
    0.25683E+06         0.12618E+07         0.00000E+00
    0.12618E+07        -0.25732E+07         0.00000E+00
    0.00000E+00         0.00000E+00         0.00000E+00
 
    0.23358E+06         0.12907E+07         0.00000E+00
    0.12907E+07        -0.25627E+07         0.00000E+00
    0.00000E+00         0.00000E+00         0.00000E+00
 
    0.21007E+06         0.13195E+07         0.00000E+00
    0.13195E+07        -0.25520E+07         0.00000E+00
    0.00000E+00         0.00000E+00         0.00000E+00
 
    0.18631E+06         0.13481E+07         0.00000E+00
    0.13481E+07        -0.25410E+07         0.00000E+00
    0.00000E+00         0.00000E+00         0.00000E+00
 
    0.16229E+06         0.13766E+07         0.00000E+00
    0.13766E+07        -0.25298E+07         0.00000E+00
    0.00000E+00         0.00000E+00         0.00000E+00
 
    0.13801E+06         0.14048E+07         0.00000E+00
    0.14048E+07        -0.25183E+07         0.00000E+00
    0.00000E+00         0.00000E+00         0.00000E+00
 
    0.11348E+06         0.14329E+07         0.00000E+00
    0.14329E+07        -0.25066E+07         0.00000E+00
    0.00000E+00         0.00000E+00         0.00000E+00
 
    0.88694E+05         0.14608E+07         0.00000E+00
    0.14608E+07        -0.24947E+07         0.00000E+00
    0.00000E+00         0.00000E+00         0.00000E+00
 
    0.63658E+05         0.14886E+07         0.00000E+00
    0.14886E+07        -0.24825E+07         0.00000E+00
    0.00000E+00         0.00000E+00         0.00000E+00
 
    0.38370E+05         0.15161E+07         0.00000E+00
    0.15161E+07        -0.24701E+07         0.00000E+00
    0.00000E+00         0.00000E+00         0.00000E+00
 
    0.12832E+05         0.15435E+07         0.00000E+00
    0.15435E+07        -0.24574E+07         0.00000E+00
    0.00000E+00         0.00000E+00         0.00000E+00
 
    0.98776E+06         0.18029E+05         0.00000E+00
    0.18029E+05        -0.29214E+07         0.00000E+00
    0.00000E+00         0.00000E+00         0.00000E+00
 
    0.97485E+06         0.53772E+05         0.00000E+00
    0.53772E+05        -0.29211E+07         0.00000E+00
    0.00000E+00         0.00000E+00         0.00000E+00
 
    0.96163E+06         0.89400E+05         0.00000E+00
    0.89400E+05        -0.29206E+07         0.00000E+00
    0.00000E+00         0.00000E+00         0.00000E+00
 
    0.94810E+06         0.12491E+06         0.00000E+00
    0.12491E+06        -0.29197E+07         0.00000E+00
    0.00000E+00         0.00000E+00         0.00000E+00
 
    0.93427E+06         0.16030E+06         0.00000E+00
    0.16030E+06        -0.29185E+07         0.00000E+00
    0.00000E+00         0.00000E+00         0.00000E+00
 
    0.92012E+06         0.19558E+06         0.00000E+00
    0.19558E+06        -0.29171E+07         0.00000E+00
    0.00000E+00         0.00000E+00         0.00000E+00
 
    0.90568E+06         0.23073E+06         0.00000E+00
    0.23073E+06        -0.29154E+07         0.00000E+00
    0.00000E+00         0.00000E+00         0.00000E+00
 
    0.89093E+06         0.26576E+06         0.00000E+00
    0.26576E+06        -0.29134E+07         0.00000E+00
    0.00000E+00         0.00000E+00         0.00000E+00
 
    0.87588E+06         0.30066E+06         0.00000E+00
    0.30066E+06        -0.29111E+07         0.00000E+00
    0.00000E+00         0.00000E+00         0.00000E+00
 
    0.86053E+06         0.33544E+06         0.00000E+00
    0.33544E+06        -0.29085E+07         0.00000E+00
    0.00000E+00         0.00000E+00         0.00000E+00
 
    0.84488E+06         0.37010E+06         0.00000E+00
    0.37010E+06        -0.29057E+07         0.00000E+00
    0.00000E+00         0.00000E+00         0.00000E+00
 
    0.82894E+06         0.40463E+06         0.00000E+00
    0.40463E+06        -0.29025E+07         0.00000E+00
    0.00000E+00         0.00000E+00         0.00000E+00
 
    0.81269E+06         0.43903E+06         0.00000E+00
    0.43903E+06        -0.28991E+07         0.00000E+00
    0.00000E+00         0.00000E+00         0.00000E+00
 
    0.79616E+06         0.47330E+06         0.00000E+00
    0.47330E+06        -0.28954E+07         0.00000E+00
    0.00000E+00         0.00000E+00         0.00000E+00
 
    0.77933E+06         0.50743E+06         0.00000E+00
    0.50743E+06        -0.28915E+07         0.00000E+00
    0.00000E+00         0.00000E+00         0.00000E+00
 
    0.76220E+06         0.54144E+06         0.00000E+00
    0.54144E+06        -0.28872E+07         0.00000E+00
    0.00000E+00         0.00000E+00         0.00000E+00
 
    0.74479E+06         0.57531E+06         0.00000E+00
    0.57531E+06        -0.28827E+07         0.00000E+00
    0.00000E+00         0.00000E+00         0.00000E+00
 
    0.72708E+06         0.60905E+06         0.00000E+00
    0.60905E+06        -0.28779E+07         0.00000E+00
    0.00000E+00         0.00000E+00         0.00000E+00
 
    0.70909E+06         0.64265E+06         0.00000E+00
    0.64265E+06        -0.28729E+07         0.00000E+00
    0.00000E+00         0.00000E+00         0.00000E+00
 
    0.69081E+06         0.67611E+06         0.00000E+00
    0.67611E+06        -0.28676E+07         0.00000E+00
    0.00000E+00         0.00000E+00         0.00000E+00
 
    0.67224E+06         0.70944E+06         0.00000E+00
    0.70944E+06        -0.28620E+07         0.00000E+00
    0.00000E+00         0.00000E+00         0.00000E+00
 
    0.65338E+06         0.74262E+06         0.00000E+00
    0.74262E+06        -0.28561E+07         0.00000E+00
    0.00000E+00         0.00000E+00         0.00000E+00
 
    0.63424E+06         0.77566E+06         0.00000E+00
    0.77566E+06        -0.28500E+07         0.00000E+00
    0.00000E+00         0.00000E+00         0.00000E+00
 
    0.61482E+06         0.80856E+06         0.00000E+00
    0.80856E+06        -0.28436E+07         0.00000E+00
    0.00000E+00         0.00000E+00         0.00000E+00
 
    0.59511E+06         0.84131E+06         0.00000E+00
    0.84131E+06        -0.28369E+07         0.00000E+00
    0.00000E+00         0.00000E+00         0.00000E+00
 
    0.57512E+06         0.87392E+06         0.00000E+00
    0.87392E+06        -0.28299E+07         0.00000E+00
    0.00000E+00         0.00000E+00         0.00000E+00
 
    0.55485E+06         0.90638E+06         0.00000E+00
    0.90638E+06        -0.28227E+07         0.00000E+00
    0.00000E+00         0.00000E+00         0.00000E+00
 
    0.53430E+06         0.93869E+06         0.00000E+00
    0.93869E+06        -0.28153E+07         0.00000E+00
    0.00000E+00         0.00000E+00         0.00000E+00
 
    0.51347E+06         0.97085E+06         0.00000E+00
    0.97085E+06        -0.28075E+07         0.00000E+00
    0.00000E+00         0.00000E+00         0.00000E+00
 
    0.49237E+06         0.10029E+07         0.00000E+00
    0.10029E+07        -0.27995E+07         0.00000E+00
    0.00000E+00         0.00000E+00         0.00000E+00
 
    0.47098E+06         0.10347E+07         0.00000E+00
    0.10347E+07        -0.27913E+07         0.00000E+00
    0.00000E+00         0.00000E+00         0.00000E+00
 
    0.44933E+06         0.10664E+07         0.00000E+00
    0.10664E+07        -0.27827E+07         0.00000E+00
    0.00000E+00         0.00000E+00         0.00000E+00
 
    0.42739E+06         0.10979E+07         0.00000E+00
    0.10979E+07        -0.27740E+07         0.00000E+00
    0.00000E+00         0.00000E+00         0.00000E+00
 
    0.40518E+06         0.11293E+07         0.00000E+00
    0.11293E+07        -0.27649E+07         0.00000E+00
    0.00000E+00         0.00000E+00         0.00000E+00
 
    0.38270E+06         0.11606E+07         0.00000E+00
    0.11606E+07        -0.27556E+07         0.00000E+00
    0.00000E+00         0.00000E+00         0.00000E+00
 
    0.35995E+06         0.11916E+07         0.00000E+00
    0.11916E+07        -0.27460E+07         0.00000E+00
    0.00000E+00         0.00000E+00         0.00000E+00
 
    0.33692E+06         0.12225E+07         0.00000E+00
    0.12225E+07        -0.27362E+07         0.00000E+00
    0.00000E+00         0.00000E+00         0.00000E+00
 
    0.31363E+06         0.12532E+07         0.00000E+00
    0.12532E+07        -0.27261E+07         0.00000E+00
    0.00000E+00         0.00000E+00         0.00000E+00
 
    0.29006E+06         0.12838E+07         0.00000E+00
    0.12838E+07        -0.27158E+07         0.00000E+00
    0.00000E+00         0.00000E+00         0.00000E+00
 
    0.26623E+06         0.13142E+07         0.00000E+00
    0.13142E+07        -0.27052E+07         0.00000E+00
    0.00000E+00         0.00000E+00         0.00000E+00
 
    0.24213E+06         0.13444E+07         0.00000E+00
    0.13444E+07        -0.26944E+07         0.00000E+00
    0.00000E+00         0.00000E+00         0.00000E+00
 
    0.21776E+06         0.13745E+07         0.00000E+00
    0.13745E+07        -0.26832E+07         0.00000E+00
    0.00000E+00         0.00000E+00         0.00000E+00
 
    0.19312E+06         0.14044E+07         0.00000E+00
    0.14044E+07        -0.26719E+07         0.00000E+00
    0.00000E+00         0.00000E+00         0.00000E+00
 
    0.16822E+06         0.14341E+07         0.00000E+00
    0.14341E+07        -0.26603E+07         0.00000E+00
    0.00000E+00         0.00000E+00         0.00000E+00
 
    0.14306E+06         0.14636E+07         0.00000E+00
    0.14636E+07        -0.26484E+07         0.00000E+00
    0.00000E+00         0.00000E+00         0.00000E+00
 
    0.11763E+06         0.14929E+07         0.00000E+00
    0.14929E+07        -0.26363E+07         0.00000E+00
    0.00000E+00         0.00000E+00         0.00000E+00
 
    0.91939E+05         0.15221E+07         0.00000E+00
    0.15221E+07        -0.26239E+07         0.00000E+00
    0.00000E+00         0.00000E+00         0.00000E+00
 
    0.65987E+05         0.15511E+07         0.00000E+00
    0.15511E+07        -0.26113E+07         0.00000E+00
    0.00000E+00         0.00000E+00         0.00000E+00
 
    0.39774E+05         0.15799E+07         0.00000E+00
    0.15799E+07        -0.25984E+07         0.00000E+00
    0.00000E+00         0.00000E+00         0.00000E+00
 
    0.13301E+05         0.16085E+07         0.00000E+00
    0.16085E+07        -0.25853E+07         0.00000E+00
    0.00000E+00         0.00000E+00         0.00000E+00
 
    0.10252E+07         0.18749E+05         0.00000E+00
    0.18749E+05        -0.30665E+07         0.00000E+00
    0.00000E+00         0.00000E+00         0.00000E+00
 
    0.10117E+07         0.55922E+05         0.00000E+00
    0.55922E+05        -0.30662E+07         0.00000E+00
    0.00000E+00         0.00000E+00         0.00000E+00
 
    0.99791E+06         0.92976E+05         0.00000E+00
    0.92976E+05        -0.30656E+07         0.00000E+00
    0.00000E+00         0.00000E+00         0.00000E+00
 
    0.98378E+06         0.12991E+06         0.00000E+00
    0.12991E+06        -0.30648E+07         0.00000E+00
    0.00000E+00         0.00000E+00         0.00000E+00
 
    0.96934E+06         0.16672E+06         0.00000E+00
    0.16672E+06        -0.30636E+07         0.00000E+00
    0.00000E+00         0.00000E+00         0.00000E+00
 
    0.95459E+06         0.20341E+06         0.00000E+00
    0.20341E+06        -0.30621E+07         0.00000E+00
    0.00000E+00         0.00000E+00         0.00000E+00
 
    0.93953E+06         0.23997E+06         0.00000E+00
    0.23997E+06        -0.30603E+07         0.00000E+00
    0.00000E+00         0.00000E+00         0.00000E+00
 
    0.92415E+06         0.27641E+06         0.00000E+00
    0.27641E+06        -0.30582E+07         0.00000E+00
    0.00000E+00         0.00000E+00         0.00000E+00
 
    0.90847E+06         0.31272E+06         0.00000E+00
    0.31272E+06        -0.30559E+07         0.00000E+00
    0.00000E+00         0.00000E+00         0.00000E+00
 
    0.89248E+06         0.34890E+06         0.00000E+00
    0.34890E+06        -0.30532E+07         0.00000E+00
    0.00000E+00         0.00000E+00         0.00000E+00
 
    0.87619E+06         0.38496E+06         0.00000E+00
    0.38496E+06        -0.30503E+07         0.00000E+00
    0.00000E+00         0.00000E+00         0.00000E+00
 
    0.85959E+06         0.42088E+06         0.00000E+00
    0.42088E+06        -0.30471E+07         0.00000E+00
    0.00000E+00         0.00000E+00         0.00000E+00
 
    0.84269E+06         0.45667E+06         0.00000E+00
    0.45667E+06        -0.30436E+07         0.00000E+00
    0.00000E+00         0.00000E+00         0.00000E+00
 
    0.82549E+06         0.49233E+06         0.00000E+00
    0.49233E+06        -0.30398E+07         0.00000E+00
    0.00000E+00         0.00000E+00         0.00000E+00
 
    0.80799E+06         0.52786E+06         0.00000E+00
    0.52786E+06        -0.30357E+07         0.00000E+00
    0.00000E+00         0.00000E+00         0.00000E+00
 
    0.79019E+06         0.56325E+06         0.00000E+00
    0.56325E+06        -0.30313E+07         0.00000E+00
    0.00000E+00         0.00000E+00         0.00000E+00
 
    0.77209E+06         0.59850E+06         0.00000E+00
    0.59850E+06        -0.30267E+07         0.00000E+00
    0.00000E+00         0.00000E+00         0.00000E+00
 
    0.75369E+06         0.63361E+06         0.00000E+00
    0.63361E+06        -0.30218E+07         0.00000E+00
    0.00000E+00         0.00000E+00         0.00000E+00
 
    0.73500E+06         0.66859E+06         0.00000E+00
    0.66859E+06        -0.30166E+07         0.00000E+00
    0.00000E+00         0.00000E+00         0.00000E+00
 
    0.71601E+06         0.70343E+06         0.00000E+00
    0.70343E+06        -0.30111E+07         0.00000E+00
    0.00000E+00         0.00000E+00         0.00000E+00
 
    0.69673E+06         0.73812E+06         0.00000E+00
    0.73812E+06        -0.30053E+07         0.00000E+00
    0.00000E+00         0.00000E+00         0.00000E+00
 
    0.67715E+06         0.77267E+06         0.00000E+00
    0.77267E+06        -0.29993E+07         0.00000E+00
    0.00000E+00         0.00000E+00         0.00000E+00
 
    0.65729E+06         0.80708E+06         0.00000E+00
    0.80708E+06        -0.29929E+07         0.00000E+00
    0.00000E+00         0.00000E+00         0.00000E+00
 
    0.63713E+06         0.84134E+06         0.00000E+00
    0.84134E+06        -0.29863E+07         0.00000E+00
    0.00000E+00         0.00000E+00         0.00000E+00
 
    0.61668E+06         0.87545E+06         0.00000E+00
    0.87545E+06        -0.29794E+07         0.00000E+00
    0.00000E+00         0.00000E+00         0.00000E+00
 
    0.59595E+06         0.90942E+06         0.00000E+00
    0.90942E+06        -0.29723E+07         0.00000E+00
    0.00000E+00         0.00000E+00         0.00000E+00
 
    0.57492E+06         0.94323E+06         0.00000E+00
    0.94323E+06        -0.29649E+07         0.00000E+00
    0.00000E+00         0.00000E+00         0.00000E+00
 
    0.55361E+06         0.97690E+06         0.00000E+00
    0.97690E+06        -0.29571E+07         0.00000E+00
    0.00000E+00         0.00000E+00         0.00000E+00
 
    0.53201E+06         0.10104E+07         0.00000E+00
    0.10104E+07        -0.29492E+07         0.00000E+00
    0.00000E+00         0.00000E+00         0.00000E+00
 
    0.51013E+06         0.10438E+07         0.00000E+00
    0.10438E+07        -0.29409E+07         0.00000E+00
    0.00000E+00         0.00000E+00         0.00000E+00
 
    0.48796E+06         0.10770E+07         0.00000E+00
    0.10770E+07        -0.29324E+07         0.00000E+00
    0.00000E+00         0.00000E+00         0.00000E+00
 
    0.46551E+06         0.11100E+07         0.00000E+00
    0.11100E+07        -0.29236E+07         0.00000E+00
    0.00000E+00         0.00000E+00         0.00000E+00
 
    0.44277E+06         0.11429E+07         0.00000E+00
    0.11429E+07        -0.29145E+07         0.00000E+00
    0.00000E+00         0.00000E+00         0.00000E+00
 
    0.41976E+06         0.11756E+07         0.00000E+00
    0.11756E+07        -0.29052E+07         0.00000E+00
    0.00000E+00         0.00000E+00         0.00000E+00
 
    0.39646E+06         0.12082E+07         0.00000E+00
    0.12082E+07        -0.28956E+07         0.00000E+00
    0.00000E+00         0.00000E+00         0.00000E+00
 
    0.37288E+06         0.12406E+07         0.00000E+00
    0.12406E+07        -0.28857E+07         0.00000E+00
    0.00000E+00         0.00000E+00         0.00000E+00
 
    0.34902E+06         0.12728E+07         0.00000E+00
    0.12728E+07        -0.28755E+07         0.00000E+00
    0.00000E+00         0.00000E+00         0.00000E+00
 
    0.32489E+06         0.13049E+07         0.00000E+00
    0.13049E+07        -0.28651E+07         0.00000E+00
    0.00000E+00         0.00000E+00         0.00000E+00
 
    0.30047E+06         0.13367E+07         0.00000E+00
    0.13367E+07        -0.28544E+07         0.00000E+00
    0.00000E+00         0.00000E+00         0.00000E+00
 
    0.27578E+06         0.13685E+07         0.00000E+00
    0.13685E+07        -0.28435E+07         0.00000E+00
    0.00000E+00         0.00000E+00         0.00000E+00
 
    0.25081E+06         0.14000E+07         0.00000E+00
    0.14000E+07        -0.28323E+07         0.00000E+00
    0.00000E+00         0.00000E+00         0.00000E+00
 
    0.22557E+06         0.14314E+07         0.00000E+00
    0.14314E+07        -0.28208E+07         0.00000E+00
    0.00000E+00         0.00000E+00         0.00000E+00
 
    0.20005E+06         0.14626E+07         0.00000E+00
    0.14626E+07        -0.28090E+07         0.00000E+00
    0.00000E+00         0.00000E+00         0.00000E+00
 
    0.17425E+06         0.14936E+07         0.00000E+00
    0.14936E+07        -0.27970E+07         0.00000E+00
    0.00000E+00         0.00000E+00         0.00000E+00
 
    0.14819E+06         0.15245E+07         0.00000E+00
    0.15245E+07        -0.27847E+07         0.00000E+00
    0.00000E+00         0.00000E+00         0.00000E+00
 
    0.12185E+06         0.15551E+07         0.00000E+00
    0.15551E+07        -0.27722E+07         0.00000E+00
    0.00000E+00         0.00000E+00         0.00000E+00
 
    0.95235E+05         0.15856E+07         0.00000E+00
    0.15856E+07        -0.27594E+07         0.00000E+00
    0.00000E+00         0.00000E+00         0.00000E+00
 
    0.68353E+05         0.16159E+07         0.00000E+00
    0.16159E+07        -0.27463E+07         0.00000E+00
    0.00000E+00         0.00000E+00         0.00000E+00
 
    0.41200E+05         0.16460E+07         0.00000E+00
    0.16460E+07        -0.27330E+07         0.00000E+00
    0.00000E+00         0.00000E+00         0.00000E+00
 
    0.13778E+05         0.16759E+07         0.00000E+00
    0.16759E+07        -0.27194E+07         0.00000E+00
    0.00000E+00         0.00000E+00         0.00000E+00
 
    0.10634E+07         0.19491E+05         0.00000E+00
    0.19491E+05        -0.32182E+07         0.00000E+00
    0.00000E+00         0.00000E+00         0.00000E+00
 
    0.10493E+07         0.58138E+05         0.00000E+00
    0.58138E+05        -0.32179E+07         0.00000E+00
    0.00000E+00         0.00000E+00         0.00000E+00
 
    0.10348E+07         0.96662E+05         0.00000E+00
    0.96662E+05        -0.32173E+07         0.00000E+00
    0.00000E+00         0.00000E+00         0.00000E+00
 
    0.10201E+07         0.13506E+06         0.00000E+00
    0.13506E+06        -0.32164E+07         0.00000E+00
    0.00000E+00         0.00000E+00         0.00000E+00
 
    0.10050E+07         0.17333E+06         0.00000E+00
    0.17333E+06        -0.32152E+07         0.00000E+00
    0.00000E+00         0.00000E+00         0.00000E+00
 
    0.98964E+06         0.21148E+06         0.00000E+00
    0.21148E+06        -0.32137E+07         0.00000E+00
    0.00000E+00         0.00000E+00         0.00000E+00
 
    0.97394E+06         0.24950E+06         0.00000E+00
    0.24950E+06        -0.32118E+07         0.00000E+00
    0.00000E+00         0.00000E+00         0.00000E+00
 
    0.95793E+06         0.28739E+06         0.00000E+00
    0.28739E+06        -0.32097E+07         0.00000E+00
    0.00000E+00         0.00000E+00         0.00000E+00
 
    0.94160E+06         0.32515E+06         0.00000E+00
    0.32515E+06        -0.32073E+07         0.00000E+00
    0.00000E+00         0.00000E+00         0.00000E+00
 
    0.92495E+06         0.36278E+06         0.00000E+00
    0.36278E+06        -0.32046E+07         0.00000E+00
    0.00000E+00         0.00000E+00         0.00000E+00
 
    0.90800E+06         0.40028E+06         0.00000E+00
    0.40028E+06        -0.32016E+07         0.00000E+00
    0.00000E+00         0.00000E+00         0.00000E+00
 
    0.89073E+06         0.43764E+06         0.00000E+00
    0.43764E+06        -0.31982E+07         0.00000E+00
    0.00000E+00         0.00000E+00         0.00000E+00
 
    0.87316E+06         0.47487E+06         0.00000E+00
    0.47487E+06        -0.31946E+07         0.00000E+00
    0.00000E+00         0.00000E+00         0.00000E+00
 
    0.85528E+06         0.51196E+06         0.00000E+00
    0.51196E+06        -0.31907E+07         0.00000E+00
    0.00000E+00         0.00000E+00         0.00000E+00
 
    0.83709E+06         0.54892E+06         0.00000E+00
    0.54892E+06        -0.31865E+07         0.00000E+00
    0.00000E+00         0.00000E+00         0.00000E+00
 
    0.81860E+06         0.58574E+06         0.00000E+00
    0.58574E+06        -0.31820E+07         0.00000E+00
    0.00000E+00         0.00000E+00         0.00000E+00
 
    0.79980E+06         0.62242E+06         0.00000E+00
    0.62242E+06        -0.31773E+07         0.00000E+00
    0.00000E+00         0.00000E+00         0.00000E+00
 
    0.78070E+06         0.65896E+06         0.00000E+00
    0.65896E+06        -0.31722E+07         0.00000E+00
    0.00000E+00         0.00000E+00         0.00000E+00
 
    0.76129E+06         0.69535E+06         0.00000E+00
    0.69535E+06        -0.31668E+07         0.00000E+00
    0.00000E+00         0.00000E+00         0.00000E+00
 
    0.74159E+06         0.73161E+06         0.00000E+00
    0.73161E+06        -0.31612E+07         0.00000E+00
    0.00000E+00         0.00000E+00         0.00000E+00
 
    0.72158E+06         0.76772E+06         0.00000E+00
    0.76772E+06        -0.31552E+07         0.00000E+00
    0.00000E+00         0.00000E+00         0.00000E+00
 
    0.70127E+06         0.80368E+06         0.00000E+00
    0.80368E+06        -0.31490E+07         0.00000E+00
    0.00000E+00         0.00000E+00         0.00000E+00
 
    0.68067E+06         0.83950E+06         0.00000E+00
    0.83950E+06        -0.31425E+07         0.00000E+00
    0.00000E+00         0.00000E+00         0.00000E+00
 
    0.65976E+06         0.87517E+06         0.00000E+00
    0.87517E+06        -0.31357E+07         0.00000E+00
    0.00000E+00         0.00000E+00         0.00000E+00
 
    0.63856E+06         0.91069E+06         0.00000E+00
    0.91069E+06        -0.31286E+07         0.00000E+00
    0.00000E+00         0.00000E+00         0.00000E+00
 
    0.61707E+06         0.94606E+06         0.00000E+00
    0.94606E+06        -0.31212E+07         0.00000E+00
    0.00000E+00         0.00000E+00         0.00000E+00
 
    0.59527E+06         0.98128E+06         0.00000E+00
    0.98128E+06        -0.31136E+07         0.00000E+00
    0.00000E+00         0.00000E+00         0.00000E+00
 
    0.57319E+06         0.10163E+07         0.00000E+00
    0.10163E+07        -0.31056E+07         0.00000E+00
    0.00000E+00         0.00000E+00         0.00000E+00
 
    0.55081E+06         0.10513E+07         0.00000E+00
    0.10513E+07        -0.30974E+07         0.00000E+00
    0.00000E+00         0.00000E+00         0.00000E+00
 
    0.52814E+06         0.10860E+07         0.00000E+00
    0.10860E+07        -0.30889E+07         0.00000E+00
    0.00000E+00         0.00000E+00         0.00000E+00
 
    0.50517E+06         0.11206E+07         0.00000E+00
    0.11206E+07        -0.30801E+07         0.00000E+00
    0.00000E+00         0.00000E+00         0.00000E+00
 
    0.48191E+06         0.11550E+07         0.00000E+00
    0.11550E+07        -0.30710E+07         0.00000E+00
    0.00000E+00         0.00000E+00         0.00000E+00
 
    0.45837E+06         0.11893E+07         0.00000E+00
    0.11893E+07        -0.30617E+07         0.00000E+00
    0.00000E+00         0.00000E+00         0.00000E+00
 
    0.43453E+06         0.12234E+07         0.00000E+00
    0.12234E+07        -0.30520E+07         0.00000E+00
    0.00000E+00         0.00000E+00         0.00000E+00
 
    0.41040E+06         0.12574E+07         0.00000E+00
    0.12574E+07        -0.30421E+07         0.00000E+00
    0.00000E+00         0.00000E+00         0.00000E+00
 
    0.38599E+06         0.12912E+07         0.00000E+00
    0.12912E+07        -0.30319E+07         0.00000E+00
    0.00000E+00         0.00000E+00         0.00000E+00
 
    0.36129E+06         0.13248E+07         0.00000E+00
    0.13248E+07        -0.30214E+07         0.00000E+00
    0.00000E+00         0.00000E+00         0.00000E+00
 
    0.33630E+06         0.13582E+07         0.00000E+00
    0.13582E+07        -0.30107E+07         0.00000E+00
    0.00000E+00         0.00000E+00         0.00000E+00
 
    0.31102E+06         0.13915E+07         0.00000E+00
    0.13915E+07        -0.29997E+07         0.00000E+00
    0.00000E+00         0.00000E+00         0.00000E+00
 
    0.28546E+06         0.14246E+07         0.00000E+00
    0.14246E+07        -0.29883E+07         0.00000E+00
    0.00000E+00         0.00000E+00         0.00000E+00
 
    0.25961E+06         0.14575E+07         0.00000E+00
    0.14575E+07        -0.29768E+07         0.00000E+00
    0.00000E+00         0.00000E+00         0.00000E+00
 
    0.23348E+06         0.14903E+07         0.00000E+00
    0.14903E+07        -0.29649E+07         0.00000E+00
    0.00000E+00         0.00000E+00         0.00000E+00
 
    0.20706E+06         0.15228E+07         0.00000E+00
    0.15228E+07        -0.29527E+07         0.00000E+00
    0.00000E+00         0.00000E+00         0.00000E+00
 
    0.18037E+06         0.15552E+07         0.00000E+00
    0.15552E+07        -0.29403E+07         0.00000E+00
    0.00000E+00         0.00000E+00         0.00000E+00
 
    0.15338E+06         0.15874E+07         0.00000E+00
    0.15874E+07        -0.29276E+07         0.00000E+00
    0.00000E+00         0.00000E+00         0.00000E+00
 
    0.12612E+06         0.16194E+07         0.00000E+00
    0.16194E+07        -0.29147E+07         0.00000E+00
    0.00000E+00         0.00000E+00         0.00000E+00
 
    0.98577E+05         0.16513E+07         0.00000E+00
    0.16513E+07        -0.29014E+07         0.00000E+00
    0.00000E+00         0.00000E+00         0.00000E+00
 
    0.70752E+05         0.16829E+07         0.00000E+00
    0.16829E+07        -0.28879E+07         0.00000E+00
    0.00000E+00         0.00000E+00         0.00000E+00
 
    0.42647E+05         0.17144E+07         0.00000E+00
    0.17144E+07        -0.28741E+07         0.00000E+00
    0.00000E+00         0.00000E+00         0.00000E+00
 
    0.14262E+05         0.17457E+07         0.00000E+00
    0.17457E+07        -0.28601E+07         0.00000E+00
    0.00000E+00         0.00000E+00         0.00000E+00
 
    0.11021E+07         0.20255E+05         0.00000E+00
    0.20255E+05        -0.33768E+07         0.00000E+00
    0.00000E+00         0.00000E+00         0.00000E+00
 
    0.10874E+07         0.60420E+05         0.00000E+00
    0.60420E+05        -0.33765E+07         0.00000E+00
    0.00000E+00         0.00000E+00         0.00000E+00
 
    0.10723E+07         0.10046E+06         0.00000E+00
    0.10046E+06        -0.33759E+07         0.00000E+00
    0.00000E+00         0.00000E+00         0.00000E+00
 
    0.10570E+07         0.14037E+06         0.00000E+00
    0.14037E+06        -0.33749E+07         0.00000E+00
    0.00000E+00         0.00000E+00         0.00000E+00
 
    0.10412E+07         0.18014E+06         0.00000E+00
    0.18014E+06        -0.33737E+07         0.00000E+00
    0.00000E+00         0.00000E+00         0.00000E+00
 
    0.10252E+07         0.21979E+06         0.00000E+00
    0.21979E+06        -0.33721E+07         0.00000E+00
    0.00000E+00         0.00000E+00         0.00000E+00
 
    0.10089E+07         0.25931E+06         0.00000E+00
    0.25931E+06        -0.33702E+07         0.00000E+00
    0.00000E+00         0.00000E+00         0.00000E+00
 
    0.99219E+06         0.29870E+06         0.00000E+00
    0.29870E+06        -0.33681E+07         0.00000E+00
    0.00000E+00         0.00000E+00         0.00000E+00
 
    0.97519E+06         0.33795E+06         0.00000E+00
    0.33795E+06        -0.33656E+07         0.00000E+00
    0.00000E+00         0.00000E+00         0.00000E+00
 
    0.95788E+06         0.37707E+06         0.00000E+00
    0.37707E+06        -0.33628E+07         0.00000E+00
    0.00000E+00         0.00000E+00         0.00000E+00
 
    0.94025E+06         0.41606E+06         0.00000E+00
    0.41606E+06        -0.33597E+07         0.00000E+00
    0.00000E+00         0.00000E+00         0.00000E+00
 
    0.92230E+06         0.45490E+06         0.00000E+00
    0.45490E+06        -0.33563E+07         0.00000E+00
    0.00000E+00         0.00000E+00         0.00000E+00
 
    0.90404E+06         0.49361E+06         0.00000E+00
    0.49361E+06        -0.33526E+07         0.00000E+00
    0.00000E+00         0.00000E+00         0.00000E+00
 
    0.88547E+06         0.53219E+06         0.00000E+00
    0.53219E+06        -0.33486E+07         0.00000E+00
    0.00000E+00         0.00000E+00         0.00000E+00
 
    0.86658E+06         0.57062E+06         0.00000E+00
    0.57062E+06        -0.33443E+07         0.00000E+00
    0.00000E+00         0.00000E+00         0.00000E+00
 
    0.84738E+06         0.60891E+06         0.00000E+00
    0.60891E+06        -0.33396E+07         0.00000E+00
    0.00000E+00         0.00000E+00         0.00000E+00
 
    0.82787E+06         0.64706E+06         0.00000E+00
    0.64706E+06        -0.33347E+07         0.00000E+00
    0.00000E+00         0.00000E+00         0.00000E+00
 
    0.80805E+06         0.68507E+06         0.00000E+00
    0.68507E+06        -0.33295E+07         0.00000E+00
    0.00000E+00         0.00000E+00         0.00000E+00
 
    0.78792E+06         0.72294E+06         0.00000E+00
    0.72294E+06        -0.33240E+07         0.00000E+00
    0.00000E+00         0.00000E+00         0.00000E+00
 
    0.76748E+06         0.76066E+06         0.00000E+00
    0.76066E+06        -0.33182E+07         0.00000E+00
    0.00000E+00         0.00000E+00         0.00000E+00
 
    0.74673E+06         0.79823E+06         0.00000E+00
    0.79823E+06        -0.33121E+07         0.00000E+00
    0.00000E+00         0.00000E+00         0.00000E+00
 
    0.72568E+06         0.83566E+06         0.00000E+00
    0.83566E+06        -0.33057E+07         0.00000E+00
    0.00000E+00         0.00000E+00         0.00000E+00
 
    0.70433E+06         0.87293E+06         0.00000E+00
    0.87293E+06        -0.32990E+07         0.00000E+00
    0.00000E+00         0.00000E+00         0.00000E+00
 
    0.68267E+06         0.91006E+06         0.00000E+00
    0.91006E+06        -0.32920E+07         0.00000E+00
    0.00000E+00         0.00000E+00         0.00000E+00
 
    0.66070E+06         0.94704E+06         0.00000E+00
    0.94704E+06        -0.32847E+07         0.00000E+00
    0.00000E+00         0.00000E+00         0.00000E+00
 
    0.63844E+06         0.98386E+06         0.00000E+00
    0.98386E+06        -0.32771E+07         0.00000E+00
    0.00000E+00         0.00000E+00         0.00000E+00
 
    0.61587E+06         0.10205E+07         0.00000E+00
    0.10205E+07        -0.32692E+07         0.00000E+00
    0.00000E+00         0.00000E+00         0.00000E+00
 
    0.59299E+06         0.10570E+07         0.00000E+00
    0.10570E+07        -0.32610E+07         0.00000E+00
    0.00000E+00         0.00000E+00         0.00000E+00
 
    0.56982E+06         0.10934E+07         0.00000E+00
    0.10934E+07        -0.32525E+07         0.00000E+00
    0.00000E+00         0.00000E+00         0.00000E+00
 
    0.54635E+06         0.11296E+07         0.00000E+00
    0.11296E+07        -0.32438E+07         0.00000E+00
    0.00000E+00         0.00000E+00         0.00000E+00
 
    0.52258E+06         0.11656E+07         0.00000E+00
    0.11656E+07        -0.32347E+07         0.00000E+00
    0.00000E+00         0.00000E+00         0.00000E+00
 
    0.49851E+06         0.12015E+07         0.00000E+00
    0.12015E+07        -0.32254E+07         0.00000E+00
    0.00000E+00         0.00000E+00         0.00000E+00
 
    0.47414E+06         0.12372E+07         0.00000E+00
    0.12372E+07        -0.32157E+07         0.00000E+00
    0.00000E+00         0.00000E+00         0.00000E+00
 
    0.44947E+06         0.12728E+07         0.00000E+00
    0.12728E+07        -0.32058E+07         0.00000E+00
    0.00000E+00         0.00000E+00         0.00000E+00
 
    0.42451E+06         0.13082E+07         0.00000E+00
    0.13082E+07        -0.31956E+07         0.00000E+00
    0.00000E+00         0.00000E+00         0.00000E+00
 
    0.39925E+06         0.13434E+07         0.00000E+00
    0.13434E+07        -0.31851E+07         0.00000E+00
    0.00000E+00         0.00000E+00         0.00000E+00
 
    0.37369E+06         0.13784E+07         0.00000E+00
    0.13784E+07        -0.31743E+07         0.00000E+00
    0.00000E+00         0.00000E+00         0.00000E+00
 
    0.34784E+06         0.14133E+07         0.00000E+00
    0.14133E+07        -0.31632E+07         0.00000E+00
    0.00000E+00         0.00000E+00         0.00000E+00
 
    0.32169E+06         0.14480E+07         0.00000E+00
    0.14480E+07        -0.31518E+07         0.00000E+00
    0.00000E+00         0.00000E+00         0.00000E+00
 
    0.29525E+06         0.14825E+07         0.00000E+00
    0.14825E+07        -0.31401E+07         0.00000E+00
    0.00000E+00         0.00000E+00         0.00000E+00
 
    0.26851E+06         0.15169E+07         0.00000E+00
    0.15169E+07        -0.31281E+07         0.00000E+00
    0.00000E+00         0.00000E+00         0.00000E+00
 
    0.24148E+06         0.15511E+07         0.00000E+00
    0.15511E+07        -0.31159E+07         0.00000E+00
    0.00000E+00         0.00000E+00         0.00000E+00
 
    0.21416E+06         0.15851E+07         0.00000E+00
    0.15851E+07        -0.31034E+07         0.00000E+00
    0.00000E+00         0.00000E+00         0.00000E+00
 
    0.18655E+06         0.16189E+07         0.00000E+00
    0.16189E+07        -0.30905E+07         0.00000E+00
    0.00000E+00         0.00000E+00         0.00000E+00
 
    0.15864E+06         0.16525E+07         0.00000E+00
    0.16525E+07        -0.30774E+07         0.00000E+00
    0.00000E+00         0.00000E+00         0.00000E+00
 
    0.13044E+06         0.16860E+07         0.00000E+00
    0.16860E+07        -0.30640E+07         0.00000E+00
    0.00000E+00         0.00000E+00         0.00000E+00
 
    0.10196E+06         0.17192E+07         0.00000E+00
    0.17192E+07        -0.30503E+07         0.00000E+00
    0.00000E+00         0.00000E+00         0.00000E+00
 
    0.73177E+05         0.17523E+07         0.00000E+00
    0.17523E+07        -0.30364E+07         0.00000E+00
    0.00000E+00         0.00000E+00         0.00000E+00
 
    0.44109E+05         0.17852E+07         0.00000E+00
    0.17852E+07        -0.30221E+07         0.00000E+00
    0.00000E+00         0.00000E+00         0.00000E+00
 
    0.14751E+05         0.18178E+07         0.00000E+00
    0.18178E+07        -0.30076E+07         0.00000E+00
    0.00000E+00         0.00000E+00         0.00000E+00
 
    0.11414E+07         0.21041E+05         0.00000E+00
    0.21041E+05        -0.35426E+07         0.00000E+00
    0.00000E+00         0.00000E+00         0.00000E+00
 
    0.11260E+07         0.62766E+05         0.00000E+00
    0.62766E+05        -0.35422E+07         0.00000E+00
    0.00000E+00         0.00000E+00         0.00000E+00
 
    0.11103E+07         0.10436E+06         0.00000E+00
    0.10436E+06        -0.35416E+07         0.00000E+00
    0.00000E+00         0.00000E+00         0.00000E+00
 
    0.10943E+07         0.14582E+06         0.00000E+00
    0.14582E+06        -0.35406E+07         0.00000E+00
    0.00000E+00         0.00000E+00         0.00000E+00
 
    0.10779E+07         0.18715E+06         0.00000E+00
    0.18715E+06        -0.35393E+07         0.00000E+00
    0.00000E+00         0.00000E+00         0.00000E+00
 
    0.10612E+07         0.22835E+06         0.00000E+00
    0.22835E+06        -0.35377E+07         0.00000E+00
    0.00000E+00         0.00000E+00         0.00000E+00
 
    0.10442E+07         0.26941E+06         0.00000E+00
    0.26941E+06        -0.35358E+07         0.00000E+00
    0.00000E+00         0.00000E+00         0.00000E+00
 
    0.10269E+07         0.31033E+06         0.00000E+00
    0.31033E+06        -0.35336E+07         0.00000E+00
    0.00000E+00         0.00000E+00         0.00000E+00
 
    0.10092E+07         0.35112E+06         0.00000E+00
    0.35112E+06        -0.35310E+07         0.00000E+00
    0.00000E+00         0.00000E+00         0.00000E+00
 
    0.99119E+06         0.39178E+06         0.00000E+00
    0.39178E+06        -0.35282E+07         0.00000E+00
    0.00000E+00         0.00000E+00         0.00000E+00
 
    0.97287E+06         0.43229E+06         0.00000E+00
    0.43229E+06        -0.35250E+07         0.00000E+00
    0.00000E+00         0.00000E+00         0.00000E+00
 
    0.95422E+06         0.47267E+06         0.00000E+00
    0.47267E+06        -0.35215E+07         0.00000E+00
    0.00000E+00         0.00000E+00         0.00000E+00
 
    0.93526E+06         0.51291E+06         0.00000E+00
    0.51291E+06        -0.35177E+07         0.00000E+00
    0.00000E+00         0.00000E+00         0.00000E+00
 
    0.91598E+06         0.55300E+06         0.00000E+00
    0.55300E+06        -0.35136E+07         0.00000E+00
    0.00000E+00         0.00000E+00         0.00000E+00
 
    0.89638E+06         0.59296E+06         0.00000E+00
    0.59296E+06        -0.35092E+07         0.00000E+00
    0.00000E+00         0.00000E+00         0.00000E+00
 
    0.87646E+06         0.63277E+06         0.00000E+00
    0.63277E+06        -0.35044E+07         0.00000E+00
    0.00000E+00         0.00000E+00         0.00000E+00
 
    0.85622E+06         0.67244E+06         0.00000E+00
    0.67244E+06        -0.34994E+07         0.00000E+00
    0.00000E+00         0.00000E+00         0.00000E+00
 
    0.83567E+06         0.71196E+06         0.00000E+00
    0.71196E+06        -0.34940E+07         0.00000E+00
    0.00000E+00         0.00000E+00         0.00000E+00
 
    0.81481E+06         0.75134E+06         0.00000E+00
    0.75134E+06        -0.34884E+07         0.00000E+00
    0.00000E+00         0.00000E+00         0.00000E+00
 
    0.79363E+06         0.79057E+06         0.00000E+00
    0.79057E+06        -0.34824E+07         0.00000E+00
    0.00000E+00         0.00000E+00         0.00000E+00
 
    0.77213E+06         0.82965E+06         0.00000E+00
    0.82965E+06        -0.34761E+07         0.00000E+00
    0.00000E+00         0.00000E+00         0.00000E+00
 
    0.75033E+06         0.86859E+06         0.00000E+00
    0.86859E+06        -0.34695E+07         0.00000E+00
    0.00000E+00         0.00000E+00         0.00000E+00
 
    0.72821E+06         0.90737E+06         0.00000E+00
    0.90737E+06        -0.34626E+07         0.00000E+00
    0.00000E+00         0.00000E+00         0.00000E+00
 
    0.70578E+06         0.94600E+06         0.00000E+00
    0.94600E+06        -0.34554E+07         0.00000E+00
    0.00000E+00         0.00000E+00         0.00000E+00
 
    0.68305E+06         0.98448E+06         0.00000E+00
    0.98448E+06        -0.34479E+07         0.00000E+00
    0.00000E+00         0.00000E+00         0.00000E+00
 
    0.66000E+06         0.10228E+07         0.00000E+00
    0.10228E+07        -0.34401E+07         0.00000E+00
    0.00000E+00         0.00000E+00         0.00000E+00
 
    0.63664E+06         0.10610E+07         0.00000E+00
    0.10610E+07        -0.34320E+07         0.00000E+00
    0.00000E+00         0.00000E+00         0.00000E+00
 
    0.61298E+06         0.10990E+07         0.00000E+00
    0.10990E+07        -0.34236E+07         0.00000E+00
    0.00000E+00         0.00000E+00         0.00000E+00
 
    0.58900E+06         0.11368E+07         0.00000E+00
    0.11368E+07        -0.34149E+07         0.00000E+00
    0.00000E+00         0.00000E+00         0.00000E+00
 
    0.56472E+06         0.11745E+07         0.00000E+00
    0.11745E+07        -0.34059E+07         0.00000E+00
    0.00000E+00         0.00000E+00         0.00000E+00
 
    0.54013E+06         0.12121E+07         0.00000E+00
    0.12121E+07        -0.33966E+07         0.00000E+00
    0.00000E+00         0.00000E+00         0.00000E+00
 
    0.51524E+06         0.12494E+07         0.00000E+00
    0.12494E+07        -0.33869E+07         0.00000E+00
    0.00000E+00         0.00000E+00         0.00000E+00
 
    0.49004E+06         0.12867E+07         0.00000E+00
    0.12867E+07        -0.33770E+07         0.00000E+00
    0.00000E+00         0.00000E+00         0.00000E+00
 
    0.46454E+06         0.13237E+07         0.00000E+00
    0.13237E+07        -0.33668E+07         0.00000E+00
    0.00000E+00         0.00000E+00         0.00000E+00
 
    0.43873E+06         0.13606E+07         0.00000E+00
    0.13606E+07        -0.33563E+07         0.00000E+00
    0.00000E+00         0.00000E+00         0.00000E+00
 
    0.41261E+06         0.13973E+07         0.00000E+00
    0.13973E+07        -0.33454E+07         0.00000E+00
    0.00000E+00         0.00000E+00         0.00000E+00
 
    0.38619E+06         0.14338E+07         0.00000E+00
    0.14338E+07        -0.33343E+07         0.00000E+00
    0.00000E+00         0.00000E+00         0.00000E+00
 
    0.35947E+06         0.14702E+07         0.00000E+00
    0.14702E+07        -0.33229E+07         0.00000E+00
    0.00000E+00         0.00000E+00         0.00000E+00
 
    0.33245E+06         0.15064E+07         0.00000E+00
    0.15064E+07        -0.33111E+07         0.00000E+00
    0.00000E+00         0.00000E+00         0.00000E+00
 
    0.30512E+06         0.15424E+07         0.00000E+00
    0.15424E+07        -0.32991E+07         0.00000E+00
    0.00000E+00         0.00000E+00         0.00000E+00
 
    0.27749E+06         0.15782E+07         0.00000E+00
    0.15782E+07        -0.32868E+07         0.00000E+00
    0.00000E+00         0.00000E+00         0.00000E+00
 
    0.24955E+06         0.16139E+07         0.00000E+00
    0.16139E+07        -0.32741E+07         0.00000E+00
    0.00000E+00         0.00000E+00         0.00000E+00
 
    0.22132E+06         0.16494E+07         0.00000E+00
    0.16494E+07        -0.32612E+07         0.00000E+00
    0.00000E+00         0.00000E+00         0.00000E+00
 
    0.19278E+06         0.16846E+07         0.00000E+00
    0.16846E+07        -0.32480E+07         0.00000E+00
    0.00000E+00         0.00000E+00         0.00000E+00
 
    0.16394E+06         0.17198E+07         0.00000E+00
    0.17198E+07        -0.32344E+07         0.00000E+00
    0.00000E+00         0.00000E+00         0.00000E+00
 
    0.13480E+06         0.17547E+07         0.00000E+00
    0.17547E+07        -0.32206E+07         0.00000E+00
    0.00000E+00         0.00000E+00         0.00000E+00
 
    0.10536E+06         0.17894E+07         0.00000E+00
    0.17894E+07        -0.32065E+07         0.00000E+00
    0.00000E+00         0.00000E+00         0.00000E+00
 
    0.75623E+05         0.18240E+07         0.00000E+00
    0.18240E+07        -0.31920E+07         0.00000E+00
    0.00000E+00         0.00000E+00         0.00000E+00
 
    0.45584E+05         0.18583E+07         0.00000E+00
    0.18583E+07        -0.31773E+07         0.00000E+00
    0.00000E+00         0.00000E+00         0.00000E+00
 
    0.15244E+05         0.18925E+07         0.00000E+00
    0.18925E+07        -0.31623E+07         0.00000E+00
    0.00000E+00         0.00000E+00         0.00000E+00
 
    0.11812E+07         0.21848E+05         0.00000E+00
    0.21848E+05        -0.37158E+07         0.00000E+00
    0.00000E+00         0.00000E+00         0.00000E+00
 
    0.11651E+07         0.65175E+05         0.00000E+00
    0.65175E+05        -0.37154E+07         0.00000E+00
    0.00000E+00         0.00000E+00         0.00000E+00
 
    0.11487E+07         0.10837E+06         0.00000E+00
    0.10837E+06        -0.37148E+07         0.00000E+00
    0.00000E+00         0.00000E+00         0.00000E+00
 
    0.11320E+07         0.15143E+06         0.00000E+00
    0.15143E+06        -0.37138E+07         0.00000E+00
    0.00000E+00         0.00000E+00         0.00000E+00
 
    0.11150E+07         0.19435E+06         0.00000E+00
    0.19435E+06        -0.37125E+07         0.00000E+00
    0.00000E+00         0.00000E+00         0.00000E+00
 
    0.10976E+07         0.23713E+06         0.00000E+00
    0.23713E+06        -0.37108E+07         0.00000E+00
    0.00000E+00         0.00000E+00         0.00000E+00
 
    0.10799E+07         0.27978E+06         0.00000E+00
    0.27978E+06        -0.37089E+07         0.00000E+00
    0.00000E+00         0.00000E+00         0.00000E+00
 
    0.10619E+07         0.32229E+06         0.00000E+00
    0.32229E+06        -0.37066E+07         0.00000E+00
    0.00000E+00         0.00000E+00         0.00000E+00
 
    0.10435E+07         0.36466E+06         0.00000E+00
    0.36466E+06        -0.37040E+07         0.00000E+00
    0.00000E+00         0.00000E+00         0.00000E+00
 
    0.10248E+07         0.40689E+06         0.00000E+00
    0.40689E+06        -0.37010E+07         0.00000E+00
    0.00000E+00         0.00000E+00         0.00000E+00
 
    0.10058E+07         0.44898E+06         0.00000E+00
    0.44898E+06        -0.36978E+07         0.00000E+00
    0.00000E+00         0.00000E+00         0.00000E+00
 
    0.98642E+06         0.49093E+06         0.00000E+00
    0.49093E+06        -0.36942E+07         0.00000E+00
    0.00000E+00         0.00000E+00         0.00000E+00
 
    0.96674E+06         0.53274E+06         0.00000E+00
    0.53274E+06        -0.36903E+07         0.00000E+00
    0.00000E+00         0.00000E+00         0.00000E+00
 
    0.94674E+06         0.57440E+06         0.00000E+00
    0.57440E+06        -0.36861E+07         0.00000E+00
    0.00000E+00         0.00000E+00         0.00000E+00
 
    0.92641E+06         0.61592E+06         0.00000E+00
    0.61592E+06        -0.36816E+07         0.00000E+00
    0.00000E+00         0.00000E+00         0.00000E+00
 
    0.90576E+06         0.65730E+06         0.00000E+00
    0.65730E+06        -0.36767E+07         0.00000E+00
    0.00000E+00         0.00000E+00         0.00000E+00
 
    0.88479E+06         0.69853E+06         0.00000E+00
    0.69853E+06        -0.36715E+07         0.00000E+00
    0.00000E+00         0.00000E+00         0.00000E+00
 
    0.86350E+06         0.73961E+06         0.00000E+00
    0.73961E+06        -0.36660E+07         0.00000E+00
    0.00000E+00         0.00000E+00         0.00000E+00
 
    0.84189E+06         0.78055E+06         0.00000E+00
    0.78055E+06        -0.36602E+07         0.00000E+00
    0.00000E+00         0.00000E+00         0.00000E+00
 
    0.81996E+06         0.82134E+06         0.00000E+00
    0.82134E+06        -0.36541E+07         0.00000E+00
    0.00000E+00         0.00000E+00         0.00000E+00
 
    0.79771E+06         0.86198E+06         0.00000E+00
    0.86198E+06        -0.36477E+07         0.00000E+00
    0.00000E+00         0.00000E+00         0.00000E+00
 
    0.77514E+06         0.90246E+06         0.00000E+00
    0.90246E+06        -0.36409E+07         0.00000E+00
    0.00000E+00         0.00000E+00         0.00000E+00
 
    0.75225E+06         0.94280E+06         0.00000E+00
    0.94280E+06        -0.36338E+07         0.00000E+00
    0.00000E+00         0.00000E+00         0.00000E+00
 
    0.72905E+06         0.98298E+06         0.00000E+00
    0.98298E+06        -0.36264E+07         0.00000E+00
    0.00000E+00         0.00000E+00         0.00000E+00
 
    0.70553E+06         0.10230E+07         0.00000E+00
    0.10230E+07        -0.36187E+07         0.00000E+00
    0.00000E+00         0.00000E+00         0.00000E+00
 
    0.68169E+06         0.10629E+07         0.00000E+00
    0.10629E+07        -0.36107E+07         0.00000E+00
    0.00000E+00         0.00000E+00         0.00000E+00
 
    0.65754E+06         0.11026E+07         0.00000E+00
    0.11026E+07        -0.36024E+07         0.00000E+00
    0.00000E+00         0.00000E+00         0.00000E+00
 
    0.63308E+06         0.11422E+07         0.00000E+00
    0.11422E+07        -0.35938E+07         0.00000E+00
    0.00000E+00         0.00000E+00         0.00000E+00
 
    0.60829E+06         0.11816E+07         0.00000E+00
    0.11816E+07        -0.35848E+07         0.00000E+00
    0.00000E+00         0.00000E+00         0.00000E+00
 
    0.58320E+06         0.12208E+07         0.00000E+00
    0.12208E+07        -0.35755E+07         0.00000E+00
    0.00000E+00         0.00000E+00         0.00000E+00
 
    0.55779E+06         0.12599E+07         0.00000E+00
    0.12599E+07        -0.35659E+07         0.00000E+00
    0.00000E+00         0.00000E+00         0.00000E+00
 
    0.53207E+06         0.12988E+07         0.00000E+00
    0.12988E+07        -0.35560E+07         0.00000E+00
    0.00000E+00         0.00000E+00         0.00000E+00
 
    0.50603E+06         0.13376E+07         0.00000E+00
    0.13376E+07        -0.35458E+07         0.00000E+00
    0.00000E+00         0.00000E+00         0.00000E+00
 
    0.47968E+06         0.13761E+07         0.00000E+00
    0.13761E+07        -0.35353E+07         0.00000E+00
    0.00000E+00         0.00000E+00         0.00000E+00
 
    0.45302E+06         0.14146E+07         0.00000E+00
    0.14146E+07        -0.35245E+07         0.00000E+00
    0.00000E+00         0.00000E+00         0.00000E+00
 
    0.42605E+06         0.14528E+07         0.00000E+00
    0.14528E+07        -0.35133E+07         0.00000E+00
    0.00000E+00         0.00000E+00         0.00000E+00
 
    0.39876E+06         0.14909E+07         0.00000E+00
    0.14909E+07        -0.35019E+07         0.00000E+00
    0.00000E+00         0.00000E+00         0.00000E+00
 
    0.37117E+06         0.15288E+07         0.00000E+00
    0.15288E+07        -0.34901E+07         0.00000E+00
    0.00000E+00         0.00000E+00         0.00000E+00
 
    0.34326E+06         0.15665E+07         0.00000E+00
    0.15665E+07        -0.34780E+07         0.00000E+00
    0.00000E+00         0.00000E+00         0.00000E+00
 
    0.31504E+06         0.16041E+07         0.00000E+00
    0.16041E+07        -0.34656E+07         0.00000E+00
    0.00000E+00         0.00000E+00         0.00000E+00
 
    0.28651E+06         0.16415E+07         0.00000E+00
    0.16415E+07        -0.34529E+07         0.00000E+00
    0.00000E+00         0.00000E+00         0.00000E+00
 
    0.25766E+06         0.16787E+07         0.00000E+00
    0.16787E+07        -0.34399E+07         0.00000E+00
    0.00000E+00         0.00000E+00         0.00000E+00
 
    0.22851E+06         0.17157E+07         0.00000E+00
    0.17157E+07        -0.34266E+07         0.00000E+00
    0.00000E+00         0.00000E+00         0.00000E+00
 
    0.19905E+06         0.17525E+07         0.00000E+00
    0.17525E+07        -0.34129E+07         0.00000E+00
    0.00000E+00         0.00000E+00         0.00000E+00
 
    0.16927E+06         0.17892E+07         0.00000E+00
    0.17892E+07        -0.33990E+07         0.00000E+00
    0.00000E+00         0.00000E+00         0.00000E+00
 
    0.13918E+06         0.18256E+07         0.00000E+00
    0.18256E+07        -0.33847E+07         0.00000E+00
    0.00000E+00         0.00000E+00         0.00000E+00
 
    0.10879E+06         0.18619E+07         0.00000E+00
    0.18619E+07        -0.33702E+07         0.00000E+00
    0.00000E+00         0.00000E+00         0.00000E+00
 
    0.78083E+05         0.18980E+07         0.00000E+00
    0.18980E+07        -0.33553E+07         0.00000E+00
    0.00000E+00         0.00000E+00         0.00000E+00
 
    0.47067E+05         0.19338E+07         0.00000E+00
    0.19338E+07        -0.33401E+07         0.00000E+00
    0.00000E+00         0.00000E+00         0.00000E+00
 
    0.15740E+05         0.19695E+07         0.00000E+00
    0.19695E+07        -0.33246E+07         0.00000E+00
    0.00000E+00         0.00000E+00         0.00000E+00
 
    0.12212E+07         0.22675E+05         0.00000E+00
    0.22675E+05        -0.38968E+07         0.00000E+00
    0.00000E+00         0.00000E+00         0.00000E+00
 
    0.12045E+07         0.67647E+05         0.00000E+00
    0.67647E+05        -0.38964E+07         0.00000E+00
    0.00000E+00         0.00000E+00         0.00000E+00
 
    0.11875E+07         0.11248E+06         0.00000E+00
    0.11248E+06        -0.38958E+07         0.00000E+00
    0.00000E+00         0.00000E+00         0.00000E+00
 
    0.11701E+07         0.15718E+06         0.00000E+00
    0.15718E+06        -0.38948E+07         0.00000E+00
    0.00000E+00         0.00000E+00         0.00000E+00
 
    0.11523E+07         0.20173E+06         0.00000E+00
    0.20173E+06        -0.38934E+07         0.00000E+00
    0.00000E+00         0.00000E+00         0.00000E+00
 
    0.11343E+07         0.24615E+06         0.00000E+00
    0.24615E+06        -0.38917E+07         0.00000E+00
    0.00000E+00         0.00000E+00         0.00000E+00
 
    0.11158E+07         0.29042E+06         0.00000E+00
    0.29042E+06        -0.38897E+07         0.00000E+00
    0.00000E+00         0.00000E+00         0.00000E+00
 
    0.10971E+07         0.33456E+06         0.00000E+00
    0.33456E+06        -0.38874E+07         0.00000E+00
    0.00000E+00         0.00000E+00         0.00000E+00
 
    0.10780E+07         0.37855E+06         0.00000E+00
    0.37855E+06        -0.38847E+07         0.00000E+00
    0.00000E+00         0.00000E+00         0.00000E+00
 
    0.10586E+07         0.42240E+06         0.00000E+00
    0.42240E+06        -0.38817E+07         0.00000E+00
    0.00000E+00         0.00000E+00         0.00000E+00
 
    0.10389E+07         0.46611E+06         0.00000E+00
    0.46611E+06        -0.38784E+07         0.00000E+00
    0.00000E+00         0.00000E+00         0.00000E+00
 
    0.10188E+07         0.50968E+06         0.00000E+00
    0.50968E+06        -0.38747E+07         0.00000E+00
    0.00000E+00         0.00000E+00         0.00000E+00
 
    0.99838E+06         0.55310E+06         0.00000E+00
    0.55310E+06        -0.38707E+07         0.00000E+00
    0.00000E+00         0.00000E+00         0.00000E+00
 
    0.97765E+06         0.59637E+06         0.00000E+00
    0.59637E+06        -0.38664E+07         0.00000E+00
    0.00000E+00         0.00000E+00         0.00000E+00
 
    0.95659E+06         0.63950E+06         0.00000E+00
    0.63950E+06        -0.38618E+07         0.00000E+00
    0.00000E+00         0.00000E+00         0.00000E+00
 
    0.93520E+06         0.68249E+06         0.00000E+00
    0.68249E+06        -0.38568E+07         0.00000E+00
    0.00000E+00         0.00000E+00         0.00000E+00
 
    0.91348E+06         0.72533E+06         0.00000E+00
    0.72533E+06        -0.38515E+07         0.00000E+00
    0.00000E+00         0.00000E+00         0.00000E+00
 
    0.89144E+06         0.76802E+06         0.00000E+00
    0.76802E+06        -0.38459E+07         0.00000E+00
    0.00000E+00         0.00000E+00         0.00000E+00
 
    0.86908E+06         0.81056E+06         0.00000E+00
    0.81056E+06        -0.38399E+07         0.00000E+00
    0.00000E+00         0.00000E+00         0.00000E+00
 
    0.84639E+06         0.85295E+06         0.00000E+00
    0.85295E+06        -0.38336E+07         0.00000E+00
    0.00000E+00         0.00000E+00         0.00000E+00
 
    0.82337E+06         0.89519E+06         0.00000E+00
    0.89519E+06        -0.38270E+07         0.00000E+00
    0.00000E+00         0.00000E+00         0.00000E+00
 
    0.80003E+06         0.93728E+06         0.00000E+00
    0.93728E+06        -0.38201E+07         0.00000E+00
    0.00000E+00         0.00000E+00         0.00000E+00
 
    0.77637E+06         0.97922E+06         0.00000E+00
    0.97922E+06        -0.38129E+07         0.00000E+00
    0.00000E+00         0.00000E+00         0.00000E+00
 
    0.75239E+06         0.10210E+07         0.00000E+00
    0.10210E+07        -0.38053E+07         0.00000E+00
    0.00000E+00         0.00000E+00         0.00000E+00
 
    0.72808E+06         0.10626E+07         0.00000E+00
    0.10626E+07        -0.37974E+07         0.00000E+00
    0.00000E+00         0.00000E+00         0.00000E+00
 
    0.70345E+06         0.11041E+07         0.00000E+00
    0.11041E+07        -0.37892E+07         0.00000E+00
    0.00000E+00         0.00000E+00         0.00000E+00
 
    0.67850E+06         0.11454E+07         0.00000E+00
    0.11454E+07        -0.37806E+07         0.00000E+00
    0.00000E+00         0.00000E+00         0.00000E+00
 
    0.65323E+06         0.11866E+07         0.00000E+00
    0.11866E+07        -0.37717E+07         0.00000E+00
    0.00000E+00         0.00000E+00         0.00000E+00
 
    0.62764E+06         0.12276E+07         0.00000E+00
    0.12276E+07        -0.37626E+07         0.00000E+00
    0.00000E+00         0.00000E+00         0.00000E+00
 
    0.60172E+06         0.12684E+07         0.00000E+00
    0.12684E+07        -0.37530E+07         0.00000E+00
    0.00000E+00         0.00000E+00         0.00000E+00
 
    0.57549E+06         0.13091E+07         0.00000E+00
    0.13091E+07        -0.37432E+07         0.00000E+00
    0.00000E+00         0.00000E+00         0.00000E+00
 
    0.54893E+06         0.13496E+07         0.00000E+00
    0.13496E+07        -0.37330E+07         0.00000E+00
    0.00000E+00         0.00000E+00         0.00000E+00
 
    0.52206E+06         0.13900E+07         0.00000E+00
    0.13900E+07        -0.37225E+07         0.00000E+00
    0.00000E+00         0.00000E+00         0.00000E+00
 
    0.49486E+06         0.14301E+07         0.00000E+00
    0.14301E+07        -0.37117E+07         0.00000E+00
    0.00000E+00         0.00000E+00         0.00000E+00
 
    0.46735E+06         0.14702E+07         0.00000E+00
    0.14702E+07        -0.37006E+07         0.00000E+00
    0.00000E+00         0.00000E+00         0.00000E+00
 
    0.43951E+06         0.15100E+07         0.00000E+00
    0.15100E+07        -0.36891E+07         0.00000E+00
    0.00000E+00         0.00000E+00         0.00000E+00
 
    0.41136E+06         0.15497E+07         0.00000E+00
    0.15497E+07        -0.36774E+07         0.00000E+00
    0.00000E+00         0.00000E+00         0.00000E+00
 
    0.38289E+06         0.15892E+07         0.00000E+00
    0.15892E+07        -0.36653E+07         0.00000E+00
    0.00000E+00         0.00000E+00         0.00000E+00
 
    0.35409E+06         0.16285E+07         0.00000E+00
    0.16285E+07        -0.36528E+07         0.00000E+00
    0.00000E+00         0.00000E+00         0.00000E+00
 
    0.32498E+06         0.16677E+07         0.00000E+00
    0.16677E+07        -0.36401E+07         0.00000E+00
    0.00000E+00         0.00000E+00         0.00000E+00
 
    0.29554E+06         0.17066E+07         0.00000E+00
    0.17066E+07        -0.36270E+07         0.00000E+00
    0.00000E+00         0.00000E+00         0.00000E+00
 
    0.26579E+06         0.17454E+07         0.00000E+00
    0.17454E+07        -0.36136E+07         0.00000E+00
    0.00000E+00         0.00000E+00         0.00000E+00
 
    0.23572E+06         0.17840E+07         0.00000E+00
    0.17840E+07        -0.35999E+07         0.00000E+00
    0.00000E+00         0.00000E+00         0.00000E+00
 
    0.20532E+06         0.18225E+07         0.00000E+00
    0.18225E+07        -0.35858E+07         0.00000E+00
    0.00000E+00         0.00000E+00         0.00000E+00
 
    0.17461E+06         0.18607E+07         0.00000E+00
    0.18607E+07        -0.35715E+07         0.00000E+00
    0.00000E+00         0.00000E+00         0.00000E+00
 
    0.14357E+06         0.18988E+07         0.00000E+00
    0.18988E+07        -0.35568E+07         0.00000E+00
    0.00000E+00         0.00000E+00         0.00000E+00
 
    0.11222E+06         0.19366E+07         0.00000E+00
    0.19366E+07        -0.35418E+07         0.00000E+00
    0.00000E+00         0.00000E+00         0.00000E+00
 
    0.80547E+05         0.19743E+07         0.00000E+00
    0.19743E+07        -0.35264E+07         0.00000E+00
    0.00000E+00         0.00000E+00         0.00000E+00
 
    0.48552E+05         0.20118E+07         0.00000E+00
    0.20118E+07        -0.35107E+07         0.00000E+00
    0.00000E+00         0.00000E+00         0.00000E+00
 
    0.16238E+05         0.20491E+07         0.00000E+00
    0.20491E+07        -0.34948E+07         0.00000E+00
    0.00000E+00         0.00000E+00         0.00000E+00
 
    0.12616E+07         0.23523E+05         0.00000E+00
    0.23523E+05        -0.40859E+07         0.00000E+00
    0.00000E+00         0.00000E+00         0.00000E+00
 
    0.12441E+07         0.70180E+05         0.00000E+00
    0.70180E+05        -0.40855E+07         0.00000E+00
    0.00000E+00         0.00000E+00         0.00000E+00
 
    0.12264E+07         0.11670E+06         0.00000E+00
    0.11670E+06        -0.40848E+07         0.00000E+00
    0.00000E+00         0.00000E+00         0.00000E+00
 
    0.12083E+07         0.16307E+06         0.00000E+00
    0.16307E+06        -0.40838E+07         0.00000E+00
    0.00000E+00         0.00000E+00         0.00000E+00
 
    0.11898E+07         0.20930E+06         0.00000E+00
    0.20930E+06        -0.40824E+07         0.00000E+00
    0.00000E+00         0.00000E+00         0.00000E+00
 
    0.11710E+07         0.25539E+06         0.00000E+00
    0.25539E+06        -0.40807E+07         0.00000E+00
    0.00000E+00         0.00000E+00         0.00000E+00
 
    0.11519E+07         0.30133E+06         0.00000E+00
    0.30133E+06        -0.40787E+07         0.00000E+00
    0.00000E+00         0.00000E+00         0.00000E+00
 
    0.11324E+07         0.34713E+06         0.00000E+00
    0.34713E+06        -0.40763E+07         0.00000E+00
    0.00000E+00         0.00000E+00         0.00000E+00
 
    0.11126E+07         0.39279E+06         0.00000E+00
    0.39279E+06        -0.40736E+07         0.00000E+00
    0.00000E+00         0.00000E+00         0.00000E+00
 
    0.10925E+07         0.43831E+06         0.00000E+00
    0.43831E+06        -0.40705E+07         0.00000E+00
    0.00000E+00         0.00000E+00         0.00000E+00
 
    0.10720E+07         0.48368E+06         0.00000E+00
    0.48368E+06        -0.40671E+07         0.00000E+00
    0.00000E+00         0.00000E+00         0.00000E+00
 
    0.10512E+07         0.52890E+06         0.00000E+00
    0.52890E+06        -0.40633E+07         0.00000E+00
    0.00000E+00         0.00000E+00         0.00000E+00
 
    0.10301E+07         0.57398E+06         0.00000E+00
    0.57398E+06        -0.40593E+07         0.00000E+00
    0.00000E+00         0.00000E+00         0.00000E+00
 
    0.10086E+07         0.61891E+06         0.00000E+00
    0.61891E+06        -0.40548E+07         0.00000E+00
    0.00000E+00         0.00000E+00         0.00000E+00
 
    0.98681E+06         0.66369E+06         0.00000E+00
    0.66369E+06        -0.40501E+07         0.00000E+00
    0.00000E+00         0.00000E+00         0.00000E+00
 
    0.96467E+06         0.70833E+06         0.00000E+00
    0.70833E+06        -0.40450E+07         0.00000E+00
    0.00000E+00         0.00000E+00         0.00000E+00
 
    0.94221E+06         0.75282E+06         0.00000E+00
    0.75282E+06        -0.40396E+07         0.00000E+00
    0.00000E+00         0.00000E+00         0.00000E+00
 
    0.91941E+06         0.79716E+06         0.00000E+00
    0.79716E+06        -0.40338E+07         0.00000E+00
    0.00000E+00         0.00000E+00         0.00000E+00
 
    0.89628E+06         0.84135E+06         0.00000E+00
    0.84135E+06        -0.40278E+07         0.00000E+00
    0.00000E+00         0.00000E+00         0.00000E+00
 
    0.87283E+06         0.88539E+06         0.00000E+00
    0.88539E+06        -0.40213E+07         0.00000E+00
    0.00000E+00         0.00000E+00         0.00000E+00
 
    0.84904E+06         0.92928E+06         0.00000E+00
    0.92928E+06        -0.40146E+07         0.00000E+00
    0.00000E+00         0.00000E+00         0.00000E+00
 
    0.82493E+06         0.97302E+06         0.00000E+00
    0.97302E+06        -0.40075E+07         0.00000E+00
    0.00000E+00         0.00000E+00         0.00000E+00
 
    0.80048E+06         0.10166E+07         0.00000E+00
    0.10166E+07        -0.40001E+07         0.00000E+00
    0.00000E+00         0.00000E+00         0.00000E+00
 
    0.77572E+06         0.10600E+07         0.00000E+00
    0.10600E+07        -0.39923E+07         0.00000E+00
    0.00000E+00         0.00000E+00         0.00000E+00
 
    0.75062E+06         0.11033E+07         0.00000E+00
    0.11033E+07        -0.39842E+07         0.00000E+00
    0.00000E+00         0.00000E+00         0.00000E+00
 
    0.72519E+06         0.11464E+07         0.00000E+00
    0.11464E+07        -0.39758E+07         0.00000E+00
    0.00000E+00         0.00000E+00         0.00000E+00
 
    0.69944E+06         0.11894E+07         0.00000E+00
    0.11894E+07        -0.39670E+07         0.00000E+00
    0.00000E+00         0.00000E+00         0.00000E+00
 
    0.67336E+06         0.12322E+07         0.00000E+00
    0.12322E+07        -0.39579E+07         0.00000E+00
    0.00000E+00         0.00000E+00         0.00000E+00
 
    0.64696E+06         0.12748E+07         0.00000E+00
    0.12748E+07        -0.39485E+07         0.00000E+00
    0.00000E+00         0.00000E+00         0.00000E+00
 
    0.62022E+06         0.13173E+07         0.00000E+00
    0.13173E+07        -0.39388E+07         0.00000E+00
    0.00000E+00         0.00000E+00         0.00000E+00
 
    0.59316E+06         0.13597E+07         0.00000E+00
    0.13597E+07        -0.39287E+07         0.00000E+00
    0.00000E+00         0.00000E+00         0.00000E+00
 
    0.56578E+06         0.14018E+07         0.00000E+00
    0.14018E+07        -0.39182E+07         0.00000E+00
    0.00000E+00         0.00000E+00         0.00000E+00
 
    0.53806E+06         0.14438E+07         0.00000E+00
    0.14438E+07        -0.39075E+07         0.00000E+00
    0.00000E+00         0.00000E+00         0.00000E+00
 
    0.51002E+06         0.14857E+07         0.00000E+00
    0.14857E+07        -0.38964E+07         0.00000E+00
    0.00000E+00         0.00000E+00         0.00000E+00
 
    0.48165E+06         0.15273E+07         0.00000E+00
    0.15273E+07        -0.38850E+07         0.00000E+00
    0.00000E+00         0.00000E+00         0.00000E+00
 
    0.45296E+06         0.15688E+07         0.00000E+00
    0.15688E+07        -0.38732E+07         0.00000E+00
    0.00000E+00         0.00000E+00         0.00000E+00
 
    0.42393E+06         0.16101E+07         0.00000E+00
    0.16101E+07        -0.38611E+07         0.00000E+00
    0.00000E+00         0.00000E+00         0.00000E+00
 
    0.39458E+06         0.16513E+07         0.00000E+00
    0.16513E+07        -0.38487E+07         0.00000E+00
    0.00000E+00         0.00000E+00         0.00000E+00
 
    0.36491E+06         0.16923E+07         0.00000E+00
    0.16923E+07        -0.38359E+07         0.00000E+00
    0.00000E+00         0.00000E+00         0.00000E+00
 
    0.33490E+06         0.17331E+07         0.00000E+00
    0.17331E+07        -0.38228E+07         0.00000E+00
    0.00000E+00         0.00000E+00         0.00000E+00
 
    0.30456E+06         0.17737E+07         0.00000E+00
    0.17737E+07        -0.38093E+07         0.00000E+00
    0.00000E+00         0.00000E+00         0.00000E+00
 
    0.27390E+06         0.18142E+07         0.00000E+00
    0.18142E+07        -0.37956E+07         0.00000E+00
    0.00000E+00         0.00000E+00         0.00000E+00
 
    0.24291E+06         0.18544E+07         0.00000E+00
    0.18544E+07        -0.37815E+07         0.00000E+00
    0.00000E+00         0.00000E+00         0.00000E+00
 
    0.21159E+06         0.18945E+07         0.00000E+00
    0.18945E+07        -0.37670E+07         0.00000E+00
    0.00000E+00         0.00000E+00         0.00000E+00
 
    0.17994E+06         0.19344E+07         0.00000E+00
    0.19344E+07        -0.37522E+07         0.00000E+00
    0.00000E+00         0.00000E+00         0.00000E+00
 
    0.14796E+06         0.19741E+07         0.00000E+00
    0.19741E+07        -0.37371E+07         0.00000E+00
    0.00000E+00         0.00000E+00         0.00000E+00
 
    0.11565E+06         0.20137E+07         0.00000E+00
    0.20137E+07        -0.37216E+07         0.00000E+00
    0.00000E+00         0.00000E+00         0.00000E+00
 
    0.83007E+05         0.20530E+07         0.00000E+00
    0.20530E+07        -0.37058E+07         0.00000E+00
    0.00000E+00         0.00000E+00         0.00000E+00
 
    0.50036E+05         0.20921E+07         0.00000E+00
    0.20921E+07        -0.36897E+07         0.00000E+00
    0.00000E+00         0.00000E+00         0.00000E+00
 
    0.16734E+05         0.21311E+07         0.00000E+00
    0.21311E+07        -0.36732E+07         0.00000E+00
    0.00000E+00         0.00000E+00         0.00000E+00
 
    0.13020E+07         0.24390E+05         0.00000E+00
    0.24390E+05        -0.42834E+07         0.00000E+00
    0.00000E+00         0.00000E+00         0.00000E+00
 
    0.12838E+07         0.72771E+05         0.00000E+00
    0.72771E+05        -0.42831E+07         0.00000E+00
    0.00000E+00         0.00000E+00         0.00000E+00
 
    0.12654E+07         0.12101E+06         0.00000E+00
    0.12101E+06        -0.42824E+07         0.00000E+00
    0.00000E+00         0.00000E+00         0.00000E+00
 
    0.12465E+07         0.16910E+06         0.00000E+00
    0.16910E+06        -0.42813E+07         0.00000E+00
    0.00000E+00         0.00000E+00         0.00000E+00
 
    0.12274E+07         0.21704E+06         0.00000E+00
    0.21704E+06        -0.42799E+07         0.00000E+00
    0.00000E+00         0.00000E+00         0.00000E+00
 
    0.12078E+07         0.26484E+06         0.00000E+00
    0.26484E+06        -0.42782E+07         0.00000E+00
    0.00000E+00         0.00000E+00         0.00000E+00
 
    0.11880E+07         0.31250E+06         0.00000E+00
    0.31250E+06        -0.42761E+07         0.00000E+00
    0.00000E+00         0.00000E+00         0.00000E+00
 
    0.11678E+07         0.36001E+06         0.00000E+00
    0.36001E+06        -0.42736E+07         0.00000E+00
    0.00000E+00         0.00000E+00         0.00000E+00
 
    0.11473E+07         0.40737E+06         0.00000E+00
    0.40737E+06        -0.42708E+07         0.00000E+00
    0.00000E+00         0.00000E+00         0.00000E+00
 
    0.11264E+07         0.45459E+06         0.00000E+00
    0.45459E+06        -0.42677E+07         0.00000E+00
    0.00000E+00         0.00000E+00         0.00000E+00
 
    0.11052E+07         0.50166E+06         0.00000E+00
    0.50166E+06        -0.42642E+07         0.00000E+00
    0.00000E+00         0.00000E+00         0.00000E+00
 
    0.10836E+07         0.54859E+06         0.00000E+00
    0.54859E+06        -0.42604E+07         0.00000E+00
    0.00000E+00         0.00000E+00         0.00000E+00
 
    0.10617E+07         0.59536E+06         0.00000E+00
    0.59536E+06        -0.42563E+07         0.00000E+00
    0.00000E+00         0.00000E+00         0.00000E+00
 
    0.10395E+07         0.64199E+06         0.00000E+00
    0.64199E+06        -0.42518E+07         0.00000E+00
    0.00000E+00         0.00000E+00         0.00000E+00
 
    0.10170E+07         0.68848E+06         0.00000E+00
    0.68848E+06        -0.42469E+07         0.00000E+00
    0.00000E+00         0.00000E+00         0.00000E+00
 
    0.99407E+06         0.73481E+06         0.00000E+00
    0.73481E+06        -0.42417E+07         0.00000E+00
    0.00000E+00         0.00000E+00         0.00000E+00
 
    0.97085E+06         0.78099E+06         0.00000E+00
    0.78099E+06        -0.42362E+07         0.00000E+00
    0.00000E+00         0.00000E+00         0.00000E+00
 
    0.94729E+06         0.82703E+06         0.00000E+00
    0.82703E+06        -0.42303E+07         0.00000E+00
    0.00000E+00         0.00000E+00         0.00000E+00
 
    0.92340E+06         0.87291E+06         0.00000E+00
    0.87291E+06        -0.42241E+07         0.00000E+00
    0.00000E+00         0.00000E+00         0.00000E+00
 
    0.89917E+06         0.91865E+06         0.00000E+00
    0.91865E+06        -0.42175E+07         0.00000E+00
    0.00000E+00         0.00000E+00         0.00000E+00
 
    0.87462E+06         0.96423E+06         0.00000E+00
    0.96423E+06        -0.42106E+07         0.00000E+00
    0.00000E+00         0.00000E+00         0.00000E+00
 
    0.84972E+06         0.10097E+07         0.00000E+00
    0.10097E+07        -0.42034E+07         0.00000E+00
    0.00000E+00         0.00000E+00         0.00000E+00
 
    0.82450E+06         0.10549E+07         0.00000E+00
    0.10549E+07        -0.41958E+07         0.00000E+00
    0.00000E+00         0.00000E+00         0.00000E+00
 
    0.79895E+06         0.11001E+07         0.00000E+00
    0.11001E+07        -0.41878E+07         0.00000E+00
    0.00000E+00         0.00000E+00         0.00000E+00
 
    0.77306E+06         0.11450E+07         0.00000E+00
    0.11450E+07        -0.41796E+07         0.00000E+00
    0.00000E+00         0.00000E+00         0.00000E+00
 
    0.74684E+06         0.11899E+07         0.00000E+00
    0.11899E+07        -0.41709E+07         0.00000E+00
    0.00000E+00         0.00000E+00         0.00000E+00
 
    0.72028E+06         0.12345E+07         0.00000E+00
    0.12345E+07        -0.41620E+07         0.00000E+00
    0.00000E+00         0.00000E+00         0.00000E+00
 
    0.69340E+06         0.12790E+07         0.00000E+00
    0.12790E+07        -0.41527E+07         0.00000E+00
    0.00000E+00         0.00000E+00         0.00000E+00
 
    0.66618E+06         0.13234E+07         0.00000E+00
    0.13234E+07        -0.41430E+07         0.00000E+00
    0.00000E+00         0.00000E+00         0.00000E+00
 
    0.63863E+06         0.13675E+07         0.00000E+00
    0.13675E+07        -0.41330E+07         0.00000E+00
    0.00000E+00         0.00000E+00         0.00000E+00
 
    0.61074E+06         0.14116E+07         0.00000E+00
    0.14116E+07        -0.41227E+07         0.00000E+00
    0.00000E+00         0.00000E+00         0.00000E+00
 
    0.58253E+06         0.14554E+07         0.00000E+00
    0.14554E+07        -0.41120E+07         0.00000E+00
    0.00000E+00         0.00000E+00         0.00000E+00
 
    0.55398E+06         0.14991E+07         0.00000E+00
    0.14991E+07        -0.41010E+07         0.00000E+00
    0.00000E+00         0.00000E+00         0.00000E+00
 
    0.52509E+06         0.15427E+07         0.00000E+00
    0.15427E+07        -0.40896E+07         0.00000E+00
    0.00000E+00         0.00000E+00         0.00000E+00
 
    0.49587E+06         0.15860E+07         0.00000E+00
    0.15860E+07        -0.40779E+07         0.00000E+00
    0.00000E+00         0.00000E+00         0.00000E+00
 
    0.46632E+06         0.16292E+07         0.00000E+00
    0.16292E+07        -0.40658E+07         0.00000E+00
    0.00000E+00         0.00000E+00         0.00000E+00
 
    0.43643E+06         0.16723E+07         0.00000E+00
    0.16723E+07        -0.40534E+07         0.00000E+00
    0.00000E+00         0.00000E+00         0.00000E+00
 
    0.40621E+06         0.17151E+07         0.00000E+00
    0.17151E+07        -0.40407E+07         0.00000E+00
    0.00000E+00         0.00000E+00         0.00000E+00
 
    0.37565E+06         0.17578E+07         0.00000E+00
    0.17578E+07        -0.40276E+07         0.00000E+00
    0.00000E+00         0.00000E+00         0.00000E+00
 
    0.34476E+06         0.18003E+07         0.00000E+00
    0.18003E+07        -0.40141E+07         0.00000E+00
    0.00000E+00         0.00000E+00         0.00000E+00
 
    0.31353E+06         0.18427E+07         0.00000E+00
    0.18427E+07        -0.40003E+07         0.00000E+00
    0.00000E+00         0.00000E+00         0.00000E+00
 
    0.28196E+06         0.18848E+07         0.00000E+00
    0.18848E+07        -0.39862E+07         0.00000E+00
    0.00000E+00         0.00000E+00         0.00000E+00
 
    0.25006E+06         0.19268E+07         0.00000E+00
    0.19268E+07        -0.39717E+07         0.00000E+00
    0.00000E+00         0.00000E+00         0.00000E+00
 
    0.21782E+06         0.19686E+07         0.00000E+00
    0.19686E+07        -0.39568E+07         0.00000E+00
    0.00000E+00         0.00000E+00         0.00000E+00
 
    0.18523E+06         0.20102E+07         0.00000E+00
    0.20102E+07        -0.39416E+07         0.00000E+00
    0.00000E+00         0.00000E+00         0.00000E+00
 
    0.15231E+06         0.20517E+07         0.00000E+00
    0.20517E+07        -0.39261E+07         0.00000E+00
    0.00000E+00         0.00000E+00         0.00000E+00
 
    0.11905E+06         0.20929E+07         0.00000E+00
    0.20929E+07        -0.39102E+07         0.00000E+00
    0.00000E+00         0.00000E+00         0.00000E+00
 
    0.85452E+05         0.21340E+07         0.00000E+00
    0.21340E+07        -0.38939E+07         0.00000E+00
    0.00000E+00         0.00000E+00         0.00000E+00
 
    0.51510E+05         0.21749E+07         0.00000E+00
    0.21749E+07        -0.38773E+07         0.00000E+00
    0.00000E+00         0.00000E+00         0.00000E+00
 
    0.17227E+05         0.22155E+07         0.00000E+00
    0.22155E+07        -0.38604E+07         0.00000E+00
    0.00000E+00         0.00000E+00         0.00000E+00
 
    0.13423E+07         0.25275E+05         0.00000E+00
    0.25275E+05        -0.44897E+07         0.00000E+00
    0.00000E+00         0.00000E+00         0.00000E+00
 
    0.13235E+07         0.75418E+05         0.00000E+00
    0.75418E+05        -0.44894E+07         0.00000E+00
    0.00000E+00         0.00000E+00         0.00000E+00
 
    0.13043E+07         0.12541E+06         0.00000E+00
    0.12541E+06        -0.44886E+07         0.00000E+00
    0.00000E+00         0.00000E+00         0.00000E+00
 
    0.12847E+07         0.17526E+06         0.00000E+00
    0.17526E+06        -0.44876E+07         0.00000E+00
    0.00000E+00         0.00000E+00         0.00000E+00
 
    0.12648E+07         0.22496E+06         0.00000E+00
    0.22496E+06        -0.44861E+07         0.00000E+00
    0.00000E+00         0.00000E+00         0.00000E+00
 
    0.12445E+07         0.27451E+06         0.00000E+00
    0.27451E+06        -0.44844E+07         0.00000E+00
    0.00000E+00         0.00000E+00         0.00000E+00
 
    0.12239E+07         0.32391E+06         0.00000E+00
    0.32391E+06        -0.44822E+07         0.00000E+00
    0.00000E+00         0.00000E+00         0.00000E+00
 
    0.12030E+07         0.37317E+06         0.00000E+00
    0.37317E+06        -0.44798E+07         0.00000E+00
    0.00000E+00         0.00000E+00         0.00000E+00
 
    0.11817E+07         0.42228E+06         0.00000E+00
    0.42228E+06        -0.44769E+07         0.00000E+00
    0.00000E+00         0.00000E+00         0.00000E+00
 
    0.11601E+07         0.47124E+06         0.00000E+00
    0.47124E+06        -0.44737E+07         0.00000E+00
    0.00000E+00         0.00000E+00         0.00000E+00
 
    0.11381E+07         0.52005E+06         0.00000E+00
    0.52005E+06        -0.44702E+07         0.00000E+00
    0.00000E+00         0.00000E+00         0.00000E+00
 
    0.11159E+07         0.56872E+06         0.00000E+00
    0.56872E+06        -0.44663E+07         0.00000E+00
    0.00000E+00         0.00000E+00         0.00000E+00
 
    0.10932E+07         0.61724E+06         0.00000E+00
    0.61724E+06        -0.44621E+07         0.00000E+00
    0.00000E+00         0.00000E+00         0.00000E+00
 
    0.10702E+07         0.66561E+06         0.00000E+00
    0.66561E+06        -0.44575E+07         0.00000E+00
    0.00000E+00         0.00000E+00         0.00000E+00
 
    0.10469E+07         0.71383E+06         0.00000E+00
    0.71383E+06        -0.44525E+07         0.00000E+00
    0.00000E+00         0.00000E+00         0.00000E+00
 
    0.10233E+07         0.76190E+06         0.00000E+00
    0.76190E+06        -0.44472E+07         0.00000E+00
    0.00000E+00         0.00000E+00         0.00000E+00
 
    0.99930E+06         0.80982E+06         0.00000E+00
    0.80982E+06        -0.44416E+07         0.00000E+00
    0.00000E+00         0.00000E+00         0.00000E+00
 
    0.97497E+06         0.85759E+06         0.00000E+00
    0.85759E+06        -0.44356E+07         0.00000E+00
    0.00000E+00         0.00000E+00         0.00000E+00
 
    0.95031E+06         0.90522E+06         0.00000E+00
    0.90522E+06        -0.44293E+07         0.00000E+00
    0.00000E+00         0.00000E+00         0.00000E+00
 
    0.92532E+06         0.95269E+06         0.00000E+00
    0.95269E+06        -0.44226E+07         0.00000E+00
    0.00000E+00         0.00000E+00         0.00000E+00
 
    0.89999E+06         0.10000E+07         0.00000E+00
    0.10000E+07        -0.44155E+07         0.00000E+00
    0.00000E+00         0.00000E+00         0.00000E+00
 
    0.87432E+06         0.10472E+07         0.00000E+00
    0.10472E+07        -0.44081E+07         0.00000E+00
    0.00000E+00         0.00000E+00         0.00000E+00
 
    0.84831E+06         0.10942E+07         0.00000E+00
    0.10942E+07        -0.44004E+07         0.00000E+00
    0.00000E+00         0.00000E+00         0.00000E+00
 
    0.82197E+06         0.11411E+07         0.00000E+00
    0.11411E+07        -0.43923E+07         0.00000E+00
    0.00000E+00         0.00000E+00         0.00000E+00
 
    0.79530E+06         0.11878E+07         0.00000E+00
    0.11878E+07        -0.43838E+07         0.00000E+00
    0.00000E+00         0.00000E+00         0.00000E+00
 
    0.76828E+06         0.12343E+07         0.00000E+00
    0.12343E+07        -0.43750E+07         0.00000E+00
    0.00000E+00         0.00000E+00         0.00000E+00
 
    0.74093E+06         0.12807E+07         0.00000E+00
    0.12807E+07        -0.43658E+07         0.00000E+00
    0.00000E+00         0.00000E+00         0.00000E+00
 
    0.71324E+06         0.13270E+07         0.00000E+00
    0.13270E+07        -0.43563E+07         0.00000E+00
    0.00000E+00         0.00000E+00         0.00000E+00
 
    0.68521E+06         0.13731E+07         0.00000E+00
    0.13731E+07        -0.43465E+07         0.00000E+00
    0.00000E+00         0.00000E+00         0.00000E+00
 
    0.65685E+06         0.14190E+07         0.00000E+00
    0.14190E+07        -0.43362E+07         0.00000E+00
    0.00000E+00         0.00000E+00         0.00000E+00
 
    0.62815E+06         0.14648E+07         0.00000E+00
    0.14648E+07        -0.43257E+07         0.00000E+00
    0.00000E+00         0.00000E+00         0.00000E+00
 
    0.59911E+06         0.15104E+07         0.00000E+00
    0.15104E+07        -0.43147E+07         0.00000E+00
    0.00000E+00         0.00000E+00         0.00000E+00
 
    0.56973E+06         0.15559E+07         0.00000E+00
    0.15559E+07        -0.43035E+07         0.00000E+00
    0.00000E+00         0.00000E+00         0.00000E+00
 
    0.54001E+06         0.16011E+07         0.00000E+00
    0.16011E+07        -0.42918E+07         0.00000E+00
    0.00000E+00         0.00000E+00         0.00000E+00
 
    0.50995E+06         0.16463E+07         0.00000E+00
    0.16463E+07        -0.42798E+07         0.00000E+00
    0.00000E+00         0.00000E+00         0.00000E+00
 
    0.47954E+06         0.16912E+07         0.00000E+00
    0.16912E+07        -0.42675E+07         0.00000E+00
    0.00000E+00         0.00000E+00         0.00000E+00
 
    0.44880E+06         0.17360E+07         0.00000E+00
    0.17360E+07        -0.42547E+07         0.00000E+00
    0.00000E+00         0.00000E+00         0.00000E+00
 
    0.41772E+06         0.17806E+07         0.00000E+00
    0.17806E+07        -0.42417E+07         0.00000E+00
    0.00000E+00         0.00000E+00         0.00000E+00
 
    0.38629E+06         0.18251E+07         0.00000E+00
    0.18251E+07        -0.42282E+07         0.00000E+00
    0.00000E+00         0.00000E+00         0.00000E+00
 
    0.35452E+06         0.18694E+07         0.00000E+00
    0.18694E+07        -0.42144E+07         0.00000E+00
    0.00000E+00         0.00000E+00         0.00000E+00
 
    0.32240E+06         0.19135E+07         0.00000E+00
    0.19135E+07        -0.42003E+07         0.00000E+00
    0.00000E+00         0.00000E+00         0.00000E+00
 
    0.28994E+06         0.19574E+07         0.00000E+00
    0.19574E+07        -0.41858E+07         0.00000E+00
    0.00000E+00         0.00000E+00         0.00000E+00
 
    0.25713E+06         0.20012E+07         0.00000E+00
    0.20012E+07        -0.41709E+07         0.00000E+00
    0.00000E+00         0.00000E+00         0.00000E+00
 
    0.22398E+06         0.20448E+07         0.00000E+00
    0.20448E+07        -0.41557E+07         0.00000E+00
    0.00000E+00         0.00000E+00         0.00000E+00
 
    0.19047E+06         0.20882E+07         0.00000E+00
    0.20882E+07        -0.41401E+07         0.00000E+00
    0.00000E+00         0.00000E+00         0.00000E+00
 
    0.15662E+06         0.21314E+07         0.00000E+00
    0.21314E+07        -0.41241E+07         0.00000E+00
    0.00000E+00         0.00000E+00         0.00000E+00
 
    0.12242E+06         0.21744E+07         0.00000E+00
    0.21744E+07        -0.41078E+07         0.00000E+00
    0.00000E+00         0.00000E+00         0.00000E+00
 
    0.87871E+05         0.22173E+07         0.00000E+00
    0.22173E+07        -0.40911E+07         0.00000E+00
    0.00000E+00         0.00000E+00         0.00000E+00
 
    0.52969E+05         0.22600E+07         0.00000E+00
    0.22600E+07        -0.40740E+07         0.00000E+00
    0.00000E+00         0.00000E+00         0.00000E+00
 
    0.17715E+05         0.23024E+07         0.00000E+00
    0.23024E+07        -0.40566E+07         0.00000E+00
    0.00000E+00         0.00000E+00         0.00000E+00
 
    0.13825E+07         0.26178E+05         0.00000E+00
    0.26178E+05        -0.47051E+07         0.00000E+00
    0.00000E+00         0.00000E+00         0.00000E+00
 
    0.13629E+07         0.78119E+05         0.00000E+00
    0.78119E+05        -0.47048E+07         0.00000E+00
    0.00000E+00         0.00000E+00         0.00000E+00
 
    0.13429E+07         0.12991E+06         0.00000E+00
    0.12991E+06        -0.47040E+07         0.00000E+00
    0.00000E+00         0.00000E+00         0.00000E+00
 
    0.13226E+07         0.18155E+06         0.00000E+00
    0.18155E+06        -0.47030E+07         0.00000E+00
    0.00000E+00         0.00000E+00         0.00000E+00
 
    0.13020E+07         0.23304E+06         0.00000E+00
    0.23304E+06        -0.47015E+07         0.00000E+00
    0.00000E+00         0.00000E+00         0.00000E+00
 
    0.12810E+07         0.28438E+06         0.00000E+00
    0.28438E+06        -0.46997E+07         0.00000E+00
    0.00000E+00         0.00000E+00         0.00000E+00
 
    0.12596E+07         0.33557E+06         0.00000E+00
    0.33557E+06        -0.46975E+07         0.00000E+00
    0.00000E+00         0.00000E+00         0.00000E+00
 
    0.12379E+07         0.38661E+06         0.00000E+00
    0.38661E+06        -0.46950E+07         0.00000E+00
    0.00000E+00         0.00000E+00         0.00000E+00
 
    0.12159E+07         0.43750E+06         0.00000E+00
    0.43750E+06        -0.46921E+07         0.00000E+00
    0.00000E+00         0.00000E+00         0.00000E+00
 
    0.11935E+07         0.48824E+06         0.00000E+00
    0.48824E+06        -0.46889E+07         0.00000E+00
    0.00000E+00         0.00000E+00         0.00000E+00
 
    0.11708E+07         0.53883E+06         0.00000E+00
    0.53883E+06        -0.46853E+07         0.00000E+00
    0.00000E+00         0.00000E+00         0.00000E+00
 
    0.11478E+07         0.58928E+06         0.00000E+00
    0.58928E+06        -0.46813E+07         0.00000E+00
    0.00000E+00         0.00000E+00         0.00000E+00
 
    0.11244E+07         0.63958E+06         0.00000E+00
    0.63958E+06        -0.46770E+07         0.00000E+00
    0.00000E+00         0.00000E+00         0.00000E+00
 
    0.11006E+07         0.68973E+06         0.00000E+00
    0.68973E+06        -0.46723E+07         0.00000E+00
    0.00000E+00         0.00000E+00         0.00000E+00
 
    0.10766E+07         0.73973E+06         0.00000E+00
    0.73973E+06        -0.46673E+07         0.00000E+00
    0.00000E+00         0.00000E+00         0.00000E+00
 
    0.10522E+07         0.78958E+06         0.00000E+00
    0.78958E+06        -0.46619E+07         0.00000E+00
    0.00000E+00         0.00000E+00         0.00000E+00
 
    0.10274E+07         0.83928E+06         0.00000E+00
    0.83928E+06        -0.46562E+07         0.00000E+00
    0.00000E+00         0.00000E+00         0.00000E+00
 
    0.10023E+07         0.88883E+06         0.00000E+00
    0.88883E+06        -0.46501E+07         0.00000E+00
    0.00000E+00         0.00000E+00         0.00000E+00
 
    0.97690E+06         0.93824E+06         0.00000E+00
    0.93824E+06        -0.46436E+07         0.00000E+00
    0.00000E+00         0.00000E+00         0.00000E+00
 
    0.95113E+06         0.98749E+06         0.00000E+00
    0.98749E+06        -0.46368E+07         0.00000E+00
    0.00000E+00         0.00000E+00         0.00000E+00
 
    0.92503E+06         0.10366E+07         0.00000E+00
    0.10366E+07        -0.46296E+07         0.00000E+00
    0.00000E+00         0.00000E+00         0.00000E+00
 
    0.89859E+06         0.10855E+07         0.00000E+00
    0.10855E+07        -0.46221E+07         0.00000E+00
    0.00000E+00         0.00000E+00         0.00000E+00
 
    0.87181E+06         0.11344E+07         0.00000E+00
    0.11344E+07        -0.46142E+07         0.00000E+00
    0.00000E+00         0.00000E+00         0.00000E+00
 
    0.84468E+06         0.11830E+07         0.00000E+00
    0.11830E+07        -0.46059E+07         0.00000E+00
    0.00000E+00         0.00000E+00         0.00000E+00
 
    0.81722E+06         0.12315E+07         0.00000E+00
    0.12315E+07        -0.45973E+07         0.00000E+00
    0.00000E+00         0.00000E+00         0.00000E+00
 
    0.78942E+06         0.12799E+07         0.00000E+00
    0.12799E+07        -0.45883E+07         0.00000E+00
    0.00000E+00         0.00000E+00         0.00000E+00
 
    0.76128E+06         0.13280E+07         0.00000E+00
    0.13280E+07        -0.45789E+07         0.00000E+00
    0.00000E+00         0.00000E+00         0.00000E+00
 
    0.73279E+06         0.13761E+07         0.00000E+00
    0.13761E+07        -0.45692E+07         0.00000E+00
    0.00000E+00         0.00000E+00         0.00000E+00
 
    0.70397E+06         0.14240E+07         0.00000E+00
    0.14240E+07        -0.45592E+07         0.00000E+00
    0.00000E+00         0.00000E+00         0.00000E+00
 
    0.67480E+06         0.14717E+07         0.00000E+00
    0.14717E+07        -0.45487E+07         0.00000E+00
    0.00000E+00         0.00000E+00         0.00000E+00
 
    0.64529E+06         0.15193E+07         0.00000E+00
    0.15193E+07        -0.45379E+07         0.00000E+00
    0.00000E+00         0.00000E+00         0.00000E+00
 
    0.61543E+06         0.15667E+07         0.00000E+00
    0.15667E+07        -0.45268E+07         0.00000E+00
    0.00000E+00         0.00000E+00         0.00000E+00
 
    0.58523E+06         0.16139E+07         0.00000E+00
    0.16139E+07        -0.45152E+07         0.00000E+00
    0.00000E+00         0.00000E+00         0.00000E+00
 
    0.55469E+06         0.16610E+07         0.00000E+00
    0.16610E+07        -0.45033E+07         0.00000E+00
    0.00000E+00         0.00000E+00         0.00000E+00
 
    0.52380E+06         0.17080E+07         0.00000E+00
    0.17080E+07        -0.44911E+07         0.00000E+00
    0.00000E+00         0.00000E+00         0.00000E+00
 
    0.49256E+06         0.17548E+07         0.00000E+00
    0.17548E+07        -0.44784E+07         0.00000E+00
    0.00000E+00         0.00000E+00         0.00000E+00
 
    0.46097E+06         0.18014E+07         0.00000E+00
    0.18014E+07        -0.44654E+07         0.00000E+00
    0.00000E+00         0.00000E+00         0.00000E+00
 
    0.42904E+06         0.18478E+07         0.00000E+00
    0.18478E+07        -0.44520E+07         0.00000E+00
    0.00000E+00         0.00000E+00         0.00000E+00
 
    0.39675E+06         0.18941E+07         0.00000E+00
    0.18941E+07        -0.44383E+07         0.00000E+00
    0.00000E+00         0.00000E+00         0.00000E+00
 
    0.36411E+06         0.19402E+07         0.00000E+00
    0.19402E+07        -0.44242E+07         0.00000E+00
    0.00000E+00         0.00000E+00         0.00000E+00
 
    0.33112E+06         0.19862E+07         0.00000E+00
    0.19862E+07        -0.44097E+07         0.00000E+00
    0.00000E+00         0.00000E+00         0.00000E+00
 
    0.29778E+06         0.20319E+07         0.00000E+00
    0.20319E+07        -0.43948E+07         0.00000E+00
    0.00000E+00         0.00000E+00         0.00000E+00
 
    0.26409E+06         0.20775E+07         0.00000E+00
    0.20775E+07        -0.43796E+07         0.00000E+00
    0.00000E+00         0.00000E+00         0.00000E+00
 
    0.23004E+06         0.21230E+07         0.00000E+00
    0.21230E+07        -0.43639E+07         0.00000E+00
    0.00000E+00         0.00000E+00         0.00000E+00
 
    0.19563E+06         0.21682E+07         0.00000E+00
    0.21682E+07        -0.43479E+07         0.00000E+00
    0.00000E+00         0.00000E+00         0.00000E+00
 
    0.16086E+06         0.22133E+07         0.00000E+00
    0.22133E+07        -0.43316E+07         0.00000E+00
    0.00000E+00         0.00000E+00         0.00000E+00
 
    0.12574E+06         0.22582E+07         0.00000E+00
    0.22582E+07        -0.43148E+07         0.00000E+00
    0.00000E+00         0.00000E+00         0.00000E+00
 
    0.90251E+05         0.23029E+07         0.00000E+00
    0.23029E+07        -0.42977E+07         0.00000E+00
    0.00000E+00         0.00000E+00         0.00000E+00
 
    0.54405E+05         0.23474E+07         0.00000E+00
    0.23474E+07        -0.42802E+07         0.00000E+00
    0.00000E+00         0.00000E+00         0.00000E+00
 
    0.18195E+05         0.23917E+07         0.00000E+00
    0.23917E+07        -0.42623E+07         0.00000E+00
    0.00000E+00         0.00000E+00         0.00000E+00
 
    0.14223E+07         0.27098E+05         0.00000E+00
    0.27098E+05        -0.49300E+07         0.00000E+00
    0.00000E+00         0.00000E+00         0.00000E+00
 
    0.14019E+07         0.80869E+05         0.00000E+00
    0.80869E+05        -0.49296E+07         0.00000E+00
    0.00000E+00         0.00000E+00         0.00000E+00
 
    0.13812E+07         0.13449E+06         0.00000E+00
    0.13449E+06        -0.49289E+07         0.00000E+00
    0.00000E+00         0.00000E+00         0.00000E+00
 
    0.13601E+07         0.18795E+06         0.00000E+00
    0.18795E+06        -0.49278E+07         0.00000E+00
    0.00000E+00         0.00000E+00         0.00000E+00
 
    0.13387E+07         0.24127E+06         0.00000E+00
    0.24127E+06        -0.49263E+07         0.00000E+00
    0.00000E+00         0.00000E+00         0.00000E+00
 
    0.13169E+07         0.29443E+06         0.00000E+00
    0.29443E+06        -0.49245E+07         0.00000E+00
    0.00000E+00         0.00000E+00         0.00000E+00
 
    0.12948E+07         0.34744E+06         0.00000E+00
    0.34744E+06        -0.49223E+07         0.00000E+00
    0.00000E+00         0.00000E+00         0.00000E+00
 
    0.12724E+07         0.40030E+06         0.00000E+00
    0.40030E+06        -0.49197E+07         0.00000E+00
    0.00000E+00         0.00000E+00         0.00000E+00
 
    0.12496E+07         0.45301E+06         0.00000E+00
    0.45301E+06        -0.49168E+07         0.00000E+00
    0.00000E+00         0.00000E+00         0.00000E+00
 
    0.12265E+07         0.50557E+06         0.00000E+00
    0.50557E+06        -0.49135E+07         0.00000E+00
    0.00000E+00         0.00000E+00         0.00000E+00
 
    0.12030E+07         0.55798E+06         0.00000E+00
    0.55798E+06        -0.49099E+07         0.00000E+00
    0.00000E+00         0.00000E+00         0.00000E+00
 
    0.11792E+07         0.61025E+06         0.00000E+00
    0.61025E+06        -0.49059E+07         0.00000E+00
    0.00000E+00         0.00000E+00         0.00000E+00
 
    0.11550E+07         0.66236E+06         0.00000E+00
    0.66236E+06        -0.49015E+07         0.00000E+00
    0.00000E+00         0.00000E+00         0.00000E+00
 
    0.11306E+07         0.71433E+06         0.00000E+00
    0.71433E+06        -0.48967E+07         0.00000E+00
    0.00000E+00         0.00000E+00         0.00000E+00
 
    0.11057E+07         0.76614E+06         0.00000E+00
    0.76614E+06        -0.48916E+07         0.00000E+00
    0.00000E+00         0.00000E+00         0.00000E+00
 
    0.10806E+07         0.81781E+06         0.00000E+00
    0.81781E+06        -0.48861E+07         0.00000E+00
    0.00000E+00         0.00000E+00         0.00000E+00
 
    0.10550E+07         0.86934E+06         0.00000E+00
    0.86934E+06        -0.48803E+07         0.00000E+00
    0.00000E+00         0.00000E+00         0.00000E+00
 
    0.10292E+07         0.92071E+06         0.00000E+00
    0.92071E+06        -0.48741E+07         0.00000E+00
    0.00000E+00         0.00000E+00         0.00000E+00
 
    0.10030E+07         0.97193E+06         0.00000E+00
    0.97193E+06        -0.48675E+07         0.00000E+00
    0.00000E+00         0.00000E+00         0.00000E+00
 
    0.97648E+06         0.10230E+07         0.00000E+00
    0.10230E+07        -0.48606E+07         0.00000E+00
    0.00000E+00         0.00000E+00         0.00000E+00
 
    0.94961E+06         0.10739E+07         0.00000E+00
    0.10739E+07        -0.48533E+07         0.00000E+00
    0.00000E+00         0.00000E+00         0.00000E+00
 
    0.92240E+06         0.11247E+07         0.00000E+00
    0.11247E+07        -0.48456E+07         0.00000E+00
    0.00000E+00         0.00000E+00         0.00000E+00
 
    0.89485E+06         0.11754E+07         0.00000E+00
    0.11754E+07        -0.48375E+07         0.00000E+00
    0.00000E+00         0.00000E+00         0.00000E+00
 
    0.86696E+06         0.12258E+07         0.00000E+00
    0.12258E+07        -0.48291E+07         0.00000E+00
    0.00000E+00         0.00000E+00         0.00000E+00
 
    0.83872E+06         0.12762E+07         0.00000E+00
    0.12762E+07        -0.48204E+07         0.00000E+00
    0.00000E+00         0.00000E+00         0.00000E+00
 
    0.81014E+06         0.13263E+07         0.00000E+00
    0.13263E+07        -0.48112E+07         0.00000E+00
    0.00000E+00         0.00000E+00         0.00000E+00
 
    0.78121E+06         0.13764E+07         0.00000E+00
    0.13764E+07        -0.48017E+07         0.00000E+00
    0.00000E+00         0.00000E+00         0.00000E+00
 
    0.75195E+06         0.14263E+07         0.00000E+00
    0.14263E+07        -0.47918E+07         0.00000E+00
    0.00000E+00         0.00000E+00         0.00000E+00
 
    0.72233E+06         0.14760E+07         0.00000E+00
    0.14760E+07        -0.47815E+07         0.00000E+00
    0.00000E+00         0.00000E+00         0.00000E+00
 
    0.69237E+06         0.15256E+07         0.00000E+00
    0.15256E+07        -0.47709E+07         0.00000E+00
    0.00000E+00         0.00000E+00         0.00000E+00
 
    0.66206E+06         0.15750E+07         0.00000E+00
    0.15750E+07        -0.47599E+07         0.00000E+00
    0.00000E+00         0.00000E+00         0.00000E+00
 
    0.63141E+06         0.16243E+07         0.00000E+00
    0.16243E+07        -0.47485E+07         0.00000E+00
    0.00000E+00         0.00000E+00         0.00000E+00
 
    0.60040E+06         0.16734E+07         0.00000E+00
    0.16734E+07        -0.47367E+07         0.00000E+00
    0.00000E+00         0.00000E+00         0.00000E+00
 
    0.56905E+06         0.17223E+07         0.00000E+00
    0.17223E+07        -0.47245E+07         0.00000E+00
    0.00000E+00         0.00000E+00         0.00000E+00
 
    0.53734E+06         0.17711E+07         0.00000E+00
    0.17711E+07        -0.47120E+07         0.00000E+00
    0.00000E+00         0.00000E+00         0.00000E+00
 
    0.50528E+06         0.18198E+07         0.00000E+00
    0.18198E+07        -0.46991E+07         0.00000E+00
    0.00000E+00         0.00000E+00         0.00000E+00
 
    0.47287E+06         0.18683E+07         0.00000E+00
    0.18683E+07        -0.46858E+07         0.00000E+00
    0.00000E+00         0.00000E+00         0.00000E+00
 
    0.44010E+06         0.19166E+07         0.00000E+00
    0.19166E+07        -0.46722E+07         0.00000E+00
    0.00000E+00         0.00000E+00         0.00000E+00
 
    0.40698E+06         0.19647E+07         0.00000E+00
    0.19647E+07        -0.46581E+07         0.00000E+00
    0.00000E+00         0.00000E+00         0.00000E+00
 
    0.37349E+06         0.20127E+07         0.00000E+00
    0.20127E+07        -0.46437E+07         0.00000E+00
    0.00000E+00         0.00000E+00         0.00000E+00
 
    0.33965E+06         0.20606E+07         0.00000E+00
    0.20606E+07        -0.46289E+07         0.00000E+00
    0.00000E+00         0.00000E+00         0.00000E+00
 
    0.30545E+06         0.21082E+07         0.00000E+00
    0.21082E+07        -0.46136E+07         0.00000E+00
    0.00000E+00         0.00000E+00         0.00000E+00
 
    0.27089E+06         0.21557E+07         0.00000E+00
    0.21557E+07        -0.45980E+07         0.00000E+00
    0.00000E+00         0.00000E+00         0.00000E+00
 
    0.23596E+06         0.22031E+07         0.00000E+00
    0.22031E+07        -0.45821E+07         0.00000E+00
    0.00000E+00         0.00000E+00         0.00000E+00
 
    0.20066E+06         0.22502E+07         0.00000E+00
    0.22502E+07        -0.45657E+07         0.00000E+00
    0.00000E+00         0.00000E+00         0.00000E+00
 
    0.16500E+06         0.22972E+07         0.00000E+00
    0.22972E+07        -0.45489E+07         0.00000E+00
    0.00000E+00         0.00000E+00         0.00000E+00
 
    0.12898E+06         0.23440E+07         0.00000E+00
    0.23440E+07        -0.45317E+07         0.00000E+00
    0.00000E+00         0.00000E+00         0.00000E+00
 
    0.92578E+05         0.23906E+07         0.00000E+00
    0.23906E+07        -0.45142E+07         0.00000E+00
    0.00000E+00         0.00000E+00         0.00000E+00
 
    0.55808E+05         0.24371E+07         0.00000E+00
    0.24371E+07        -0.44962E+07         0.00000E+00
    0.00000E+00         0.00000E+00         0.00000E+00
 
    0.18665E+05         0.24834E+07         0.00000E+00
    0.24834E+07        -0.44779E+07         0.00000E+00
    0.00000E+00         0.00000E+00         0.00000E+00
 
    0.14615E+07         0.28032E+05         0.00000E+00
    0.28032E+05        -0.51647E+07         0.00000E+00
    0.00000E+00         0.00000E+00         0.00000E+00
 
    0.14404E+07         0.83666E+05         0.00000E+00
    0.83666E+05        -0.51643E+07         0.00000E+00
    0.00000E+00         0.00000E+00         0.00000E+00
 
    0.14189E+07         0.13914E+06         0.00000E+00
    0.13914E+06        -0.51636E+07         0.00000E+00
    0.00000E+00         0.00000E+00         0.00000E+00
 
    0.13970E+07         0.19447E+06         0.00000E+00
    0.19447E+06        -0.51625E+07         0.00000E+00
    0.00000E+00         0.00000E+00         0.00000E+00
 
    0.13748E+07         0.24964E+06         0.00000E+00
    0.24964E+06        -0.51610E+07         0.00000E+00
    0.00000E+00         0.00000E+00         0.00000E+00
 
    0.13523E+07         0.30466E+06         0.00000E+00
    0.30466E+06        -0.51591E+07         0.00000E+00
    0.00000E+00         0.00000E+00         0.00000E+00
 
    0.13294E+07         0.35952E+06         0.00000E+00
    0.35952E+06        -0.51569E+07         0.00000E+00
    0.00000E+00         0.00000E+00         0.00000E+00
 
    0.13062E+07         0.41424E+06         0.00000E+00
    0.41424E+06        -0.51543E+07         0.00000E+00
    0.00000E+00         0.00000E+00         0.00000E+00
 
    0.12827E+07         0.46880E+06         0.00000E+00
    0.46880E+06        -0.51513E+07         0.00000E+00
    0.00000E+00         0.00000E+00         0.00000E+00
 
    0.12588E+07         0.52321E+06         0.00000E+00
    0.52321E+06        -0.51480E+07         0.00000E+00
    0.00000E+00         0.00000E+00         0.00000E+00
 
    0.12345E+07         0.57748E+06         0.00000E+00
    0.57748E+06        -0.51443E+07         0.00000E+00
    0.00000E+00         0.00000E+00         0.00000E+00
 
    0.12100E+07         0.63160E+06         0.00000E+00
    0.63160E+06        -0.51402E+07         0.00000E+00
    0.00000E+00         0.00000E+00         0.00000E+00
 
    0.11851E+07         0.68556E+06         0.00000E+00
    0.68556E+06        -0.51358E+07         0.00000E+00
    0.00000E+00         0.00000E+00         0.00000E+00
 
    0.11598E+07         0.73938E+06         0.00000E+00
    0.73938E+06        -0.51310E+07         0.00000E+00
    0.00000E+00         0.00000E+00         0.00000E+00
 
    0.11342E+07         0.79305E+06         0.00000E+00
    0.79305E+06        -0.51258E+07         0.00000E+00
    0.00000E+00         0.00000E+00         0.00000E+00
 
    0.11083E+07         0.84658E+06         0.00000E+00
    0.84658E+06        -0.51202E+07         0.00000E+00
    0.00000E+00         0.00000E+00         0.00000E+00
 
    0.10820E+07         0.89996E+06         0.00000E+00
    0.89996E+06        -0.51143E+07         0.00000E+00
    0.00000E+00         0.00000E+00         0.00000E+00
 
    0.10554E+07         0.95319E+06         0.00000E+00
    0.95319E+06        -0.51080E+07         0.00000E+00
    0.00000E+00         0.00000E+00         0.00000E+00
 
    0.10285E+07         0.10063E+07         0.00000E+00
    0.10063E+07        -0.51013E+07         0.00000E+00
    0.00000E+00         0.00000E+00         0.00000E+00
 
    0.10012E+07         0.10592E+07         0.00000E+00
    0.10592E+07        -0.50943E+07         0.00000E+00
    0.00000E+00         0.00000E+00         0.00000E+00
 
    0.97358E+06         0.11120E+07         0.00000E+00
    0.11120E+07        -0.50869E+07         0.00000E+00
    0.00000E+00         0.00000E+00         0.00000E+00
 
    0.94561E+06         0.11647E+07         0.00000E+00
    0.11647E+07        -0.50791E+07         0.00000E+00
    0.00000E+00         0.00000E+00         0.00000E+00
 
    0.91730E+06         0.12172E+07         0.00000E+00
    0.12172E+07        -0.50709E+07         0.00000E+00
    0.00000E+00         0.00000E+00         0.00000E+00
 
    0.88865E+06         0.12695E+07         0.00000E+00
    0.12695E+07        -0.50623E+07         0.00000E+00
    0.00000E+00         0.00000E+00         0.00000E+00
 
    0.85965E+06         0.13217E+07         0.00000E+00
    0.13217E+07        -0.50534E+07         0.00000E+00
    0.00000E+00         0.00000E+00         0.00000E+00
 
    0.83030E+06         0.13738E+07         0.00000E+00
    0.13738E+07        -0.50441E+07         0.00000E+00
    0.00000E+00         0.00000E+00         0.00000E+00
 
    0.80061E+06         0.14257E+07         0.00000E+00
    0.14257E+07        -0.50344E+07         0.00000E+00
    0.00000E+00         0.00000E+00         0.00000E+00
 
    0.77057E+06         0.14775E+07         0.00000E+00
    0.14775E+07        -0.50243E+07         0.00000E+00
    0.00000E+00         0.00000E+00         0.00000E+00
 
    0.74019E+06         0.15291E+07         0.00000E+00
    0.15291E+07        -0.50139E+07         0.00000E+00
    0.00000E+00         0.00000E+00         0.00000E+00
 
    0.70945E+06         0.15805E+07         0.00000E+00
    0.15805E+07        -0.50031E+07         0.00000E+00
    0.00000E+00         0.00000E+00         0.00000E+00
 
    0.67837E+06         0.16319E+07         0.00000E+00
    0.16319E+07        -0.49918E+07         0.00000E+00
    0.00000E+00         0.00000E+00         0.00000E+00
 
    0.64693E+06         0.16830E+07         0.00000E+00
    0.16830E+07        -0.49802E+07         0.00000E+00
    0.00000E+00         0.00000E+00         0.00000E+00
 
    0.61514E+06         0.17341E+07         0.00000E+00
    0.17341E+07        -0.49683E+07         0.00000E+00
    0.00000E+00         0.00000E+00         0.00000E+00
 
    0.58299E+06         0.17849E+07         0.00000E+00
    0.17849E+07        -0.49559E+07         0.00000E+00
    0.00000E+00         0.00000E+00         0.00000E+00
 
    0.55049E+06         0.18356E+07         0.00000E+00
    0.18356E+07        -0.49431E+07         0.00000E+00
    0.00000E+00         0.00000E+00         0.00000E+00
 
    0.51763E+06         0.18862E+07         0.00000E+00
    0.18862E+07        -0.49299E+07         0.00000E+00
    0.00000E+00         0.00000E+00         0.00000E+00
 
    0.48442E+06         0.19366E+07         0.00000E+00
    0.19366E+07        -0.49164E+07         0.00000E+00
    0.00000E+00         0.00000E+00         0.00000E+00
 
    0.45084E+06         0.19869E+07         0.00000E+00
    0.19869E+07        -0.49024E+07         0.00000E+00
    0.00000E+00         0.00000E+00         0.00000E+00
 
    0.41690E+06         0.20370E+07         0.00000E+00
    0.20370E+07        -0.48881E+07         0.00000E+00
    0.00000E+00         0.00000E+00         0.00000E+00
 
    0.38259E+06         0.20869E+07         0.00000E+00
    0.20869E+07        -0.48734E+07         0.00000E+00
    0.00000E+00         0.00000E+00         0.00000E+00
 
    0.34792E+06         0.21367E+07         0.00000E+00
    0.21367E+07        -0.48582E+07         0.00000E+00
    0.00000E+00         0.00000E+00         0.00000E+00
 
    0.31289E+06         0.21863E+07         0.00000E+00
    0.21863E+07        -0.48427E+07         0.00000E+00
    0.00000E+00         0.00000E+00         0.00000E+00
 
    0.27748E+06         0.22358E+07         0.00000E+00
    0.22358E+07        -0.48268E+07         0.00000E+00
    0.00000E+00         0.00000E+00         0.00000E+00
 
    0.24170E+06         0.22851E+07         0.00000E+00
    0.22851E+07        -0.48104E+07         0.00000E+00
    0.00000E+00         0.00000E+00         0.00000E+00
 
    0.20555E+06         0.23342E+07         0.00000E+00
    0.23342E+07        -0.47937E+07         0.00000E+00
    0.00000E+00         0.00000E+00         0.00000E+00
 
    0.16902E+06         0.23832E+07         0.00000E+00
    0.23832E+07        -0.47765E+07         0.00000E+00
    0.00000E+00         0.00000E+00         0.00000E+00
 
    0.13212E+06         0.24320E+07         0.00000E+00
    0.24320E+07        -0.47589E+07         0.00000E+00
    0.00000E+00         0.00000E+00         0.00000E+00
 
    0.94834E+05         0.24806E+07         0.00000E+00
    0.24806E+07        -0.47410E+07         0.00000E+00
    0.00000E+00         0.00000E+00         0.00000E+00
 
    0.57169E+05         0.25290E+07         0.00000E+00
    0.25290E+07        -0.47226E+07         0.00000E+00
    0.00000E+00         0.00000E+00         0.00000E+00
 
    0.19120E+05         0.25773E+07         0.00000E+00
    0.25773E+07        -0.47038E+07         0.00000E+00
    0.00000E+00         0.00000E+00         0.00000E+00
 
    0.14999E+07         0.28981E+05         0.00000E+00
    0.28981E+05        -0.54096E+07         0.00000E+00
    0.00000E+00         0.00000E+00         0.00000E+00
 
    0.14780E+07         0.86506E+05         0.00000E+00
    0.86506E+05        -0.54092E+07         0.00000E+00
    0.00000E+00         0.00000E+00         0.00000E+00
 
    0.14557E+07         0.14387E+06         0.00000E+00
    0.14387E+06        -0.54084E+07         0.00000E+00
    0.00000E+00         0.00000E+00         0.00000E+00
 
    0.14331E+07         0.20109E+06         0.00000E+00
    0.20109E+06        -0.54073E+07         0.00000E+00
    0.00000E+00         0.00000E+00         0.00000E+00
 
    0.14101E+07         0.25814E+06         0.00000E+00
    0.25814E+06        -0.54058E+07         0.00000E+00
    0.00000E+00         0.00000E+00         0.00000E+00
 
    0.13868E+07         0.31505E+06         0.00000E+00
    0.31505E+06        -0.54039E+07         0.00000E+00
    0.00000E+00         0.00000E+00         0.00000E+00
 
    0.13632E+07         0.37180E+06         0.00000E+00
    0.37180E+06        -0.54017E+07         0.00000E+00
    0.00000E+00         0.00000E+00         0.00000E+00
 
    0.13392E+07         0.42840E+06         0.00000E+00
    0.42840E+06        -0.53991E+07         0.00000E+00
    0.00000E+00         0.00000E+00         0.00000E+00
 
    0.13149E+07         0.48485E+06         0.00000E+00
    0.48485E+06        -0.53961E+07         0.00000E+00
    0.00000E+00         0.00000E+00         0.00000E+00
 
    0.12902E+07         0.54115E+06         0.00000E+00
    0.54115E+06        -0.53927E+07         0.00000E+00
    0.00000E+00         0.00000E+00         0.00000E+00
 
    0.12652E+07         0.59730E+06         0.00000E+00
    0.59730E+06        -0.53890E+07         0.00000E+00
    0.00000E+00         0.00000E+00         0.00000E+00
 
    0.12399E+07         0.65330E+06         0.00000E+00
    0.65330E+06        -0.53848E+07         0.00000E+00
    0.00000E+00         0.00000E+00         0.00000E+00
 
    0.12143E+07         0.70915E+06         0.00000E+00
    0.70915E+06        -0.53803E+07         0.00000E+00
    0.00000E+00         0.00000E+00         0.00000E+00
 
    0.11883E+07         0.76486E+06         0.00000E+00
    0.76486E+06        -0.53755E+07         0.00000E+00
    0.00000E+00         0.00000E+00         0.00000E+00
 
    0.11619E+07         0.82042E+06         0.00000E+00
    0.82042E+06        -0.53702E+07         0.00000E+00
    0.00000E+00         0.00000E+00         0.00000E+00
 
    0.11352E+07         0.87584E+06         0.00000E+00
    0.87584E+06        -0.53646E+07         0.00000E+00
    0.00000E+00         0.00000E+00         0.00000E+00
 
    0.11082E+07         0.93111E+06         0.00000E+00
    0.93111E+06        -0.53586E+07         0.00000E+00
    0.00000E+00         0.00000E+00         0.00000E+00
 
    0.10809E+07         0.98623E+06         0.00000E+00
    0.98623E+06        -0.53522E+07         0.00000E+00
    0.00000E+00         0.00000E+00         0.00000E+00
 
    0.10532E+07         0.10412E+07         0.00000E+00
    0.10412E+07        -0.53454E+07         0.00000E+00
    0.00000E+00         0.00000E+00         0.00000E+00
 
    0.10252E+07         0.10961E+07         0.00000E+00
    0.10961E+07        -0.53383E+07         0.00000E+00
    0.00000E+00         0.00000E+00         0.00000E+00
 
    0.99678E+06         0.11508E+07         0.00000E+00
    0.11508E+07        -0.53308E+07         0.00000E+00
    0.00000E+00         0.00000E+00         0.00000E+00
 
    0.96806E+06         0.12053E+07         0.00000E+00
    0.12053E+07        -0.53229E+07         0.00000E+00
    0.00000E+00         0.00000E+00         0.00000E+00
 
    0.93901E+06         0.12597E+07         0.00000E+00
    0.12597E+07        -0.53146E+07         0.00000E+00
    0.00000E+00         0.00000E+00         0.00000E+00
 
    0.90960E+06         0.13140E+07         0.00000E+00
    0.13140E+07        -0.53059E+07         0.00000E+00
    0.00000E+00         0.00000E+00         0.00000E+00
 
    0.87986E+06         0.13681E+07         0.00000E+00
    0.13681E+07        -0.52968E+07         0.00000E+00
    0.00000E+00         0.00000E+00         0.00000E+00
 
    0.84976E+06         0.14221E+07         0.00000E+00
    0.14221E+07        -0.52874E+07         0.00000E+00
    0.00000E+00         0.00000E+00         0.00000E+00
 
    0.81932E+06         0.14759E+07         0.00000E+00
    0.14759E+07        -0.52775E+07         0.00000E+00
    0.00000E+00         0.00000E+00         0.00000E+00
 
    0.78854E+06         0.15296E+07         0.00000E+00
    0.15296E+07        -0.52673E+07         0.00000E+00
    0.00000E+00         0.00000E+00         0.00000E+00
 
    0.75740E+06         0.15832E+07         0.00000E+00
    0.15832E+07        -0.52567E+07         0.00000E+00
    0.00000E+00         0.00000E+00         0.00000E+00
 
    0.72591E+06         0.16366E+07         0.00000E+00
    0.16366E+07        -0.52457E+07         0.00000E+00
    0.00000E+00         0.00000E+00         0.00000E+00
 
    0.69407E+06         0.16898E+07         0.00000E+00
    0.16898E+07        -0.52343E+07         0.00000E+00
    0.00000E+00         0.00000E+00         0.00000E+00
 
    0.66187E+06         0.17430E+07         0.00000E+00
    0.17430E+07        -0.52225E+07         0.00000E+00
    0.00000E+00         0.00000E+00         0.00000E+00
 
    0.62932E+06         0.17959E+07         0.00000E+00
    0.17959E+07        -0.52103E+07         0.00000E+00
    0.00000E+00         0.00000E+00         0.00000E+00
 
    0.59641E+06         0.18488E+07         0.00000E+00
    0.18488E+07        -0.51977E+07         0.00000E+00
    0.00000E+00         0.00000E+00         0.00000E+00
 
    0.56314E+06         0.19015E+07         0.00000E+00
    0.19015E+07        -0.51847E+07         0.00000E+00
    0.00000E+00         0.00000E+00         0.00000E+00
 
    0.52951E+06         0.19540E+07         0.00000E+00
    0.19540E+07        -0.51713E+07         0.00000E+00
    0.00000E+00         0.00000E+00         0.00000E+00
 
    0.49552E+06         0.20064E+07         0.00000E+00
    0.20064E+07        -0.51575E+07         0.00000E+00
    0.00000E+00         0.00000E+00         0.00000E+00
 
    0.46116E+06         0.20586E+07         0.00000E+00
    0.20586E+07        -0.51433E+07         0.00000E+00
    0.00000E+00         0.00000E+00         0.00000E+00
 
    0.42644E+06         0.21107E+07         0.00000E+00
    0.21107E+07        -0.51287E+07         0.00000E+00
    0.00000E+00         0.00000E+00         0.00000E+00
 
    0.39134E+06         0.21627E+07         0.00000E+00
    0.21627E+07        -0.51137E+07         0.00000E+00
    0.00000E+00         0.00000E+00         0.00000E+00
 
    0.35587E+06         0.22145E+07         0.00000E+00
    0.22145E+07        -0.50982E+07         0.00000E+00
    0.00000E+00         0.00000E+00         0.00000E+00
 
    0.32003E+06         0.22661E+07         0.00000E+00
    0.22661E+07        -0.50824E+07         0.00000E+00
    0.00000E+00         0.00000E+00         0.00000E+00
 
    0.28381E+06         0.23176E+07         0.00000E+00
    0.23176E+07        -0.50661E+07         0.00000E+00
    0.00000E+00         0.00000E+00         0.00000E+00
 
    0.24722E+06         0.23689E+07         0.00000E+00
    0.23689E+07        -0.50495E+07         0.00000E+00
    0.00000E+00         0.00000E+00         0.00000E+00
 
    0.21024E+06         0.24201E+07         0.00000E+00
    0.24201E+07        -0.50324E+07         0.00000E+00
    0.00000E+00         0.00000E+00         0.00000E+00
 
    0.17288E+06         0.24711E+07         0.00000E+00
    0.24711E+07        -0.50148E+07         0.00000E+00
    0.00000E+00         0.00000E+00         0.00000E+00
 
    0.13514E+06         0.25219E+07         0.00000E+00
    0.25219E+07        -0.49969E+07         0.00000E+00
    0.00000E+00         0.00000E+00         0.00000E+00
 
    0.97002E+05         0.25726E+07         0.00000E+00
    0.25726E+07        -0.49785E+07         0.00000E+00
    0.00000E+00         0.00000E+00         0.00000E+00
 
    0.58477E+05         0.26231E+07         0.00000E+00
    0.26231E+07        -0.49597E+07         0.00000E+00
    0.00000E+00         0.00000E+00         0.00000E+00
 
    0.19558E+05         0.26734E+07         0.00000E+00
    0.26734E+07        -0.49405E+07         0.00000E+00
    0.00000E+00         0.00000E+00         0.00000E+00
 
    0.15373E+07         0.29942E+05         0.00000E+00
    0.29942E+05        -0.56650E+07         0.00000E+00
    0.00000E+00         0.00000E+00         0.00000E+00
 
    0.15146E+07         0.89385E+05         0.00000E+00
    0.89385E+05        -0.56646E+07         0.00000E+00
    0.00000E+00         0.00000E+00         0.00000E+00
 
    0.14915E+07         0.14867E+06         0.00000E+00
    0.14867E+06        -0.56638E+07         0.00000E+00
    0.00000E+00         0.00000E+00         0.00000E+00
 
    0.14681E+07         0.20780E+06         0.00000E+00
    0.20780E+06        -0.56627E+07         0.00000E+00
    0.00000E+00         0.00000E+00         0.00000E+00
 
    0.14444E+07         0.26677E+06         0.00000E+00
    0.26677E+06        -0.56612E+07         0.00000E+00
    0.00000E+00         0.00000E+00         0.00000E+00
 
    0.14203E+07         0.32559E+06         0.00000E+00
    0.32559E+06        -0.56593E+07         0.00000E+00
    0.00000E+00         0.00000E+00         0.00000E+00
 
    0.13959E+07         0.38425E+06         0.00000E+00
    0.38425E+06        -0.56570E+07         0.00000E+00
    0.00000E+00         0.00000E+00         0.00000E+00
 
    0.13711E+07         0.44276E+06         0.00000E+00
    0.44276E+06        -0.56544E+07         0.00000E+00
    0.00000E+00         0.00000E+00         0.00000E+00
 
    0.13461E+07         0.50113E+06         0.00000E+00
    0.50113E+06        -0.56514E+07         0.00000E+00
    0.00000E+00         0.00000E+00         0.00000E+00
 
    0.13206E+07         0.55934E+06         0.00000E+00
    0.55934E+06        -0.56480E+07         0.00000E+00
    0.00000E+00         0.00000E+00         0.00000E+00
 
    0.12949E+07         0.61741E+06         0.00000E+00
    0.61741E+06        -0.56442E+07         0.00000E+00
    0.00000E+00         0.00000E+00         0.00000E+00
 
    0.12688E+07         0.67532E+06         0.00000E+00
    0.67532E+06        -0.56400E+07         0.00000E+00
    0.00000E+00         0.00000E+00         0.00000E+00
 
    0.12424E+07         0.73309E+06         0.00000E+00
    0.73309E+06        -0.56355E+07         0.00000E+00
    0.00000E+00         0.00000E+00         0.00000E+00
 
    0.12157E+07         0.79072E+06         0.00000E+00
    0.79072E+06        -0.56306E+07         0.00000E+00
    0.00000E+00         0.00000E+00         0.00000E+00
 
    0.11886E+07         0.84820E+06         0.00000E+00
    0.84820E+06        -0.56253E+07         0.00000E+00
    0.00000E+00         0.00000E+00         0.00000E+00
 
    0.11612E+07         0.90554E+06         0.00000E+00
    0.90554E+06        -0.56196E+07         0.00000E+00
    0.00000E+00         0.00000E+00         0.00000E+00
 
    0.11334E+07         0.96274E+06         0.00000E+00
    0.96274E+06        -0.56135E+07         0.00000E+00
    0.00000E+00         0.00000E+00         0.00000E+00
 
    0.11053E+07         0.10198E+07         0.00000E+00
    0.10198E+07        -0.56070E+07         0.00000E+00
    0.00000E+00         0.00000E+00         0.00000E+00
 
    0.10769E+07         0.10767E+07         0.00000E+00
    0.10767E+07        -0.56002E+07         0.00000E+00
    0.00000E+00         0.00000E+00         0.00000E+00
 
    0.10481E+07         0.11335E+07         0.00000E+00
    0.11335E+07        -0.55930E+07         0.00000E+00
    0.00000E+00         0.00000E+00         0.00000E+00
 
    0.10190E+07         0.11901E+07         0.00000E+00
    0.11901E+07        -0.55854E+07         0.00000E+00
    0.00000E+00         0.00000E+00         0.00000E+00
 
    0.98957E+06         0.12466E+07         0.00000E+00
    0.12466E+07        -0.55773E+07         0.00000E+00
    0.00000E+00         0.00000E+00         0.00000E+00
 
    0.95979E+06         0.13030E+07         0.00000E+00
    0.13030E+07        -0.55690E+07         0.00000E+00
    0.00000E+00         0.00000E+00         0.00000E+00
 
    0.92966E+06         0.13592E+07         0.00000E+00
    0.13592E+07        -0.55602E+07         0.00000E+00
    0.00000E+00         0.00000E+00         0.00000E+00
 
    0.89918E+06         0.14153E+07         0.00000E+00
    0.14153E+07        -0.55510E+07         0.00000E+00
    0.00000E+00         0.00000E+00         0.00000E+00
 
    0.86837E+06         0.14712E+07         0.00000E+00
    0.14712E+07        -0.55414E+07         0.00000E+00
    0.00000E+00         0.00000E+00         0.00000E+00
 
    0.83720E+06         0.15270E+07         0.00000E+00
    0.15270E+07        -0.55314E+07         0.00000E+00
    0.00000E+00         0.00000E+00         0.00000E+00
 
    0.80569E+06         0.15827E+07         0.00000E+00
    0.15827E+07        -0.55211E+07         0.00000E+00
    0.00000E+00         0.00000E+00         0.00000E+00
 
    0.77382E+06         0.16382E+07         0.00000E+00
    0.16382E+07        -0.55103E+07         0.00000E+00
    0.00000E+00         0.00000E+00         0.00000E+00
 
    0.74161E+06         0.16936E+07         0.00000E+00
    0.16936E+07        -0.54991E+07         0.00000E+00
    0.00000E+00         0.00000E+00         0.00000E+00
 
    0.70904E+06         0.17488E+07         0.00000E+00
    0.17488E+07        -0.54876E+07         0.00000E+00
    0.00000E+00         0.00000E+00         0.00000E+00
 
    0.67611E+06         0.18040E+07         0.00000E+00
    0.18040E+07        -0.54756E+07         0.00000E+00
    0.00000E+00         0.00000E+00         0.00000E+00
 
    0.64283E+06         0.18589E+07         0.00000E+00
    0.18589E+07        -0.54632E+07         0.00000E+00
    0.00000E+00         0.00000E+00         0.00000E+00
 
    0.60919E+06         0.19138E+07         0.00000E+00
    0.19138E+07        -0.54504E+07         0.00000E+00
    0.00000E+00         0.00000E+00         0.00000E+00
 
    0.57518E+06         0.19685E+07         0.00000E+00
    0.19685E+07        -0.54372E+07         0.00000E+00
    0.00000E+00         0.00000E+00         0.00000E+00
 
    0.54081E+06         0.20230E+07         0.00000E+00
    0.20230E+07        -0.54236E+07         0.00000E+00
    0.00000E+00         0.00000E+00         0.00000E+00
 
    0.50608E+06         0.20775E+07         0.00000E+00
    0.20775E+07        -0.54096E+07         0.00000E+00
    0.00000E+00         0.00000E+00         0.00000E+00
 
    0.47098E+06         0.21317E+07         0.00000E+00
    0.21317E+07        -0.53951E+07         0.00000E+00
    0.00000E+00         0.00000E+00         0.00000E+00
 
    0.43550E+06         0.21859E+07         0.00000E+00
    0.21859E+07        -0.53803E+07         0.00000E+00
    0.00000E+00         0.00000E+00         0.00000E+00
 
    0.39965E+06         0.22399E+07         0.00000E+00
    0.22399E+07        -0.53650E+07         0.00000E+00
    0.00000E+00         0.00000E+00         0.00000E+00
 
    0.36342E+06         0.22937E+07         0.00000E+00
    0.22937E+07        -0.53493E+07         0.00000E+00
    0.00000E+00         0.00000E+00         0.00000E+00
 
    0.32682E+06         0.23474E+07         0.00000E+00
    0.23474E+07        -0.53332E+07         0.00000E+00
    0.00000E+00         0.00000E+00         0.00000E+00
 
    0.28983E+06         0.24010E+07         0.00000E+00
    0.24010E+07        -0.53166E+07         0.00000E+00
    0.00000E+00         0.00000E+00         0.00000E+00
 
    0.25246E+06         0.24544E+07         0.00000E+00
    0.24544E+07        -0.52996E+07         0.00000E+00
    0.00000E+00         0.00000E+00         0.00000E+00
 
    0.21470E+06         0.25077E+07         0.00000E+00
    0.25077E+07        -0.52822E+07         0.00000E+00
    0.00000E+00         0.00000E+00         0.00000E+00
 
    0.17655E+06         0.25608E+07         0.00000E+00
    0.25608E+07        -0.52643E+07         0.00000E+00
    0.00000E+00         0.00000E+00         0.00000E+00
 
    0.13800E+06         0.26138E+07         0.00000E+00
    0.26138E+07        -0.52460E+07         0.00000E+00
    0.00000E+00         0.00000E+00         0.00000E+00
 
    0.99060E+05         0.26666E+07         0.00000E+00
    0.26666E+07        -0.52273E+07         0.00000E+00
    0.00000E+00         0.00000E+00         0.00000E+00
 
    0.59718E+05         0.27192E+07         0.00000E+00
    0.27192E+07        -0.52081E+07         0.00000E+00
    0.00000E+00         0.00000E+00         0.00000E+00
 
    0.19974E+05         0.27717E+07         0.00000E+00
    0.27717E+07        -0.51885E+07         0.00000E+00
    0.00000E+00         0.00000E+00         0.00000E+00
 
    0.15735E+07         0.30915E+05         0.00000E+00
    0.30915E+05        -0.59313E+07         0.00000E+00
    0.00000E+00         0.00000E+00         0.00000E+00
 
    0.15499E+07         0.92299E+05         0.00000E+00
    0.92299E+05        -0.59309E+07         0.00000E+00
    0.00000E+00         0.00000E+00         0.00000E+00
 
    0.15261E+07         0.15352E+06         0.00000E+00
    0.15352E+06        -0.59302E+07         0.00000E+00
    0.00000E+00         0.00000E+00         0.00000E+00
 
    0.15019E+07         0.21459E+06         0.00000E+00
    0.21459E+06        -0.59290E+07         0.00000E+00
    0.00000E+00         0.00000E+00         0.00000E+00
 
    0.14773E+07         0.27550E+06         0.00000E+00
    0.27550E+06        -0.59275E+07         0.00000E+00
    0.00000E+00         0.00000E+00         0.00000E+00
 
    0.14525E+07         0.33626E+06         0.00000E+00
    0.33626E+06        -0.59256E+07         0.00000E+00
    0.00000E+00         0.00000E+00         0.00000E+00
 
    0.14273E+07         0.39686E+06         0.00000E+00
    0.39686E+06        -0.59233E+07         0.00000E+00
    0.00000E+00         0.00000E+00         0.00000E+00
 
    0.14018E+07         0.45731E+06         0.00000E+00
    0.45731E+06        -0.59207E+07         0.00000E+00
    0.00000E+00         0.00000E+00         0.00000E+00
 
    0.13759E+07         0.51762E+06         0.00000E+00
    0.51762E+06        -0.59176E+07         0.00000E+00
    0.00000E+00         0.00000E+00         0.00000E+00
 
    0.13498E+07         0.57777E+06         0.00000E+00
    0.57777E+06        -0.59142E+07         0.00000E+00
    0.00000E+00         0.00000E+00         0.00000E+00
 
    0.13233E+07         0.63778E+06         0.00000E+00
    0.63778E+06        -0.59104E+07         0.00000E+00
    0.00000E+00         0.00000E+00         0.00000E+00
 
    0.12964E+07         0.69764E+06         0.00000E+00
    0.69764E+06        -0.59062E+07         0.00000E+00
    0.00000E+00         0.00000E+00         0.00000E+00
 
    0.12693E+07         0.75736E+06         0.00000E+00
    0.75736E+06        -0.59016E+07         0.00000E+00
    0.00000E+00         0.00000E+00         0.00000E+00
 
    0.12418E+07         0.81693E+06         0.00000E+00
    0.81693E+06        -0.58966E+07         0.00000E+00
    0.00000E+00         0.00000E+00         0.00000E+00
 
    0.12140E+07         0.87636E+06         0.00000E+00
    0.87636E+06        -0.58913E+07         0.00000E+00
    0.00000E+00         0.00000E+00         0.00000E+00
 
    0.11858E+07         0.93565E+06         0.00000E+00
    0.93565E+06        -0.58855E+07         0.00000E+00
    0.00000E+00         0.00000E+00         0.00000E+00
 
    0.11574E+07         0.99480E+06         0.00000E+00
    0.99480E+06        -0.58794E+07         0.00000E+00
    0.00000E+00         0.00000E+00         0.00000E+00
 
    0.11286E+07         0.10538E+07         0.00000E+00
    0.10538E+07        -0.58729E+07         0.00000E+00
    0.00000E+00         0.00000E+00         0.00000E+00
 
    0.10994E+07         0.11127E+07         0.00000E+00
    0.11127E+07        -0.58660E+07         0.00000E+00
    0.00000E+00         0.00000E+00         0.00000E+00
 
    0.10699E+07         0.11714E+07         0.00000E+00
    0.11714E+07        -0.58587E+07         0.00000E+00
    0.00000E+00         0.00000E+00         0.00000E+00
 
    0.10401E+07         0.12300E+07         0.00000E+00
    0.12300E+07        -0.58510E+07         0.00000E+00
    0.00000E+00         0.00000E+00         0.00000E+00
 
    0.10100E+07         0.12885E+07         0.00000E+00
    0.12885E+07        -0.58429E+07         0.00000E+00
    0.00000E+00         0.00000E+00         0.00000E+00
 
    0.97946E+06         0.13468E+07         0.00000E+00
    0.13468E+07        -0.58344E+07         0.00000E+00
    0.00000E+00         0.00000E+00         0.00000E+00
 
    0.94862E+06         0.14050E+07         0.00000E+00
    0.14050E+07        -0.58255E+07         0.00000E+00
    0.00000E+00         0.00000E+00         0.00000E+00
 
    0.91745E+06         0.14631E+07         0.00000E+00
    0.14631E+07        -0.58163E+07         0.00000E+00
    0.00000E+00         0.00000E+00         0.00000E+00
 
    0.88593E+06         0.15210E+07         0.00000E+00
    0.15210E+07        -0.58066E+07         0.00000E+00
    0.00000E+00         0.00000E+00         0.00000E+00
 
    0.85407E+06         0.15789E+07         0.00000E+00
    0.15789E+07        -0.57965E+07         0.00000E+00
    0.00000E+00         0.00000E+00         0.00000E+00
 
    0.82186E+06         0.16365E+07         0.00000E+00
    0.16365E+07        -0.57860E+07         0.00000E+00
    0.00000E+00         0.00000E+00         0.00000E+00
 
    0.78930E+06         0.16941E+07         0.00000E+00
    0.16941E+07        -0.57751E+07         0.00000E+00
    0.00000E+00         0.00000E+00         0.00000E+00
 
    0.75638E+06         0.17515E+07         0.00000E+00
    0.17515E+07        -0.57638E+07         0.00000E+00
    0.00000E+00         0.00000E+00         0.00000E+00
 
    0.72312E+06         0.18088E+07         0.00000E+00
    0.18088E+07        -0.57521E+07         0.00000E+00
    0.00000E+00         0.00000E+00         0.00000E+00
 
    0.68950E+06         0.18659E+07         0.00000E+00
    0.18659E+07        -0.57400E+07         0.00000E+00
    0.00000E+00         0.00000E+00         0.00000E+00
 
    0.65552E+06         0.19229E+07         0.00000E+00
    0.19229E+07        -0.57274E+07         0.00000E+00
    0.00000E+00         0.00000E+00         0.00000E+00
 
    0.62118E+06         0.19798E+07         0.00000E+00
    0.19798E+07        -0.57145E+07         0.00000E+00
    0.00000E+00         0.00000E+00         0.00000E+00
 
    0.58648E+06         0.20366E+07         0.00000E+00
    0.20366E+07        -0.57011E+07         0.00000E+00
    0.00000E+00         0.00000E+00         0.00000E+00
 
    0.55142E+06         0.20932E+07         0.00000E+00
    0.20932E+07        -0.56873E+07         0.00000E+00
    0.00000E+00         0.00000E+00         0.00000E+00
 
    0.51598E+06         0.21497E+07         0.00000E+00
    0.21497E+07        -0.56730E+07         0.00000E+00
    0.00000E+00         0.00000E+00         0.00000E+00
 
    0.48017E+06         0.22061E+07         0.00000E+00
    0.22061E+07        -0.56584E+07         0.00000E+00
    0.00000E+00         0.00000E+00         0.00000E+00
 
    0.44399E+06         0.22623E+07         0.00000E+00
    0.22623E+07        -0.56433E+07         0.00000E+00
    0.00000E+00         0.00000E+00         0.00000E+00
 
    0.40743E+06         0.23184E+07         0.00000E+00
    0.23184E+07        -0.56278E+07         0.00000E+00
    0.00000E+00         0.00000E+00         0.00000E+00
 
    0.37050E+06         0.23744E+07         0.00000E+00
    0.23744E+07        -0.56118E+07         0.00000E+00
    0.00000E+00         0.00000E+00         0.00000E+00
 
    0.33317E+06         0.24303E+07         0.00000E+00
    0.24303E+07        -0.55954E+07         0.00000E+00
    0.00000E+00         0.00000E+00         0.00000E+00
 
    0.29546E+06         0.24860E+07         0.00000E+00
    0.24860E+07        -0.55786E+07         0.00000E+00
    0.00000E+00         0.00000E+00         0.00000E+00
 
    0.25736E+06         0.25415E+07         0.00000E+00
    0.25415E+07        -0.55613E+07         0.00000E+00
    0.00000E+00         0.00000E+00         0.00000E+00
 
    0.21887E+06         0.25969E+07         0.00000E+00
    0.25969E+07        -0.55436E+07         0.00000E+00
    0.00000E+00         0.00000E+00         0.00000E+00
 
    0.17998E+06         0.26522E+07         0.00000E+00
    0.26522E+07        -0.55254E+07         0.00000E+00
    0.00000E+00         0.00000E+00         0.00000E+00
 
    0.14068E+06         0.27074E+07         0.00000E+00
    0.27074E+07        -0.55068E+07         0.00000E+00
    0.00000E+00         0.00000E+00         0.00000E+00
 
    0.10099E+06         0.27624E+07         0.00000E+00
    0.27624E+07        -0.54877E+07         0.00000E+00
    0.00000E+00         0.00000E+00         0.00000E+00
 
    0.60880E+05         0.28172E+07         0.00000E+00
    0.28172E+07        -0.54682E+07         0.00000E+00
    0.00000E+00         0.00000E+00         0.00000E+00
 
    0.20362E+05         0.28719E+07         0.00000E+00
    0.28719E+07        -0.54482E+07         0.00000E+00
    0.00000E+00         0.00000E+00         0.00000E+00
 
    0.16081E+07         0.31897E+05         0.00000E+00
    0.31897E+05        -0.62089E+07         0.00000E+00
    0.00000E+00         0.00000E+00         0.00000E+00
 
    0.15837E+07         0.95244E+05         0.00000E+00
    0.95244E+05        -0.62086E+07         0.00000E+00
    0.00000E+00         0.00000E+00         0.00000E+00
 
    0.15591E+07         0.15843E+06         0.00000E+00
    0.15843E+06        -0.62078E+07         0.00000E+00
    0.00000E+00         0.00000E+00         0.00000E+00
 
    0.15341E+07         0.22146E+06         0.00000E+00
    0.22146E+06        -0.62067E+07         0.00000E+00
    0.00000E+00         0.00000E+00         0.00000E+00
 
    0.15088E+07         0.28433E+06         0.00000E+00
    0.28433E+06        -0.62051E+07         0.00000E+00
    0.00000E+00         0.00000E+00         0.00000E+00
 
    0.14831E+07         0.34705E+06         0.00000E+00
    0.34705E+06        -0.62032E+07         0.00000E+00
    0.00000E+00         0.00000E+00         0.00000E+00
 
    0.14572E+07         0.40961E+06         0.00000E+00
    0.40961E+06        -0.62009E+07         0.00000E+00
    0.00000E+00         0.00000E+00         0.00000E+00
 
    0.14309E+07         0.47203E+06         0.00000E+00
    0.47203E+06        -0.61982E+07         0.00000E+00
    0.00000E+00         0.00000E+00         0.00000E+00
 
    0.14043E+07         0.53429E+06         0.00000E+00
    0.53429E+06        -0.61952E+07         0.00000E+00
    0.00000E+00         0.00000E+00         0.00000E+00
 
    0.13774E+07         0.59641E+06         0.00000E+00
    0.59641E+06        -0.61917E+07         0.00000E+00
    0.00000E+00         0.00000E+00         0.00000E+00
 
    0.13501E+07         0.65838E+06         0.00000E+00
    0.65838E+06        -0.61879E+07         0.00000E+00
    0.00000E+00         0.00000E+00         0.00000E+00
 
    0.13226E+07         0.72021E+06         0.00000E+00
    0.72021E+06        -0.61837E+07         0.00000E+00
    0.00000E+00         0.00000E+00         0.00000E+00
 
    0.12947E+07         0.78190E+06         0.00000E+00
    0.78190E+06        -0.61791E+07         0.00000E+00
    0.00000E+00         0.00000E+00         0.00000E+00
 
    0.12665E+07         0.84344E+06         0.00000E+00
    0.84344E+06        -0.61741E+07         0.00000E+00
    0.00000E+00         0.00000E+00         0.00000E+00
 
    0.12379E+07         0.90485E+06         0.00000E+00
    0.90485E+06        -0.61687E+07         0.00000E+00
    0.00000E+00         0.00000E+00         0.00000E+00
 
    0.12091E+07         0.96612E+06         0.00000E+00
    0.96612E+06        -0.61629E+07         0.00000E+00
    0.00000E+00         0.00000E+00         0.00000E+00
 
    0.11799E+07         0.10272E+07         0.00000E+00
    0.10272E+07        -0.61567E+07         0.00000E+00
    0.00000E+00         0.00000E+00         0.00000E+00
 
    0.11503E+07         0.10882E+07         0.00000E+00
    0.10882E+07        -0.61502E+07         0.00000E+00
    0.00000E+00         0.00000E+00         0.00000E+00
 
    0.11205E+07         0.11491E+07         0.00000E+00
    0.11491E+07        -0.61432E+07         0.00000E+00
    0.00000E+00         0.00000E+00         0.00000E+00
 
    0.10903E+07         0.12098E+07         0.00000E+00
    0.12098E+07        -0.61359E+07         0.00000E+00
    0.00000E+00         0.00000E+00         0.00000E+00
 
    0.10598E+07         0.12704E+07         0.00000E+00
    0.12704E+07        -0.61281E+07         0.00000E+00
    0.00000E+00         0.00000E+00         0.00000E+00
 
    0.10290E+07         0.13309E+07         0.00000E+00
    0.13309E+07        -0.61199E+07         0.00000E+00
    0.00000E+00         0.00000E+00         0.00000E+00
 
    0.99780E+06         0.13913E+07         0.00000E+00
    0.13913E+07        -0.61114E+07         0.00000E+00
    0.00000E+00         0.00000E+00         0.00000E+00
 
    0.96629E+06         0.14515E+07         0.00000E+00
    0.14515E+07        -0.61024E+07         0.00000E+00
    0.00000E+00         0.00000E+00         0.00000E+00
 
    0.93445E+06         0.15116E+07         0.00000E+00
    0.15116E+07        -0.60931E+07         0.00000E+00
    0.00000E+00         0.00000E+00         0.00000E+00
 
    0.90226E+06         0.15715E+07         0.00000E+00
    0.15715E+07        -0.60833E+07         0.00000E+00
    0.00000E+00         0.00000E+00         0.00000E+00
 
    0.86973E+06         0.16314E+07         0.00000E+00
    0.16314E+07        -0.60731E+07         0.00000E+00
    0.00000E+00         0.00000E+00         0.00000E+00
 
    0.83686E+06         0.16911E+07         0.00000E+00
    0.16911E+07        -0.60625E+07         0.00000E+00
    0.00000E+00         0.00000E+00         0.00000E+00
 
    0.80364E+06         0.17507E+07         0.00000E+00
    0.17507E+07        -0.60515E+07         0.00000E+00
    0.00000E+00         0.00000E+00         0.00000E+00
 
    0.77007E+06         0.18102E+07         0.00000E+00
    0.18102E+07        -0.60401E+07         0.00000E+00
    0.00000E+00         0.00000E+00         0.00000E+00
 
    0.73615E+06         0.18695E+07         0.00000E+00
    0.18695E+07        -0.60283E+07         0.00000E+00
    0.00000E+00         0.00000E+00         0.00000E+00
 
    0.70187E+06         0.19287E+07         0.00000E+00
    0.19287E+07        -0.60160E+07         0.00000E+00
    0.00000E+00         0.00000E+00         0.00000E+00
 
    0.66724E+06         0.19879E+07         0.00000E+00
    0.19879E+07        -0.60033E+07         0.00000E+00
    0.00000E+00         0.00000E+00         0.00000E+00
 
    0.63225E+06         0.20468E+07         0.00000E+00
    0.20468E+07        -0.59902E+07         0.00000E+00
    0.00000E+00         0.00000E+00         0.00000E+00
 
    0.59690E+06         0.21057E+07         0.00000E+00
    0.21057E+07        -0.59767E+07         0.00000E+00
    0.00000E+00         0.00000E+00         0.00000E+00
 
    0.56118E+06         0.21645E+07         0.00000E+00
    0.21645E+07        -0.59627E+07         0.00000E+00
    0.00000E+00         0.00000E+00         0.00000E+00
 
    0.52510E+06         0.22231E+07         0.00000E+00
    0.22231E+07        -0.59483E+07         0.00000E+00
    0.00000E+00         0.00000E+00         0.00000E+00
 
    0.48864E+06         0.22816E+07         0.00000E+00
    0.22816E+07        -0.59335E+07         0.00000E+00
    0.00000E+00         0.00000E+00         0.00000E+00
 
    0.45180E+06         0.23400E+07         0.00000E+00
    0.23400E+07        -0.59182E+07         0.00000E+00
    0.00000E+00         0.00000E+00         0.00000E+00
 
    0.41459E+06         0.23982E+07         0.00000E+00
    0.23982E+07        -0.59025E+07         0.00000E+00
    0.00000E+00         0.00000E+00         0.00000E+00
 
    0.37699E+06         0.24564E+07         0.00000E+00
    0.24564E+07        -0.58863E+07         0.00000E+00
    0.00000E+00         0.00000E+00         0.00000E+00
 
    0.33901E+06         0.25144E+07         0.00000E+00
    0.25144E+07        -0.58697E+07         0.00000E+00
    0.00000E+00         0.00000E+00         0.00000E+00
 
    0.30063E+06         0.25723E+07         0.00000E+00
    0.25723E+07        -0.58526E+07         0.00000E+00
    0.00000E+00         0.00000E+00         0.00000E+00
 
    0.26186E+06         0.26301E+07         0.00000E+00
    0.26301E+07        -0.58351E+07         0.00000E+00
    0.00000E+00         0.00000E+00         0.00000E+00
 
    0.22269E+06         0.26877E+07         0.00000E+00
    0.26877E+07        -0.58171E+07         0.00000E+00
    0.00000E+00         0.00000E+00         0.00000E+00
 
    0.18312E+06         0.27452E+07         0.00000E+00
    0.27452E+07        -0.57986E+07         0.00000E+00
    0.00000E+00         0.00000E+00         0.00000E+00
 
    0.14314E+06         0.28026E+07         0.00000E+00
    0.28026E+07        -0.57797E+07         0.00000E+00
    0.00000E+00         0.00000E+00         0.00000E+00
 
    0.10275E+06         0.28599E+07         0.00000E+00
    0.28599E+07        -0.57603E+07         0.00000E+00
    0.00000E+00         0.00000E+00         0.00000E+00
 
    0.61946E+05         0.29170E+07         0.00000E+00
    0.29170E+07        -0.57404E+07         0.00000E+00
    0.00000E+00         0.00000E+00         0.00000E+00
 
    0.20719E+05         0.29740E+07         0.00000E+00
    0.29740E+07        -0.57201E+07         0.00000E+00
    0.00000E+00         0.00000E+00         0.00000E+00
 
    0.16409E+07         0.32888E+05         0.00000E+00
    0.32888E+05        -0.64982E+07         0.00000E+00
    0.00000E+00         0.00000E+00         0.00000E+00
 
    0.16157E+07         0.98215E+05         0.00000E+00
    0.98215E+05        -0.64979E+07         0.00000E+00
    0.00000E+00         0.00000E+00         0.00000E+00
 
    0.15903E+07         0.16338E+06         0.00000E+00
    0.16338E+06        -0.64971E+07         0.00000E+00
    0.00000E+00         0.00000E+00         0.00000E+00
 
    0.15645E+07         0.22839E+06         0.00000E+00
    0.22839E+06        -0.64959E+07         0.00000E+00
    0.00000E+00         0.00000E+00         0.00000E+00
 
    0.15384E+07         0.29324E+06         0.00000E+00
    0.29324E+06        -0.64944E+07         0.00000E+00
    0.00000E+00         0.00000E+00         0.00000E+00
 
    0.15120E+07         0.35794E+06         0.00000E+00
    0.35794E+06        -0.64925E+07         0.00000E+00
    0.00000E+00         0.00000E+00         0.00000E+00
 
    0.14852E+07         0.42248E+06         0.00000E+00
    0.42248E+06        -0.64902E+07         0.00000E+00
    0.00000E+00         0.00000E+00         0.00000E+00
 
    0.14582E+07         0.48688E+06         0.00000E+00
    0.48688E+06        -0.64875E+07         0.00000E+00
    0.00000E+00         0.00000E+00         0.00000E+00
 
    0.14308E+07         0.55112E+06         0.00000E+00
    0.55112E+06        -0.64844E+07         0.00000E+00
    0.00000E+00         0.00000E+00         0.00000E+00
 
    0.14032E+07         0.61522E+06         0.00000E+00
    0.61522E+06        -0.64810E+07         0.00000E+00
    0.00000E+00         0.00000E+00         0.00000E+00
 
    0.13752E+07         0.67918E+06         0.00000E+00
    0.67918E+06        -0.64771E+07         0.00000E+00
    0.00000E+00         0.00000E+00         0.00000E+00
 
    0.13469E+07         0.74300E+06         0.00000E+00
    0.74300E+06        -0.64729E+07         0.00000E+00
    0.00000E+00         0.00000E+00         0.00000E+00
 
    0.13183E+07         0.80667E+06         0.00000E+00
    0.80667E+06        -0.64683E+07         0.00000E+00
    0.00000E+00         0.00000E+00         0.00000E+00
 
    0.12894E+07         0.87021E+06         0.00000E+00
    0.87021E+06        -0.64632E+07         0.00000E+00
    0.00000E+00         0.00000E+00         0.00000E+00
 
    0.12601E+07         0.93361E+06         0.00000E+00
    0.93361E+06        -0.64578E+07         0.00000E+00
    0.00000E+00         0.00000E+00         0.00000E+00
 
    0.12306E+07         0.99688E+06         0.00000E+00
    0.99688E+06        -0.64520E+07         0.00000E+00
    0.00000E+00         0.00000E+00         0.00000E+00
 
    0.12007E+07         0.10600E+07         0.00000E+00
    0.10600E+07        -0.64458E+07         0.00000E+00
    0.00000E+00         0.00000E+00         0.00000E+00
 
    0.11705E+07         0.11230E+07         0.00000E+00
    0.11230E+07        -0.64392E+07         0.00000E+00
    0.00000E+00         0.00000E+00         0.00000E+00
 
    0.11399E+07         0.11859E+07         0.00000E+00
    0.11859E+07        -0.64322E+07         0.00000E+00
    0.00000E+00         0.00000E+00         0.00000E+00
 
    0.11091E+07         0.12486E+07         0.00000E+00
    0.12486E+07        -0.64248E+07         0.00000E+00
    0.00000E+00         0.00000E+00         0.00000E+00
 
    0.10779E+07         0.13113E+07         0.00000E+00
    0.13113E+07        -0.64170E+07         0.00000E+00
    0.00000E+00         0.00000E+00         0.00000E+00
 
    0.10464E+07         0.13738E+07         0.00000E+00
    0.13738E+07        -0.64088E+07         0.00000E+00
    0.00000E+00         0.00000E+00         0.00000E+00
 
    0.10146E+07         0.14362E+07         0.00000E+00
    0.14362E+07        -0.64002E+07         0.00000E+00
    0.00000E+00         0.00000E+00         0.00000E+00
 
    0.98244E+06         0.14984E+07         0.00000E+00
    0.14984E+07        -0.63912E+07         0.00000E+00
    0.00000E+00         0.00000E+00         0.00000E+00
 
    0.94996E+06         0.15605E+07         0.00000E+00
    0.15605E+07        -0.63818E+07         0.00000E+00
    0.00000E+00         0.00000E+00         0.00000E+00
 
    0.91713E+06         0.16226E+07         0.00000E+00
    0.16226E+07        -0.63719E+07         0.00000E+00
    0.00000E+00         0.00000E+00         0.00000E+00
 
    0.88398E+06         0.16845E+07         0.00000E+00
    0.16845E+07        -0.63617E+07         0.00000E+00
    0.00000E+00         0.00000E+00         0.00000E+00
 
    0.85048E+06         0.17463E+07         0.00000E+00
    0.17463E+07        -0.63510E+07         0.00000E+00
    0.00000E+00         0.00000E+00         0.00000E+00
 
    0.81664E+06         0.18079E+07         0.00000E+00
    0.18079E+07        -0.63399E+07         0.00000E+00
    0.00000E+00         0.00000E+00         0.00000E+00
 
    0.78246E+06         0.18695E+07         0.00000E+00
    0.18695E+07        -0.63284E+07         0.00000E+00
    0.00000E+00         0.00000E+00         0.00000E+00
 
    0.74793E+06         0.19310E+07         0.00000E+00
    0.19310E+07        -0.63165E+07         0.00000E+00
    0.00000E+00         0.00000E+00         0.00000E+00
 
    0.71305E+06         0.19923E+07         0.00000E+00
    0.19923E+07        -0.63041E+07         0.00000E+00
    0.00000E+00         0.00000E+00         0.00000E+00
 
    0.67782E+06         0.20535E+07         0.00000E+00
    0.20535E+07        -0.62913E+07         0.00000E+00
    0.00000E+00         0.00000E+00         0.00000E+00
 
    0.64223E+06         0.21146E+07         0.00000E+00
    0.21146E+07        -0.62781E+07         0.00000E+00
    0.00000E+00         0.00000E+00         0.00000E+00
 
    0.60628E+06         0.21757E+07         0.00000E+00
    0.21757E+07        -0.62644E+07         0.00000E+00
    0.00000E+00         0.00000E+00         0.00000E+00
 
    0.56997E+06         0.22366E+07         0.00000E+00
    0.22366E+07        -0.62503E+07         0.00000E+00
    0.00000E+00         0.00000E+00         0.00000E+00
 
    0.53329E+06         0.22974E+07         0.00000E+00
    0.22974E+07        -0.62358E+07         0.00000E+00
    0.00000E+00         0.00000E+00         0.00000E+00
 
    0.49623E+06         0.23580E+07         0.00000E+00
    0.23580E+07        -0.62208E+07         0.00000E+00
    0.00000E+00         0.00000E+00         0.00000E+00
 
    0.45881E+06         0.24186E+07         0.00000E+00
    0.24186E+07        -0.62054E+07         0.00000E+00
    0.00000E+00         0.00000E+00         0.00000E+00
 
    0.42100E+06         0.24791E+07         0.00000E+00
    0.24791E+07        -0.61895E+07         0.00000E+00
    0.00000E+00         0.00000E+00         0.00000E+00
 
    0.38281E+06         0.25395E+07         0.00000E+00
    0.25395E+07        -0.61731E+07         0.00000E+00
    0.00000E+00         0.00000E+00         0.00000E+00
 
    0.34423E+06         0.25997E+07         0.00000E+00
    0.25997E+07        -0.61563E+07         0.00000E+00
    0.00000E+00         0.00000E+00         0.00000E+00
 
    0.30525E+06         0.26599E+07         0.00000E+00
    0.26599E+07        -0.61390E+07         0.00000E+00
    0.00000E+00         0.00000E+00         0.00000E+00
 
    0.26588E+06         0.27199E+07         0.00000E+00
    0.27199E+07        -0.61213E+07         0.00000E+00
    0.00000E+00         0.00000E+00         0.00000E+00
 
    0.22611E+06         0.27798E+07         0.00000E+00
    0.27798E+07        -0.61030E+07         0.00000E+00
    0.00000E+00         0.00000E+00         0.00000E+00
 
    0.18593E+06         0.28396E+07         0.00000E+00
    0.28396E+07        -0.60844E+07         0.00000E+00
    0.00000E+00         0.00000E+00         0.00000E+00
 
    0.14534E+06         0.28993E+07         0.00000E+00
    0.28993E+07        -0.60652E+07         0.00000E+00
    0.00000E+00         0.00000E+00         0.00000E+00
 
    0.10433E+06         0.29589E+07         0.00000E+00
    0.29589E+07        -0.60455E+07         0.00000E+00
    0.00000E+00         0.00000E+00         0.00000E+00
 
    0.62897E+05         0.30184E+07         0.00000E+00
    0.30184E+07        -0.60254E+07         0.00000E+00
    0.00000E+00         0.00000E+00         0.00000E+00
 
    0.21038E+05         0.30778E+07         0.00000E+00
    0.30778E+07        -0.60047E+07         0.00000E+00
    0.00000E+00         0.00000E+00         0.00000E+00
 
    0.16716E+07         0.33887E+05         0.00000E+00
    0.33887E+05        -0.67996E+07         0.00000E+00
    0.00000E+00         0.00000E+00         0.00000E+00
 
    0.16456E+07         0.10121E+06         0.00000E+00
    0.10121E+06        -0.67992E+07         0.00000E+00
    0.00000E+00         0.00000E+00         0.00000E+00
 
    0.16194E+07         0.16837E+06         0.00000E+00
    0.16837E+06        -0.67984E+07         0.00000E+00
    0.00000E+00         0.00000E+00         0.00000E+00
 
    0.15928E+07         0.23537E+06         0.00000E+00
    0.23537E+06        -0.67973E+07         0.00000E+00
    0.00000E+00         0.00000E+00         0.00000E+00
 
    0.15659E+07         0.30222E+06         0.00000E+00
    0.30222E+06        -0.67957E+07         0.00000E+00
    0.00000E+00         0.00000E+00         0.00000E+00
 
    0.15387E+07         0.36891E+06         0.00000E+00
    0.36891E+06        -0.67938E+07         0.00000E+00
    0.00000E+00         0.00000E+00         0.00000E+00
 
    0.15112E+07         0.43545E+06         0.00000E+00
    0.43545E+06        -0.67915E+07         0.00000E+00
    0.00000E+00         0.00000E+00         0.00000E+00
 
    0.14834E+07         0.50184E+06         0.00000E+00
    0.50184E+06        -0.67888E+07         0.00000E+00
    0.00000E+00         0.00000E+00         0.00000E+00
 
    0.14553E+07         0.56808E+06         0.00000E+00
    0.56808E+06        -0.67857E+07         0.00000E+00
    0.00000E+00         0.00000E+00         0.00000E+00
 
    0.14269E+07         0.63418E+06         0.00000E+00
    0.63418E+06        -0.67823E+07         0.00000E+00
    0.00000E+00         0.00000E+00         0.00000E+00
 
    0.13982E+07         0.70014E+06         0.00000E+00
    0.70014E+06        -0.67784E+07         0.00000E+00
    0.00000E+00         0.00000E+00         0.00000E+00
 
    0.13692E+07         0.76596E+06         0.00000E+00
    0.76596E+06        -0.67742E+07         0.00000E+00
    0.00000E+00         0.00000E+00         0.00000E+00
 
    0.13399E+07         0.83164E+06         0.00000E+00
    0.83164E+06        -0.67695E+07         0.00000E+00
    0.00000E+00         0.00000E+00         0.00000E+00
 
    0.13102E+07         0.89719E+06         0.00000E+00
    0.89719E+06        -0.67645E+07         0.00000E+00
    0.00000E+00         0.00000E+00         0.00000E+00
 
    0.12803E+07         0.96260E+06         0.00000E+00
    0.96260E+06        -0.67591E+07         0.00000E+00
    0.00000E+00         0.00000E+00         0.00000E+00
 
    0.12501E+07         0.10279E+07         0.00000E+00
    0.10279E+07        -0.67532E+07         0.00000E+00
    0.00000E+00         0.00000E+00         0.00000E+00
 
    0.12195E+07         0.10930E+07         0.00000E+00
    0.10930E+07        -0.67470E+07         0.00000E+00
    0.00000E+00         0.00000E+00         0.00000E+00
 
    0.11886E+07         0.11581E+07         0.00000E+00
    0.11581E+07        -0.67404E+07         0.00000E+00
    0.00000E+00         0.00000E+00         0.00000E+00
 
    0.11575E+07         0.12230E+07         0.00000E+00
    0.12230E+07        -0.67334E+07         0.00000E+00
    0.00000E+00         0.00000E+00         0.00000E+00
 
    0.11260E+07         0.12878E+07         0.00000E+00
    0.12878E+07        -0.67260E+07         0.00000E+00
    0.00000E+00         0.00000E+00         0.00000E+00
 
    0.10942E+07         0.13524E+07         0.00000E+00
    0.13524E+07        -0.67182E+07         0.00000E+00
    0.00000E+00         0.00000E+00         0.00000E+00
 
    0.10620E+07         0.14170E+07         0.00000E+00
    0.14170E+07        -0.67099E+07         0.00000E+00
    0.00000E+00         0.00000E+00         0.00000E+00
 
    0.10296E+07         0.14814E+07         0.00000E+00
    0.14814E+07        -0.67013E+07         0.00000E+00
    0.00000E+00         0.00000E+00         0.00000E+00
 
    0.99682E+06         0.15457E+07         0.00000E+00
    0.15457E+07        -0.66922E+07         0.00000E+00
    0.00000E+00         0.00000E+00         0.00000E+00
 
    0.96373E+06         0.16099E+07         0.00000E+00
    0.16099E+07        -0.66828E+07         0.00000E+00
    0.00000E+00         0.00000E+00         0.00000E+00
 
    0.93032E+06         0.16740E+07         0.00000E+00
    0.16740E+07        -0.66729E+07         0.00000E+00
    0.00000E+00         0.00000E+00         0.00000E+00
 
    0.89657E+06         0.17380E+07         0.00000E+00
    0.17380E+07        -0.66626E+07         0.00000E+00
    0.00000E+00         0.00000E+00         0.00000E+00
 
    0.86250E+06         0.18019E+07         0.00000E+00
    0.18019E+07        -0.66519E+07         0.00000E+00
    0.00000E+00         0.00000E+00         0.00000E+00
 
    0.82809E+06         0.18657E+07         0.00000E+00
    0.18657E+07        -0.66407E+07         0.00000E+00
    0.00000E+00         0.00000E+00         0.00000E+00
 
    0.79335E+06         0.19294E+07         0.00000E+00
    0.19294E+07        -0.66292E+07         0.00000E+00
    0.00000E+00         0.00000E+00         0.00000E+00
 
    0.75826E+06         0.19929E+07         0.00000E+00
    0.19929E+07        -0.66172E+07         0.00000E+00
    0.00000E+00         0.00000E+00         0.00000E+00
 
    0.72283E+06         0.20564E+07         0.00000E+00
    0.20564E+07        -0.66047E+07         0.00000E+00
    0.00000E+00         0.00000E+00         0.00000E+00
 
    0.68705E+06         0.21198E+07         0.00000E+00
    0.21198E+07        -0.65919E+07         0.00000E+00
    0.00000E+00         0.00000E+00         0.00000E+00
 
    0.65092E+06         0.21831E+07         0.00000E+00
    0.21831E+07        -0.65785E+07         0.00000E+00
    0.00000E+00         0.00000E+00         0.00000E+00
 
    0.61444E+06         0.22463E+07         0.00000E+00
    0.22463E+07        -0.65648E+07         0.00000E+00
    0.00000E+00         0.00000E+00         0.00000E+00
 
    0.57759E+06         0.23094E+07         0.00000E+00
    0.23094E+07        -0.65506E+07         0.00000E+00
    0.00000E+00         0.00000E+00         0.00000E+00
 
    0.54039E+06         0.23724E+07         0.00000E+00
    0.23724E+07        -0.65359E+07         0.00000E+00
    0.00000E+00         0.00000E+00         0.00000E+00
 
    0.50281E+06         0.24353E+07         0.00000E+00
    0.24353E+07        -0.65208E+07         0.00000E+00
    0.00000E+00         0.00000E+00         0.00000E+00
 
    0.46486E+06         0.24981E+07         0.00000E+00
    0.24981E+07        -0.65053E+07         0.00000E+00
    0.00000E+00         0.00000E+00         0.00000E+00
 
    0.42653E+06         0.25608E+07         0.00000E+00
    0.25608E+07        -0.64892E+07         0.00000E+00
    0.00000E+00         0.00000E+00         0.00000E+00
 
    0.38782E+06         0.26235E+07         0.00000E+00
    0.26235E+07        -0.64728E+07         0.00000E+00
    0.00000E+00         0.00000E+00         0.00000E+00
 
    0.34872E+06         0.26860E+07         0.00000E+00
    0.26860E+07        -0.64558E+07         0.00000E+00
    0.00000E+00         0.00000E+00         0.00000E+00
 
    0.30923E+06         0.27484E+07         0.00000E+00
    0.27484E+07        -0.64383E+07         0.00000E+00
    0.00000E+00         0.00000E+00         0.00000E+00
 
    0.26934E+06         0.28108E+07         0.00000E+00
    0.28108E+07        -0.64204E+07         0.00000E+00
    0.00000E+00         0.00000E+00         0.00000E+00
 
    0.22905E+06         0.28731E+07         0.00000E+00
    0.28731E+07        -0.64020E+07         0.00000E+00
    0.00000E+00         0.00000E+00         0.00000E+00
 
    0.18834E+06         0.29352E+07         0.00000E+00
    0.29352E+07        -0.63831E+07         0.00000E+00
    0.00000E+00         0.00000E+00         0.00000E+00
 
    0.14722E+06         0.29973E+07         0.00000E+00
    0.29973E+07        -0.63637E+07         0.00000E+00
    0.00000E+00         0.00000E+00         0.00000E+00
 
    0.10568E+06         0.30593E+07         0.00000E+00
    0.30593E+07        -0.63438E+07         0.00000E+00
    0.00000E+00         0.00000E+00         0.00000E+00
 
    0.63714E+05         0.31212E+07         0.00000E+00
    0.31212E+07        -0.63234E+07         0.00000E+00
    0.00000E+00         0.00000E+00         0.00000E+00
 
    0.21311E+05         0.31830E+07         0.00000E+00
    0.31830E+07        -0.63025E+07         0.00000E+00
    0.00000E+00         0.00000E+00         0.00000E+00
 
    0.16999E+07         0.34892E+05         0.00000E+00
    0.34892E+05        -0.71133E+07         0.00000E+00
    0.00000E+00         0.00000E+00         0.00000E+00
 
    0.16731E+07         0.10422E+06         0.00000E+00
    0.10422E+06        -0.71129E+07         0.00000E+00
    0.00000E+00         0.00000E+00         0.00000E+00
 
    0.16461E+07         0.17339E+06         0.00000E+00
    0.17339E+06        -0.71121E+07         0.00000E+00
    0.00000E+00         0.00000E+00         0.00000E+00
 
    0.16187E+07         0.24240E+06         0.00000E+00
    0.24240E+06        -0.71110E+07         0.00000E+00
    0.00000E+00         0.00000E+00         0.00000E+00
 
    0.15910E+07         0.31125E+06         0.00000E+00
    0.31125E+06        -0.71095E+07         0.00000E+00
    0.00000E+00         0.00000E+00         0.00000E+00
 
    0.15631E+07         0.37995E+06         0.00000E+00
    0.37995E+06        -0.71075E+07         0.00000E+00
    0.00000E+00         0.00000E+00         0.00000E+00
 
    0.15348E+07         0.44849E+06         0.00000E+00
    0.44849E+06        -0.71052E+07         0.00000E+00
    0.00000E+00         0.00000E+00         0.00000E+00
 
    0.15062E+07         0.51689E+06         0.00000E+00
    0.51689E+06        -0.71025E+07         0.00000E+00
    0.00000E+00         0.00000E+00         0.00000E+00
 
    0.14774E+07         0.58514E+06         0.00000E+00
    0.58514E+06        -0.70995E+07         0.00000E+00
    0.00000E+00         0.00000E+00         0.00000E+00
 
    0.14483E+07         0.65325E+06         0.00000E+00
    0.65325E+06        -0.70960E+07         0.00000E+00
    0.00000E+00         0.00000E+00         0.00000E+00
 
    0.14188E+07         0.72122E+06         0.00000E+00
    0.72122E+06        -0.70921E+07         0.00000E+00
    0.00000E+00         0.00000E+00         0.00000E+00
 
    0.13891E+07         0.78905E+06         0.00000E+00
    0.78905E+06        -0.70879E+07         0.00000E+00
    0.00000E+00         0.00000E+00         0.00000E+00
 
    0.13591E+07         0.85675E+06         0.00000E+00
    0.85675E+06        -0.70833E+07         0.00000E+00
    0.00000E+00         0.00000E+00         0.00000E+00
 
    0.13288E+07         0.92432E+06         0.00000E+00
    0.92432E+06        -0.70782E+07         0.00000E+00
    0.00000E+00         0.00000E+00         0.00000E+00
 
    0.12982E+07         0.99175E+06         0.00000E+00
    0.99175E+06        -0.70728E+07         0.00000E+00
    0.00000E+00         0.00000E+00         0.00000E+00
 
    0.12673E+07         0.10591E+07         0.00000E+00
    0.10591E+07        -0.70670E+07         0.00000E+00
    0.00000E+00         0.00000E+00         0.00000E+00
 
    0.12361E+07         0.11262E+07         0.00000E+00
    0.11262E+07        -0.70608E+07         0.00000E+00
    0.00000E+00         0.00000E+00         0.00000E+00
 
    0.12045E+07         0.11933E+07         0.00000E+00
    0.11933E+07        -0.70541E+07         0.00000E+00
    0.00000E+00         0.00000E+00         0.00000E+00
 
    0.11727E+07         0.12603E+07         0.00000E+00
    0.12603E+07        -0.70471E+07         0.00000E+00
    0.00000E+00         0.00000E+00         0.00000E+00
 
    0.11406E+07         0.13271E+07         0.00000E+00
    0.13271E+07        -0.70397E+07         0.00000E+00
    0.00000E+00         0.00000E+00         0.00000E+00
 
    0.11082E+07         0.13938E+07         0.00000E+00
    0.13938E+07        -0.70319E+07         0.00000E+00
    0.00000E+00         0.00000E+00         0.00000E+00
 
    0.10755E+07         0.14604E+07         0.00000E+00
    0.14604E+07        -0.70236E+07         0.00000E+00
    0.00000E+00         0.00000E+00         0.00000E+00
 
    0.10425E+07         0.15269E+07         0.00000E+00
    0.15269E+07        -0.70150E+07         0.00000E+00
    0.00000E+00         0.00000E+00         0.00000E+00
 
    0.10091E+07         0.15933E+07         0.00000E+00
    0.15933E+07        -0.70059E+07         0.00000E+00
    0.00000E+00         0.00000E+00         0.00000E+00
 
    0.97550E+06         0.16596E+07         0.00000E+00
    0.16596E+07        -0.69964E+07         0.00000E+00
    0.00000E+00         0.00000E+00         0.00000E+00
 
    0.94154E+06         0.17258E+07         0.00000E+00
    0.17258E+07        -0.69866E+07         0.00000E+00
    0.00000E+00         0.00000E+00         0.00000E+00
 
    0.90726E+06         0.17919E+07         0.00000E+00
    0.17919E+07        -0.69762E+07         0.00000E+00
    0.00000E+00         0.00000E+00         0.00000E+00
 
    0.87266E+06         0.18579E+07         0.00000E+00
    0.18579E+07        -0.69655E+07         0.00000E+00
    0.00000E+00         0.00000E+00         0.00000E+00
 
    0.83773E+06         0.19238E+07         0.00000E+00
    0.19238E+07        -0.69543E+07         0.00000E+00
    0.00000E+00         0.00000E+00         0.00000E+00
 
    0.80248E+06         0.19896E+07         0.00000E+00
    0.19896E+07        -0.69427E+07         0.00000E+00
    0.00000E+00         0.00000E+00         0.00000E+00
 
    0.76690E+06         0.20553E+07         0.00000E+00
    0.20553E+07        -0.69307E+07         0.00000E+00
    0.00000E+00         0.00000E+00         0.00000E+00
 
    0.73098E+06         0.21210E+07         0.00000E+00
    0.21210E+07        -0.69182E+07         0.00000E+00
    0.00000E+00         0.00000E+00         0.00000E+00
 
    0.69472E+06         0.21865E+07         0.00000E+00
    0.21865E+07        -0.69053E+07         0.00000E+00
    0.00000E+00         0.00000E+00         0.00000E+00
 
    0.65812E+06         0.22520E+07         0.00000E+00
    0.22520E+07        -0.68920E+07         0.00000E+00
    0.00000E+00         0.00000E+00         0.00000E+00
 
    0.62117E+06         0.23174E+07         0.00000E+00
    0.23174E+07        -0.68782E+07         0.00000E+00
    0.00000E+00         0.00000E+00         0.00000E+00
 
    0.58387E+06         0.23827E+07         0.00000E+00
    0.23827E+07        -0.68639E+07         0.00000E+00
    0.00000E+00         0.00000E+00         0.00000E+00
 
    0.54621E+06         0.24480E+07         0.00000E+00
    0.24480E+07        -0.68492E+07         0.00000E+00
    0.00000E+00         0.00000E+00         0.00000E+00
 
    0.50819E+06         0.25131E+07         0.00000E+00
    0.25131E+07        -0.68340E+07         0.00000E+00
    0.00000E+00         0.00000E+00         0.00000E+00
 
    0.46980E+06         0.25782E+07         0.00000E+00
    0.25782E+07        -0.68184E+07         0.00000E+00
    0.00000E+00         0.00000E+00         0.00000E+00
 
    0.43104E+06         0.26432E+07         0.00000E+00
    0.26432E+07        -0.68023E+07         0.00000E+00
    0.00000E+00         0.00000E+00         0.00000E+00
 
    0.39190E+06         0.27082E+07         0.00000E+00
    0.27082E+07        -0.67857E+07         0.00000E+00
    0.00000E+00         0.00000E+00         0.00000E+00
 
    0.35237E+06         0.27730E+07         0.00000E+00
    0.27730E+07        -0.67686E+07         0.00000E+00
    0.00000E+00         0.00000E+00         0.00000E+00
 
    0.31245E+06         0.28378E+07         0.00000E+00
    0.28378E+07        -0.67511E+07         0.00000E+00
    0.00000E+00         0.00000E+00         0.00000E+00
 
    0.27214E+06         0.29025E+07         0.00000E+00
    0.29025E+07        -0.67330E+07         0.00000E+00
    0.00000E+00         0.00000E+00         0.00000E+00
 
    0.23142E+06         0.29672E+07         0.00000E+00
    0.29672E+07        -0.67145E+07         0.00000E+00
    0.00000E+00         0.00000E+00         0.00000E+00
 
    0.19029E+06         0.30318E+07         0.00000E+00
    0.30318E+07        -0.66954E+07         0.00000E+00
    0.00000E+00         0.00000E+00         0.00000E+00
 
    0.14874E+06         0.30963E+07         0.00000E+00
    0.30963E+07        -0.66759E+07         0.00000E+00
    0.00000E+00         0.00000E+00         0.00000E+00
 
    0.10677E+06         0.31607E+07         0.00000E+00
    0.31607E+07        -0.66558E+07         0.00000E+00
    0.00000E+00         0.00000E+00         0.00000E+00
 
    0.64371E+05         0.32251E+07         0.00000E+00
    0.32251E+07        -0.66352E+07         0.00000E+00
    0.00000E+00         0.00000E+00         0.00000E+00
 
    0.21531E+05         0.32894E+07         0.00000E+00
    0.32894E+07        -0.66141E+07         0.00000E+00
    0.00000E+00         0.00000E+00         0.00000E+00
 
    0.17255E+07         0.35902E+05         0.00000E+00
    0.35902E+05        -0.74398E+07         0.00000E+00
    0.00000E+00         0.00000E+00         0.00000E+00
 
    0.16979E+07         0.10725E+06         0.00000E+00
    0.10725E+06        -0.74394E+07         0.00000E+00
    0.00000E+00         0.00000E+00         0.00000E+00
 
    0.16700E+07         0.17843E+06         0.00000E+00
    0.17843E+06        -0.74386E+07         0.00000E+00
    0.00000E+00         0.00000E+00         0.00000E+00
 
    0.16419E+07         0.24946E+06         0.00000E+00
    0.24946E+06        -0.74375E+07         0.00000E+00
    0.00000E+00         0.00000E+00         0.00000E+00
 
    0.16134E+07         0.32032E+06         0.00000E+00
    0.32032E+06        -0.74360E+07         0.00000E+00
    0.00000E+00         0.00000E+00         0.00000E+00
 
    0.15847E+07         0.39103E+06         0.00000E+00
    0.39103E+06        -0.74340E+07         0.00000E+00
    0.00000E+00         0.00000E+00         0.00000E+00
 
    0.15557E+07         0.46160E+06         0.00000E+00
    0.46160E+06        -0.74317E+07         0.00000E+00
    0.00000E+00         0.00000E+00         0.00000E+00
 
    0.15264E+07         0.53201E+06         0.00000E+00
    0.53201E+06        -0.74291E+07         0.00000E+00
    0.00000E+00         0.00000E+00         0.00000E+00
 
    0.14968E+07         0.60228E+06         0.00000E+00
    0.60228E+06        -0.74260E+07         0.00000E+00
    0.00000E+00         0.00000E+00         0.00000E+00
 
    0.14669E+07         0.67240E+06         0.00000E+00
    0.67240E+06        -0.74225E+07         0.00000E+00
    0.00000E+00         0.00000E+00         0.00000E+00
 
    0.14368E+07         0.74239E+06         0.00000E+00
    0.74239E+06        -0.74187E+07         0.00000E+00
    0.00000E+00         0.00000E+00         0.00000E+00
 
    0.14064E+07         0.81224E+06         0.00000E+00
    0.81224E+06        -0.74145E+07         0.00000E+00
    0.00000E+00         0.00000E+00         0.00000E+00
 
    0.13756E+07         0.88195E+06         0.00000E+00
    0.88195E+06        -0.74098E+07         0.00000E+00
    0.00000E+00         0.00000E+00         0.00000E+00
 
    0.13447E+07         0.95154E+06         0.00000E+00
    0.95154E+06        -0.74048E+07         0.00000E+00
    0.00000E+00         0.00000E+00         0.00000E+00
 
    0.13134E+07         0.10210E+07         0.00000E+00
    0.10210E+07        -0.73994E+07         0.00000E+00
    0.00000E+00         0.00000E+00         0.00000E+00
 
    0.12818E+07         0.10903E+07         0.00000E+00
    0.10903E+07        -0.73936E+07         0.00000E+00
    0.00000E+00         0.00000E+00         0.00000E+00
 
    0.12500E+07         0.11596E+07         0.00000E+00
    0.11596E+07        -0.73874E+07         0.00000E+00
    0.00000E+00         0.00000E+00         0.00000E+00
 
    0.12179E+07         0.12287E+07         0.00000E+00
    0.12287E+07        -0.73808E+07         0.00000E+00
    0.00000E+00         0.00000E+00         0.00000E+00
 
    0.11855E+07         0.12977E+07         0.00000E+00
    0.12977E+07        -0.73738E+07         0.00000E+00
    0.00000E+00         0.00000E+00         0.00000E+00
 
    0.11528E+07         0.13665E+07         0.00000E+00
    0.13665E+07        -0.73664E+07         0.00000E+00
    0.00000E+00         0.00000E+00         0.00000E+00
 
    0.11198E+07         0.14353E+07         0.00000E+00
    0.14353E+07        -0.73585E+07         0.00000E+00
    0.00000E+00         0.00000E+00         0.00000E+00
 
    0.10865E+07         0.15040E+07         0.00000E+00
    0.15040E+07        -0.73503E+07         0.00000E+00
    0.00000E+00         0.00000E+00         0.00000E+00
 
    0.10530E+07         0.15726E+07         0.00000E+00
    0.15726E+07        -0.73417E+07         0.00000E+00
    0.00000E+00         0.00000E+00         0.00000E+00
 
    0.10191E+07         0.16410E+07         0.00000E+00
    0.16410E+07        -0.73327E+07         0.00000E+00
    0.00000E+00         0.00000E+00         0.00000E+00
 
    0.98496E+06         0.17094E+07         0.00000E+00
    0.17094E+07        -0.73232E+07         0.00000E+00
    0.00000E+00         0.00000E+00         0.00000E+00
 
    0.95050E+06         0.17777E+07         0.00000E+00
    0.17777E+07        -0.73133E+07         0.00000E+00
    0.00000E+00         0.00000E+00         0.00000E+00
 
    0.91574E+06         0.18459E+07         0.00000E+00
    0.18459E+07        -0.73030E+07         0.00000E+00
    0.00000E+00         0.00000E+00         0.00000E+00
 
    0.88067E+06         0.19140E+07         0.00000E+00
    0.19140E+07        -0.72923E+07         0.00000E+00
    0.00000E+00         0.00000E+00         0.00000E+00
 
    0.84529E+06         0.19821E+07         0.00000E+00
    0.19821E+07        -0.72811E+07         0.00000E+00
    0.00000E+00         0.00000E+00         0.00000E+00
 
    0.80959E+06         0.20500E+07         0.00000E+00
    0.20500E+07        -0.72696E+07         0.00000E+00
    0.00000E+00         0.00000E+00         0.00000E+00
 
    0.77358E+06         0.21179E+07         0.00000E+00
    0.21179E+07        -0.72575E+07         0.00000E+00
    0.00000E+00         0.00000E+00         0.00000E+00
 
    0.73724E+06         0.21858E+07         0.00000E+00
    0.21858E+07        -0.72451E+07         0.00000E+00
    0.00000E+00         0.00000E+00         0.00000E+00
 
    0.70058E+06         0.22535E+07         0.00000E+00
    0.22535E+07        -0.72322E+07         0.00000E+00
    0.00000E+00         0.00000E+00         0.00000E+00
 
    0.66359E+06         0.23212E+07         0.00000E+00
    0.23212E+07        -0.72188E+07         0.00000E+00
    0.00000E+00         0.00000E+00         0.00000E+00
 
    0.62626E+06         0.23888E+07         0.00000E+00
    0.23888E+07        -0.72050E+07         0.00000E+00
    0.00000E+00         0.00000E+00         0.00000E+00
 
    0.58858E+06         0.24564E+07         0.00000E+00
    0.24564E+07        -0.71907E+07         0.00000E+00
    0.00000E+00         0.00000E+00         0.00000E+00
 
    0.55056E+06         0.25239E+07         0.00000E+00
    0.25239E+07        -0.71760E+07         0.00000E+00
    0.00000E+00         0.00000E+00         0.00000E+00
 
    0.51219E+06         0.25913E+07         0.00000E+00
    0.25913E+07        -0.71608E+07         0.00000E+00
    0.00000E+00         0.00000E+00         0.00000E+00
 
    0.47345E+06         0.26587E+07         0.00000E+00
    0.26587E+07        -0.71451E+07         0.00000E+00
    0.00000E+00         0.00000E+00         0.00000E+00
 
    0.43435E+06         0.27260E+07         0.00000E+00
    0.27260E+07        -0.71290E+07         0.00000E+00
    0.00000E+00         0.00000E+00         0.00000E+00
 
    0.39488E+06         0.27933E+07         0.00000E+00
    0.27933E+07        -0.71124E+07         0.00000E+00
    0.00000E+00         0.00000E+00         0.00000E+00
 
    0.35503E+06         0.28606E+07         0.00000E+00
    0.28606E+07        -0.70953E+07         0.00000E+00
    0.00000E+00         0.00000E+00         0.00000E+00
 
    0.31479E+06         0.29277E+07         0.00000E+00
    0.29277E+07        -0.70776E+07         0.00000E+00
    0.00000E+00         0.00000E+00         0.00000E+00
 
    0.27416E+06         0.29949E+07         0.00000E+00
    0.29949E+07        -0.70595E+07         0.00000E+00
    0.00000E+00         0.00000E+00         0.00000E+00
 
    0.23313E+06         0.30620E+07         0.00000E+00
    0.30620E+07        -0.70409E+07         0.00000E+00
    0.00000E+00         0.00000E+00         0.00000E+00
 
    0.19169E+06         0.31290E+07         0.00000E+00
    0.31290E+07        -0.70218E+07         0.00000E+00
    0.00000E+00         0.00000E+00         0.00000E+00
 
    0.14984E+06         0.31960E+07         0.00000E+00
    0.31960E+07        -0.70021E+07         0.00000E+00
    0.00000E+00         0.00000E+00         0.00000E+00
 
    0.10756E+06         0.32629E+07         0.00000E+00
    0.32629E+07        -0.69819E+07         0.00000E+00
    0.00000E+00         0.00000E+00         0.00000E+00
 
    0.64842E+05         0.33298E+07         0.00000E+00
    0.33298E+07        -0.69612E+07         0.00000E+00
    0.00000E+00         0.00000E+00         0.00000E+00
 
    0.21688E+05         0.33967E+07         0.00000E+00
    0.33967E+07        -0.69400E+07         0.00000E+00
    0.00000E+00         0.00000E+00         0.00000E+00
 
    0.17481E+07         0.36917E+05         0.00000E+00
    0.36917E+05        -0.77794E+07         0.00000E+00
    0.00000E+00         0.00000E+00         0.00000E+00
 
    0.17197E+07         0.11029E+06         0.00000E+00
    0.11029E+06        -0.77790E+07         0.00000E+00
    0.00000E+00         0.00000E+00         0.00000E+00
 
    0.16910E+07         0.18349E+06         0.00000E+00
    0.18349E+06        -0.77783E+07         0.00000E+00
    0.00000E+00         0.00000E+00         0.00000E+00
 
    0.16620E+07         0.25654E+06         0.00000E+00
    0.25654E+06        -0.77771E+07         0.00000E+00
    0.00000E+00         0.00000E+00         0.00000E+00
 
    0.16328E+07         0.32943E+06         0.00000E+00
    0.32943E+06        -0.77756E+07         0.00000E+00
    0.00000E+00         0.00000E+00         0.00000E+00
 
    0.16033E+07         0.40216E+06         0.00000E+00
    0.40216E+06        -0.77737E+07         0.00000E+00
    0.00000E+00         0.00000E+00         0.00000E+00
 
    0.15735E+07         0.47473E+06         0.00000E+00
    0.47473E+06        -0.77714E+07         0.00000E+00
    0.00000E+00         0.00000E+00         0.00000E+00
 
    0.15434E+07         0.54716E+06         0.00000E+00
    0.54716E+06        -0.77687E+07         0.00000E+00
    0.00000E+00         0.00000E+00         0.00000E+00
 
    0.15131E+07         0.61945E+06         0.00000E+00
    0.61945E+06        -0.77657E+07         0.00000E+00
    0.00000E+00         0.00000E+00         0.00000E+00
 
    0.14825E+07         0.69159E+06         0.00000E+00
    0.69159E+06        -0.77622E+07         0.00000E+00
    0.00000E+00         0.00000E+00         0.00000E+00
 
    0.14517E+07         0.76359E+06         0.00000E+00
    0.76359E+06        -0.77584E+07         0.00000E+00
    0.00000E+00         0.00000E+00         0.00000E+00
 
    0.14206E+07         0.83546E+06         0.00000E+00
    0.83546E+06        -0.77542E+07         0.00000E+00
    0.00000E+00         0.00000E+00         0.00000E+00
 
    0.13892E+07         0.90719E+06         0.00000E+00
    0.90719E+06        -0.77496E+07         0.00000E+00
    0.00000E+00         0.00000E+00         0.00000E+00
 
    0.13575E+07         0.97880E+06         0.00000E+00
    0.97880E+06        -0.77446E+07         0.00000E+00
    0.00000E+00         0.00000E+00         0.00000E+00
 
    0.13256E+07         0.10503E+07         0.00000E+00
    0.10503E+07        -0.77392E+07         0.00000E+00
    0.00000E+00         0.00000E+00         0.00000E+00
 
    0.12935E+07         0.11216E+07         0.00000E+00
    0.11216E+07        -0.77334E+07         0.00000E+00
    0.00000E+00         0.00000E+00         0.00000E+00
 
    0.12610E+07         0.11929E+07         0.00000E+00
    0.11929E+07        -0.77272E+07         0.00000E+00
    0.00000E+00         0.00000E+00         0.00000E+00
 
    0.12283E+07         0.12640E+07         0.00000E+00
    0.12640E+07        -0.77207E+07         0.00000E+00
    0.00000E+00         0.00000E+00         0.00000E+00
 
    0.11953E+07         0.13351E+07         0.00000E+00
    0.13351E+07        -0.77137E+07         0.00000E+00
    0.00000E+00         0.00000E+00         0.00000E+00
 
    0.11621E+07         0.14060E+07         0.00000E+00
    0.14060E+07        -0.77063E+07         0.00000E+00
    0.00000E+00         0.00000E+00         0.00000E+00
 
    0.11286E+07         0.14768E+07         0.00000E+00
    0.14768E+07        -0.76986E+07         0.00000E+00
    0.00000E+00         0.00000E+00         0.00000E+00
 
    0.10948E+07         0.15475E+07         0.00000E+00
    0.15475E+07        -0.76904E+07         0.00000E+00
    0.00000E+00         0.00000E+00         0.00000E+00
 
    0.10607E+07         0.16182E+07         0.00000E+00
    0.16182E+07        -0.76818E+07         0.00000E+00
    0.00000E+00         0.00000E+00         0.00000E+00
 
    0.10264E+07         0.16887E+07         0.00000E+00
    0.16887E+07        -0.76728E+07         0.00000E+00
    0.00000E+00         0.00000E+00         0.00000E+00
 
    0.99177E+06         0.17592E+07         0.00000E+00
    0.17592E+07        -0.76634E+07         0.00000E+00
    0.00000E+00         0.00000E+00         0.00000E+00
 
    0.95687E+06         0.18296E+07         0.00000E+00
    0.18296E+07        -0.76536E+07         0.00000E+00
    0.00000E+00         0.00000E+00         0.00000E+00
 
    0.92168E+06         0.18999E+07         0.00000E+00
    0.18999E+07        -0.76433E+07         0.00000E+00
    0.00000E+00         0.00000E+00         0.00000E+00
 
    0.88620E+06         0.19702E+07         0.00000E+00
    0.19702E+07        -0.76326E+07         0.00000E+00
    0.00000E+00         0.00000E+00         0.00000E+00
 
    0.85043E+06         0.20403E+07         0.00000E+00
    0.20403E+07        -0.76215E+07         0.00000E+00
    0.00000E+00         0.00000E+00         0.00000E+00
 
    0.81437E+06         0.21105E+07         0.00000E+00
    0.21105E+07        -0.76100E+07         0.00000E+00
    0.00000E+00         0.00000E+00         0.00000E+00
 
    0.77800E+06         0.21805E+07         0.00000E+00
    0.21805E+07        -0.75980E+07         0.00000E+00
    0.00000E+00         0.00000E+00         0.00000E+00
 
    0.74133E+06         0.22505E+07         0.00000E+00
    0.22505E+07        -0.75856E+07         0.00000E+00
    0.00000E+00         0.00000E+00         0.00000E+00
 
    0.70435E+06         0.23205E+07         0.00000E+00
    0.23205E+07        -0.75728E+07         0.00000E+00
    0.00000E+00         0.00000E+00         0.00000E+00
 
    0.66705E+06         0.23904E+07         0.00000E+00
    0.23904E+07        -0.75595E+07         0.00000E+00
    0.00000E+00         0.00000E+00         0.00000E+00
 
    0.62943E+06         0.24602E+07         0.00000E+00
    0.24602E+07        -0.75457E+07         0.00000E+00
    0.00000E+00         0.00000E+00         0.00000E+00
 
    0.59148E+06         0.25301E+07         0.00000E+00
    0.25301E+07        -0.75315E+07         0.00000E+00
    0.00000E+00         0.00000E+00         0.00000E+00
 
    0.55320E+06         0.25998E+07         0.00000E+00
    0.25998E+07        -0.75168E+07         0.00000E+00
    0.00000E+00         0.00000E+00         0.00000E+00
 
    0.51457E+06         0.26696E+07         0.00000E+00
    0.26696E+07        -0.75017E+07         0.00000E+00
    0.00000E+00         0.00000E+00         0.00000E+00
 
    0.47560E+06         0.27393E+07         0.00000E+00
    0.27393E+07        -0.74860E+07         0.00000E+00
    0.00000E+00         0.00000E+00         0.00000E+00
 
    0.43628E+06         0.28090E+07         0.00000E+00
    0.28090E+07        -0.74699E+07         0.00000E+00
    0.00000E+00         0.00000E+00         0.00000E+00
 
    0.39659E+06         0.28786E+07         0.00000E+00
    0.28786E+07        -0.74533E+07         0.00000E+00
    0.00000E+00         0.00000E+00         0.00000E+00
 
    0.35654E+06         0.29483E+07         0.00000E+00
    0.29483E+07        -0.74362E+07         0.00000E+00
    0.00000E+00         0.00000E+00         0.00000E+00
 
    0.31610E+06         0.30179E+07         0.00000E+00
    0.30179E+07        -0.74186E+07         0.00000E+00
    0.00000E+00         0.00000E+00         0.00000E+00
 
    0.27529E+06         0.30875E+07         0.00000E+00
    0.30875E+07        -0.74005E+07         0.00000E+00
    0.00000E+00         0.00000E+00         0.00000E+00
 
    0.23407E+06         0.31570E+07         0.00000E+00
    0.31570E+07        -0.73819E+07         0.00000E+00
    0.00000E+00         0.00000E+00         0.00000E+00
 
    0.19246E+06         0.32266E+07         0.00000E+00
    0.32266E+07        -0.73627E+07         0.00000E+00
    0.00000E+00         0.00000E+00         0.00000E+00
 
    0.15043E+06         0.32961E+07         0.00000E+00
    0.32961E+07        -0.73430E+07         0.00000E+00
    0.00000E+00         0.00000E+00         0.00000E+00
 
    0.10798E+06         0.33656E+07         0.00000E+00
    0.33656E+07        -0.73228E+07         0.00000E+00
    0.00000E+00         0.00000E+00         0.00000E+00
 
    0.65096E+05         0.34351E+07         0.00000E+00
    0.34351E+07        -0.73020E+07         0.00000E+00
    0.00000E+00         0.00000E+00         0.00000E+00
 
    0.21773E+05         0.35046E+07         0.00000E+00
    0.35046E+07        -0.72807E+07         0.00000E+00
    0.00000E+00         0.00000E+00         0.00000E+00
 
    0.17674E+07         0.37937E+05         0.00000E+00
    0.37937E+05        -0.81325E+07         0.00000E+00
    0.00000E+00         0.00000E+00         0.00000E+00
 
    0.17381E+07         0.11334E+06         0.00000E+00
    0.11334E+06        -0.81321E+07         0.00000E+00
    0.00000E+00         0.00000E+00         0.00000E+00
 
    0.17086E+07         0.18857E+06         0.00000E+00
    0.18857E+06        -0.81313E+07         0.00000E+00
    0.00000E+00         0.00000E+00         0.00000E+00
 
    0.16788E+07         0.26364E+06         0.00000E+00
    0.26364E+06        -0.81302E+07         0.00000E+00
    0.00000E+00         0.00000E+00         0.00000E+00
 
    0.16488E+07         0.33855E+06         0.00000E+00
    0.33855E+06        -0.81287E+07         0.00000E+00
    0.00000E+00         0.00000E+00         0.00000E+00
 
    0.16185E+07         0.41329E+06         0.00000E+00
    0.41329E+06        -0.81268E+07         0.00000E+00
    0.00000E+00         0.00000E+00         0.00000E+00
 
    0.15879E+07         0.48789E+06         0.00000E+00
    0.48789E+06        -0.81245E+07         0.00000E+00
    0.00000E+00         0.00000E+00         0.00000E+00
 
    0.15571E+07         0.56233E+06         0.00000E+00
    0.56233E+06        -0.81219E+07         0.00000E+00
    0.00000E+00         0.00000E+00         0.00000E+00
 
    0.15260E+07         0.63662E+06         0.00000E+00
    0.63662E+06        -0.81188E+07         0.00000E+00
    0.00000E+00         0.00000E+00         0.00000E+00
 
    0.14947E+07         0.71077E+06         0.00000E+00
    0.71077E+06        -0.81154E+07         0.00000E+00
    0.00000E+00         0.00000E+00         0.00000E+00
 
    0.14632E+07         0.78478E+06         0.00000E+00
    0.78478E+06        -0.81116E+07         0.00000E+00
    0.00000E+00         0.00000E+00         0.00000E+00
 
    0.14314E+07         0.85866E+06         0.00000E+00
    0.85866E+06        -0.81074E+07         0.00000E+00
    0.00000E+00         0.00000E+00         0.00000E+00
 
    0.13993E+07         0.93240E+06         0.00000E+00
    0.93240E+06        -0.81028E+07         0.00000E+00
    0.00000E+00         0.00000E+00         0.00000E+00
 
    0.13670E+07         0.10060E+07         0.00000E+00
    0.10060E+07        -0.80979E+07         0.00000E+00
    0.00000E+00         0.00000E+00         0.00000E+00
 
    0.13345E+07         0.10795E+07         0.00000E+00
    0.10795E+07        -0.80925E+07         0.00000E+00
    0.00000E+00         0.00000E+00         0.00000E+00
 
    0.13017E+07         0.11529E+07         0.00000E+00
    0.11529E+07        -0.80868E+07         0.00000E+00
    0.00000E+00         0.00000E+00         0.00000E+00
 
    0.12687E+07         0.12262E+07         0.00000E+00
    0.12262E+07        -0.80807E+07         0.00000E+00
    0.00000E+00         0.00000E+00         0.00000E+00
 
    0.12354E+07         0.12993E+07         0.00000E+00
    0.12993E+07        -0.80742E+07         0.00000E+00
    0.00000E+00         0.00000E+00         0.00000E+00
 
    0.12019E+07         0.13724E+07         0.00000E+00
    0.13724E+07        -0.80673E+07         0.00000E+00
    0.00000E+00         0.00000E+00         0.00000E+00
 
    0.11681E+07         0.14453E+07         0.00000E+00
    0.14453E+07        -0.80600E+07         0.00000E+00
    0.00000E+00         0.00000E+00         0.00000E+00
 
    0.11341E+07         0.15182E+07         0.00000E+00
    0.15182E+07        -0.80523E+07         0.00000E+00
    0.00000E+00         0.00000E+00         0.00000E+00
 
    0.10999E+07         0.15910E+07         0.00000E+00
    0.15910E+07        -0.80442E+07         0.00000E+00
    0.00000E+00         0.00000E+00         0.00000E+00
 
    0.10653E+07         0.16637E+07         0.00000E+00
    0.16637E+07        -0.80357E+07         0.00000E+00
    0.00000E+00         0.00000E+00         0.00000E+00
 
    0.10306E+07         0.17363E+07         0.00000E+00
    0.17363E+07        -0.80267E+07         0.00000E+00
    0.00000E+00         0.00000E+00         0.00000E+00
 
    0.99555E+06         0.18088E+07         0.00000E+00
    0.18088E+07        -0.80174E+07         0.00000E+00
    0.00000E+00         0.00000E+00         0.00000E+00
 
    0.96026E+06         0.18813E+07         0.00000E+00
    0.18813E+07        -0.80077E+07         0.00000E+00
    0.00000E+00         0.00000E+00         0.00000E+00
 
    0.92472E+06         0.19537E+07         0.00000E+00
    0.19537E+07        -0.79975E+07         0.00000E+00
    0.00000E+00         0.00000E+00         0.00000E+00
 
    0.88890E+06         0.20261E+07         0.00000E+00
    0.20261E+07        -0.79870E+07         0.00000E+00
    0.00000E+00         0.00000E+00         0.00000E+00
 
    0.85282E+06         0.20984E+07         0.00000E+00
    0.20984E+07        -0.79760E+07         0.00000E+00
    0.00000E+00         0.00000E+00         0.00000E+00
 
    0.81647E+06         0.21706E+07         0.00000E+00
    0.21706E+07        -0.79645E+07         0.00000E+00
    0.00000E+00         0.00000E+00         0.00000E+00
 
    0.77983E+06         0.22429E+07         0.00000E+00
    0.22429E+07        -0.79527E+07         0.00000E+00
    0.00000E+00         0.00000E+00         0.00000E+00
 
    0.74291E+06         0.23150E+07         0.00000E+00
    0.23150E+07        -0.79404E+07         0.00000E+00
    0.00000E+00         0.00000E+00         0.00000E+00
 
    0.70570E+06         0.23872E+07         0.00000E+00
    0.23872E+07        -0.79276E+07         0.00000E+00
    0.00000E+00         0.00000E+00         0.00000E+00
 
    0.66820E+06         0.24593E+07         0.00000E+00
    0.24593E+07        -0.79144E+07         0.00000E+00
    0.00000E+00         0.00000E+00         0.00000E+00
 
    0.63039E+06         0.25314E+07         0.00000E+00
    0.25314E+07        -0.79008E+07         0.00000E+00
    0.00000E+00         0.00000E+00         0.00000E+00
 
    0.59228E+06         0.26035E+07         0.00000E+00
    0.26035E+07        -0.78867E+07         0.00000E+00
    0.00000E+00         0.00000E+00         0.00000E+00
 
    0.55385E+06         0.26756E+07         0.00000E+00
    0.26756E+07        -0.78721E+07         0.00000E+00
    0.00000E+00         0.00000E+00         0.00000E+00
 
    0.51510E+06         0.27476E+07         0.00000E+00
    0.27476E+07        -0.78570E+07         0.00000E+00
    0.00000E+00         0.00000E+00         0.00000E+00
 
    0.47602E+06         0.28197E+07         0.00000E+00
    0.28197E+07        -0.78415E+07         0.00000E+00
    0.00000E+00         0.00000E+00         0.00000E+00
 
    0.43660E+06         0.28917E+07         0.00000E+00
    0.28917E+07        -0.78255E+07         0.00000E+00
    0.00000E+00         0.00000E+00         0.00000E+00
 
    0.39683E+06         0.29638E+07         0.00000E+00
    0.29638E+07        -0.78090E+07         0.00000E+00
    0.00000E+00         0.00000E+00         0.00000E+00
 
    0.35671E+06         0.30358E+07         0.00000E+00
    0.30358E+07        -0.77920E+07         0.00000E+00
    0.00000E+00         0.00000E+00         0.00000E+00
 
    0.31622E+06         0.31079E+07         0.00000E+00
    0.31079E+07        -0.77745E+07         0.00000E+00
    0.00000E+00         0.00000E+00         0.00000E+00
 
    0.27536E+06         0.31799E+07         0.00000E+00
    0.31799E+07        -0.77564E+07         0.00000E+00
    0.00000E+00         0.00000E+00         0.00000E+00
 
    0.23412E+06         0.32520E+07         0.00000E+00
    0.32520E+07        -0.77379E+07         0.00000E+00
    0.00000E+00         0.00000E+00         0.00000E+00
 
    0.19248E+06         0.33241E+07         0.00000E+00
    0.33241E+07        -0.77188E+07         0.00000E+00
    0.00000E+00         0.00000E+00         0.00000E+00
 
    0.15044E+06         0.33962E+07         0.00000E+00
    0.33962E+07        -0.76992E+07         0.00000E+00
    0.00000E+00         0.00000E+00         0.00000E+00
 
    0.10798E+06         0.34683E+07         0.00000E+00
    0.34683E+07        -0.76790E+07         0.00000E+00
    0.00000E+00         0.00000E+00         0.00000E+00
 
    0.65095E+05         0.35405E+07         0.00000E+00
    0.35405E+07        -0.76582E+07         0.00000E+00
    0.00000E+00         0.00000E+00         0.00000E+00
 
    0.21772E+05         0.36127E+07         0.00000E+00
    0.36127E+07        -0.76369E+07         0.00000E+00
    0.00000E+00         0.00000E+00         0.00000E+00
 
    0.17830E+07         0.38962E+05         0.00000E+00
    0.38962E+05        -0.84994E+07         0.00000E+00
    0.00000E+00         0.00000E+00         0.00000E+00
 
    0.17529E+07         0.11640E+06         0.00000E+00
    0.11640E+06        -0.84990E+07         0.00000E+00
    0.00000E+00         0.00000E+00         0.00000E+00
 
    0.17225E+07         0.19366E+06         0.00000E+00
    0.19366E+06        -0.84983E+07         0.00000E+00
    0.00000E+00         0.00000E+00         0.00000E+00
 
    0.16919E+07         0.27075E+06         0.00000E+00
    0.27075E+06        -0.84971E+07         0.00000E+00
    0.00000E+00         0.00000E+00         0.00000E+00
 
    0.16610E+07         0.34767E+06         0.00000E+00
    0.34767E+06        -0.84956E+07         0.00000E+00
    0.00000E+00         0.00000E+00         0.00000E+00
 
    0.16299E+07         0.42443E+06         0.00000E+00
    0.42443E+06        -0.84937E+07         0.00000E+00
    0.00000E+00         0.00000E+00         0.00000E+00
 
    0.15986E+07         0.50103E+06         0.00000E+00
    0.50103E+06        -0.84915E+07         0.00000E+00
    0.00000E+00         0.00000E+00         0.00000E+00
 
    0.15670E+07         0.57748E+06         0.00000E+00
    0.57748E+06        -0.84888E+07         0.00000E+00
    0.00000E+00         0.00000E+00         0.00000E+00
 
    0.15352E+07         0.65377E+06         0.00000E+00
    0.65377E+06        -0.84858E+07         0.00000E+00
    0.00000E+00         0.00000E+00         0.00000E+00
 
    0.15031E+07         0.72991E+06         0.00000E+00
    0.72991E+06        -0.84824E+07         0.00000E+00
    0.00000E+00         0.00000E+00         0.00000E+00
 
    0.14709E+07         0.80592E+06         0.00000E+00
    0.80592E+06        -0.84787E+07         0.00000E+00
    0.00000E+00         0.00000E+00         0.00000E+00
 
    0.14384E+07         0.88178E+06         0.00000E+00
    0.88178E+06        -0.84745E+07         0.00000E+00
    0.00000E+00         0.00000E+00         0.00000E+00
 
    0.14056E+07         0.95751E+06         0.00000E+00
    0.95751E+06        -0.84700E+07         0.00000E+00
    0.00000E+00         0.00000E+00         0.00000E+00
 
    0.13727E+07         0.10331E+07         0.00000E+00
    0.10331E+07        -0.84651E+07         0.00000E+00
    0.00000E+00         0.00000E+00         0.00000E+00
 
    0.13396E+07         0.11086E+07         0.00000E+00
    0.11086E+07        -0.84598E+07         0.00000E+00
    0.00000E+00         0.00000E+00         0.00000E+00
 
    0.13062E+07         0.11840E+07         0.00000E+00
    0.11840E+07        -0.84541E+07         0.00000E+00
    0.00000E+00         0.00000E+00         0.00000E+00
 
    0.12726E+07         0.12592E+07         0.00000E+00
    0.12592E+07        -0.84481E+07         0.00000E+00
    0.00000E+00         0.00000E+00         0.00000E+00
 
    0.12388E+07         0.13344E+07         0.00000E+00
    0.13344E+07        -0.84417E+07         0.00000E+00
    0.00000E+00         0.00000E+00         0.00000E+00
 
    0.12047E+07         0.14094E+07         0.00000E+00
    0.14094E+07        -0.84348E+07         0.00000E+00
    0.00000E+00         0.00000E+00         0.00000E+00
 
    0.11705E+07         0.14844E+07         0.00000E+00
    0.14844E+07        -0.84276E+07         0.00000E+00
    0.00000E+00         0.00000E+00         0.00000E+00
 
    0.11360E+07         0.15593E+07         0.00000E+00
    0.15593E+07        -0.84200E+07         0.00000E+00
    0.00000E+00         0.00000E+00         0.00000E+00
 
    0.11013E+07         0.16341E+07         0.00000E+00
    0.16341E+07        -0.84120E+07         0.00000E+00
    0.00000E+00         0.00000E+00         0.00000E+00
 
    0.10664E+07         0.17088E+07         0.00000E+00
    0.17088E+07        -0.84036E+07         0.00000E+00
    0.00000E+00         0.00000E+00         0.00000E+00
 
    0.10312E+07         0.17834E+07         0.00000E+00
    0.17834E+07        -0.83949E+07         0.00000E+00
    0.00000E+00         0.00000E+00         0.00000E+00
 
    0.99587E+06         0.18580E+07         0.00000E+00
    0.18580E+07        -0.83857E+07         0.00000E+00
    0.00000E+00         0.00000E+00         0.00000E+00
 
    0.96027E+06         0.19326E+07         0.00000E+00
    0.19326E+07        -0.83761E+07         0.00000E+00
    0.00000E+00         0.00000E+00         0.00000E+00
 
    0.92443E+06         0.20070E+07         0.00000E+00
    0.20070E+07        -0.83661E+07         0.00000E+00
    0.00000E+00         0.00000E+00         0.00000E+00
 
    0.88836E+06         0.20815E+07         0.00000E+00
    0.20815E+07        -0.83556E+07         0.00000E+00
    0.00000E+00         0.00000E+00         0.00000E+00
 
    0.85204E+06         0.21559E+07         0.00000E+00
    0.21559E+07        -0.83448E+07         0.00000E+00
    0.00000E+00         0.00000E+00         0.00000E+00
 
    0.81549E+06         0.22303E+07         0.00000E+00
    0.22303E+07        -0.83335E+07         0.00000E+00
    0.00000E+00         0.00000E+00         0.00000E+00
 
    0.77868E+06         0.23046E+07         0.00000E+00
    0.23046E+07        -0.83218E+07         0.00000E+00
    0.00000E+00         0.00000E+00         0.00000E+00
 
    0.74161E+06         0.23790E+07         0.00000E+00
    0.23790E+07        -0.83097E+07         0.00000E+00
    0.00000E+00         0.00000E+00         0.00000E+00
 
    0.70428E+06         0.24533E+07         0.00000E+00
    0.24533E+07        -0.82971E+07         0.00000E+00
    0.00000E+00         0.00000E+00         0.00000E+00
 
    0.66668E+06         0.25276E+07         0.00000E+00
    0.25276E+07        -0.82841E+07         0.00000E+00
    0.00000E+00         0.00000E+00         0.00000E+00
 
    0.62881E+06         0.26020E+07         0.00000E+00
    0.26020E+07        -0.82706E+07         0.00000E+00
    0.00000E+00         0.00000E+00         0.00000E+00
 
    0.59066E+06         0.26763E+07         0.00000E+00
    0.26763E+07        -0.82567E+07         0.00000E+00
    0.00000E+00         0.00000E+00         0.00000E+00
 
    0.55221E+06         0.27507E+07         0.00000E+00
    0.27507E+07        -0.82423E+07         0.00000E+00
    0.00000E+00         0.00000E+00         0.00000E+00
 
    0.51347E+06         0.28250E+07         0.00000E+00
    0.28250E+07        -0.82275E+07         0.00000E+00
    0.00000E+00         0.00000E+00         0.00000E+00
 
    0.47442E+06         0.28994E+07         0.00000E+00
    0.28994E+07        -0.82121E+07         0.00000E+00
    0.00000E+00         0.00000E+00         0.00000E+00
 
    0.43505E+06         0.29738E+07         0.00000E+00
    0.29738E+07        -0.81963E+07         0.00000E+00
    0.00000E+00         0.00000E+00         0.00000E+00
 
    0.39536E+06         0.30483E+07         0.00000E+00
    0.30483E+07        -0.81800E+07         0.00000E+00
    0.00000E+00         0.00000E+00         0.00000E+00
 
    0.35533E+06         0.31228E+07         0.00000E+00
    0.31228E+07        -0.81631E+07         0.00000E+00
    0.00000E+00         0.00000E+00         0.00000E+00
 
    0.31496E+06         0.31973E+07         0.00000E+00
    0.31973E+07        -0.81458E+07         0.00000E+00
    0.00000E+00         0.00000E+00         0.00000E+00
 
    0.27423E+06         0.32719E+07         0.00000E+00
    0.32719E+07        -0.81279E+07         0.00000E+00
    0.00000E+00         0.00000E+00         0.00000E+00
 
    0.23313E+06         0.33465E+07         0.00000E+00
    0.33465E+07        -0.81095E+07         0.00000E+00
    0.00000E+00         0.00000E+00         0.00000E+00
 
    0.19165E+06         0.34212E+07         0.00000E+00
    0.34212E+07        -0.80906E+07         0.00000E+00
    0.00000E+00         0.00000E+00         0.00000E+00
 
    0.14977E+06         0.34959E+07         0.00000E+00
    0.34959E+07        -0.80711E+07         0.00000E+00
    0.00000E+00         0.00000E+00         0.00000E+00
 
    0.10749E+06         0.35707E+07         0.00000E+00
    0.35707E+07        -0.80511E+07         0.00000E+00
    0.00000E+00         0.00000E+00         0.00000E+00
 
    0.64799E+05         0.36455E+07         0.00000E+00
    0.36455E+07        -0.80305E+07         0.00000E+00
    0.00000E+00         0.00000E+00         0.00000E+00
 
    0.21673E+05         0.37204E+07         0.00000E+00
    0.37204E+07        -0.80093E+07         0.00000E+00
    0.00000E+00         0.00000E+00         0.00000E+00
 
    0.17947E+07         0.39992E+05         0.00000E+00
    0.39992E+05        -0.88804E+07         0.00000E+00
    0.00000E+00         0.00000E+00         0.00000E+00
 
    0.17637E+07         0.11946E+06         0.00000E+00
    0.11946E+06        -0.88801E+07         0.00000E+00
    0.00000E+00         0.00000E+00         0.00000E+00
 
    0.17324E+07         0.19875E+06         0.00000E+00
    0.19875E+06        -0.88793E+07         0.00000E+00
    0.00000E+00         0.00000E+00         0.00000E+00
 
    0.17009E+07         0.27786E+06         0.00000E+00
    0.27786E+06        -0.88782E+07         0.00000E+00
    0.00000E+00         0.00000E+00         0.00000E+00
 
    0.16692E+07         0.35679E+06         0.00000E+00
    0.35679E+06        -0.88767E+07         0.00000E+00
    0.00000E+00         0.00000E+00         0.00000E+00
 
    0.16372E+07         0.43555E+06         0.00000E+00
    0.43555E+06        -0.88748E+07         0.00000E+00
    0.00000E+00         0.00000E+00         0.00000E+00
 
    0.16051E+07         0.51414E+06         0.00000E+00
    0.51414E+06        -0.88726E+07         0.00000E+00
    0.00000E+00         0.00000E+00         0.00000E+00
 
    0.15727E+07         0.59257E+06         0.00000E+00
    0.59257E+06        -0.88700E+07         0.00000E+00
    0.00000E+00         0.00000E+00         0.00000E+00
 
    0.15401E+07         0.67084E+06         0.00000E+00
    0.67084E+06        -0.88670E+07         0.00000E+00
    0.00000E+00         0.00000E+00         0.00000E+00
 
    0.15073E+07         0.74896E+06         0.00000E+00
    0.74896E+06        -0.88636E+07         0.00000E+00
    0.00000E+00         0.00000E+00         0.00000E+00
 
    0.14743E+07         0.82693E+06         0.00000E+00
    0.82693E+06        -0.88599E+07         0.00000E+00
    0.00000E+00         0.00000E+00         0.00000E+00
 
    0.14411E+07         0.90475E+06         0.00000E+00
    0.90475E+06        -0.88558E+07         0.00000E+00
    0.00000E+00         0.00000E+00         0.00000E+00
 
    0.14077E+07         0.98244E+06         0.00000E+00
    0.98244E+06        -0.88514E+07         0.00000E+00
    0.00000E+00         0.00000E+00         0.00000E+00
 
    0.13741E+07         0.10600E+07         0.00000E+00
    0.10600E+07        -0.88465E+07         0.00000E+00
    0.00000E+00         0.00000E+00         0.00000E+00
 
    0.13404E+07         0.11374E+07         0.00000E+00
    0.11374E+07        -0.88413E+07         0.00000E+00
    0.00000E+00         0.00000E+00         0.00000E+00
 
    0.13064E+07         0.12148E+07         0.00000E+00
    0.12148E+07        -0.88357E+07         0.00000E+00
    0.00000E+00         0.00000E+00         0.00000E+00
 
    0.12722E+07         0.12920E+07         0.00000E+00
    0.12920E+07        -0.88298E+07         0.00000E+00
    0.00000E+00         0.00000E+00         0.00000E+00
 
    0.12379E+07         0.13691E+07         0.00000E+00
    0.13691E+07        -0.88235E+07         0.00000E+00
    0.00000E+00         0.00000E+00         0.00000E+00
 
    0.12034E+07         0.14461E+07         0.00000E+00
    0.14461E+07        -0.88168E+07         0.00000E+00
    0.00000E+00         0.00000E+00         0.00000E+00
 
    0.11686E+07         0.15230E+07         0.00000E+00
    0.15230E+07        -0.88097E+07         0.00000E+00
    0.00000E+00         0.00000E+00         0.00000E+00
 
    0.11337E+07         0.15998E+07         0.00000E+00
    0.15998E+07        -0.88022E+07         0.00000E+00
    0.00000E+00         0.00000E+00         0.00000E+00
 
    0.10987E+07         0.16766E+07         0.00000E+00
    0.16766E+07        -0.87944E+07         0.00000E+00
    0.00000E+00         0.00000E+00         0.00000E+00
 
    0.10634E+07         0.17533E+07         0.00000E+00
    0.17533E+07        -0.87862E+07         0.00000E+00
    0.00000E+00         0.00000E+00         0.00000E+00
 
    0.10279E+07         0.18300E+07         0.00000E+00
    0.18300E+07        -0.87775E+07         0.00000E+00
    0.00000E+00         0.00000E+00         0.00000E+00
 
    0.99225E+06         0.19066E+07         0.00000E+00
    0.19066E+07        -0.87685E+07         0.00000E+00
    0.00000E+00         0.00000E+00         0.00000E+00
 
    0.95640E+06         0.19831E+07         0.00000E+00
    0.19831E+07        -0.87591E+07         0.00000E+00
    0.00000E+00         0.00000E+00         0.00000E+00
 
    0.92035E+06         0.20596E+07         0.00000E+00
    0.20596E+07        -0.87493E+07         0.00000E+00
    0.00000E+00         0.00000E+00         0.00000E+00
 
    0.88410E+06         0.21361E+07         0.00000E+00
    0.21361E+07        -0.87391E+07         0.00000E+00
    0.00000E+00         0.00000E+00         0.00000E+00
 
    0.84765E+06         0.22126E+07         0.00000E+00
    0.22126E+07        -0.87285E+07         0.00000E+00
    0.00000E+00         0.00000E+00         0.00000E+00
 
    0.81098E+06         0.22891E+07         0.00000E+00
    0.22891E+07        -0.87174E+07         0.00000E+00
    0.00000E+00         0.00000E+00         0.00000E+00
 
    0.77410E+06         0.23655E+07         0.00000E+00
    0.23655E+07        -0.87060E+07         0.00000E+00
    0.00000E+00         0.00000E+00         0.00000E+00
 
    0.73700E+06         0.24420E+07         0.00000E+00
    0.24420E+07        -0.86941E+07         0.00000E+00
    0.00000E+00         0.00000E+00         0.00000E+00
 
    0.69967E+06         0.25185E+07         0.00000E+00
    0.25185E+07        -0.86818E+07         0.00000E+00
    0.00000E+00         0.00000E+00         0.00000E+00
 
    0.66211E+06         0.25950E+07         0.00000E+00
    0.25950E+07        -0.86690E+07         0.00000E+00
    0.00000E+00         0.00000E+00         0.00000E+00
 
    0.62431E+06         0.26715E+07         0.00000E+00
    0.26715E+07        -0.86558E+07         0.00000E+00
    0.00000E+00         0.00000E+00         0.00000E+00
 
    0.58625E+06         0.27481E+07         0.00000E+00
    0.27481E+07        -0.86421E+07         0.00000E+00
    0.00000E+00         0.00000E+00         0.00000E+00
 
    0.54794E+06         0.28247E+07         0.00000E+00
    0.28247E+07        -0.86280E+07         0.00000E+00
    0.00000E+00         0.00000E+00         0.00000E+00
 
    0.50936E+06         0.29014E+07         0.00000E+00
    0.29014E+07        -0.86134E+07         0.00000E+00
    0.00000E+00         0.00000E+00         0.00000E+00
 
    0.47050E+06         0.29781E+07         0.00000E+00
    0.29781E+07        -0.85984E+07         0.00000E+00
    0.00000E+00         0.00000E+00         0.00000E+00
 
    0.43136E+06         0.30549E+07         0.00000E+00
    0.30549E+07        -0.85828E+07         0.00000E+00
    0.00000E+00         0.00000E+00         0.00000E+00
 
    0.39192E+06         0.31317E+07         0.00000E+00
    0.31317E+07        -0.85668E+07         0.00000E+00
    0.00000E+00         0.00000E+00         0.00000E+00
 
    0.35216E+06         0.32087E+07         0.00000E+00
    0.32087E+07        -0.85502E+07         0.00000E+00
    0.00000E+00         0.00000E+00         0.00000E+00
 
    0.31209E+06         0.32857E+07         0.00000E+00
    0.32857E+07        -0.85332E+07         0.00000E+00
    0.00000E+00         0.00000E+00         0.00000E+00
 
    0.27168E+06         0.33628E+07         0.00000E+00
    0.33628E+07        -0.85156E+07         0.00000E+00
    0.00000E+00         0.00000E+00         0.00000E+00
 
    0.23093E+06         0.34400E+07         0.00000E+00
    0.34400E+07        -0.84975E+07         0.00000E+00
    0.00000E+00         0.00000E+00         0.00000E+00
 
    0.18981E+06         0.35172E+07         0.00000E+00
    0.35172E+07        -0.84788E+07         0.00000E+00
    0.00000E+00         0.00000E+00         0.00000E+00
 
    0.14832E+06         0.35946E+07         0.00000E+00
    0.35946E+07        -0.84596E+07         0.00000E+00
    0.00000E+00         0.00000E+00         0.00000E+00
 
    0.10644E+06         0.36721E+07         0.00000E+00
    0.36721E+07        -0.84398E+07         0.00000E+00
    0.00000E+00         0.00000E+00         0.00000E+00
 
    0.64159E+05         0.37497E+07         0.00000E+00
    0.37497E+07        -0.84194E+07         0.00000E+00
    0.00000E+00         0.00000E+00         0.00000E+00
 
    0.21457E+05         0.38274E+07         0.00000E+00
    0.38274E+07        -0.83985E+07         0.00000E+00
    0.00000E+00         0.00000E+00         0.00000E+00
 
    0.18022E+07         0.41027E+05         0.00000E+00
    0.41027E+05        -0.92759E+07         0.00000E+00
    0.00000E+00         0.00000E+00         0.00000E+00
 
    0.17702E+07         0.12253E+06         0.00000E+00
    0.12253E+06        -0.92755E+07         0.00000E+00
    0.00000E+00         0.00000E+00         0.00000E+00
 
    0.17380E+07         0.20384E+06         0.00000E+00
    0.20384E+06        -0.92748E+07         0.00000E+00
    0.00000E+00         0.00000E+00         0.00000E+00
 
    0.17055E+07         0.28496E+06         0.00000E+00
    0.28496E+06        -0.92737E+07         0.00000E+00
    0.00000E+00         0.00000E+00         0.00000E+00
 
    0.16729E+07         0.36588E+06         0.00000E+00
    0.36588E+06        -0.92722E+07         0.00000E+00
    0.00000E+00         0.00000E+00         0.00000E+00
 
    0.16401E+07         0.44662E+06         0.00000E+00
    0.44662E+06        -0.92703E+07         0.00000E+00
    0.00000E+00         0.00000E+00         0.00000E+00
 
    0.16070E+07         0.52719E+06         0.00000E+00
    0.52719E+06        -0.92681E+07         0.00000E+00
    0.00000E+00         0.00000E+00         0.00000E+00
 
    0.15738E+07         0.60757E+06         0.00000E+00
    0.60757E+06        -0.92656E+07         0.00000E+00
    0.00000E+00         0.00000E+00         0.00000E+00
 
    0.15404E+07         0.68779E+06         0.00000E+00
    0.68779E+06        -0.92626E+07         0.00000E+00
    0.00000E+00         0.00000E+00         0.00000E+00
 
    0.15068E+07         0.76784E+06         0.00000E+00
    0.76784E+06        -0.92593E+07         0.00000E+00
    0.00000E+00         0.00000E+00         0.00000E+00
 
    0.14730E+07         0.84774E+06         0.00000E+00
    0.84774E+06        -0.92557E+07         0.00000E+00
    0.00000E+00         0.00000E+00         0.00000E+00
 
    0.14391E+07         0.92749E+06         0.00000E+00
    0.92749E+06        -0.92516E+07         0.00000E+00
    0.00000E+00         0.00000E+00         0.00000E+00
 
    0.14050E+07         0.10071E+07         0.00000E+00
    0.10071E+07        -0.92473E+07         0.00000E+00
    0.00000E+00         0.00000E+00         0.00000E+00
 
    0.13708E+07         0.10866E+07         0.00000E+00
    0.10866E+07        -0.92425E+07         0.00000E+00
    0.00000E+00         0.00000E+00         0.00000E+00
 
    0.13364E+07         0.11659E+07         0.00000E+00
    0.11659E+07        -0.92374E+07         0.00000E+00
    0.00000E+00         0.00000E+00         0.00000E+00
 
    0.13018E+07         0.12451E+07         0.00000E+00
    0.12451E+07        -0.92320E+07         0.00000E+00
    0.00000E+00         0.00000E+00         0.00000E+00
 
    0.12671E+07         0.13242E+07         0.00000E+00
    0.13242E+07        -0.92261E+07         0.00000E+00
    0.00000E+00         0.00000E+00         0.00000E+00
 
    0.12322E+07         0.14032E+07         0.00000E+00
    0.14032E+07        -0.92200E+07         0.00000E+00
    0.00000E+00         0.00000E+00         0.00000E+00
 
    0.11972E+07         0.14821E+07         0.00000E+00
    0.14821E+07        -0.92134E+07         0.00000E+00
    0.00000E+00         0.00000E+00         0.00000E+00
 
    0.11621E+07         0.15610E+07         0.00000E+00
    0.15610E+07        -0.92065E+07         0.00000E+00
    0.00000E+00         0.00000E+00         0.00000E+00
 
    0.11268E+07         0.16397E+07         0.00000E+00
    0.16397E+07        -0.91992E+07         0.00000E+00
    0.00000E+00         0.00000E+00         0.00000E+00
 
    0.10913E+07         0.17184E+07         0.00000E+00
    0.17184E+07        -0.91916E+07         0.00000E+00
    0.00000E+00         0.00000E+00         0.00000E+00
 
    0.10558E+07         0.17970E+07         0.00000E+00
    0.17970E+07        -0.91836E+07         0.00000E+00
    0.00000E+00         0.00000E+00         0.00000E+00
 
    0.10200E+07         0.18756E+07         0.00000E+00
    0.18756E+07        -0.91752E+07         0.00000E+00
    0.00000E+00         0.00000E+00         0.00000E+00
 
    0.98415E+06         0.19542E+07         0.00000E+00
    0.19542E+07        -0.91664E+07         0.00000E+00
    0.00000E+00         0.00000E+00         0.00000E+00
 
    0.94813E+06         0.20327E+07         0.00000E+00
    0.20327E+07        -0.91572E+07         0.00000E+00
    0.00000E+00         0.00000E+00         0.00000E+00
 
    0.91194E+06         0.21112E+07         0.00000E+00
    0.21112E+07        -0.91477E+07         0.00000E+00
    0.00000E+00         0.00000E+00         0.00000E+00
 
    0.87561E+06         0.21897E+07         0.00000E+00
    0.21897E+07        -0.91378E+07         0.00000E+00
    0.00000E+00         0.00000E+00         0.00000E+00
 
    0.83911E+06         0.22681E+07         0.00000E+00
    0.22681E+07        -0.91274E+07         0.00000E+00
    0.00000E+00         0.00000E+00         0.00000E+00
 
    0.80245E+06         0.23466E+07         0.00000E+00
    0.23466E+07        -0.91167E+07         0.00000E+00
    0.00000E+00         0.00000E+00         0.00000E+00
 
    0.76561E+06         0.24252E+07         0.00000E+00
    0.24252E+07        -0.91056E+07         0.00000E+00
    0.00000E+00         0.00000E+00         0.00000E+00
 
    0.72860E+06         0.25037E+07         0.00000E+00
    0.25037E+07        -0.90940E+07         0.00000E+00
    0.00000E+00         0.00000E+00         0.00000E+00
 
    0.69141E+06         0.25823E+07         0.00000E+00
    0.25823E+07        -0.90820E+07         0.00000E+00
    0.00000E+00         0.00000E+00         0.00000E+00
 
    0.65402E+06         0.26609E+07         0.00000E+00
    0.26609E+07        -0.90696E+07         0.00000E+00
    0.00000E+00         0.00000E+00         0.00000E+00
 
    0.61644E+06         0.27396E+07         0.00000E+00
    0.27396E+07        -0.90568E+07         0.00000E+00
    0.00000E+00         0.00000E+00         0.00000E+00
 
    0.57864E+06         0.28184E+07         0.00000E+00
    0.28184E+07        -0.90435E+07         0.00000E+00
    0.00000E+00         0.00000E+00         0.00000E+00
 
    0.54063E+06         0.28973E+07         0.00000E+00
    0.28973E+07        -0.90297E+07         0.00000E+00
    0.00000E+00         0.00000E+00         0.00000E+00
 
    0.50239E+06         0.29762E+07         0.00000E+00
    0.29762E+07        -0.90155E+07         0.00000E+00
    0.00000E+00         0.00000E+00         0.00000E+00
 
    0.46391E+06         0.30552E+07         0.00000E+00
    0.30552E+07        -0.90009E+07         0.00000E+00
    0.00000E+00         0.00000E+00         0.00000E+00
 
    0.42518E+06         0.31344E+07         0.00000E+00
    0.31344E+07        -0.89857E+07         0.00000E+00
    0.00000E+00         0.00000E+00         0.00000E+00
 
    0.38619E+06         0.32136E+07         0.00000E+00
    0.32136E+07        -0.89701E+07         0.00000E+00
    0.00000E+00         0.00000E+00         0.00000E+00
 
    0.34692E+06         0.32930E+07         0.00000E+00
    0.32930E+07        -0.89539E+07         0.00000E+00
    0.00000E+00         0.00000E+00         0.00000E+00
 
    0.30737E+06         0.33724E+07         0.00000E+00
    0.33724E+07        -0.89372E+07         0.00000E+00
    0.00000E+00         0.00000E+00         0.00000E+00
 
    0.26751E+06         0.34521E+07         0.00000E+00
    0.34521E+07        -0.89201E+07         0.00000E+00
    0.00000E+00         0.00000E+00         0.00000E+00
 
    0.22733E+06         0.35318E+07         0.00000E+00
    0.35318E+07        -0.89023E+07         0.00000E+00
    0.00000E+00         0.00000E+00         0.00000E+00
 
    0.18682E+06         0.36117E+07         0.00000E+00
    0.36117E+07        -0.88841E+07         0.00000E+00
    0.00000E+00         0.00000E+00         0.00000E+00
 
    0.14596E+06         0.36918E+07         0.00000E+00
    0.36918E+07        -0.88652E+07         0.00000E+00
    0.00000E+00         0.00000E+00         0.00000E+00
 
    0.10473E+06         0.37720E+07         0.00000E+00
    0.37720E+07        -0.88458E+07         0.00000E+00
    0.00000E+00         0.00000E+00         0.00000E+00
 
    0.63119E+05         0.38524E+07         0.00000E+00
    0.38524E+07        -0.88258E+07         0.00000E+00
    0.00000E+00         0.00000E+00         0.00000E+00
 
    0.21108E+05         0.39329E+07         0.00000E+00
    0.39329E+07        -0.88052E+07         0.00000E+00
    0.00000E+00         0.00000E+00         0.00000E+00
 
    0.18051E+07         0.42070E+05         0.00000E+00
    0.42070E+05        -0.96861E+07         0.00000E+00
    0.00000E+00         0.00000E+00         0.00000E+00
 
    0.17721E+07         0.12560E+06         0.00000E+00
    0.12560E+06        -0.96858E+07         0.00000E+00
    0.00000E+00         0.00000E+00         0.00000E+00
 
    0.17388E+07         0.20892E+06         0.00000E+00
    0.20892E+06        -0.96850E+07         0.00000E+00
    0.00000E+00         0.00000E+00         0.00000E+00
 
    0.17054E+07         0.29203E+06         0.00000E+00
    0.29203E+06        -0.96839E+07         0.00000E+00
    0.00000E+00         0.00000E+00         0.00000E+00
 
    0.16718E+07         0.37493E+06         0.00000E+00
    0.37493E+06        -0.96824E+07         0.00000E+00
    0.00000E+00         0.00000E+00         0.00000E+00
 
    0.16380E+07         0.45762E+06         0.00000E+00
    0.45762E+06        -0.96806E+07         0.00000E+00
    0.00000E+00         0.00000E+00         0.00000E+00
 
    0.16040E+07         0.54012E+06         0.00000E+00
    0.54012E+06        -0.96784E+07         0.00000E+00
    0.00000E+00         0.00000E+00         0.00000E+00
 
    0.15699E+07         0.62243E+06         0.00000E+00
    0.62243E+06        -0.96759E+07         0.00000E+00
    0.00000E+00         0.00000E+00         0.00000E+00
 
    0.15356E+07         0.70455E+06         0.00000E+00
    0.70455E+06        -0.96730E+07         0.00000E+00
    0.00000E+00         0.00000E+00         0.00000E+00
 
    0.15011E+07         0.78649E+06         0.00000E+00
    0.78649E+06        -0.96698E+07         0.00000E+00
    0.00000E+00         0.00000E+00         0.00000E+00
 
    0.14666E+07         0.86826E+06         0.00000E+00
    0.86826E+06        -0.96662E+07         0.00000E+00
    0.00000E+00         0.00000E+00         0.00000E+00
 
    0.14319E+07         0.94987E+06         0.00000E+00
    0.94987E+06        -0.96623E+07         0.00000E+00
    0.00000E+00         0.00000E+00         0.00000E+00
 
    0.13970E+07         0.10313E+07         0.00000E+00
    0.10313E+07        -0.96580E+07         0.00000E+00
    0.00000E+00         0.00000E+00         0.00000E+00
 
    0.13621E+07         0.11126E+07         0.00000E+00
    0.11126E+07        -0.96534E+07         0.00000E+00
    0.00000E+00         0.00000E+00         0.00000E+00
 
    0.13270E+07         0.11938E+07         0.00000E+00
    0.11938E+07        -0.96484E+07         0.00000E+00
    0.00000E+00         0.00000E+00         0.00000E+00
 
    0.12919E+07         0.12749E+07         0.00000E+00
    0.12749E+07        -0.96431E+07         0.00000E+00
    0.00000E+00         0.00000E+00         0.00000E+00
 
    0.12566E+07         0.13558E+07         0.00000E+00
    0.13558E+07        -0.96375E+07         0.00000E+00
    0.00000E+00         0.00000E+00         0.00000E+00
 
    0.12212E+07         0.14366E+07         0.00000E+00
    0.14366E+07        -0.96315E+07         0.00000E+00
    0.00000E+00         0.00000E+00         0.00000E+00
 
    0.11857E+07         0.15174E+07         0.00000E+00
    0.15174E+07        -0.96251E+07         0.00000E+00
    0.00000E+00         0.00000E+00         0.00000E+00
 
    0.11502E+07         0.15980E+07         0.00000E+00
    0.15980E+07        -0.96184E+07         0.00000E+00
    0.00000E+00         0.00000E+00         0.00000E+00
 
    0.11145E+07         0.16786E+07         0.00000E+00
    0.16786E+07        -0.96114E+07         0.00000E+00
    0.00000E+00         0.00000E+00         0.00000E+00
 
    0.10788E+07         0.17591E+07         0.00000E+00
    0.17591E+07        -0.96040E+07         0.00000E+00
    0.00000E+00         0.00000E+00         0.00000E+00
 
    0.10429E+07         0.18396E+07         0.00000E+00
    0.18396E+07        -0.95963E+07         0.00000E+00
    0.00000E+00         0.00000E+00         0.00000E+00
 
    0.10070E+07         0.19200E+07         0.00000E+00
    0.19200E+07        -0.95882E+07         0.00000E+00
    0.00000E+00         0.00000E+00         0.00000E+00
 
    0.97096E+06         0.20005E+07         0.00000E+00
    0.20005E+07        -0.95797E+07         0.00000E+00
    0.00000E+00         0.00000E+00         0.00000E+00
 
    0.93483E+06         0.20808E+07         0.00000E+00
    0.20808E+07        -0.95709E+07         0.00000E+00
    0.00000E+00         0.00000E+00         0.00000E+00
 
    0.89860E+06         0.21612E+07         0.00000E+00
    0.21612E+07        -0.95617E+07         0.00000E+00
    0.00000E+00         0.00000E+00         0.00000E+00
 
    0.86228E+06         0.22416E+07         0.00000E+00
    0.22416E+07        -0.95521E+07         0.00000E+00
    0.00000E+00         0.00000E+00         0.00000E+00
 
    0.82585E+06         0.23221E+07         0.00000E+00
    0.23221E+07        -0.95422E+07         0.00000E+00
    0.00000E+00         0.00000E+00         0.00000E+00
 
    0.78930E+06         0.24025E+07         0.00000E+00
    0.24025E+07        -0.95318E+07         0.00000E+00
    0.00000E+00         0.00000E+00         0.00000E+00
 
    0.75264E+06         0.24830E+07         0.00000E+00
    0.24830E+07        -0.95211E+07         0.00000E+00
    0.00000E+00         0.00000E+00         0.00000E+00
 
    0.71586E+06         0.25636E+07         0.00000E+00
    0.25636E+07        -0.95100E+07         0.00000E+00
    0.00000E+00         0.00000E+00         0.00000E+00
 
    0.67895E+06         0.26442E+07         0.00000E+00
    0.26442E+07        -0.94985E+07         0.00000E+00
    0.00000E+00         0.00000E+00         0.00000E+00
 
    0.64190E+06         0.27249E+07         0.00000E+00
    0.27249E+07        -0.94865E+07         0.00000E+00
    0.00000E+00         0.00000E+00         0.00000E+00
 
    0.60470E+06         0.28058E+07         0.00000E+00
    0.28058E+07        -0.94741E+07         0.00000E+00
    0.00000E+00         0.00000E+00         0.00000E+00
 
    0.56735E+06         0.28867E+07         0.00000E+00
    0.28867E+07        -0.94613E+07         0.00000E+00
    0.00000E+00         0.00000E+00         0.00000E+00
 
    0.52983E+06         0.29677E+07         0.00000E+00
    0.29677E+07        -0.94481E+07         0.00000E+00
    0.00000E+00         0.00000E+00         0.00000E+00
 
    0.49213E+06         0.30489E+07         0.00000E+00
    0.30489E+07        -0.94344E+07         0.00000E+00
    0.00000E+00         0.00000E+00         0.00000E+00
 
    0.45424E+06         0.31301E+07         0.00000E+00
    0.31301E+07        -0.94202E+07         0.00000E+00
    0.00000E+00         0.00000E+00         0.00000E+00
 
    0.41615E+06         0.32116E+07         0.00000E+00
    0.32116E+07        -0.94056E+07         0.00000E+00
    0.00000E+00         0.00000E+00         0.00000E+00
 
    0.37784E+06         0.32932E+07         0.00000E+00
    0.32932E+07        -0.93905E+07         0.00000E+00
    0.00000E+00         0.00000E+00         0.00000E+00
 
    0.33929E+06         0.33750E+07         0.00000E+00
    0.33750E+07        -0.93749E+07         0.00000E+00
    0.00000E+00         0.00000E+00         0.00000E+00
 
    0.30050E+06         0.34569E+07         0.00000E+00
    0.34569E+07        -0.93588E+07         0.00000E+00
    0.00000E+00         0.00000E+00         0.00000E+00
 
    0.26145E+06         0.35391E+07         0.00000E+00
    0.35391E+07        -0.93421E+07         0.00000E+00
    0.00000E+00         0.00000E+00         0.00000E+00
 
    0.22212E+06         0.36214E+07         0.00000E+00
    0.36214E+07        -0.93249E+07         0.00000E+00
    0.00000E+00         0.00000E+00         0.00000E+00
 
    0.18248E+06         0.37039E+07         0.00000E+00
    0.37039E+07        -0.93072E+07         0.00000E+00
    0.00000E+00         0.00000E+00         0.00000E+00
 
    0.14254E+06         0.37867E+07         0.00000E+00
    0.37867E+07        -0.92889E+07         0.00000E+00
    0.00000E+00         0.00000E+00         0.00000E+00
 
    0.10225E+06         0.38696E+07         0.00000E+00
    0.38696E+07        -0.92700E+07         0.00000E+00
    0.00000E+00         0.00000E+00         0.00000E+00
 
    0.61617E+05         0.39528E+07         0.00000E+00
    0.39528E+07        -0.92506E+07         0.00000E+00
    0.00000E+00         0.00000E+00         0.00000E+00
 
    0.20603E+05         0.40362E+07         0.00000E+00
    0.40362E+07        -0.92305E+07         0.00000E+00
    0.00000E+00         0.00000E+00         0.00000E+00
 
    0.18032E+07         0.43119E+05         0.00000E+00
    0.43119E+05        -0.10111E+08         0.00000E+00
    0.00000E+00         0.00000E+00         0.00000E+00
 
    0.17690E+07         0.12867E+06         0.00000E+00
    0.12867E+06        -0.10111E+08         0.00000E+00
    0.00000E+00         0.00000E+00         0.00000E+00
 
    0.17346E+07         0.21398E+06         0.00000E+00
    0.21398E+06        -0.10110E+08         0.00000E+00
    0.00000E+00         0.00000E+00         0.00000E+00
 
    0.17001E+07         0.29905E+06         0.00000E+00
    0.29905E+06        -0.10109E+08         0.00000E+00
    0.00000E+00         0.00000E+00         0.00000E+00
 
    0.16654E+07         0.38389E+06         0.00000E+00
    0.38389E+06        -0.10108E+08         0.00000E+00
    0.00000E+00         0.00000E+00         0.00000E+00
 
    0.16305E+07         0.46850E+06         0.00000E+00
    0.46850E+06        -0.10106E+08         0.00000E+00
    0.00000E+00         0.00000E+00         0.00000E+00
 
    0.15955E+07         0.55288E+06         0.00000E+00
    0.55288E+06        -0.10104E+08         0.00000E+00
    0.00000E+00         0.00000E+00         0.00000E+00
 
    0.15603E+07         0.63705E+06         0.00000E+00
    0.63705E+06        -0.10101E+08         0.00000E+00
    0.00000E+00         0.00000E+00         0.00000E+00
 
    0.15251E+07         0.72102E+06         0.00000E+00
    0.72102E+06        -0.10098E+08         0.00000E+00
    0.00000E+00         0.00000E+00         0.00000E+00
 
    0.14897E+07         0.80479E+06         0.00000E+00
    0.80479E+06        -0.10095E+08         0.00000E+00
    0.00000E+00         0.00000E+00         0.00000E+00
 
    0.14543E+07         0.88836E+06         0.00000E+00
    0.88836E+06        -0.10092E+08         0.00000E+00
    0.00000E+00         0.00000E+00         0.00000E+00
 
    0.14187E+07         0.97176E+06         0.00000E+00
    0.97176E+06        -0.10088E+08         0.00000E+00
    0.00000E+00         0.00000E+00         0.00000E+00
 
    0.13831E+07         0.10550E+07         0.00000E+00
    0.10550E+07        -0.10084E+08         0.00000E+00
    0.00000E+00         0.00000E+00         0.00000E+00
 
    0.13474E+07         0.11381E+07         0.00000E+00
    0.11381E+07        -0.10079E+08         0.00000E+00
    0.00000E+00         0.00000E+00         0.00000E+00
 
    0.13117E+07         0.12210E+07         0.00000E+00
    0.12210E+07        -0.10075E+08         0.00000E+00
    0.00000E+00         0.00000E+00         0.00000E+00
 
    0.12759E+07         0.13038E+07         0.00000E+00
    0.13038E+07        -0.10070E+08         0.00000E+00
    0.00000E+00         0.00000E+00         0.00000E+00
 
    0.12400E+07         0.13865E+07         0.00000E+00
    0.13865E+07        -0.10064E+08         0.00000E+00
    0.00000E+00         0.00000E+00         0.00000E+00
 
    0.12041E+07         0.14690E+07         0.00000E+00
    0.14690E+07        -0.10058E+08         0.00000E+00
    0.00000E+00         0.00000E+00         0.00000E+00
 
    0.11682E+07         0.15515E+07         0.00000E+00
    0.15515E+07        -0.10052E+08         0.00000E+00
    0.00000E+00         0.00000E+00         0.00000E+00
 
    0.11322E+07         0.16339E+07         0.00000E+00
    0.16339E+07        -0.10046E+08         0.00000E+00
    0.00000E+00         0.00000E+00         0.00000E+00
 
    0.10962E+07         0.17162E+07         0.00000E+00
    0.17162E+07        -0.10039E+08         0.00000E+00
    0.00000E+00         0.00000E+00         0.00000E+00
 
    0.10602E+07         0.17984E+07         0.00000E+00
    0.17984E+07        -0.10032E+08         0.00000E+00
    0.00000E+00         0.00000E+00         0.00000E+00
 
    0.10242E+07         0.18807E+07         0.00000E+00
    0.18807E+07        -0.10025E+08         0.00000E+00
    0.00000E+00         0.00000E+00         0.00000E+00
 
    0.98807E+06         0.19628E+07         0.00000E+00
    0.19628E+07        -0.10017E+08         0.00000E+00
    0.00000E+00         0.00000E+00         0.00000E+00
 
    0.95196E+06         0.20450E+07         0.00000E+00
    0.20450E+07        -0.10009E+08         0.00000E+00
    0.00000E+00         0.00000E+00         0.00000E+00
 
    0.91582E+06         0.21272E+07         0.00000E+00
    0.21272E+07        -0.10001E+08         0.00000E+00
    0.00000E+00         0.00000E+00         0.00000E+00
 
    0.87964E+06         0.22094E+07         0.00000E+00
    0.22094E+07        -0.99918E+07         0.00000E+00
    0.00000E+00         0.00000E+00         0.00000E+00
 
    0.84343E+06         0.22916E+07         0.00000E+00
    0.22916E+07        -0.99827E+07         0.00000E+00
    0.00000E+00         0.00000E+00         0.00000E+00
 
    0.80719E+06         0.23739E+07         0.00000E+00
    0.23739E+07        -0.99732E+07         0.00000E+00
    0.00000E+00         0.00000E+00         0.00000E+00
 
    0.77089E+06         0.24562E+07         0.00000E+00
    0.24562E+07        -0.99634E+07         0.00000E+00
    0.00000E+00         0.00000E+00         0.00000E+00
 
    0.73455E+06         0.25386E+07         0.00000E+00
    0.25386E+07        -0.99532E+07         0.00000E+00
    0.00000E+00         0.00000E+00         0.00000E+00
 
    0.69815E+06         0.26211E+07         0.00000E+00
    0.26211E+07        -0.99426E+07         0.00000E+00
    0.00000E+00         0.00000E+00         0.00000E+00
 
    0.66169E+06         0.27037E+07         0.00000E+00
    0.27037E+07        -0.99317E+07         0.00000E+00
    0.00000E+00         0.00000E+00         0.00000E+00
 
    0.62516E+06         0.27864E+07         0.00000E+00
    0.27864E+07        -0.99203E+07         0.00000E+00
    0.00000E+00         0.00000E+00         0.00000E+00
 
    0.58854E+06         0.28692E+07         0.00000E+00
    0.28692E+07        -0.99086E+07         0.00000E+00
    0.00000E+00         0.00000E+00         0.00000E+00
 
    0.55183E+06         0.29522E+07         0.00000E+00
    0.29522E+07        -0.98964E+07         0.00000E+00
    0.00000E+00         0.00000E+00         0.00000E+00
 
    0.51502E+06         0.30353E+07         0.00000E+00
    0.30353E+07        -0.98838E+07         0.00000E+00
    0.00000E+00         0.00000E+00         0.00000E+00
 
    0.47809E+06         0.31187E+07         0.00000E+00
    0.31187E+07        -0.98707E+07         0.00000E+00
    0.00000E+00         0.00000E+00         0.00000E+00
 
    0.44102E+06         0.32022E+07         0.00000E+00
    0.32022E+07        -0.98572E+07         0.00000E+00
    0.00000E+00         0.00000E+00         0.00000E+00
 
    0.40382E+06         0.32859E+07         0.00000E+00
    0.32859E+07        -0.98433E+07         0.00000E+00
    0.00000E+00         0.00000E+00         0.00000E+00
 
    0.36645E+06         0.33698E+07         0.00000E+00
    0.33698E+07        -0.98288E+07         0.00000E+00
    0.00000E+00         0.00000E+00         0.00000E+00
 
    0.32891E+06         0.34539E+07         0.00000E+00
    0.34539E+07        -0.98139E+07         0.00000E+00
    0.00000E+00         0.00000E+00         0.00000E+00
 
    0.29117E+06         0.35383E+07         0.00000E+00
    0.35383E+07        -0.97985E+07         0.00000E+00
    0.00000E+00         0.00000E+00         0.00000E+00
 
    0.25322E+06         0.36230E+07         0.00000E+00
    0.36230E+07        -0.97826E+07         0.00000E+00
    0.00000E+00         0.00000E+00         0.00000E+00
 
    0.21504E+06         0.37078E+07         0.00000E+00
    0.37078E+07        -0.97661E+07         0.00000E+00
    0.00000E+00         0.00000E+00         0.00000E+00
 
    0.17660E+06         0.37930E+07         0.00000E+00
    0.37930E+07        -0.97491E+07         0.00000E+00
    0.00000E+00         0.00000E+00         0.00000E+00
 
    0.13790E+06         0.38785E+07         0.00000E+00
    0.38785E+07        -0.97315E+07         0.00000E+00
    0.00000E+00         0.00000E+00         0.00000E+00
 
    0.98895E+05         0.39642E+07         0.00000E+00
    0.39642E+07        -0.97134E+07         0.00000E+00
    0.00000E+00         0.00000E+00         0.00000E+00
 
    0.59577E+05         0.40502E+07         0.00000E+00
    0.40502E+07        -0.96946E+07         0.00000E+00
    0.00000E+00         0.00000E+00         0.00000E+00
 
    0.19918E+05         0.41366E+07         0.00000E+00
    0.41366E+07        -0.96753E+07         0.00000E+00
    0.00000E+00         0.00000E+00         0.00000E+00
 
    0.17962E+07         0.44172E+05         0.00000E+00
    0.44172E+05        -0.10552E+08         0.00000E+00
    0.00000E+00         0.00000E+00         0.00000E+00
 
    0.17607E+07         0.13173E+06         0.00000E+00
    0.13173E+06        -0.10551E+08         0.00000E+00
    0.00000E+00         0.00000E+00         0.00000E+00
 
    0.17250E+07         0.21900E+06         0.00000E+00
    0.21900E+06        -0.10551E+08         0.00000E+00
    0.00000E+00         0.00000E+00         0.00000E+00
 
    0.16892E+07         0.30599E+06         0.00000E+00
    0.30599E+06        -0.10550E+08         0.00000E+00
    0.00000E+00         0.00000E+00         0.00000E+00
 
    0.16532E+07         0.39272E+06         0.00000E+00
    0.39272E+06        -0.10548E+08         0.00000E+00
    0.00000E+00         0.00000E+00         0.00000E+00
 
    0.16171E+07         0.47918E+06         0.00000E+00
    0.47918E+06        -0.10546E+08         0.00000E+00
    0.00000E+00         0.00000E+00         0.00000E+00
 
    0.15810E+07         0.56538E+06         0.00000E+00
    0.56538E+06        -0.10544E+08         0.00000E+00
    0.00000E+00         0.00000E+00         0.00000E+00
 
    0.15447E+07         0.65135E+06         0.00000E+00
    0.65135E+06        -0.10542E+08         0.00000E+00
    0.00000E+00         0.00000E+00         0.00000E+00
 
    0.15084E+07         0.73707E+06         0.00000E+00
    0.73707E+06        -0.10539E+08         0.00000E+00
    0.00000E+00         0.00000E+00         0.00000E+00
 
    0.14720E+07         0.82258E+06         0.00000E+00
    0.82258E+06        -0.10536E+08         0.00000E+00
    0.00000E+00         0.00000E+00         0.00000E+00
 
    0.14355E+07         0.90787E+06         0.00000E+00
    0.90787E+06        -0.10533E+08         0.00000E+00
    0.00000E+00         0.00000E+00         0.00000E+00
 
    0.13991E+07         0.99296E+06         0.00000E+00
    0.99296E+06        -0.10529E+08         0.00000E+00
    0.00000E+00         0.00000E+00         0.00000E+00
 
    0.13626E+07         0.10779E+07         0.00000E+00
    0.10779E+07        -0.10525E+08         0.00000E+00
    0.00000E+00         0.00000E+00         0.00000E+00
 
    0.13261E+07         0.11626E+07         0.00000E+00
    0.11626E+07        -0.10521E+08         0.00000E+00
    0.00000E+00         0.00000E+00         0.00000E+00
 
    0.12896E+07         0.12472E+07         0.00000E+00
    0.12472E+07        -0.10517E+08         0.00000E+00
    0.00000E+00         0.00000E+00         0.00000E+00
 
    0.12531E+07         0.13316E+07         0.00000E+00
    0.13316E+07        -0.10512E+08         0.00000E+00
    0.00000E+00         0.00000E+00         0.00000E+00
 
    0.12167E+07         0.14159E+07         0.00000E+00
    0.14159E+07        -0.10507E+08         0.00000E+00
    0.00000E+00         0.00000E+00         0.00000E+00
 
    0.11802E+07         0.15000E+07         0.00000E+00
    0.15000E+07        -0.10501E+08         0.00000E+00
    0.00000E+00         0.00000E+00         0.00000E+00
 
    0.11438E+07         0.15841E+07         0.00000E+00
    0.15841E+07        -0.10495E+08         0.00000E+00
    0.00000E+00         0.00000E+00         0.00000E+00
 
    0.11075E+07         0.16681E+07         0.00000E+00
    0.16681E+07        -0.10489E+08         0.00000E+00
    0.00000E+00         0.00000E+00         0.00000E+00
 
    0.10712E+07         0.17520E+07         0.00000E+00
    0.17520E+07        -0.10483E+08         0.00000E+00
    0.00000E+00         0.00000E+00         0.00000E+00
 
    0.10349E+07         0.18359E+07         0.00000E+00
    0.18359E+07        -0.10476E+08         0.00000E+00
    0.00000E+00         0.00000E+00         0.00000E+00
 
    0.99867E+06         0.19197E+07         0.00000E+00
    0.19197E+07        -0.10469E+08         0.00000E+00
    0.00000E+00         0.00000E+00         0.00000E+00
 
    0.96250E+06         0.20035E+07         0.00000E+00
    0.20035E+07        -0.10462E+08         0.00000E+00
    0.00000E+00         0.00000E+00         0.00000E+00
 
    0.92638E+06         0.20873E+07         0.00000E+00
    0.20873E+07        -0.10455E+08         0.00000E+00
    0.00000E+00         0.00000E+00         0.00000E+00
 
    0.89031E+06         0.21712E+07         0.00000E+00
    0.21712E+07        -0.10447E+08         0.00000E+00
    0.00000E+00         0.00000E+00         0.00000E+00
 
    0.85429E+06         0.22550E+07         0.00000E+00
    0.22550E+07        -0.10439E+08         0.00000E+00
    0.00000E+00         0.00000E+00         0.00000E+00
 
    0.81831E+06         0.23389E+07         0.00000E+00
    0.23389E+07        -0.10430E+08         0.00000E+00
    0.00000E+00         0.00000E+00         0.00000E+00
 
    0.78238E+06         0.24229E+07         0.00000E+00
    0.24229E+07        -0.10421E+08         0.00000E+00
    0.00000E+00         0.00000E+00         0.00000E+00
 
    0.74648E+06         0.25070E+07         0.00000E+00
    0.25070E+07        -0.10412E+08         0.00000E+00
    0.00000E+00         0.00000E+00         0.00000E+00
 
    0.71062E+06         0.25912E+07         0.00000E+00
    0.25912E+07        -0.10403E+08         0.00000E+00
    0.00000E+00         0.00000E+00         0.00000E+00
 
    0.67478E+06         0.26755E+07         0.00000E+00
    0.26755E+07        -0.10393E+08         0.00000E+00
    0.00000E+00         0.00000E+00         0.00000E+00
 
    0.63895E+06         0.27599E+07         0.00000E+00
    0.27599E+07        -0.10382E+08         0.00000E+00
    0.00000E+00         0.00000E+00         0.00000E+00
 
    0.60313E+06         0.28445E+07         0.00000E+00
    0.28445E+07        -0.10372E+08         0.00000E+00
    0.00000E+00         0.00000E+00         0.00000E+00
 
    0.56731E+06         0.29293E+07         0.00000E+00
    0.29293E+07        -0.10361E+08         0.00000E+00
    0.00000E+00         0.00000E+00         0.00000E+00
 
    0.53147E+06         0.30142E+07         0.00000E+00
    0.30142E+07        -0.10349E+08         0.00000E+00
    0.00000E+00         0.00000E+00         0.00000E+00
 
    0.49561E+06         0.30994E+07         0.00000E+00
    0.30994E+07        -0.10338E+08         0.00000E+00
    0.00000E+00         0.00000E+00         0.00000E+00
 
    0.45970E+06         0.31848E+07         0.00000E+00
    0.31848E+07        -0.10325E+08         0.00000E+00
    0.00000E+00         0.00000E+00         0.00000E+00
 
    0.42374E+06         0.32705E+07         0.00000E+00
    0.32705E+07        -0.10313E+08         0.00000E+00
    0.00000E+00         0.00000E+00         0.00000E+00
 
    0.38771E+06         0.33564E+07         0.00000E+00
    0.33564E+07        -0.10300E+08         0.00000E+00
    0.00000E+00         0.00000E+00         0.00000E+00
 
    0.35158E+06         0.34425E+07         0.00000E+00
    0.34425E+07        -0.10286E+08         0.00000E+00
    0.00000E+00         0.00000E+00         0.00000E+00
 
    0.31535E+06         0.35290E+07         0.00000E+00
    0.35290E+07        -0.10272E+08         0.00000E+00
    0.00000E+00         0.00000E+00         0.00000E+00
 
    0.27899E+06         0.36158E+07         0.00000E+00
    0.36158E+07        -0.10257E+08         0.00000E+00
    0.00000E+00         0.00000E+00         0.00000E+00
 
    0.24248E+06         0.37029E+07         0.00000E+00
    0.37029E+07        -0.10242E+08         0.00000E+00
    0.00000E+00         0.00000E+00         0.00000E+00
 
    0.20580E+06         0.37903E+07         0.00000E+00
    0.37903E+07        -0.10227E+08         0.00000E+00
    0.00000E+00         0.00000E+00         0.00000E+00
 
    0.16893E+06         0.38781E+07         0.00000E+00
    0.38781E+07        -0.10211E+08         0.00000E+00
    0.00000E+00         0.00000E+00         0.00000E+00
 
    0.13184E+06         0.39662E+07         0.00000E+00
    0.39662E+07        -0.10194E+08         0.00000E+00
    0.00000E+00         0.00000E+00         0.00000E+00
 
    0.94515E+05         0.40547E+07         0.00000E+00
    0.40547E+07        -0.10177E+08         0.00000E+00
    0.00000E+00         0.00000E+00         0.00000E+00
 
    0.56917E+05         0.41436E+07         0.00000E+00
    0.41436E+07        -0.10159E+08         0.00000E+00
    0.00000E+00         0.00000E+00         0.00000E+00
 
    0.19024E+05         0.42328E+07         0.00000E+00
    0.42328E+07        -0.10141E+08         0.00000E+00
    0.00000E+00         0.00000E+00         0.00000E+00
 
    0.17838E+07         0.45227E+05         0.00000E+00
    0.45227E+05        -0.11008E+08         0.00000E+00
    0.00000E+00         0.00000E+00         0.00000E+00
 
    0.17467E+07         0.13474E+06         0.00000E+00
    0.13474E+06        -0.11007E+08         0.00000E+00
    0.00000E+00         0.00000E+00         0.00000E+00
 
    0.17095E+07         0.22392E+06         0.00000E+00
    0.22392E+06        -0.11007E+08         0.00000E+00
    0.00000E+00         0.00000E+00         0.00000E+00
 
    0.16722E+07         0.31278E+06         0.00000E+00
    0.31278E+06        -0.11006E+08         0.00000E+00
    0.00000E+00         0.00000E+00         0.00000E+00
 
    0.16348E+07         0.40132E+06         0.00000E+00
    0.40132E+06        -0.11004E+08         0.00000E+00
    0.00000E+00         0.00000E+00         0.00000E+00
 
    0.15973E+07         0.48955E+06         0.00000E+00
    0.48955E+06        -0.11003E+08         0.00000E+00
    0.00000E+00         0.00000E+00         0.00000E+00
 
    0.15598E+07         0.57749E+06         0.00000E+00
    0.57749E+06        -0.11001E+08         0.00000E+00
    0.00000E+00         0.00000E+00         0.00000E+00
 
    0.15222E+07         0.66514E+06         0.00000E+00
    0.66514E+06        -0.10998E+08         0.00000E+00
    0.00000E+00         0.00000E+00         0.00000E+00
 
    0.14847E+07         0.75252E+06         0.00000E+00
    0.75252E+06        -0.10996E+08         0.00000E+00
    0.00000E+00         0.00000E+00         0.00000E+00
 
    0.14471E+07         0.83964E+06         0.00000E+00
    0.83964E+06        -0.10993E+08         0.00000E+00
    0.00000E+00         0.00000E+00         0.00000E+00
 
    0.14096E+07         0.92652E+06         0.00000E+00
    0.92652E+06        -0.10990E+08         0.00000E+00
    0.00000E+00         0.00000E+00         0.00000E+00
 
    0.13721E+07         0.10132E+07         0.00000E+00
    0.10132E+07        -0.10986E+08         0.00000E+00
    0.00000E+00         0.00000E+00         0.00000E+00
 
    0.13346E+07         0.10996E+07         0.00000E+00
    0.10996E+07        -0.10983E+08         0.00000E+00
    0.00000E+00         0.00000E+00         0.00000E+00
 
    0.12972E+07         0.11859E+07         0.00000E+00
    0.11859E+07        -0.10979E+08         0.00000E+00
    0.00000E+00         0.00000E+00         0.00000E+00
 
    0.12599E+07         0.12719E+07         0.00000E+00
    0.12719E+07        -0.10974E+08         0.00000E+00
    0.00000E+00         0.00000E+00         0.00000E+00
 
    0.12227E+07         0.13578E+07         0.00000E+00
    0.13578E+07        -0.10970E+08         0.00000E+00
    0.00000E+00         0.00000E+00         0.00000E+00
 
    0.11856E+07         0.14436E+07         0.00000E+00
    0.14436E+07        -0.10965E+08         0.00000E+00
    0.00000E+00         0.00000E+00         0.00000E+00
 
    0.11486E+07         0.15292E+07         0.00000E+00
    0.15292E+07        -0.10960E+08         0.00000E+00
    0.00000E+00         0.00000E+00         0.00000E+00
 
    0.11117E+07         0.16147E+07         0.00000E+00
    0.16147E+07        -0.10955E+08         0.00000E+00
    0.00000E+00         0.00000E+00         0.00000E+00
 
    0.10750E+07         0.17002E+07         0.00000E+00
    0.17002E+07        -0.10949E+08         0.00000E+00
    0.00000E+00         0.00000E+00         0.00000E+00
 
    0.10384E+07         0.17855E+07         0.00000E+00
    0.17855E+07        -0.10943E+08         0.00000E+00
    0.00000E+00         0.00000E+00         0.00000E+00
 
    0.10019E+07         0.18709E+07         0.00000E+00
    0.18709E+07        -0.10937E+08         0.00000E+00
    0.00000E+00         0.00000E+00         0.00000E+00
 
    0.96557E+06         0.19562E+07         0.00000E+00
    0.19562E+07        -0.10931E+08         0.00000E+00
    0.00000E+00         0.00000E+00         0.00000E+00
 
    0.92938E+06         0.20414E+07         0.00000E+00
    0.20414E+07        -0.10924E+08         0.00000E+00
    0.00000E+00         0.00000E+00         0.00000E+00
 
    0.89333E+06         0.21267E+07         0.00000E+00
    0.21267E+07        -0.10917E+08         0.00000E+00
    0.00000E+00         0.00000E+00         0.00000E+00
 
    0.85743E+06         0.22121E+07         0.00000E+00
    0.22121E+07        -0.10910E+08         0.00000E+00
    0.00000E+00         0.00000E+00         0.00000E+00
 
    0.82167E+06         0.22975E+07         0.00000E+00
    0.22975E+07        -0.10903E+08         0.00000E+00
    0.00000E+00         0.00000E+00         0.00000E+00
 
    0.78606E+06         0.23829E+07         0.00000E+00
    0.23829E+07        -0.10895E+08         0.00000E+00
    0.00000E+00         0.00000E+00         0.00000E+00
 
    0.75058E+06         0.24685E+07         0.00000E+00
    0.24685E+07        -0.10887E+08         0.00000E+00
    0.00000E+00         0.00000E+00         0.00000E+00
 
    0.71524E+06         0.25542E+07         0.00000E+00
    0.25542E+07        -0.10878E+08         0.00000E+00
    0.00000E+00         0.00000E+00         0.00000E+00
 
    0.68002E+06         0.26400E+07         0.00000E+00
    0.26400E+07        -0.10870E+08         0.00000E+00
    0.00000E+00         0.00000E+00         0.00000E+00
 
    0.64493E+06         0.27260E+07         0.00000E+00
    0.27260E+07        -0.10861E+08         0.00000E+00
    0.00000E+00         0.00000E+00         0.00000E+00
 
    0.60995E+06         0.28121E+07         0.00000E+00
    0.28121E+07        -0.10851E+08         0.00000E+00
    0.00000E+00         0.00000E+00         0.00000E+00
 
    0.57507E+06         0.28985E+07         0.00000E+00
    0.28985E+07        -0.10842E+08         0.00000E+00
    0.00000E+00         0.00000E+00         0.00000E+00
 
    0.54029E+06         0.29851E+07         0.00000E+00
    0.29851E+07        -0.10832E+08         0.00000E+00
    0.00000E+00         0.00000E+00         0.00000E+00
 
    0.50558E+06         0.30719E+07         0.00000E+00
    0.30719E+07        -0.10821E+08         0.00000E+00
    0.00000E+00         0.00000E+00         0.00000E+00
 
    0.47094E+06         0.31590E+07         0.00000E+00
    0.31590E+07        -0.10810E+08         0.00000E+00
    0.00000E+00         0.00000E+00         0.00000E+00
 
    0.43635E+06         0.32464E+07         0.00000E+00
    0.32464E+07        -0.10799E+08         0.00000E+00
    0.00000E+00         0.00000E+00         0.00000E+00
 
    0.40179E+06         0.33340E+07         0.00000E+00
    0.33340E+07        -0.10788E+08         0.00000E+00
    0.00000E+00         0.00000E+00         0.00000E+00
 
    0.36725E+06         0.34220E+07         0.00000E+00
    0.34220E+07        -0.10776E+08         0.00000E+00
    0.00000E+00         0.00000E+00         0.00000E+00
 
    0.33271E+06         0.35104E+07         0.00000E+00
    0.35104E+07        -0.10763E+08         0.00000E+00
    0.00000E+00         0.00000E+00         0.00000E+00
 
    0.29815E+06         0.35991E+07         0.00000E+00
    0.35991E+07        -0.10750E+08         0.00000E+00
    0.00000E+00         0.00000E+00         0.00000E+00
 
    0.26354E+06         0.36882E+07         0.00000E+00
    0.36882E+07        -0.10737E+08         0.00000E+00
    0.00000E+00         0.00000E+00         0.00000E+00
 
    0.22886E+06         0.37777E+07         0.00000E+00
    0.37777E+07        -0.10723E+08         0.00000E+00
    0.00000E+00         0.00000E+00         0.00000E+00
 
    0.19409E+06         0.38676E+07         0.00000E+00
    0.38676E+07        -0.10708E+08         0.00000E+00
    0.00000E+00         0.00000E+00         0.00000E+00
 
    0.15920E+06         0.39580E+07         0.00000E+00
    0.39580E+07        -0.10694E+08         0.00000E+00
    0.00000E+00         0.00000E+00         0.00000E+00
 
    0.12417E+06         0.40487E+07         0.00000E+00
    0.40487E+07        -0.10678E+08         0.00000E+00
    0.00000E+00         0.00000E+00         0.00000E+00
 
    0.88956E+05         0.41400E+07         0.00000E+00
    0.41400E+07        -0.10662E+08         0.00000E+00
    0.00000E+00         0.00000E+00         0.00000E+00
 
    0.53541E+05         0.42318E+07         0.00000E+00
    0.42318E+07        -0.10645E+08         0.00000E+00
    0.00000E+00         0.00000E+00         0.00000E+00
 
    0.17889E+05         0.43240E+07         0.00000E+00
    0.43240E+07        -0.10628E+08         0.00000E+00
    0.00000E+00         0.00000E+00         0.00000E+00
 
    0.17656E+07         0.46271E+05         0.00000E+00
    0.46271E+05        -0.11479E+08         0.00000E+00
    0.00000E+00         0.00000E+00         0.00000E+00
 
    0.17266E+07         0.13768E+06         0.00000E+00
    0.13768E+06        -0.11479E+08         0.00000E+00
    0.00000E+00         0.00000E+00         0.00000E+00
 
    0.16876E+07         0.22870E+06         0.00000E+00
    0.22870E+06        -0.11478E+08         0.00000E+00
    0.00000E+00         0.00000E+00         0.00000E+00
 
    0.16486E+07         0.31932E+06         0.00000E+00
    0.31932E+06        -0.11477E+08         0.00000E+00
    0.00000E+00         0.00000E+00         0.00000E+00
 
    0.16095E+07         0.40957E+06         0.00000E+00
    0.40957E+06        -0.11476E+08         0.00000E+00
    0.00000E+00         0.00000E+00         0.00000E+00
 
    0.15703E+07         0.49945E+06         0.00000E+00
    0.49945E+06        -0.11474E+08         0.00000E+00
    0.00000E+00         0.00000E+00         0.00000E+00
 
    0.15312E+07         0.58899E+06         0.00000E+00
    0.58899E+06        -0.11472E+08         0.00000E+00
    0.00000E+00         0.00000E+00         0.00000E+00
 
    0.14922E+07         0.67819E+06         0.00000E+00
    0.67819E+06        -0.11470E+08         0.00000E+00
    0.00000E+00         0.00000E+00         0.00000E+00
 
    0.14532E+07         0.76708E+06         0.00000E+00
    0.76708E+06        -0.11468E+08         0.00000E+00
    0.00000E+00         0.00000E+00         0.00000E+00
 
    0.14143E+07         0.85566E+06         0.00000E+00
    0.85566E+06        -0.11465E+08         0.00000E+00
    0.00000E+00         0.00000E+00         0.00000E+00
 
    0.13755E+07         0.94397E+06         0.00000E+00
    0.94397E+06        -0.11462E+08         0.00000E+00
    0.00000E+00         0.00000E+00         0.00000E+00
 
    0.13368E+07         0.10320E+07         0.00000E+00
    0.10320E+07        -0.11459E+08         0.00000E+00
    0.00000E+00         0.00000E+00         0.00000E+00
 
    0.12983E+07         0.11198E+07         0.00000E+00
    0.11198E+07        -0.11456E+08         0.00000E+00
    0.00000E+00         0.00000E+00         0.00000E+00
 
    0.12599E+07         0.12074E+07         0.00000E+00
    0.12074E+07        -0.11452E+08         0.00000E+00
    0.00000E+00         0.00000E+00         0.00000E+00
 
    0.12217E+07         0.12948E+07         0.00000E+00
    0.12948E+07        -0.11449E+08         0.00000E+00
    0.00000E+00         0.00000E+00         0.00000E+00
 
    0.11837E+07         0.13820E+07         0.00000E+00
    0.13820E+07        -0.11445E+08         0.00000E+00
    0.00000E+00         0.00000E+00         0.00000E+00
 
    0.11459E+07         0.14690E+07         0.00000E+00
    0.14690E+07        -0.11440E+08         0.00000E+00
    0.00000E+00         0.00000E+00         0.00000E+00
 
    0.11083E+07         0.15560E+07         0.00000E+00
    0.15560E+07        -0.11436E+08         0.00000E+00
    0.00000E+00         0.00000E+00         0.00000E+00
 
    0.10709E+07         0.16427E+07         0.00000E+00
    0.16427E+07        -0.11431E+08         0.00000E+00
    0.00000E+00         0.00000E+00         0.00000E+00
 
    0.10338E+07         0.17295E+07         0.00000E+00
    0.17295E+07        -0.11426E+08         0.00000E+00
    0.00000E+00         0.00000E+00         0.00000E+00
 
    0.99690E+06         0.18161E+07         0.00000E+00
    0.18161E+07        -0.11421E+08         0.00000E+00
    0.00000E+00         0.00000E+00         0.00000E+00
 
    0.96025E+06         0.19027E+07         0.00000E+00
    0.19027E+07        -0.11416E+08         0.00000E+00
    0.00000E+00         0.00000E+00         0.00000E+00
 
    0.92385E+06         0.19893E+07         0.00000E+00
    0.19893E+07        -0.11410E+08         0.00000E+00
    0.00000E+00         0.00000E+00         0.00000E+00
 
    0.88771E+06         0.20759E+07         0.00000E+00
    0.20759E+07        -0.11404E+08         0.00000E+00
    0.00000E+00         0.00000E+00         0.00000E+00
 
    0.85183E+06         0.21625E+07         0.00000E+00
    0.21625E+07        -0.11398E+08         0.00000E+00
    0.00000E+00         0.00000E+00         0.00000E+00
 
    0.81620E+06         0.22491E+07         0.00000E+00
    0.22491E+07        -0.11392E+08         0.00000E+00
    0.00000E+00         0.00000E+00         0.00000E+00
 
    0.78083E+06         0.23359E+07         0.00000E+00
    0.23359E+07        -0.11385E+08         0.00000E+00
    0.00000E+00         0.00000E+00         0.00000E+00
 
    0.74572E+06         0.24227E+07         0.00000E+00
    0.24227E+07        -0.11378E+08         0.00000E+00
    0.00000E+00         0.00000E+00         0.00000E+00
 
    0.71086E+06         0.25097E+07         0.00000E+00
    0.25097E+07        -0.11371E+08         0.00000E+00
    0.00000E+00         0.00000E+00         0.00000E+00
 
    0.67625E+06         0.25968E+07         0.00000E+00
    0.25968E+07        -0.11364E+08         0.00000E+00
    0.00000E+00         0.00000E+00         0.00000E+00
 
    0.64188E+06         0.26841E+07         0.00000E+00
    0.26841E+07        -0.11356E+08         0.00000E+00
    0.00000E+00         0.00000E+00         0.00000E+00
 
    0.60775E+06         0.27716E+07         0.00000E+00
    0.27716E+07        -0.11348E+08         0.00000E+00
    0.00000E+00         0.00000E+00         0.00000E+00
 
    0.57384E+06         0.28593E+07         0.00000E+00
    0.28593E+07        -0.11340E+08         0.00000E+00
    0.00000E+00         0.00000E+00         0.00000E+00
 
    0.54015E+06         0.29473E+07         0.00000E+00
    0.29473E+07        -0.11331E+08         0.00000E+00
    0.00000E+00         0.00000E+00         0.00000E+00
 
    0.50667E+06         0.30355E+07         0.00000E+00
    0.30355E+07        -0.11322E+08         0.00000E+00
    0.00000E+00         0.00000E+00         0.00000E+00
 
    0.47338E+06         0.31241E+07         0.00000E+00
    0.31241E+07        -0.11313E+08         0.00000E+00
    0.00000E+00         0.00000E+00         0.00000E+00
 
    0.44027E+06         0.32129E+07         0.00000E+00
    0.32129E+07        -0.11304E+08         0.00000E+00
    0.00000E+00         0.00000E+00         0.00000E+00
 
    0.40732E+06         0.33022E+07         0.00000E+00
    0.33022E+07        -0.11294E+08         0.00000E+00
    0.00000E+00         0.00000E+00         0.00000E+00
 
    0.37452E+06         0.33918E+07         0.00000E+00
    0.33918E+07        -0.11283E+08         0.00000E+00
    0.00000E+00         0.00000E+00         0.00000E+00
 
    0.34184E+06         0.34818E+07         0.00000E+00
    0.34818E+07        -0.11273E+08         0.00000E+00
    0.00000E+00         0.00000E+00         0.00000E+00
 
    0.30927E+06         0.35722E+07         0.00000E+00
    0.35722E+07        -0.11261E+08         0.00000E+00
    0.00000E+00         0.00000E+00         0.00000E+00
 
    0.27677E+06         0.36631E+07         0.00000E+00
    0.36631E+07        -0.11250E+08         0.00000E+00
    0.00000E+00         0.00000E+00         0.00000E+00
 
    0.24434E+06         0.37544E+07         0.00000E+00
    0.37544E+07        -0.11238E+08         0.00000E+00
    0.00000E+00         0.00000E+00         0.00000E+00
 
    0.21193E+06         0.38462E+07         0.00000E+00
    0.38462E+07        -0.11225E+08         0.00000E+00
    0.00000E+00         0.00000E+00         0.00000E+00
 
    0.17953E+06         0.39386E+07         0.00000E+00
    0.39386E+07        -0.11212E+08         0.00000E+00
    0.00000E+00         0.00000E+00         0.00000E+00
 
    0.14710E+06         0.40314E+07         0.00000E+00
    0.40314E+07        -0.11199E+08         0.00000E+00
    0.00000E+00         0.00000E+00         0.00000E+00
 
    0.11461E+06         0.41249E+07         0.00000E+00
    0.41249E+07        -0.11185E+08         0.00000E+00
    0.00000E+00         0.00000E+00         0.00000E+00
 
    0.82037E+05         0.42189E+07         0.00000E+00
    0.42189E+07        -0.11170E+08         0.00000E+00
    0.00000E+00         0.00000E+00         0.00000E+00
 
    0.49336E+05         0.43135E+07         0.00000E+00
    0.43135E+07        -0.11155E+08         0.00000E+00
    0.00000E+00         0.00000E+00         0.00000E+00
 
    0.16475E+05         0.44087E+07         0.00000E+00
    0.44087E+07        -0.11139E+08         0.00000E+00
    0.00000E+00         0.00000E+00         0.00000E+00
 
    0.17409E+07         0.47287E+05         0.00000E+00
    0.47287E+05        -0.11967E+08         0.00000E+00
    0.00000E+00         0.00000E+00         0.00000E+00
 
    0.16998E+07         0.14048E+06         0.00000E+00
    0.14048E+06        -0.11966E+08         0.00000E+00
    0.00000E+00         0.00000E+00         0.00000E+00
 
    0.16586E+07         0.23320E+06         0.00000E+00
    0.23320E+06        -0.11966E+08         0.00000E+00
    0.00000E+00         0.00000E+00         0.00000E+00
 
    0.16175E+07         0.32545E+06         0.00000E+00
    0.32545E+06        -0.11965E+08         0.00000E+00
    0.00000E+00         0.00000E+00         0.00000E+00
 
    0.15763E+07         0.41724E+06         0.00000E+00
    0.41724E+06        -0.11964E+08         0.00000E+00
    0.00000E+00         0.00000E+00         0.00000E+00
 
    0.15353E+07         0.50861E+06         0.00000E+00
    0.50861E+06        -0.11962E+08         0.00000E+00
    0.00000E+00         0.00000E+00         0.00000E+00
 
    0.14943E+07         0.59957E+06         0.00000E+00
    0.59957E+06        -0.11960E+08         0.00000E+00
    0.00000E+00         0.00000E+00         0.00000E+00
 
    0.14535E+07         0.69014E+06         0.00000E+00
    0.69014E+06        -0.11959E+08         0.00000E+00
    0.00000E+00         0.00000E+00         0.00000E+00
 
    0.14129E+07         0.78033E+06         0.00000E+00
    0.78033E+06        -0.11956E+08         0.00000E+00
    0.00000E+00         0.00000E+00         0.00000E+00
 
    0.13724E+07         0.87019E+06         0.00000E+00
    0.87019E+06        -0.11954E+08         0.00000E+00
    0.00000E+00         0.00000E+00         0.00000E+00
 
    0.13322E+07         0.95972E+06         0.00000E+00
    0.95972E+06        -0.11952E+08         0.00000E+00
    0.00000E+00         0.00000E+00         0.00000E+00
 
    0.12922E+07         0.10490E+07         0.00000E+00
    0.10490E+07        -0.11949E+08         0.00000E+00
    0.00000E+00         0.00000E+00         0.00000E+00
 
    0.12524E+07         0.11379E+07         0.00000E+00
    0.11379E+07        -0.11946E+08         0.00000E+00
    0.00000E+00         0.00000E+00         0.00000E+00
 
    0.12129E+07         0.12266E+07         0.00000E+00
    0.12266E+07        -0.11943E+08         0.00000E+00
    0.00000E+00         0.00000E+00         0.00000E+00
 
    0.11738E+07         0.13151E+07         0.00000E+00
    0.13151E+07        -0.11940E+08         0.00000E+00
    0.00000E+00         0.00000E+00         0.00000E+00
 
    0.11349E+07         0.14034E+07         0.00000E+00
    0.14034E+07        -0.11936E+08         0.00000E+00
    0.00000E+00         0.00000E+00         0.00000E+00
 
    0.10963E+07         0.14915E+07         0.00000E+00
    0.14915E+07        -0.11933E+08         0.00000E+00
    0.00000E+00         0.00000E+00         0.00000E+00
 
    0.10581E+07         0.15795E+07         0.00000E+00
    0.15795E+07        -0.11929E+08         0.00000E+00
    0.00000E+00         0.00000E+00         0.00000E+00
 
    0.10202E+07         0.16673E+07         0.00000E+00
    0.16673E+07        -0.11925E+08         0.00000E+00
    0.00000E+00         0.00000E+00         0.00000E+00
 
    0.98272E+06         0.17551E+07         0.00000E+00
    0.17551E+07        -0.11921E+08         0.00000E+00
    0.00000E+00         0.00000E+00         0.00000E+00
 
    0.94558E+06         0.18428E+07         0.00000E+00
    0.18428E+07        -0.11916E+08         0.00000E+00
    0.00000E+00         0.00000E+00         0.00000E+00
 
    0.90881E+06         0.19305E+07         0.00000E+00
    0.19305E+07        -0.11912E+08         0.00000E+00
    0.00000E+00         0.00000E+00         0.00000E+00
 
    0.87241E+06         0.20181E+07         0.00000E+00
    0.20181E+07        -0.11907E+08         0.00000E+00
    0.00000E+00         0.00000E+00         0.00000E+00
 
    0.83640E+06         0.21058E+07         0.00000E+00
    0.21058E+07        -0.11902E+08         0.00000E+00
    0.00000E+00         0.00000E+00         0.00000E+00
 
    0.80078E+06         0.21935E+07         0.00000E+00
    0.21935E+07        -0.11897E+08         0.00000E+00
    0.00000E+00         0.00000E+00         0.00000E+00
 
    0.76555E+06         0.22813E+07         0.00000E+00
    0.22813E+07        -0.11892E+08         0.00000E+00
    0.00000E+00         0.00000E+00         0.00000E+00
 
    0.73071E+06         0.23692E+07         0.00000E+00
    0.23692E+07        -0.11886E+08         0.00000E+00
    0.00000E+00         0.00000E+00         0.00000E+00
 
    0.69625E+06         0.24572E+07         0.00000E+00
    0.24572E+07        -0.11881E+08         0.00000E+00
    0.00000E+00         0.00000E+00         0.00000E+00
 
    0.66218E+06         0.25454E+07         0.00000E+00
    0.25454E+07        -0.11875E+08         0.00000E+00
    0.00000E+00         0.00000E+00         0.00000E+00
 
    0.62850E+06         0.26337E+07         0.00000E+00
    0.26337E+07        -0.11869E+08         0.00000E+00
    0.00000E+00         0.00000E+00         0.00000E+00
 
    0.59519E+06         0.27223E+07         0.00000E+00
    0.27223E+07        -0.11862E+08         0.00000E+00
    0.00000E+00         0.00000E+00         0.00000E+00
 
    0.56225E+06         0.28112E+07         0.00000E+00
    0.28112E+07        -0.11856E+08         0.00000E+00
    0.00000E+00         0.00000E+00         0.00000E+00
 
    0.52968E+06         0.29003E+07         0.00000E+00
    0.29003E+07        -0.11849E+08         0.00000E+00
    0.00000E+00         0.00000E+00         0.00000E+00
 
    0.49746E+06         0.29897E+07         0.00000E+00
    0.29897E+07        -0.11842E+08         0.00000E+00
    0.00000E+00         0.00000E+00         0.00000E+00
 
    0.46557E+06         0.30794E+07         0.00000E+00
    0.30794E+07        -0.11834E+08         0.00000E+00
    0.00000E+00         0.00000E+00         0.00000E+00
 
    0.43402E+06         0.31696E+07         0.00000E+00
    0.31696E+07        -0.11826E+08         0.00000E+00
    0.00000E+00         0.00000E+00         0.00000E+00
 
    0.40278E+06         0.32601E+07         0.00000E+00
    0.32601E+07        -0.11818E+08         0.00000E+00
    0.00000E+00         0.00000E+00         0.00000E+00
 
    0.37183E+06         0.33510E+07         0.00000E+00
    0.33510E+07        -0.11810E+08         0.00000E+00
    0.00000E+00         0.00000E+00         0.00000E+00
 
    0.34117E+06         0.34424E+07         0.00000E+00
    0.34424E+07        -0.11801E+08         0.00000E+00
    0.00000E+00         0.00000E+00         0.00000E+00
 
    0.31076E+06         0.35342E+07         0.00000E+00
    0.35342E+07        -0.11792E+08         0.00000E+00
    0.00000E+00         0.00000E+00         0.00000E+00
 
    0.28058E+06         0.36266E+07         0.00000E+00
    0.36266E+07        -0.11782E+08         0.00000E+00
    0.00000E+00         0.00000E+00         0.00000E+00
 
    0.25061E+06         0.37195E+07         0.00000E+00
    0.37195E+07        -0.11772E+08         0.00000E+00
    0.00000E+00         0.00000E+00         0.00000E+00
 
    0.22083E+06         0.38130E+07         0.00000E+00
    0.38130E+07        -0.11762E+08         0.00000E+00
    0.00000E+00         0.00000E+00         0.00000E+00
 
    0.19119E+06         0.39070E+07         0.00000E+00
    0.39070E+07        -0.11751E+08         0.00000E+00
    0.00000E+00         0.00000E+00         0.00000E+00
 
    0.16168E+06         0.40017E+07         0.00000E+00
    0.40017E+07        -0.11740E+08         0.00000E+00
    0.00000E+00         0.00000E+00         0.00000E+00
 
    0.13226E+06         0.40971E+07         0.00000E+00
    0.40971E+07        -0.11728E+08         0.00000E+00
    0.00000E+00         0.00000E+00         0.00000E+00
 
    0.10290E+06         0.41931E+07         0.00000E+00
    0.41931E+07        -0.11716E+08         0.00000E+00
    0.00000E+00         0.00000E+00         0.00000E+00
 
    0.73547E+05         0.42898E+07         0.00000E+00
    0.42898E+07        -0.11703E+08         0.00000E+00
    0.00000E+00         0.00000E+00         0.00000E+00
 
    0.44175E+05         0.43872E+07         0.00000E+00
    0.43872E+07        -0.11689E+08         0.00000E+00
    0.00000E+00         0.00000E+00         0.00000E+00
 
    0.14739E+05         0.44854E+07         0.00000E+00
    0.44854E+07        -0.11675E+08         0.00000E+00
    0.00000E+00         0.00000E+00         0.00000E+00
 
    0.17092E+07         0.48242E+05         0.00000E+00
    0.48242E+05        -0.12470E+08         0.00000E+00
    0.00000E+00         0.00000E+00         0.00000E+00
 
    0.16653E+07         0.14304E+06         0.00000E+00
    0.14304E+06        -0.12469E+08         0.00000E+00
    0.00000E+00         0.00000E+00         0.00000E+00
 
    0.16215E+07         0.23726E+06         0.00000E+00
    0.23726E+06        -0.12469E+08         0.00000E+00
    0.00000E+00         0.00000E+00         0.00000E+00
 
    0.15779E+07         0.33092E+06         0.00000E+00
    0.33092E+06        -0.12468E+08         0.00000E+00
    0.00000E+00         0.00000E+00         0.00000E+00
 
    0.15344E+07         0.42404E+06         0.00000E+00
    0.42404E+06        -0.12467E+08         0.00000E+00
    0.00000E+00         0.00000E+00         0.00000E+00
 
    0.14910E+07         0.51666E+06         0.00000E+00
    0.51666E+06        -0.12466E+08         0.00000E+00
    0.00000E+00         0.00000E+00         0.00000E+00
 
    0.14479E+07         0.60879E+06         0.00000E+00
    0.60879E+06        -0.12465E+08         0.00000E+00
    0.00000E+00         0.00000E+00         0.00000E+00
 
    0.14051E+07         0.70047E+06         0.00000E+00
    0.70047E+06        -0.12463E+08         0.00000E+00
    0.00000E+00         0.00000E+00         0.00000E+00
 
    0.13625E+07         0.79172E+06         0.00000E+00
    0.79172E+06        -0.12461E+08         0.00000E+00
    0.00000E+00         0.00000E+00         0.00000E+00
 
    0.13203E+07         0.88257E+06         0.00000E+00
    0.88257E+06        -0.12460E+08         0.00000E+00
    0.00000E+00         0.00000E+00         0.00000E+00
 
    0.12784E+07         0.97306E+06         0.00000E+00
    0.97306E+06        -0.12458E+08         0.00000E+00
    0.00000E+00         0.00000E+00         0.00000E+00
 
    0.12369E+07         0.10632E+07         0.00000E+00
    0.10632E+07        -0.12455E+08         0.00000E+00
    0.00000E+00         0.00000E+00         0.00000E+00
 
    0.11958E+07         0.11531E+07         0.00000E+00
    0.11531E+07        -0.12453E+08         0.00000E+00
    0.00000E+00         0.00000E+00         0.00000E+00
 
    0.11551E+07         0.12426E+07         0.00000E+00
    0.12426E+07        -0.12451E+08         0.00000E+00
    0.00000E+00         0.00000E+00         0.00000E+00
 
    0.11148E+07         0.13320E+07         0.00000E+00
    0.13320E+07        -0.12448E+08         0.00000E+00
    0.00000E+00         0.00000E+00         0.00000E+00
 
    0.10750E+07         0.14211E+07         0.00000E+00
    0.14211E+07        -0.12446E+08         0.00000E+00
    0.00000E+00         0.00000E+00         0.00000E+00
 
    0.10357E+07         0.15100E+07         0.00000E+00
    0.15100E+07        -0.12443E+08         0.00000E+00
    0.00000E+00         0.00000E+00         0.00000E+00
 
    0.99679E+06         0.15988E+07         0.00000E+00
    0.15988E+07        -0.12440E+08         0.00000E+00
    0.00000E+00         0.00000E+00         0.00000E+00
 
    0.95841E+06         0.16874E+07         0.00000E+00
    0.16874E+07        -0.12437E+08         0.00000E+00
    0.00000E+00         0.00000E+00         0.00000E+00
 
    0.92054E+06         0.17760E+07         0.00000E+00
    0.17760E+07        -0.12434E+08         0.00000E+00
    0.00000E+00         0.00000E+00         0.00000E+00
 
    0.88319E+06         0.18645E+07         0.00000E+00
    0.18645E+07        -0.12431E+08         0.00000E+00
    0.00000E+00         0.00000E+00         0.00000E+00
 
    0.84635E+06         0.19530E+07         0.00000E+00
    0.19530E+07        -0.12427E+08         0.00000E+00
    0.00000E+00         0.00000E+00         0.00000E+00
 
    0.81004E+06         0.20415E+07         0.00000E+00
    0.20415E+07        -0.12424E+08         0.00000E+00
    0.00000E+00         0.00000E+00         0.00000E+00
 
    0.77426E+06         0.21300E+07         0.00000E+00
    0.21300E+07        -0.12420E+08         0.00000E+00
    0.00000E+00         0.00000E+00         0.00000E+00
 
    0.73902E+06         0.22186E+07         0.00000E+00
    0.22186E+07        -0.12416E+08         0.00000E+00
    0.00000E+00         0.00000E+00         0.00000E+00
 
    0.70432E+06         0.23073E+07         0.00000E+00
    0.23073E+07        -0.12412E+08         0.00000E+00
    0.00000E+00         0.00000E+00         0.00000E+00
 
    0.67016E+06         0.23961E+07         0.00000E+00
    0.23961E+07        -0.12408E+08         0.00000E+00
    0.00000E+00         0.00000E+00         0.00000E+00
 
    0.63654E+06         0.24851E+07         0.00000E+00
    0.24851E+07        -0.12404E+08         0.00000E+00
    0.00000E+00         0.00000E+00         0.00000E+00
 
    0.60346E+06         0.25743E+07         0.00000E+00
    0.25743E+07        -0.12400E+08         0.00000E+00
    0.00000E+00         0.00000E+00         0.00000E+00
 
    0.57092E+06         0.26637E+07         0.00000E+00
    0.26637E+07        -0.12395E+08         0.00000E+00
    0.00000E+00         0.00000E+00         0.00000E+00
 
    0.53890E+06         0.27534E+07         0.00000E+00
    0.27534E+07        -0.12390E+08         0.00000E+00
    0.00000E+00         0.00000E+00         0.00000E+00
 
    0.50742E+06         0.28434E+07         0.00000E+00
    0.28434E+07        -0.12385E+08         0.00000E+00
    0.00000E+00         0.00000E+00         0.00000E+00
 
    0.47645E+06         0.29337E+07         0.00000E+00
    0.29337E+07        -0.12380E+08         0.00000E+00
    0.00000E+00         0.00000E+00         0.00000E+00
 
    0.44599E+06         0.30243E+07         0.00000E+00
    0.30243E+07        -0.12374E+08         0.00000E+00
    0.00000E+00         0.00000E+00         0.00000E+00
 
    0.41603E+06         0.31154E+07         0.00000E+00
    0.31154E+07        -0.12369E+08         0.00000E+00
    0.00000E+00         0.00000E+00         0.00000E+00
 
    0.38656E+06         0.32069E+07         0.00000E+00
    0.32069E+07        -0.12363E+08         0.00000E+00
    0.00000E+00         0.00000E+00         0.00000E+00
 
    0.35756E+06         0.32988E+07         0.00000E+00
    0.32988E+07        -0.12356E+08         0.00000E+00
    0.00000E+00         0.00000E+00         0.00000E+00
 
    0.32901E+06         0.33913E+07         0.00000E+00
    0.33913E+07        -0.12350E+08         0.00000E+00
    0.00000E+00         0.00000E+00         0.00000E+00
 
    0.30090E+06         0.34843E+07         0.00000E+00
    0.34843E+07        -0.12343E+08         0.00000E+00
    0.00000E+00         0.00000E+00         0.00000E+00
 
    0.27321E+06         0.35778E+07         0.00000E+00
    0.35778E+07        -0.12336E+08         0.00000E+00
    0.00000E+00         0.00000E+00         0.00000E+00
 
    0.24591E+06         0.36720E+07         0.00000E+00
    0.36720E+07        -0.12328E+08         0.00000E+00
    0.00000E+00         0.00000E+00         0.00000E+00
 
    0.21897E+06         0.37668E+07         0.00000E+00
    0.37668E+07        -0.12320E+08         0.00000E+00
    0.00000E+00         0.00000E+00         0.00000E+00
 
    0.19237E+06         0.38623E+07         0.00000E+00
    0.38623E+07        -0.12312E+08         0.00000E+00
    0.00000E+00         0.00000E+00         0.00000E+00
 
    0.16608E+06         0.39585E+07         0.00000E+00
    0.39585E+07        -0.12303E+08         0.00000E+00
    0.00000E+00         0.00000E+00         0.00000E+00
 
    0.14006E+06         0.40554E+07         0.00000E+00
    0.40554E+07        -0.12294E+08         0.00000E+00
    0.00000E+00         0.00000E+00         0.00000E+00
 
    0.11427E+06         0.41531E+07         0.00000E+00
    0.41531E+07        -0.12284E+08         0.00000E+00
    0.00000E+00         0.00000E+00         0.00000E+00
 
    0.88679E+05         0.42516E+07         0.00000E+00
    0.42516E+07        -0.12274E+08         0.00000E+00
    0.00000E+00         0.00000E+00         0.00000E+00
 
    0.63238E+05         0.43510E+07         0.00000E+00
    0.43510E+07        -0.12263E+08         0.00000E+00
    0.00000E+00         0.00000E+00         0.00000E+00
 
    0.37904E+05         0.44512E+07         0.00000E+00
    0.44512E+07        -0.12252E+08         0.00000E+00
    0.00000E+00         0.00000E+00         0.00000E+00
 
    0.12629E+05         0.45524E+07         0.00000E+00
    0.45524E+07        -0.12240E+08         0.00000E+00
    0.00000E+00         0.00000E+00         0.00000E+00
 
    0.16691E+07         0.49083E+05         0.00000E+00
    0.49083E+05        -0.12989E+08         0.00000E+00
    0.00000E+00         0.00000E+00         0.00000E+00
 
    0.16219E+07         0.14521E+06         0.00000E+00
    0.14521E+06        -0.12989E+08         0.00000E+00
    0.00000E+00         0.00000E+00         0.00000E+00
 
    0.15750E+07         0.24063E+06         0.00000E+00
    0.24063E+06        -0.12988E+08         0.00000E+00
    0.00000E+00         0.00000E+00         0.00000E+00
 
    0.15284E+07         0.33538E+06         0.00000E+00
    0.33538E+06        -0.12988E+08         0.00000E+00
    0.00000E+00         0.00000E+00         0.00000E+00
 
    0.14820E+07         0.42951E+06         0.00000E+00
    0.42951E+06        -0.12987E+08         0.00000E+00
    0.00000E+00         0.00000E+00         0.00000E+00
 
    0.14360E+07         0.52304E+06         0.00000E+00
    0.52304E+06        -0.12986E+08         0.00000E+00
    0.00000E+00         0.00000E+00         0.00000E+00
 
    0.13904E+07         0.61601E+06         0.00000E+00
    0.61601E+06        -0.12985E+08         0.00000E+00
    0.00000E+00         0.00000E+00         0.00000E+00
 
    0.13453E+07         0.70845E+06         0.00000E+00
    0.70845E+06        -0.12984E+08         0.00000E+00
    0.00000E+00         0.00000E+00         0.00000E+00
 
    0.13005E+07         0.80042E+06         0.00000E+00
    0.80042E+06        -0.12983E+08         0.00000E+00
    0.00000E+00         0.00000E+00         0.00000E+00
 
    0.12563E+07         0.89193E+06         0.00000E+00
    0.89193E+06        -0.12982E+08         0.00000E+00
    0.00000E+00         0.00000E+00         0.00000E+00
 
    0.12126E+07         0.98304E+06         0.00000E+00
    0.98304E+06        -0.12981E+08         0.00000E+00
    0.00000E+00         0.00000E+00         0.00000E+00
 
    0.11694E+07         0.10738E+07         0.00000E+00
    0.10738E+07        -0.12979E+08         0.00000E+00
    0.00000E+00         0.00000E+00         0.00000E+00
 
    0.11268E+07         0.11642E+07         0.00000E+00
    0.11642E+07        -0.12978E+08         0.00000E+00
    0.00000E+00         0.00000E+00         0.00000E+00
 
    0.10848E+07         0.12543E+07         0.00000E+00
    0.12543E+07        -0.12977E+08         0.00000E+00
    0.00000E+00         0.00000E+00         0.00000E+00
 
    0.10433E+07         0.13441E+07         0.00000E+00
    0.13441E+07        -0.12975E+08         0.00000E+00
    0.00000E+00         0.00000E+00         0.00000E+00
 
    0.10025E+07         0.14337E+07         0.00000E+00
    0.14337E+07        -0.12974E+08         0.00000E+00
    0.00000E+00         0.00000E+00         0.00000E+00
 
    0.96239E+06         0.15232E+07         0.00000E+00
    0.15232E+07        -0.12972E+08         0.00000E+00
    0.00000E+00         0.00000E+00         0.00000E+00
 
    0.92288E+06         0.16125E+07         0.00000E+00
    0.16125E+07        -0.12970E+08         0.00000E+00
    0.00000E+00         0.00000E+00         0.00000E+00
 
    0.88403E+06         0.17016E+07         0.00000E+00
    0.17016E+07        -0.12969E+08         0.00000E+00
    0.00000E+00         0.00000E+00         0.00000E+00
 
    0.84585E+06         0.17907E+07         0.00000E+00
    0.17907E+07        -0.12967E+08         0.00000E+00
    0.00000E+00         0.00000E+00         0.00000E+00
 
    0.80836E+06         0.18798E+07         0.00000E+00
    0.18798E+07        -0.12965E+08         0.00000E+00
    0.00000E+00         0.00000E+00         0.00000E+00
 
    0.77155E+06         0.19688E+07         0.00000E+00
    0.19688E+07        -0.12963E+08         0.00000E+00
    0.00000E+00         0.00000E+00         0.00000E+00
 
    0.73544E+06         0.20579E+07         0.00000E+00
    0.20579E+07        -0.12961E+08         0.00000E+00
    0.00000E+00         0.00000E+00         0.00000E+00
 
    0.70002E+06         0.21470E+07         0.00000E+00
    0.21470E+07        -0.12959E+08         0.00000E+00
    0.00000E+00         0.00000E+00         0.00000E+00
 
    0.66531E+06         0.22362E+07         0.00000E+00
    0.22362E+07        -0.12957E+08         0.00000E+00
    0.00000E+00         0.00000E+00         0.00000E+00
 
    0.63131E+06         0.23256E+07         0.00000E+00
    0.23256E+07        -0.12955E+08         0.00000E+00
    0.00000E+00         0.00000E+00         0.00000E+00
 
    0.59802E+06         0.24151E+07         0.00000E+00
    0.24151E+07        -0.12952E+08         0.00000E+00
    0.00000E+00         0.00000E+00         0.00000E+00
 
    0.56543E+06         0.25049E+07         0.00000E+00
    0.25049E+07        -0.12950E+08         0.00000E+00
    0.00000E+00         0.00000E+00         0.00000E+00
 
    0.53355E+06         0.25948E+07         0.00000E+00
    0.25948E+07        -0.12947E+08         0.00000E+00
    0.00000E+00         0.00000E+00         0.00000E+00
 
    0.50238E+06         0.26851E+07         0.00000E+00
    0.26851E+07        -0.12944E+08         0.00000E+00
    0.00000E+00         0.00000E+00         0.00000E+00
 
    0.47192E+06         0.27756E+07         0.00000E+00
    0.27756E+07        -0.12941E+08         0.00000E+00
    0.00000E+00         0.00000E+00         0.00000E+00
 
    0.44215E+06         0.28665E+07         0.00000E+00
    0.28665E+07        -0.12938E+08         0.00000E+00
    0.00000E+00         0.00000E+00         0.00000E+00
 
    0.41309E+06         0.29578E+07         0.00000E+00
    0.29578E+07        -0.12935E+08         0.00000E+00
    0.00000E+00         0.00000E+00         0.00000E+00
 
    0.38471E+06         0.30495E+07         0.00000E+00
    0.30495E+07        -0.12931E+08         0.00000E+00
    0.00000E+00         0.00000E+00         0.00000E+00
 
    0.35701E+06         0.31417E+07         0.00000E+00
    0.31417E+07        -0.12928E+08         0.00000E+00
    0.00000E+00         0.00000E+00         0.00000E+00
 
    0.32998E+06         0.32343E+07         0.00000E+00
    0.32343E+07        -0.12924E+08         0.00000E+00
    0.00000E+00         0.00000E+00         0.00000E+00
 
    0.30361E+06         0.33275E+07         0.00000E+00
    0.33275E+07        -0.12920E+08         0.00000E+00
    0.00000E+00         0.00000E+00         0.00000E+00
 
    0.27789E+06         0.34213E+07         0.00000E+00
    0.34213E+07        -0.12915E+08         0.00000E+00
    0.00000E+00         0.00000E+00         0.00000E+00
 
    0.25279E+06         0.35157E+07         0.00000E+00
    0.35157E+07        -0.12911E+08         0.00000E+00
    0.00000E+00         0.00000E+00         0.00000E+00
 
    0.22830E+06         0.36108E+07         0.00000E+00
    0.36108E+07        -0.12906E+08         0.00000E+00
    0.00000E+00         0.00000E+00         0.00000E+00
 
    0.20440E+06         0.37066E+07         0.00000E+00
    0.37066E+07        -0.12900E+08         0.00000E+00
    0.00000E+00         0.00000E+00         0.00000E+00
 
    0.18105E+06         0.38031E+07         0.00000E+00
    0.38031E+07        -0.12895E+08         0.00000E+00
    0.00000E+00         0.00000E+00         0.00000E+00
 
    0.15823E+06         0.39004E+07         0.00000E+00
    0.39004E+07        -0.12889E+08         0.00000E+00
    0.00000E+00         0.00000E+00         0.00000E+00
 
    0.13591E+06         0.39986E+07         0.00000E+00
    0.39986E+07        -0.12883E+08         0.00000E+00
    0.00000E+00         0.00000E+00         0.00000E+00
 
    0.11405E+06         0.40976E+07         0.00000E+00
    0.40976E+07        -0.12876E+08         0.00000E+00
    0.00000E+00         0.00000E+00         0.00000E+00
 
    0.92610E+05         0.41976E+07         0.00000E+00
    0.41976E+07        -0.12869E+08         0.00000E+00
    0.00000E+00         0.00000E+00         0.00000E+00
 
    0.71542E+05         0.42985E+07         0.00000E+00
    0.42985E+07        -0.12861E+08         0.00000E+00
    0.00000E+00         0.00000E+00         0.00000E+00
 
    0.50799E+05         0.44005E+07         0.00000E+00
    0.44005E+07        -0.12853E+08         0.00000E+00
    0.00000E+00         0.00000E+00         0.00000E+00
 
    0.30331E+05         0.45034E+07         0.00000E+00
    0.45034E+07        -0.12844E+08         0.00000E+00
    0.00000E+00         0.00000E+00         0.00000E+00
 
    0.10080E+05         0.46075E+07         0.00000E+00
    0.46075E+07        -0.12835E+08         0.00000E+00
    0.00000E+00         0.00000E+00         0.00000E+00
 
    0.16188E+07         0.49734E+05         0.00000E+00
    0.49734E+05        -0.13524E+08         0.00000E+00
    0.00000E+00         0.00000E+00         0.00000E+00
 
    0.15678E+07         0.14675E+06         0.00000E+00
    0.14675E+06        -0.13524E+08         0.00000E+00
    0.00000E+00         0.00000E+00         0.00000E+00
 
    0.15172E+07         0.24294E+06         0.00000E+00
    0.24294E+06        -0.13524E+08         0.00000E+00
    0.00000E+00         0.00000E+00         0.00000E+00
 
    0.14670E+07         0.33834E+06         0.00000E+00
    0.33834E+06        -0.13524E+08         0.00000E+00
    0.00000E+00         0.00000E+00         0.00000E+00
 
    0.14174E+07         0.43301E+06         0.00000E+00
    0.43301E+06        -0.13523E+08         0.00000E+00
    0.00000E+00         0.00000E+00         0.00000E+00
 
    0.13683E+07         0.52700E+06         0.00000E+00
    0.52700E+06        -0.13523E+08         0.00000E+00
    0.00000E+00         0.00000E+00         0.00000E+00
 
    0.13199E+07         0.62036E+06         0.00000E+00
    0.62036E+06        -0.13523E+08         0.00000E+00
    0.00000E+00         0.00000E+00         0.00000E+00
 
    0.12720E+07         0.71312E+06         0.00000E+00
    0.71312E+06        -0.13522E+08         0.00000E+00
    0.00000E+00         0.00000E+00         0.00000E+00
 
    0.12249E+07         0.80535E+06         0.00000E+00
    0.80535E+06        -0.13522E+08         0.00000E+00
    0.00000E+00         0.00000E+00         0.00000E+00
 
    0.11784E+07         0.89709E+06         0.00000E+00
    0.89709E+06        -0.13522E+08         0.00000E+00
    0.00000E+00         0.00000E+00         0.00000E+00
 
    0.11327E+07         0.98838E+06         0.00000E+00
    0.98838E+06        -0.13522E+08         0.00000E+00
    0.00000E+00         0.00000E+00         0.00000E+00
 
    0.10877E+07         0.10793E+07         0.00000E+00
    0.10793E+07        -0.13521E+08         0.00000E+00
    0.00000E+00         0.00000E+00         0.00000E+00
 
    0.10435E+07         0.11698E+07         0.00000E+00
    0.11698E+07        -0.13521E+08         0.00000E+00
    0.00000E+00         0.00000E+00         0.00000E+00
 
    0.10001E+07         0.12600E+07         0.00000E+00
    0.12600E+07        -0.13521E+08         0.00000E+00
    0.00000E+00         0.00000E+00         0.00000E+00
 
    0.95753E+06         0.13500E+07         0.00000E+00
    0.13500E+07        -0.13521E+08         0.00000E+00
    0.00000E+00         0.00000E+00         0.00000E+00
 
    0.91576E+06         0.14398E+07         0.00000E+00
    0.14398E+07        -0.13521E+08         0.00000E+00
    0.00000E+00         0.00000E+00         0.00000E+00
 
    0.87482E+06         0.15293E+07         0.00000E+00
    0.15293E+07        -0.13521E+08         0.00000E+00
    0.00000E+00         0.00000E+00         0.00000E+00
 
    0.83473E+06         0.16188E+07         0.00000E+00
    0.16188E+07        -0.13521E+08         0.00000E+00
    0.00000E+00         0.00000E+00         0.00000E+00
 
    0.79549E+06         0.17081E+07         0.00000E+00
    0.17081E+07        -0.13521E+08         0.00000E+00
    0.00000E+00         0.00000E+00         0.00000E+00
 
    0.75711E+06         0.17974E+07         0.00000E+00
    0.17974E+07        -0.13521E+08         0.00000E+00
    0.00000E+00         0.00000E+00         0.00000E+00
 
    0.71961E+06         0.18867E+07         0.00000E+00
    0.18867E+07        -0.13521E+08         0.00000E+00
    0.00000E+00         0.00000E+00         0.00000E+00
 
    0.68297E+06         0.19760E+07         0.00000E+00
    0.19760E+07        -0.13521E+08         0.00000E+00
    0.00000E+00         0.00000E+00         0.00000E+00
 
    0.64722E+06         0.20653E+07         0.00000E+00
    0.20653E+07        -0.13521E+08         0.00000E+00
    0.00000E+00         0.00000E+00         0.00000E+00
 
    0.61235E+06         0.21548E+07         0.00000E+00
    0.21548E+07        -0.13520E+08         0.00000E+00
    0.00000E+00         0.00000E+00         0.00000E+00
 
    0.57837E+06         0.22444E+07         0.00000E+00
    0.22444E+07        -0.13520E+08         0.00000E+00
    0.00000E+00         0.00000E+00         0.00000E+00
 
    0.54527E+06         0.23342E+07         0.00000E+00
    0.23342E+07        -0.13520E+08         0.00000E+00
    0.00000E+00         0.00000E+00         0.00000E+00
 
    0.51306E+06         0.24242E+07         0.00000E+00
    0.24242E+07        -0.13520E+08         0.00000E+00
    0.00000E+00         0.00000E+00         0.00000E+00
 
    0.48174E+06         0.25144E+07         0.00000E+00
    0.25144E+07        -0.13520E+08         0.00000E+00
    0.00000E+00         0.00000E+00         0.00000E+00
 
    0.45132E+06         0.26050E+07         0.00000E+00
    0.26050E+07        -0.13519E+08         0.00000E+00
    0.00000E+00         0.00000E+00         0.00000E+00
 
    0.42178E+06         0.26958E+07         0.00000E+00
    0.26958E+07        -0.13519E+08         0.00000E+00
    0.00000E+00         0.00000E+00         0.00000E+00
 
    0.39314E+06         0.27870E+07         0.00000E+00
    0.27870E+07        -0.13518E+08         0.00000E+00
    0.00000E+00         0.00000E+00         0.00000E+00
 
    0.36538E+06         0.28787E+07         0.00000E+00
    0.28787E+07        -0.13517E+08         0.00000E+00
    0.00000E+00         0.00000E+00         0.00000E+00
 
    0.33852E+06         0.29707E+07         0.00000E+00
    0.29707E+07        -0.13516E+08         0.00000E+00
    0.00000E+00         0.00000E+00         0.00000E+00
 
    0.31254E+06         0.30633E+07         0.00000E+00
    0.30633E+07        -0.13515E+08         0.00000E+00
    0.00000E+00         0.00000E+00         0.00000E+00
 
    0.28745E+06         0.31563E+07         0.00000E+00
    0.31563E+07        -0.13514E+08         0.00000E+00
    0.00000E+00         0.00000E+00         0.00000E+00
 
    0.26324E+06         0.32500E+07         0.00000E+00
    0.32500E+07        -0.13513E+08         0.00000E+00
    0.00000E+00         0.00000E+00         0.00000E+00
 
    0.23990E+06         0.33442E+07         0.00000E+00
    0.33442E+07        -0.13511E+08         0.00000E+00
    0.00000E+00         0.00000E+00         0.00000E+00
 
    0.21742E+06         0.34391E+07         0.00000E+00
    0.34391E+07        -0.13510E+08         0.00000E+00
    0.00000E+00         0.00000E+00         0.00000E+00
 
    0.19580E+06         0.35347E+07         0.00000E+00
    0.35347E+07        -0.13508E+08         0.00000E+00
    0.00000E+00         0.00000E+00         0.00000E+00
 
    0.17502E+06         0.36311E+07         0.00000E+00
    0.36311E+07        -0.13505E+08         0.00000E+00
    0.00000E+00         0.00000E+00         0.00000E+00
 
    0.15506E+06         0.37283E+07         0.00000E+00
    0.37283E+07        -0.13503E+08         0.00000E+00
    0.00000E+00         0.00000E+00         0.00000E+00
 
    0.13589E+06         0.38263E+07         0.00000E+00
    0.38263E+07        -0.13500E+08         0.00000E+00
    0.00000E+00         0.00000E+00         0.00000E+00
 
    0.11750E+06         0.39253E+07         0.00000E+00
    0.39253E+07        -0.13497E+08         0.00000E+00
    0.00000E+00         0.00000E+00         0.00000E+00
 
    0.99853E+05         0.40252E+07         0.00000E+00
    0.40252E+07        -0.13494E+08         0.00000E+00
    0.00000E+00         0.00000E+00         0.00000E+00
 
    0.82905E+05         0.41262E+07         0.00000E+00
    0.41262E+07        -0.13490E+08         0.00000E+00
    0.00000E+00         0.00000E+00         0.00000E+00
 
    0.66620E+05         0.42282E+07         0.00000E+00
    0.42282E+07        -0.13486E+08         0.00000E+00
    0.00000E+00         0.00000E+00         0.00000E+00
 
    0.50948E+05         0.43314E+07         0.00000E+00
    0.43314E+07        -0.13481E+08         0.00000E+00
    0.00000E+00         0.00000E+00         0.00000E+00
 
    0.35830E+05         0.44358E+07         0.00000E+00
    0.44358E+07        -0.13476E+08         0.00000E+00
    0.00000E+00         0.00000E+00         0.00000E+00
 
    0.21200E+05         0.45415E+07         0.00000E+00
    0.45415E+07        -0.13470E+08         0.00000E+00
    0.00000E+00         0.00000E+00         0.00000E+00
 
    0.69986E+04         0.46484E+07         0.00000E+00
    0.46484E+07        -0.13464E+08         0.00000E+00
    0.00000E+00         0.00000E+00         0.00000E+00
 
    0.15560E+07         0.50087E+05         0.00000E+00
    0.50087E+05        -0.14076E+08         0.00000E+00
    0.00000E+00         0.00000E+00         0.00000E+00
 
    0.15003E+07         0.14738E+06         0.00000E+00
    0.14738E+06        -0.14076E+08         0.00000E+00
    0.00000E+00         0.00000E+00         0.00000E+00
 
    0.14454E+07         0.24371E+06         0.00000E+00
    0.24371E+06        -0.14076E+08         0.00000E+00
    0.00000E+00         0.00000E+00         0.00000E+00
 
    0.13912E+07         0.33914E+06         0.00000E+00
    0.33914E+06        -0.14076E+08         0.00000E+00
    0.00000E+00         0.00000E+00         0.00000E+00
 
    0.13378E+07         0.43375E+06         0.00000E+00
    0.43375E+06        -0.14076E+08         0.00000E+00
    0.00000E+00         0.00000E+00         0.00000E+00
 
    0.12852E+07         0.52759E+06         0.00000E+00
    0.52759E+06        -0.14076E+08         0.00000E+00
    0.00000E+00         0.00000E+00         0.00000E+00
 
    0.12336E+07         0.62073E+06         0.00000E+00
    0.62073E+06        -0.14077E+08         0.00000E+00
    0.00000E+00         0.00000E+00         0.00000E+00
 
    0.11828E+07         0.71322E+06         0.00000E+00
    0.71322E+06        -0.14078E+08         0.00000E+00
    0.00000E+00         0.00000E+00         0.00000E+00
 
    0.11330E+07         0.80513E+06         0.00000E+00
    0.80513E+06        -0.14078E+08         0.00000E+00
    0.00000E+00         0.00000E+00         0.00000E+00
 
    0.10842E+07         0.89652E+06         0.00000E+00
    0.89652E+06        -0.14079E+08         0.00000E+00
    0.00000E+00         0.00000E+00         0.00000E+00
 
    0.10364E+07         0.98745E+06         0.00000E+00
    0.98745E+06        -0.14080E+08         0.00000E+00
    0.00000E+00         0.00000E+00         0.00000E+00
 
    0.98953E+06         0.10780E+07         0.00000E+00
    0.10780E+07        -0.14082E+08         0.00000E+00
    0.00000E+00         0.00000E+00         0.00000E+00
 
    0.94372E+06         0.11681E+07         0.00000E+00
    0.11681E+07        -0.14083E+08         0.00000E+00
    0.00000E+00         0.00000E+00         0.00000E+00
 
    0.89895E+06         0.12580E+07         0.00000E+00
    0.12580E+07        -0.14085E+08         0.00000E+00
    0.00000E+00         0.00000E+00         0.00000E+00
 
    0.85522E+06         0.13476E+07         0.00000E+00
    0.13476E+07        -0.14086E+08         0.00000E+00
    0.00000E+00         0.00000E+00         0.00000E+00
 
    0.81256E+06         0.14370E+07         0.00000E+00
    0.14370E+07        -0.14088E+08         0.00000E+00
    0.00000E+00         0.00000E+00         0.00000E+00
 
    0.77096E+06         0.15263E+07         0.00000E+00
    0.15263E+07        -0.14090E+08         0.00000E+00
    0.00000E+00         0.00000E+00         0.00000E+00
 
    0.73042E+06         0.16155E+07         0.00000E+00
    0.16155E+07        -0.14092E+08         0.00000E+00
    0.00000E+00         0.00000E+00         0.00000E+00
 
    0.69097E+06         0.17046E+07         0.00000E+00
    0.17046E+07        -0.14094E+08         0.00000E+00
    0.00000E+00         0.00000E+00         0.00000E+00
 
    0.65258E+06         0.17937E+07         0.00000E+00
    0.17937E+07        -0.14096E+08         0.00000E+00
    0.00000E+00         0.00000E+00         0.00000E+00
 
    0.61528E+06         0.18828E+07         0.00000E+00
    0.18828E+07        -0.14099E+08         0.00000E+00
    0.00000E+00         0.00000E+00         0.00000E+00
 
    0.57905E+06         0.19720E+07         0.00000E+00
    0.19720E+07        -0.14101E+08         0.00000E+00
    0.00000E+00         0.00000E+00         0.00000E+00
 
    0.54390E+06         0.20614E+07         0.00000E+00
    0.20614E+07        -0.14104E+08         0.00000E+00
    0.00000E+00         0.00000E+00         0.00000E+00
 
    0.50983E+06         0.21509E+07         0.00000E+00
    0.21509E+07        -0.14106E+08         0.00000E+00
    0.00000E+00         0.00000E+00         0.00000E+00
 
    0.47684E+06         0.22406E+07         0.00000E+00
    0.22406E+07        -0.14109E+08         0.00000E+00
    0.00000E+00         0.00000E+00         0.00000E+00
 
    0.44493E+06         0.23305E+07         0.00000E+00
    0.23305E+07        -0.14111E+08         0.00000E+00
    0.00000E+00         0.00000E+00         0.00000E+00
 
    0.41409E+06         0.24207E+07         0.00000E+00
    0.24207E+07        -0.14114E+08         0.00000E+00
    0.00000E+00         0.00000E+00         0.00000E+00
 
    0.38433E+06         0.25113E+07         0.00000E+00
    0.25113E+07        -0.14116E+08         0.00000E+00
    0.00000E+00         0.00000E+00         0.00000E+00
 
    0.35565E+06         0.26021E+07         0.00000E+00
    0.26021E+07        -0.14118E+08         0.00000E+00
    0.00000E+00         0.00000E+00         0.00000E+00
 
    0.32805E+06         0.26934E+07         0.00000E+00
    0.26934E+07        -0.14121E+08         0.00000E+00
    0.00000E+00         0.00000E+00         0.00000E+00
 
    0.30154E+06         0.27851E+07         0.00000E+00
    0.27851E+07        -0.14123E+08         0.00000E+00
    0.00000E+00         0.00000E+00         0.00000E+00
 
    0.27610E+06         0.28773E+07         0.00000E+00
    0.28773E+07        -0.14125E+08         0.00000E+00
    0.00000E+00         0.00000E+00         0.00000E+00
 
    0.25176E+06         0.29699E+07         0.00000E+00
    0.29699E+07        -0.14127E+08         0.00000E+00
    0.00000E+00         0.00000E+00         0.00000E+00
 
    0.22851E+06         0.30631E+07         0.00000E+00
    0.30631E+07        -0.14129E+08         0.00000E+00
    0.00000E+00         0.00000E+00         0.00000E+00
 
    0.20635E+06         0.31569E+07         0.00000E+00
    0.31569E+07        -0.14131E+08         0.00000E+00
    0.00000E+00         0.00000E+00         0.00000E+00
 
    0.18530E+06         0.32513E+07         0.00000E+00
    0.32513E+07        -0.14133E+08         0.00000E+00
    0.00000E+00         0.00000E+00         0.00000E+00
 
    0.16536E+06         0.33464E+07         0.00000E+00
    0.33464E+07        -0.14135E+08         0.00000E+00
    0.00000E+00         0.00000E+00         0.00000E+00
 
    0.14653E+06         0.34422E+07         0.00000E+00
    0.34422E+07        -0.14136E+08         0.00000E+00
    0.00000E+00         0.00000E+00         0.00000E+00
 
    0.12881E+06         0.35388E+07         0.00000E+00
    0.35388E+07        -0.14137E+08         0.00000E+00
    0.00000E+00         0.00000E+00         0.00000E+00
 
    0.11221E+06         0.36362E+07         0.00000E+00
    0.36362E+07        -0.14138E+08         0.00000E+00
    0.00000E+00         0.00000E+00         0.00000E+00
 
    0.96727E+05         0.37345E+07         0.00000E+00
    0.37345E+07        -0.14139E+08         0.00000E+00
    0.00000E+00         0.00000E+00         0.00000E+00
 
    0.82343E+05         0.38338E+07         0.00000E+00
    0.38338E+07        -0.14139E+08         0.00000E+00
    0.00000E+00         0.00000E+00         0.00000E+00
 
    0.69047E+05         0.39342E+07         0.00000E+00
    0.39342E+07        -0.14140E+08         0.00000E+00
    0.00000E+00         0.00000E+00         0.00000E+00
 
    0.56814E+05         0.40356E+07         0.00000E+00
    0.40356E+07        -0.14140E+08         0.00000E+00
    0.00000E+00         0.00000E+00         0.00000E+00
 
    0.45611E+05         0.41382E+07         0.00000E+00
    0.41382E+07        -0.14140E+08         0.00000E+00
    0.00000E+00         0.00000E+00         0.00000E+00
 
    0.35390E+05         0.42422E+07         0.00000E+00
    0.42422E+07        -0.14139E+08         0.00000E+00
    0.00000E+00         0.00000E+00         0.00000E+00
 
    0.26105E+05         0.43474E+07         0.00000E+00
    0.43474E+07        -0.14138E+08         0.00000E+00
    0.00000E+00         0.00000E+00         0.00000E+00
 
    0.17709E+05         0.44540E+07         0.00000E+00
    0.44540E+07        -0.14137E+08         0.00000E+00
    0.00000E+00         0.00000E+00         0.00000E+00
 
    0.10144E+05         0.45622E+07         0.00000E+00
    0.45622E+07        -0.14135E+08         0.00000E+00
    0.00000E+00         0.00000E+00         0.00000E+00
 
    0.32810E+04         0.46720E+07         0.00000E+00
    0.46720E+07        -0.14132E+08         0.00000E+00
    0.00000E+00         0.00000E+00         0.00000E+00
 
    0.14768E+07         0.50002E+05         0.00000E+00
    0.50002E+05        -0.14643E+08         0.00000E+00
    0.00000E+00         0.00000E+00         0.00000E+00
 
    0.14158E+07         0.14672E+06         0.00000E+00
    0.14672E+06        -0.14643E+08         0.00000E+00
    0.00000E+00         0.00000E+00         0.00000E+00
 
    0.13560E+07         0.24235E+06         0.00000E+00
    0.24235E+06        -0.14644E+08         0.00000E+00
    0.00000E+00         0.00000E+00         0.00000E+00
 
    0.12973E+07         0.33699E+06         0.00000E+00
    0.33699E+06        -0.14644E+08         0.00000E+00
    0.00000E+00         0.00000E+00         0.00000E+00
 
    0.12397E+07         0.43072E+06         0.00000E+00
    0.43072E+06        -0.14645E+08         0.00000E+00
    0.00000E+00         0.00000E+00         0.00000E+00
 
    0.11834E+07         0.52362E+06         0.00000E+00
    0.52362E+06        -0.14647E+08         0.00000E+00
    0.00000E+00         0.00000E+00         0.00000E+00
 
    0.11282E+07         0.61576E+06         0.00000E+00
    0.61576E+06        -0.14648E+08         0.00000E+00
    0.00000E+00         0.00000E+00         0.00000E+00
 
    0.10744E+07         0.70723E+06         0.00000E+00
    0.70723E+06        -0.14650E+08         0.00000E+00
    0.00000E+00         0.00000E+00         0.00000E+00
 
    0.10218E+07         0.79809E+06         0.00000E+00
    0.79809E+06        -0.14652E+08         0.00000E+00
    0.00000E+00         0.00000E+00         0.00000E+00
 
    0.97051E+06         0.88843E+06         0.00000E+00
    0.88843E+06        -0.14655E+08         0.00000E+00
    0.00000E+00         0.00000E+00         0.00000E+00
 
    0.92053E+06         0.97830E+06         0.00000E+00
    0.97830E+06        -0.14658E+08         0.00000E+00
    0.00000E+00         0.00000E+00         0.00000E+00
 
    0.87186E+06         0.10678E+07         0.00000E+00
    0.10678E+07        -0.14661E+08         0.00000E+00
    0.00000E+00         0.00000E+00         0.00000E+00
 
    0.82452E+06         0.11569E+07         0.00000E+00
    0.11569E+07        -0.14664E+08         0.00000E+00
    0.00000E+00         0.00000E+00         0.00000E+00
 
    0.77850E+06         0.12458E+07         0.00000E+00
    0.12458E+07        -0.14668E+08         0.00000E+00
    0.00000E+00         0.00000E+00         0.00000E+00
 
    0.73381E+06         0.13344E+07         0.00000E+00
    0.13344E+07        -0.14672E+08         0.00000E+00
    0.00000E+00         0.00000E+00         0.00000E+00
 
    0.69044E+06         0.14230E+07         0.00000E+00
    0.14230E+07        -0.14676E+08         0.00000E+00
    0.00000E+00         0.00000E+00         0.00000E+00
 
    0.64841E+06         0.15114E+07         0.00000E+00
    0.15114E+07        -0.14681E+08         0.00000E+00
    0.00000E+00         0.00000E+00         0.00000E+00
 
    0.60769E+06         0.15998E+07         0.00000E+00
    0.15998E+07        -0.14685E+08         0.00000E+00
    0.00000E+00         0.00000E+00         0.00000E+00
 
    0.56829E+06         0.16882E+07         0.00000E+00
    0.16882E+07        -0.14690E+08         0.00000E+00
    0.00000E+00         0.00000E+00         0.00000E+00
 
    0.53021E+06         0.17766E+07         0.00000E+00
    0.17766E+07        -0.14696E+08         0.00000E+00
    0.00000E+00         0.00000E+00         0.00000E+00
 
    0.49343E+06         0.18652E+07         0.00000E+00
    0.18652E+07        -0.14701E+08         0.00000E+00
    0.00000E+00         0.00000E+00         0.00000E+00
 
    0.45795E+06         0.19539E+07         0.00000E+00
    0.19539E+07        -0.14706E+08         0.00000E+00
    0.00000E+00         0.00000E+00         0.00000E+00
 
    0.42377E+06         0.20428E+07         0.00000E+00
    0.20428E+07        -0.14712E+08         0.00000E+00
    0.00000E+00         0.00000E+00         0.00000E+00
 
    0.39087E+06         0.21320E+07         0.00000E+00
    0.21320E+07        -0.14718E+08         0.00000E+00
    0.00000E+00         0.00000E+00         0.00000E+00
 
    0.35925E+06         0.22215E+07         0.00000E+00
    0.22215E+07        -0.14724E+08         0.00000E+00
    0.00000E+00         0.00000E+00         0.00000E+00
 
    0.32890E+06         0.23113E+07         0.00000E+00
    0.23113E+07        -0.14729E+08         0.00000E+00
    0.00000E+00         0.00000E+00         0.00000E+00
 
    0.29983E+06         0.24014E+07         0.00000E+00
    0.24014E+07        -0.14735E+08         0.00000E+00
    0.00000E+00         0.00000E+00         0.00000E+00
 
    0.27202E+06         0.24920E+07         0.00000E+00
    0.24920E+07        -0.14741E+08         0.00000E+00
    0.00000E+00         0.00000E+00         0.00000E+00
 
    0.24548E+06         0.25830E+07         0.00000E+00
    0.25830E+07        -0.14747E+08         0.00000E+00
    0.00000E+00         0.00000E+00         0.00000E+00
 
    0.22020E+06         0.26744E+07         0.00000E+00
    0.26744E+07        -0.14753E+08         0.00000E+00
    0.00000E+00         0.00000E+00         0.00000E+00
 
    0.19618E+06         0.27664E+07         0.00000E+00
    0.27664E+07        -0.14759E+08         0.00000E+00
    0.00000E+00         0.00000E+00         0.00000E+00
 
    0.17344E+06         0.28589E+07         0.00000E+00
    0.28589E+07        -0.14765E+08         0.00000E+00
    0.00000E+00         0.00000E+00         0.00000E+00
 
    0.15197E+06         0.29520E+07         0.00000E+00
    0.29520E+07        -0.14771E+08         0.00000E+00
    0.00000E+00         0.00000E+00         0.00000E+00
 
    0.13179E+06         0.30458E+07         0.00000E+00
    0.30458E+07        -0.14777E+08         0.00000E+00
    0.00000E+00         0.00000E+00         0.00000E+00
 
    0.11290E+06         0.31401E+07         0.00000E+00
    0.31401E+07        -0.14783E+08         0.00000E+00
    0.00000E+00         0.00000E+00         0.00000E+00
 
    0.95339E+05         0.32352E+07         0.00000E+00
    0.32352E+07        -0.14788E+08         0.00000E+00
    0.00000E+00         0.00000E+00         0.00000E+00
 
    0.79112E+05         0.33310E+07         0.00000E+00
    0.33310E+07        -0.14794E+08         0.00000E+00
    0.00000E+00         0.00000E+00         0.00000E+00
 
    0.64247E+05         0.34276E+07         0.00000E+00
    0.34276E+07        -0.14799E+08         0.00000E+00
    0.00000E+00         0.00000E+00         0.00000E+00
 
    0.50771E+05         0.35249E+07         0.00000E+00
    0.35249E+07        -0.14804E+08         0.00000E+00
    0.00000E+00         0.00000E+00         0.00000E+00
 
    0.38715E+05         0.36232E+07         0.00000E+00
    0.36232E+07        -0.14809E+08         0.00000E+00
    0.00000E+00         0.00000E+00         0.00000E+00
 
    0.28107E+05         0.37224E+07         0.00000E+00
    0.37224E+07        -0.14814E+08         0.00000E+00
    0.00000E+00         0.00000E+00         0.00000E+00
 
    0.18971E+05         0.38227E+07         0.00000E+00
    0.38227E+07        -0.14818E+08         0.00000E+00
    0.00000E+00         0.00000E+00         0.00000E+00
 
    0.11337E+05         0.39240E+07         0.00000E+00
    0.39240E+07        -0.14823E+08         0.00000E+00
    0.00000E+00         0.00000E+00         0.00000E+00
 
    0.52231E+04         0.40266E+07         0.00000E+00
    0.40266E+07        -0.14827E+08         0.00000E+00
    0.00000E+00         0.00000E+00         0.00000E+00
 
    0.63513E+03         0.41305E+07         0.00000E+00
    0.41305E+07        -0.14831E+08         0.00000E+00
    0.00000E+00         0.00000E+00         0.00000E+00
 
   -0.24380E+04         0.42358E+07         0.00000E+00
    0.42358E+07        -0.14835E+08         0.00000E+00
    0.00000E+00         0.00000E+00         0.00000E+00
 
   -0.40813E+04         0.43428E+07         0.00000E+00
    0.43428E+07        -0.14838E+08         0.00000E+00
    0.00000E+00         0.00000E+00         0.00000E+00
 
   -0.44116E+04         0.44515E+07         0.00000E+00
    0.44515E+07        -0.14841E+08         0.00000E+00
    0.00000E+00         0.00000E+00         0.00000E+00
 
   -0.35507E+04         0.45621E+07         0.00000E+00
    0.45621E+07        -0.14844E+08         0.00000E+00
    0.00000E+00         0.00000E+00         0.00000E+00
 
   -0.14204E+04         0.46742E+07         0.00000E+00
    0.46742E+07        -0.14846E+08         0.00000E+00
    0.00000E+00         0.00000E+00         0.00000E+00
 
    0.13764E+07         0.49323E+05         0.00000E+00
    0.49323E+05        -0.15226E+08         0.00000E+00
    0.00000E+00         0.00000E+00         0.00000E+00
 
    0.13096E+07         0.14435E+06         0.00000E+00
    0.14435E+06        -0.15227E+08         0.00000E+00
    0.00000E+00         0.00000E+00         0.00000E+00
 
    0.12444E+07         0.23820E+06         0.00000E+00
    0.23820E+06        -0.15228E+08         0.00000E+00
    0.00000E+00         0.00000E+00         0.00000E+00
 
    0.11807E+07         0.33100E+06         0.00000E+00
    0.33100E+06        -0.15229E+08         0.00000E+00
    0.00000E+00         0.00000E+00         0.00000E+00
 
    0.11187E+07         0.42282E+06         0.00000E+00
    0.42282E+06        -0.15231E+08         0.00000E+00
    0.00000E+00         0.00000E+00         0.00000E+00
 
    0.10583E+07         0.51378E+06         0.00000E+00
    0.51378E+06        -0.15234E+08         0.00000E+00
    0.00000E+00         0.00000E+00         0.00000E+00
 
    0.99961E+06         0.60397E+06         0.00000E+00
    0.60397E+06        -0.15237E+08         0.00000E+00
    0.00000E+00         0.00000E+00         0.00000E+00
 
    0.94257E+06         0.69348E+06         0.00000E+00
    0.69348E+06        -0.15240E+08         0.00000E+00
    0.00000E+00         0.00000E+00         0.00000E+00
 
    0.88720E+06         0.78238E+06         0.00000E+00
    0.78238E+06        -0.15244E+08         0.00000E+00
    0.00000E+00         0.00000E+00         0.00000E+00
 
    0.83350E+06         0.87078E+06         0.00000E+00
    0.87078E+06        -0.15249E+08         0.00000E+00
    0.00000E+00         0.00000E+00         0.00000E+00
 
    0.78149E+06         0.95874E+06         0.00000E+00
    0.95874E+06        -0.15254E+08         0.00000E+00
    0.00000E+00         0.00000E+00         0.00000E+00
 
    0.73114E+06         0.10464E+07         0.00000E+00
    0.10464E+07        -0.15259E+08         0.00000E+00
    0.00000E+00         0.00000E+00         0.00000E+00
 
    0.68247E+06         0.11337E+07         0.00000E+00
    0.11337E+07        -0.15265E+08         0.00000E+00
    0.00000E+00         0.00000E+00         0.00000E+00
 
    0.63545E+06         0.12208E+07         0.00000E+00
    0.12208E+07        -0.15271E+08         0.00000E+00
    0.00000E+00         0.00000E+00         0.00000E+00
 
    0.59007E+06         0.13078E+07         0.00000E+00
    0.13078E+07        -0.15278E+08         0.00000E+00
    0.00000E+00         0.00000E+00         0.00000E+00
 
    0.54633E+06         0.13947E+07         0.00000E+00
    0.13947E+07        -0.15286E+08         0.00000E+00
    0.00000E+00         0.00000E+00         0.00000E+00
 
    0.50422E+06         0.14816E+07         0.00000E+00
    0.14816E+07        -0.15293E+08         0.00000E+00
    0.00000E+00         0.00000E+00         0.00000E+00
 
    0.46370E+06         0.15685E+07         0.00000E+00
    0.15685E+07        -0.15301E+08         0.00000E+00
    0.00000E+00         0.00000E+00         0.00000E+00
 
    0.42478E+06         0.16556E+07         0.00000E+00
    0.16556E+07        -0.15310E+08         0.00000E+00
    0.00000E+00         0.00000E+00         0.00000E+00
 
    0.38743E+06         0.17428E+07         0.00000E+00
    0.17428E+07        -0.15318E+08         0.00000E+00
    0.00000E+00         0.00000E+00         0.00000E+00
 
    0.35163E+06         0.18302E+07         0.00000E+00
    0.18302E+07        -0.15327E+08         0.00000E+00
    0.00000E+00         0.00000E+00         0.00000E+00
 
    0.31738E+06         0.19179E+07         0.00000E+00
    0.19179E+07        -0.15337E+08         0.00000E+00
    0.00000E+00         0.00000E+00         0.00000E+00
 
    0.28465E+06         0.20059E+07         0.00000E+00
    0.20059E+07        -0.15346E+08         0.00000E+00
    0.00000E+00         0.00000E+00         0.00000E+00
 
    0.25342E+06         0.20942E+07         0.00000E+00
    0.20942E+07        -0.15356E+08         0.00000E+00
    0.00000E+00         0.00000E+00         0.00000E+00
 
    0.22369E+06         0.21830E+07         0.00000E+00
    0.21830E+07        -0.15366E+08         0.00000E+00
    0.00000E+00         0.00000E+00         0.00000E+00
 
    0.19543E+06         0.22722E+07         0.00000E+00
    0.22722E+07        -0.15376E+08         0.00000E+00
    0.00000E+00         0.00000E+00         0.00000E+00
 
    0.16864E+06         0.23619E+07         0.00000E+00
    0.23619E+07        -0.15387E+08         0.00000E+00
    0.00000E+00         0.00000E+00         0.00000E+00
 
    0.14331E+06         0.24521E+07         0.00000E+00
    0.24521E+07        -0.15397E+08         0.00000E+00
    0.00000E+00         0.00000E+00         0.00000E+00
 
    0.11942E+06         0.25429E+07         0.00000E+00
    0.25429E+07        -0.15408E+08         0.00000E+00
    0.00000E+00         0.00000E+00         0.00000E+00
 
    0.96969E+05         0.26342E+07         0.00000E+00
    0.26342E+07        -0.15419E+08         0.00000E+00
    0.00000E+00         0.00000E+00         0.00000E+00
 
    0.75961E+05         0.27262E+07         0.00000E+00
    0.27262E+07        -0.15429E+08         0.00000E+00
    0.00000E+00         0.00000E+00         0.00000E+00
 
    0.56393E+05         0.28189E+07         0.00000E+00
    0.28189E+07        -0.15440E+08         0.00000E+00
    0.00000E+00         0.00000E+00         0.00000E+00
 
    0.38272E+05         0.29122E+07         0.00000E+00
    0.29122E+07        -0.15451E+08         0.00000E+00
    0.00000E+00         0.00000E+00         0.00000E+00
 
    0.21609E+05         0.30063E+07         0.00000E+00
    0.30063E+07        -0.15462E+08         0.00000E+00
    0.00000E+00         0.00000E+00         0.00000E+00
 
    0.64223E+04         0.31011E+07         0.00000E+00
    0.31011E+07        -0.15472E+08         0.00000E+00
    0.00000E+00         0.00000E+00         0.00000E+00
 
   -0.72668E+04         0.31967E+07         0.00000E+00
    0.31967E+07        -0.15483E+08         0.00000E+00
    0.00000E+00         0.00000E+00         0.00000E+00
 
   -0.19432E+05         0.32931E+07         0.00000E+00
    0.32931E+07        -0.15493E+08         0.00000E+00
    0.00000E+00         0.00000E+00         0.00000E+00
 
   -0.30028E+05         0.33904E+07         0.00000E+00
    0.33904E+07        -0.15504E+08         0.00000E+00
    0.00000E+00         0.00000E+00         0.00000E+00
 
   -0.39004E+05         0.34885E+07         0.00000E+00
    0.34885E+07        -0.15514E+08         0.00000E+00
    0.00000E+00         0.00000E+00         0.00000E+00
 
   -0.46298E+05         0.35876E+07         0.00000E+00
    0.35876E+07        -0.15524E+08         0.00000E+00
    0.00000E+00         0.00000E+00         0.00000E+00
 
   -0.51821E+05         0.36876E+07         0.00000E+00
    0.36876E+07        -0.15534E+08         0.00000E+00
    0.00000E+00         0.00000E+00         0.00000E+00
 
   -0.55475E+05         0.37886E+07         0.00000E+00
    0.37886E+07        -0.15544E+08         0.00000E+00
    0.00000E+00         0.00000E+00         0.00000E+00
 
   -0.57184E+05         0.38908E+07         0.00000E+00
    0.38908E+07        -0.15553E+08         0.00000E+00
    0.00000E+00         0.00000E+00         0.00000E+00
 
   -0.56851E+05         0.39942E+07         0.00000E+00
    0.39942E+07        -0.15562E+08         0.00000E+00
    0.00000E+00         0.00000E+00         0.00000E+00
 
   -0.54391E+05         0.40989E+07         0.00000E+00
    0.40989E+07        -0.15572E+08         0.00000E+00
    0.00000E+00         0.00000E+00         0.00000E+00
 
   -0.49723E+05         0.42050E+07         0.00000E+00
    0.42050E+07        -0.15580E+08         0.00000E+00
    0.00000E+00         0.00000E+00         0.00000E+00
 
   -0.42606E+05         0.43125E+07         0.00000E+00
    0.43125E+07        -0.15589E+08         0.00000E+00
    0.00000E+00         0.00000E+00         0.00000E+00
 
   -0.32924E+05         0.44220E+07         0.00000E+00
    0.44220E+07        -0.15598E+08         0.00000E+00
    0.00000E+00         0.00000E+00         0.00000E+00
 
   -0.20764E+05         0.45339E+07         0.00000E+00
    0.45339E+07        -0.15608E+08         0.00000E+00
    0.00000E+00         0.00000E+00         0.00000E+00
 
   -0.70373E+04         0.46497E+07         0.00000E+00
    0.46497E+07        -0.15617E+08         0.00000E+00
    0.00000E+00         0.00000E+00         0.00000E+00
 
    0.12487E+07         0.47884E+05         0.00000E+00
    0.47884E+05        -0.15825E+08         0.00000E+00
    0.00000E+00         0.00000E+00         0.00000E+00
 
    0.11756E+07         0.13985E+06         0.00000E+00
    0.13985E+06        -0.15826E+08         0.00000E+00
    0.00000E+00         0.00000E+00         0.00000E+00
 
    0.11047E+07         0.23060E+06         0.00000E+00
    0.23060E+06        -0.15828E+08         0.00000E+00
    0.00000E+00         0.00000E+00         0.00000E+00
 
    0.10359E+07         0.32026E+06         0.00000E+00
    0.32026E+06        -0.15830E+08         0.00000E+00
    0.00000E+00         0.00000E+00         0.00000E+00
 
    0.96932E+06         0.40895E+06         0.00000E+00
    0.40895E+06        -0.15833E+08         0.00000E+00
    0.00000E+00         0.00000E+00         0.00000E+00
 
    0.90488E+06         0.49677E+06         0.00000E+00
    0.49677E+06        -0.15837E+08         0.00000E+00
    0.00000E+00         0.00000E+00         0.00000E+00
 
    0.84259E+06         0.58385E+06         0.00000E+00
    0.58385E+06        -0.15842E+08         0.00000E+00
    0.00000E+00         0.00000E+00         0.00000E+00
 
    0.78245E+06         0.67027E+06         0.00000E+00
    0.67027E+06        -0.15847E+08         0.00000E+00
    0.00000E+00         0.00000E+00         0.00000E+00
 
    0.72444E+06         0.75614E+06         0.00000E+00
    0.75614E+06        -0.15853E+08         0.00000E+00
    0.00000E+00         0.00000E+00         0.00000E+00
 
    0.66855E+06         0.84155E+06         0.00000E+00
    0.84155E+06        -0.15860E+08         0.00000E+00
    0.00000E+00         0.00000E+00         0.00000E+00
 
    0.61476E+06         0.92659E+06         0.00000E+00
    0.92659E+06        -0.15868E+08         0.00000E+00
    0.00000E+00         0.00000E+00         0.00000E+00
 
    0.56305E+06         0.10114E+07         0.00000E+00
    0.10114E+07        -0.15876E+08         0.00000E+00
    0.00000E+00         0.00000E+00         0.00000E+00
 
    0.51339E+06         0.10959E+07         0.00000E+00
    0.10959E+07        -0.15885E+08         0.00000E+00
    0.00000E+00         0.00000E+00         0.00000E+00
 
    0.46575E+06         0.11804E+07         0.00000E+00
    0.11804E+07        -0.15895E+08         0.00000E+00
    0.00000E+00         0.00000E+00         0.00000E+00
 
    0.42012E+06         0.12648E+07         0.00000E+00
    0.12648E+07        -0.15905E+08         0.00000E+00
    0.00000E+00         0.00000E+00         0.00000E+00
 
    0.37646E+06         0.13492E+07         0.00000E+00
    0.13492E+07        -0.15916E+08         0.00000E+00
    0.00000E+00         0.00000E+00         0.00000E+00
 
    0.33475E+06         0.14337E+07         0.00000E+00
    0.14337E+07        -0.15927E+08         0.00000E+00
    0.00000E+00         0.00000E+00         0.00000E+00
 
    0.29495E+06         0.15184E+07         0.00000E+00
    0.15184E+07        -0.15939E+08         0.00000E+00
    0.00000E+00         0.00000E+00         0.00000E+00
 
    0.25704E+06         0.16034E+07         0.00000E+00
    0.16034E+07        -0.15952E+08         0.00000E+00
    0.00000E+00         0.00000E+00         0.00000E+00
 
    0.22098E+06         0.16886E+07         0.00000E+00
    0.16886E+07        -0.15965E+08         0.00000E+00
    0.00000E+00         0.00000E+00         0.00000E+00
 
    0.18674E+06         0.17741E+07         0.00000E+00
    0.17741E+07        -0.15978E+08         0.00000E+00
    0.00000E+00         0.00000E+00         0.00000E+00
 
    0.15429E+06         0.18600E+07         0.00000E+00
    0.18600E+07        -0.15992E+08         0.00000E+00
    0.00000E+00         0.00000E+00         0.00000E+00
 
    0.12361E+06         0.19464E+07         0.00000E+00
    0.19464E+07        -0.16006E+08         0.00000E+00
    0.00000E+00         0.00000E+00         0.00000E+00
 
    0.94663E+05         0.20333E+07         0.00000E+00
    0.20333E+07        -0.16021E+08         0.00000E+00
    0.00000E+00         0.00000E+00         0.00000E+00
 
    0.67427E+05         0.21207E+07         0.00000E+00
    0.21207E+07        -0.16036E+08         0.00000E+00
    0.00000E+00         0.00000E+00         0.00000E+00
 
    0.41876E+05         0.22086E+07         0.00000E+00
    0.22086E+07        -0.16052E+08         0.00000E+00
    0.00000E+00         0.00000E+00         0.00000E+00
 
    0.17988E+05         0.22972E+07         0.00000E+00
    0.22972E+07        -0.16067E+08         0.00000E+00
    0.00000E+00         0.00000E+00         0.00000E+00
 
   -0.42527E+04         0.23865E+07         0.00000E+00
    0.23865E+07        -0.16083E+08         0.00000E+00
    0.00000E+00         0.00000E+00         0.00000E+00
 
   -0.24864E+05         0.24764E+07         0.00000E+00
    0.24764E+07        -0.16100E+08         0.00000E+00
    0.00000E+00         0.00000E+00         0.00000E+00
 
   -0.43859E+05         0.25670E+07         0.00000E+00
    0.25670E+07        -0.16116E+08         0.00000E+00
    0.00000E+00         0.00000E+00         0.00000E+00
 
   -0.61250E+05         0.26584E+07         0.00000E+00
    0.26584E+07        -0.16133E+08         0.00000E+00
    0.00000E+00         0.00000E+00         0.00000E+00
 
   -0.77036E+05         0.27506E+07         0.00000E+00
    0.27506E+07        -0.16150E+08         0.00000E+00
    0.00000E+00         0.00000E+00         0.00000E+00
 
   -0.91215E+05         0.28436E+07         0.00000E+00
    0.28436E+07        -0.16167E+08         0.00000E+00
    0.00000E+00         0.00000E+00         0.00000E+00
 
   -0.10378E+06         0.29375E+07         0.00000E+00
    0.29375E+07        -0.16184E+08         0.00000E+00
    0.00000E+00         0.00000E+00         0.00000E+00
 
   -0.11472E+06         0.30322E+07         0.00000E+00
    0.30322E+07        -0.16201E+08         0.00000E+00
    0.00000E+00         0.00000E+00         0.00000E+00
 
   -0.12399E+06         0.31278E+07         0.00000E+00
    0.31278E+07        -0.16219E+08         0.00000E+00
    0.00000E+00         0.00000E+00         0.00000E+00
 
   -0.13155E+06         0.32244E+07         0.00000E+00
    0.32244E+07        -0.16236E+08         0.00000E+00
    0.00000E+00         0.00000E+00         0.00000E+00
 
   -0.13738E+06         0.33220E+07         0.00000E+00
    0.33220E+07        -0.16254E+08         0.00000E+00
    0.00000E+00         0.00000E+00         0.00000E+00
 
   -0.14141E+06         0.34205E+07         0.00000E+00
    0.34205E+07        -0.16272E+08         0.00000E+00
    0.00000E+00         0.00000E+00         0.00000E+00
 
   -0.14359E+06         0.35202E+07         0.00000E+00
    0.35202E+07        -0.16289E+08         0.00000E+00
    0.00000E+00         0.00000E+00         0.00000E+00
 
   -0.14387E+06         0.36209E+07         0.00000E+00
    0.36209E+07        -0.16307E+08         0.00000E+00
    0.00000E+00         0.00000E+00         0.00000E+00
 
   -0.14210E+06         0.37226E+07         0.00000E+00
    0.37226E+07        -0.16325E+08         0.00000E+00
    0.00000E+00         0.00000E+00         0.00000E+00
 
   -0.13795E+06         0.38253E+07         0.00000E+00
    0.38253E+07        -0.16342E+08         0.00000E+00
    0.00000E+00         0.00000E+00         0.00000E+00
 
   -0.13113E+06         0.39291E+07         0.00000E+00
    0.39291E+07        -0.16360E+08         0.00000E+00
    0.00000E+00         0.00000E+00         0.00000E+00
 
   -0.12118E+06         0.40341E+07         0.00000E+00
    0.40341E+07        -0.16378E+08         0.00000E+00
    0.00000E+00         0.00000E+00         0.00000E+00
 
   -0.10771E+06         0.41409E+07         0.00000E+00
    0.41409E+07        -0.16396E+08         0.00000E+00
    0.00000E+00         0.00000E+00         0.00000E+00
 
   -0.90984E+05         0.42504E+07         0.00000E+00
    0.42504E+07        -0.16414E+08         0.00000E+00
    0.00000E+00         0.00000E+00         0.00000E+00
 
   -0.70873E+05         0.43614E+07         0.00000E+00
    0.43614E+07        -0.16430E+08         0.00000E+00
    0.00000E+00         0.00000E+00         0.00000E+00
 
   -0.46987E+05         0.44744E+07         0.00000E+00
    0.44744E+07        -0.16442E+08         0.00000E+00
    0.00000E+00         0.00000E+00         0.00000E+00
 
   -0.17057E+05         0.45863E+07         0.00000E+00
    0.45863E+07        -0.16454E+08         0.00000E+00
    0.00000E+00         0.00000E+00         0.00000E+00
 
    0.10862E+07         0.45553E+05         0.00000E+00
    0.45553E+05        -0.16440E+08         0.00000E+00
    0.00000E+00         0.00000E+00         0.00000E+00
 
    0.10067E+07         0.13284E+06         0.00000E+00
    0.13284E+06        -0.16441E+08         0.00000E+00
    0.00000E+00         0.00000E+00         0.00000E+00
 
    0.93010E+06         0.21895E+06         0.00000E+00
    0.21895E+06        -0.16443E+08         0.00000E+00
    0.00000E+00         0.00000E+00         0.00000E+00
 
    0.85626E+06         0.30399E+06         0.00000E+00
    0.30399E+06        -0.16447E+08         0.00000E+00
    0.00000E+00         0.00000E+00         0.00000E+00
 
    0.78518E+06         0.38811E+06         0.00000E+00
    0.38811E+06        -0.16451E+08         0.00000E+00
    0.00000E+00         0.00000E+00         0.00000E+00
 
    0.71685E+06         0.47143E+06         0.00000E+00
    0.47143E+06        -0.16457E+08         0.00000E+00
    0.00000E+00         0.00000E+00         0.00000E+00
 
    0.65123E+06         0.55405E+06         0.00000E+00
    0.55405E+06        -0.16463E+08         0.00000E+00
    0.00000E+00         0.00000E+00         0.00000E+00
 
    0.58829E+06         0.63611E+06         0.00000E+00
    0.63611E+06        -0.16471E+08         0.00000E+00
    0.00000E+00         0.00000E+00         0.00000E+00
 
    0.52799E+06         0.71770E+06         0.00000E+00
    0.71770E+06        -0.16479E+08         0.00000E+00
    0.00000E+00         0.00000E+00         0.00000E+00
 
    0.47030E+06         0.79892E+06         0.00000E+00
    0.79892E+06        -0.16489E+08         0.00000E+00
    0.00000E+00         0.00000E+00         0.00000E+00
 
    0.41517E+06         0.87989E+06         0.00000E+00
    0.87989E+06        -0.16499E+08         0.00000E+00
    0.00000E+00         0.00000E+00         0.00000E+00
 
    0.36256E+06         0.96069E+06         0.00000E+00
    0.96069E+06        -0.16511E+08         0.00000E+00
    0.00000E+00         0.00000E+00         0.00000E+00
 
    0.31243E+06         0.10414E+07         0.00000E+00
    0.10414E+07        -0.16523E+08         0.00000E+00
    0.00000E+00         0.00000E+00         0.00000E+00
 
    0.26473E+06         0.11222E+07         0.00000E+00
    0.11222E+07        -0.16536E+08         0.00000E+00
    0.00000E+00         0.00000E+00         0.00000E+00
 
    0.21941E+06         0.12030E+07         0.00000E+00
    0.12030E+07        -0.16551E+08         0.00000E+00
    0.00000E+00         0.00000E+00         0.00000E+00
 
    0.17643E+06         0.12840E+07         0.00000E+00
    0.12840E+07        -0.16565E+08         0.00000E+00
    0.00000E+00         0.00000E+00         0.00000E+00
 
    0.13574E+06         0.13652E+07         0.00000E+00
    0.13652E+07        -0.16581E+08         0.00000E+00
    0.00000E+00         0.00000E+00         0.00000E+00
 
    0.97277E+05         0.14467E+07         0.00000E+00
    0.14467E+07        -0.16598E+08         0.00000E+00
    0.00000E+00         0.00000E+00         0.00000E+00
 
    0.61004E+05         0.15286E+07         0.00000E+00
    0.15286E+07        -0.16615E+08         0.00000E+00
    0.00000E+00         0.00000E+00         0.00000E+00
 
    0.26871E+05         0.16109E+07         0.00000E+00
    0.16109E+07        -0.16632E+08         0.00000E+00
    0.00000E+00         0.00000E+00         0.00000E+00
 
   -0.51712E+04         0.16937E+07         0.00000E+00
    0.16937E+07        -0.16651E+08         0.00000E+00
    0.00000E+00         0.00000E+00         0.00000E+00
 
   -0.35168E+05         0.17770E+07         0.00000E+00
    0.17770E+07        -0.16670E+08         0.00000E+00
    0.00000E+00         0.00000E+00         0.00000E+00
 
   -0.63164E+05         0.18609E+07         0.00000E+00
    0.18609E+07        -0.16690E+08         0.00000E+00
    0.00000E+00         0.00000E+00         0.00000E+00
 
   -0.89205E+05         0.19454E+07         0.00000E+00
    0.19454E+07        -0.16710E+08         0.00000E+00
    0.00000E+00         0.00000E+00         0.00000E+00
 
   -0.11333E+06         0.20305E+07         0.00000E+00
    0.20305E+07        -0.16731E+08         0.00000E+00
    0.00000E+00         0.00000E+00         0.00000E+00
 
   -0.13556E+06         0.21164E+07         0.00000E+00
    0.21164E+07        -0.16752E+08         0.00000E+00
    0.00000E+00         0.00000E+00         0.00000E+00
 
   -0.15596E+06         0.22030E+07         0.00000E+00
    0.22030E+07        -0.16774E+08         0.00000E+00
    0.00000E+00         0.00000E+00         0.00000E+00
 
   -0.17454E+06         0.22903E+07         0.00000E+00
    0.22903E+07        -0.16796E+08         0.00000E+00
    0.00000E+00         0.00000E+00         0.00000E+00
 
   -0.19134E+06         0.23784E+07         0.00000E+00
    0.23784E+07        -0.16819E+08         0.00000E+00
    0.00000E+00         0.00000E+00         0.00000E+00
 
   -0.20636E+06         0.24673E+07         0.00000E+00
    0.24673E+07        -0.16842E+08         0.00000E+00
    0.00000E+00         0.00000E+00         0.00000E+00
 
   -0.21962E+06         0.25571E+07         0.00000E+00
    0.25571E+07        -0.16866E+08         0.00000E+00
    0.00000E+00         0.00000E+00         0.00000E+00
 
   -0.23113E+06         0.26477E+07         0.00000E+00
    0.26477E+07        -0.16890E+08         0.00000E+00
    0.00000E+00         0.00000E+00         0.00000E+00
 
   -0.24090E+06         0.27392E+07         0.00000E+00
    0.27392E+07        -0.16914E+08         0.00000E+00
    0.00000E+00         0.00000E+00         0.00000E+00
 
   -0.24893E+06         0.28316E+07         0.00000E+00
    0.28316E+07        -0.16939E+08         0.00000E+00
    0.00000E+00         0.00000E+00         0.00000E+00
 
   -0.25522E+06         0.29250E+07         0.00000E+00
    0.29250E+07        -0.16965E+08         0.00000E+00
    0.00000E+00         0.00000E+00         0.00000E+00
 
   -0.25980E+06         0.30193E+07         0.00000E+00
    0.30193E+07        -0.16991E+08         0.00000E+00
    0.00000E+00         0.00000E+00         0.00000E+00
 
   -0.26261E+06         0.31145E+07         0.00000E+00
    0.31145E+07        -0.17017E+08         0.00000E+00
    0.00000E+00         0.00000E+00         0.00000E+00
 
   -0.26353E+06         0.32105E+07         0.00000E+00
    0.32105E+07        -0.17043E+08         0.00000E+00
    0.00000E+00         0.00000E+00         0.00000E+00
 
   -0.26243E+06         0.33076E+07         0.00000E+00
    0.33076E+07        -0.17071E+08         0.00000E+00
    0.00000E+00         0.00000E+00         0.00000E+00
 
   -0.25912E+06         0.34054E+07         0.00000E+00
    0.34054E+07        -0.17099E+08         0.00000E+00
    0.00000E+00         0.00000E+00         0.00000E+00
 
   -0.25331E+06         0.35044E+07         0.00000E+00
    0.35044E+07        -0.17128E+08         0.00000E+00
    0.00000E+00         0.00000E+00         0.00000E+00
 
   -0.24518E+06         0.36051E+07         0.00000E+00
    0.36051E+07        -0.17158E+08         0.00000E+00
    0.00000E+00         0.00000E+00         0.00000E+00
 
   -0.23530E+06         0.37078E+07         0.00000E+00
    0.37078E+07        -0.17190E+08         0.00000E+00
    0.00000E+00         0.00000E+00         0.00000E+00
 
   -0.22368E+06         0.38111E+07         0.00000E+00
    0.38111E+07        -0.17218E+08         0.00000E+00
    0.00000E+00         0.00000E+00         0.00000E+00
 
   -0.21070E+06         0.39158E+07         0.00000E+00
    0.39158E+07        -0.17246E+08         0.00000E+00
    0.00000E+00         0.00000E+00         0.00000E+00
 
   -0.19548E+06         0.40181E+07         0.00000E+00
    0.40181E+07        -0.17275E+08         0.00000E+00
    0.00000E+00         0.00000E+00         0.00000E+00
 
   -0.17360E+06         0.41162E+07         0.00000E+00
    0.41162E+07        -0.17308E+08         0.00000E+00
    0.00000E+00         0.00000E+00         0.00000E+00
 
   -0.14159E+06         0.42161E+07         0.00000E+00
    0.42161E+07        -0.17357E+08         0.00000E+00
    0.00000E+00         0.00000E+00         0.00000E+00
 
   -0.98418E+05         0.43161E+07         0.00000E+00
    0.43161E+07        -0.17423E+08         0.00000E+00
    0.00000E+00         0.00000E+00        -0.31425E+04
 
   -0.82851E+05         0.44088E+07         0.00000E+00
    0.44088E+07        -0.17483E+08         0.00000E+00
    0.00000E+00         0.00000E+00        -0.49199E+05
 
    0.88046E+06         0.42203E+05         0.00000E+00
    0.42203E+05        -0.17070E+08         0.00000E+00
    0.00000E+00         0.00000E+00         0.00000E+00
 
    0.79489E+06         0.12308E+06         0.00000E+00
    0.12308E+06        -0.17072E+08         0.00000E+00
    0.00000E+00         0.00000E+00         0.00000E+00
 
    0.71284E+06         0.20283E+06         0.00000E+00
    0.20283E+06        -0.17075E+08         0.00000E+00
    0.00000E+00         0.00000E+00         0.00000E+00
 
    0.63426E+06         0.28162E+06         0.00000E+00
    0.28162E+06        -0.17079E+08         0.00000E+00
    0.00000E+00         0.00000E+00         0.00000E+00
 
    0.55910E+06         0.35958E+06         0.00000E+00
    0.35958E+06        -0.17085E+08         0.00000E+00
    0.00000E+00         0.00000E+00         0.00000E+00
 
    0.48732E+06         0.43685E+06         0.00000E+00
    0.43685E+06        -0.17092E+08         0.00000E+00
    0.00000E+00         0.00000E+00         0.00000E+00
 
    0.41887E+06         0.51355E+06         0.00000E+00
    0.51355E+06        -0.17101E+08         0.00000E+00
    0.00000E+00         0.00000E+00         0.00000E+00
 
    0.35367E+06         0.58982E+06         0.00000E+00
    0.58982E+06        -0.17111E+08         0.00000E+00
    0.00000E+00         0.00000E+00         0.00000E+00
 
    0.29167E+06         0.66577E+06         0.00000E+00
    0.66577E+06        -0.17122E+08         0.00000E+00
    0.00000E+00         0.00000E+00         0.00000E+00
 
    0.23280E+06         0.74151E+06         0.00000E+00
    0.74151E+06        -0.17134E+08         0.00000E+00
    0.00000E+00         0.00000E+00         0.00000E+00
 
    0.17699E+06         0.81714E+06         0.00000E+00
    0.81714E+06        -0.17148E+08         0.00000E+00
    0.00000E+00         0.00000E+00         0.00000E+00
 
    0.12419E+06         0.89277E+06         0.00000E+00
    0.89277E+06        -0.17163E+08         0.00000E+00
    0.00000E+00         0.00000E+00         0.00000E+00
 
    0.74305E+05         0.96850E+06         0.00000E+00
    0.96850E+06        -0.17179E+08         0.00000E+00
    0.00000E+00         0.00000E+00         0.00000E+00
 
    0.27276E+05         0.10444E+07         0.00000E+00
    0.10444E+07        -0.17196E+08         0.00000E+00
    0.00000E+00         0.00000E+00         0.00000E+00
 
   -0.16976E+05         0.11206E+07         0.00000E+00
    0.11206E+07        -0.17214E+08         0.00000E+00
    0.00000E+00         0.00000E+00         0.00000E+00
 
   -0.58522E+05         0.11971E+07         0.00000E+00
    0.11971E+07        -0.17234E+08         0.00000E+00
    0.00000E+00         0.00000E+00         0.00000E+00
 
   -0.97436E+05         0.12740E+07         0.00000E+00
    0.12740E+07        -0.17254E+08         0.00000E+00
    0.00000E+00         0.00000E+00         0.00000E+00
 
   -0.13380E+06         0.13514E+07         0.00000E+00
    0.13514E+07        -0.17275E+08         0.00000E+00
    0.00000E+00         0.00000E+00         0.00000E+00
 
   -0.16768E+06         0.14293E+07         0.00000E+00
    0.14293E+07        -0.17297E+08         0.00000E+00
    0.00000E+00         0.00000E+00         0.00000E+00
 
   -0.19917E+06         0.15078E+07         0.00000E+00
    0.15078E+07        -0.17320E+08         0.00000E+00
    0.00000E+00         0.00000E+00         0.00000E+00
 
   -0.22833E+06         0.15870E+07         0.00000E+00
    0.15870E+07        -0.17343E+08         0.00000E+00
    0.00000E+00         0.00000E+00         0.00000E+00
 
   -0.25523E+06         0.16668E+07         0.00000E+00
    0.16668E+07        -0.17368E+08         0.00000E+00
    0.00000E+00         0.00000E+00         0.00000E+00
 
   -0.27992E+06         0.17473E+07         0.00000E+00
    0.17473E+07        -0.17393E+08         0.00000E+00
    0.00000E+00         0.00000E+00         0.00000E+00
 
   -0.30247E+06         0.18285E+07         0.00000E+00
    0.18285E+07        -0.17419E+08         0.00000E+00
    0.00000E+00         0.00000E+00         0.00000E+00
 
   -0.32294E+06         0.19106E+07         0.00000E+00
    0.19106E+07        -0.17446E+08         0.00000E+00
    0.00000E+00         0.00000E+00         0.00000E+00
 
   -0.34140E+06         0.19934E+07         0.00000E+00
    0.19934E+07        -0.17473E+08         0.00000E+00
    0.00000E+00         0.00000E+00         0.00000E+00
 
   -0.35786E+06         0.20770E+07         0.00000E+00
    0.20770E+07        -0.17501E+08         0.00000E+00
    0.00000E+00         0.00000E+00         0.00000E+00
 
   -0.37240E+06         0.21614E+07         0.00000E+00
    0.21614E+07        -0.17530E+08         0.00000E+00
    0.00000E+00         0.00000E+00         0.00000E+00
 
   -0.38506E+06         0.22467E+07         0.00000E+00
    0.22467E+07        -0.17559E+08         0.00000E+00
    0.00000E+00         0.00000E+00         0.00000E+00
 
   -0.39592E+06         0.23328E+07         0.00000E+00
    0.23328E+07        -0.17589E+08         0.00000E+00
    0.00000E+00         0.00000E+00         0.00000E+00
 
   -0.40503E+06         0.24198E+07         0.00000E+00
    0.24198E+07        -0.17619E+08         0.00000E+00
    0.00000E+00         0.00000E+00         0.00000E+00
 
   -0.41235E+06         0.25075E+07         0.00000E+00
    0.25075E+07        -0.17650E+08         0.00000E+00
    0.00000E+00         0.00000E+00         0.00000E+00
 
   -0.41788E+06         0.25960E+07         0.00000E+00
    0.25960E+07        -0.17682E+08         0.00000E+00
    0.00000E+00         0.00000E+00         0.00000E+00
 
   -0.42159E+06         0.26852E+07         0.00000E+00
    0.26852E+07        -0.17715E+08         0.00000E+00
    0.00000E+00         0.00000E+00         0.00000E+00
 
   -0.42330E+06         0.27751E+07         0.00000E+00
    0.27751E+07        -0.17749E+08         0.00000E+00
    0.00000E+00         0.00000E+00         0.00000E+00
 
   -0.42303E+06         0.28660E+07         0.00000E+00
    0.28660E+07        -0.17783E+08         0.00000E+00
    0.00000E+00         0.00000E+00         0.00000E+00
 
   -0.42100E+06         0.29581E+07         0.00000E+00
    0.29581E+07        -0.17818E+08         0.00000E+00
    0.00000E+00         0.00000E+00         0.00000E+00
 
   -0.41765E+06         0.30515E+07         0.00000E+00
    0.30515E+07        -0.17855E+08         0.00000E+00
    0.00000E+00         0.00000E+00         0.00000E+00
 
   -0.41307E+06         0.31453E+07         0.00000E+00
    0.31453E+07        -0.17890E+08         0.00000E+00
    0.00000E+00         0.00000E+00         0.00000E+00
 
   -0.40792E+06         0.32402E+07         0.00000E+00
    0.32402E+07        -0.17925E+08         0.00000E+00
    0.00000E+00         0.00000E+00         0.00000E+00
 
   -0.40251E+06         0.33338E+07         0.00000E+00
    0.33338E+07        -0.17960E+08         0.00000E+00
    0.00000E+00         0.00000E+00         0.00000E+00
 
   -0.39448E+06         0.34236E+07         0.00000E+00
    0.34236E+07        -0.17998E+08         0.00000E+00
    0.00000E+00         0.00000E+00         0.00000E+00
 
   -0.38043E+06         0.35106E+07         0.00000E+00
    0.35106E+07        -0.18038E+08         0.00000E+00
    0.00000E+00         0.00000E+00         0.00000E+00
 
   -0.35939E+06         0.36004E+07         0.00000E+00
    0.36004E+07        -0.18100E+08         0.00000E+00
    0.00000E+00         0.00000E+00         0.00000E+00
 
   -0.33628E+06         0.36873E+07         0.00000E+00
    0.36873E+07        -0.18166E+08         0.00000E+00
    0.00000E+00         0.00000E+00        -0.81018E+04
 
   -0.33452E+06         0.37699E+07         0.00000E+00
    0.37699E+07        -0.18226E+08         0.00000E+00
    0.00000E+00         0.00000E+00        -0.49455E+05
 
   -0.32604E+06         0.38523E+07         0.00000E+00
    0.38523E+07        -0.18289E+08         0.00000E+00
    0.00000E+00         0.00000E+00        -0.92399E+05
 
   -0.33620E+06         0.39271E+07         0.00000E+00
    0.39271E+07        -0.18343E+08         0.00000E+00
    0.00000E+00         0.00000E+00        -0.16410E+06
 
   -0.36522E+06         0.39905E+07         0.00000E+00
    0.39905E+07        -0.18392E+08         0.00000E+00
    0.00000E+00         0.00000E+00        -0.26073E+06
 
   -0.40531E+06         0.40497E+07         0.00000E+00
    0.40497E+07        -0.18463E+08         0.00000E+00
    0.00000E+00         0.00000E+00        -0.37025E+06
 
    0.62255E+06         0.37947E+05         0.00000E+00
    0.37947E+05        -0.17715E+08         0.00000E+00
    0.00000E+00         0.00000E+00         0.00000E+00
 
    0.53137E+06         0.11041E+06         0.00000E+00
    0.11041E+06        -0.17717E+08         0.00000E+00
    0.00000E+00         0.00000E+00         0.00000E+00
 
    0.44448E+06         0.18198E+06         0.00000E+00
    0.18198E+06        -0.17721E+08         0.00000E+00
    0.00000E+00         0.00000E+00         0.00000E+00
 
    0.36180E+06         0.25272E+06         0.00000E+00
    0.25272E+06        -0.17726E+08         0.00000E+00
    0.00000E+00         0.00000E+00         0.00000E+00
 
    0.28327E+06         0.32280E+06         0.00000E+00
    0.32280E+06        -0.17734E+08         0.00000E+00
    0.00000E+00         0.00000E+00         0.00000E+00
 
    0.20880E+06         0.39238E+06         0.00000E+00
    0.39238E+06        -0.17743E+08         0.00000E+00
    0.00000E+00         0.00000E+00         0.00000E+00
 
    0.13830E+06         0.46159E+06         0.00000E+00
    0.46159E+06        -0.17754E+08         0.00000E+00
    0.00000E+00         0.00000E+00         0.00000E+00
 
    0.71687E+05         0.53055E+06         0.00000E+00
    0.53055E+06        -0.17766E+08         0.00000E+00
    0.00000E+00         0.00000E+00         0.00000E+00
 
    0.88704E+04         0.59939E+06         0.00000E+00
    0.59939E+06        -0.17780E+08         0.00000E+00
    0.00000E+00         0.00000E+00         0.00000E+00
 
   -0.50239E+05         0.66824E+06         0.00000E+00
    0.66824E+06        -0.17796E+08         0.00000E+00
    0.00000E+00         0.00000E+00         0.00000E+00
 
   -0.10574E+06         0.73723E+06         0.00000E+00
    0.73723E+06        -0.17813E+08         0.00000E+00
    0.00000E+00         0.00000E+00         0.00000E+00
 
   -0.15773E+06         0.80645E+06         0.00000E+00
    0.80645E+06        -0.17831E+08         0.00000E+00
    0.00000E+00         0.00000E+00         0.00000E+00
 
   -0.20633E+06         0.87602E+06         0.00000E+00
    0.87602E+06        -0.17851E+08         0.00000E+00
    0.00000E+00         0.00000E+00         0.00000E+00
 
   -0.25165E+06         0.94603E+06         0.00000E+00
    0.94603E+06        -0.17873E+08         0.00000E+00
    0.00000E+00         0.00000E+00         0.00000E+00
 
   -0.29380E+06         0.10166E+07         0.00000E+00
    0.10166E+07        -0.17895E+08         0.00000E+00
    0.00000E+00         0.00000E+00         0.00000E+00
 
   -0.33290E+06         0.10877E+07         0.00000E+00
    0.10877E+07        -0.17919E+08         0.00000E+00
    0.00000E+00         0.00000E+00         0.00000E+00
 
   -0.36906E+06         0.11594E+07         0.00000E+00
    0.11594E+07        -0.17944E+08         0.00000E+00
    0.00000E+00         0.00000E+00         0.00000E+00
 
   -0.40239E+06         0.12319E+07         0.00000E+00
    0.12319E+07        -0.17969E+08         0.00000E+00
    0.00000E+00         0.00000E+00         0.00000E+00
 
   -0.43298E+06         0.13050E+07         0.00000E+00
    0.13050E+07        -0.17996E+08         0.00000E+00
    0.00000E+00         0.00000E+00         0.00000E+00
 
   -0.46093E+06         0.13790E+07         0.00000E+00
    0.13790E+07        -0.18024E+08         0.00000E+00
    0.00000E+00         0.00000E+00         0.00000E+00
 
   -0.48636E+06         0.14538E+07         0.00000E+00
    0.14538E+07        -0.18053E+08         0.00000E+00
    0.00000E+00         0.00000E+00         0.00000E+00
 
   -0.50938E+06         0.15295E+07         0.00000E+00
    0.15295E+07        -0.18083E+08         0.00000E+00
    0.00000E+00         0.00000E+00         0.00000E+00
 
   -0.53012E+06         0.16061E+07         0.00000E+00
    0.16061E+07        -0.18113E+08         0.00000E+00
    0.00000E+00         0.00000E+00         0.00000E+00
 
   -0.54868E+06         0.16836E+07         0.00000E+00
    0.16836E+07        -0.18144E+08         0.00000E+00
    0.00000E+00         0.00000E+00         0.00000E+00
 
   -0.56512E+06         0.17618E+07         0.00000E+00
    0.17618E+07        -0.18176E+08         0.00000E+00
    0.00000E+00         0.00000E+00         0.00000E+00
 
   -0.57948E+06         0.18409E+07         0.00000E+00
    0.18409E+07        -0.18209E+08         0.00000E+00
    0.00000E+00         0.00000E+00         0.00000E+00
 
   -0.59186E+06         0.19209E+07         0.00000E+00
    0.19209E+07        -0.18243E+08         0.00000E+00
    0.00000E+00         0.00000E+00         0.00000E+00
 
   -0.60221E+06         0.20016E+07         0.00000E+00
    0.20016E+07        -0.18277E+08         0.00000E+00
    0.00000E+00         0.00000E+00         0.00000E+00
 
   -0.61050E+06         0.20831E+07         0.00000E+00
    0.20831E+07        -0.18312E+08         0.00000E+00
    0.00000E+00         0.00000E+00         0.00000E+00
 
   -0.61685E+06         0.21656E+07         0.00000E+00
    0.21656E+07        -0.18348E+08         0.00000E+00
    0.00000E+00         0.00000E+00         0.00000E+00
 
   -0.62139E+06         0.22491E+07         0.00000E+00
    0.22491E+07        -0.18385E+08         0.00000E+00
    0.00000E+00         0.00000E+00         0.00000E+00
 
   -0.62444E+06         0.23339E+07         0.00000E+00
    0.23339E+07        -0.18424E+08         0.00000E+00
    0.00000E+00         0.00000E+00         0.00000E+00
 
   -0.62619E+06         0.24194E+07         0.00000E+00
    0.24194E+07        -0.18460E+08         0.00000E+00
    0.00000E+00         0.00000E+00         0.00000E+00
 
   -0.62708E+06         0.25060E+07         0.00000E+00
    0.25060E+07        -0.18497E+08         0.00000E+00
    0.00000E+00         0.00000E+00         0.00000E+00
 
   -0.62786E+06         0.25930E+07         0.00000E+00
    0.25930E+07        -0.18534E+08         0.00000E+00
    0.00000E+00         0.00000E+00         0.00000E+00
 
   -0.62784E+06         0.26781E+07         0.00000E+00
    0.26781E+07        -0.18572E+08         0.00000E+00
    0.00000E+00         0.00000E+00         0.00000E+00
 
   -0.62502E+06         0.27611E+07         0.00000E+00
    0.27611E+07        -0.18611E+08         0.00000E+00
    0.00000E+00         0.00000E+00         0.00000E+00
 
   -0.61753E+06         0.28427E+07         0.00000E+00
    0.28427E+07        -0.18652E+08         0.00000E+00
    0.00000E+00         0.00000E+00         0.00000E+00
 
   -0.60513E+06         0.29271E+07         0.00000E+00
    0.29271E+07        -0.18711E+08         0.00000E+00
    0.00000E+00         0.00000E+00         0.00000E+00
 
   -0.58658E+06         0.30104E+07         0.00000E+00
    0.30104E+07        -0.18773E+08         0.00000E+00
    0.00000E+00         0.00000E+00        -0.18139E+04
 
   -0.58703E+06         0.30916E+07         0.00000E+00
    0.30916E+07        -0.18828E+08         0.00000E+00
    0.00000E+00         0.00000E+00        -0.34644E+05
 
   -0.58295E+06         0.31746E+07         0.00000E+00
    0.31746E+07        -0.18883E+08         0.00000E+00
    0.00000E+00         0.00000E+00        -0.71614E+05
 
   -0.57362E+06         0.32588E+07         0.00000E+00
    0.32588E+07        -0.18938E+08         0.00000E+00
    0.00000E+00         0.00000E+00        -0.11269E+06
 
   -0.59072E+06         0.33367E+07         0.00000E+00
    0.33367E+07        -0.18977E+08         0.00000E+00
    0.00000E+00         0.00000E+00        -0.19289E+06
 
   -0.61158E+06         0.34098E+07         0.00000E+00
    0.34098E+07        -0.19018E+08         0.00000E+00
    0.00000E+00         0.00000E+00        -0.28439E+06
 
   -0.63981E+06         0.34810E+07         0.00000E+00
    0.34810E+07        -0.19073E+08         0.00000E+00
    0.00000E+00         0.00000E+00        -0.38720E+06
 
   -0.66781E+06         0.35447E+07         0.00000E+00
    0.35447E+07        -0.19132E+08         0.00000E+00
    0.00000E+00         0.00000E+00        -0.48895E+06
 
   -0.70087E+06         0.36020E+07         0.00000E+00
    0.36020E+07        -0.19196E+08         0.00000E+00
    0.00000E+00         0.00000E+00        -0.58739E+06
 
   -0.74069E+06         0.36567E+07         0.00000E+00
    0.36567E+07        -0.19262E+08         0.00000E+00
    0.00000E+00         0.00000E+00        -0.68112E+06
 
   -0.78393E+06         0.37101E+07         0.00000E+00
    0.37101E+07        -0.19324E+08         0.00000E+00
    0.00000E+00         0.00000E+00        -0.76625E+06
 
    0.30301E+06         0.32340E+05         0.00000E+00
    0.32340E+05        -0.18376E+08         0.00000E+00
    0.00000E+00         0.00000E+00         0.00000E+00
 
    0.20713E+06         0.94757E+05         0.00000E+00
    0.94757E+05        -0.18378E+08         0.00000E+00
    0.00000E+00         0.00000E+00         0.00000E+00
 
    0.11629E+06         0.15618E+06         0.00000E+00
    0.15618E+06        -0.18382E+08         0.00000E+00
    0.00000E+00         0.00000E+00         0.00000E+00
 
    0.30450E+05         0.21713E+06         0.00000E+00
    0.21713E+06        -0.18389E+08         0.00000E+00
    0.00000E+00         0.00000E+00         0.00000E+00
 
   -0.50584E+05         0.27762E+06         0.00000E+00
    0.27762E+06        -0.18398E+08         0.00000E+00
    0.00000E+00         0.00000E+00         0.00000E+00
 
   -0.12687E+06         0.33771E+06         0.00000E+00
    0.33771E+06        -0.18409E+08         0.00000E+00
    0.00000E+00         0.00000E+00         0.00000E+00
 
   -0.19843E+06         0.39756E+06         0.00000E+00
    0.39756E+06        -0.18422E+08         0.00000E+00
    0.00000E+00         0.00000E+00         0.00000E+00
 
   -0.26531E+06         0.45740E+06         0.00000E+00
    0.45740E+06        -0.18437E+08         0.00000E+00
    0.00000E+00         0.00000E+00         0.00000E+00
 
   -0.32761E+06         0.51742E+06         0.00000E+00
    0.51742E+06        -0.18454E+08         0.00000E+00
    0.00000E+00         0.00000E+00         0.00000E+00
 
   -0.38547E+06         0.57782E+06         0.00000E+00
    0.57782E+06        -0.18473E+08         0.00000E+00
    0.00000E+00         0.00000E+00         0.00000E+00
 
   -0.43905E+06         0.63877E+06         0.00000E+00
    0.63877E+06        -0.18494E+08         0.00000E+00
    0.00000E+00         0.00000E+00         0.00000E+00
 
   -0.48856E+06         0.70040E+06         0.00000E+00
    0.70040E+06        -0.18517E+08         0.00000E+00
    0.00000E+00         0.00000E+00         0.00000E+00
 
   -0.53419E+06         0.76283E+06         0.00000E+00
    0.76283E+06        -0.18541E+08         0.00000E+00
    0.00000E+00         0.00000E+00         0.00000E+00
 
   -0.57614E+06         0.82613E+06         0.00000E+00
    0.82613E+06        -0.18567E+08         0.00000E+00
    0.00000E+00         0.00000E+00         0.00000E+00
 
   -0.61463E+06         0.89038E+06         0.00000E+00
    0.89038E+06        -0.18593E+08         0.00000E+00
    0.00000E+00         0.00000E+00         0.00000E+00
 
   -0.64983E+06         0.95555E+06         0.00000E+00
    0.95555E+06        -0.18622E+08         0.00000E+00
    0.00000E+00         0.00000E+00         0.00000E+00
 
   -0.68190E+06         0.10217E+07         0.00000E+00
    0.10217E+07        -0.18651E+08         0.00000E+00
    0.00000E+00         0.00000E+00         0.00000E+00
 
   -0.71103E+06         0.10889E+07         0.00000E+00
    0.10889E+07        -0.18682E+08         0.00000E+00
    0.00000E+00         0.00000E+00         0.00000E+00
 
   -0.73732E+06         0.11571E+07         0.00000E+00
    0.11571E+07        -0.18713E+08         0.00000E+00
    0.00000E+00         0.00000E+00         0.00000E+00
 
   -0.76085E+06         0.12262E+07         0.00000E+00
    0.12262E+07        -0.18745E+08         0.00000E+00
    0.00000E+00         0.00000E+00         0.00000E+00
 
   -0.78172E+06         0.12963E+07         0.00000E+00
    0.12963E+07        -0.18778E+08         0.00000E+00
    0.00000E+00         0.00000E+00         0.00000E+00
 
   -0.80002E+06         0.13673E+07         0.00000E+00
    0.13673E+07        -0.18812E+08         0.00000E+00
    0.00000E+00         0.00000E+00         0.00000E+00
 
   -0.81578E+06         0.14393E+07         0.00000E+00
    0.14393E+07        -0.18848E+08         0.00000E+00
    0.00000E+00         0.00000E+00         0.00000E+00
 
   -0.82912E+06         0.15125E+07         0.00000E+00
    0.15125E+07        -0.18884E+08         0.00000E+00
    0.00000E+00         0.00000E+00         0.00000E+00
 
   -0.84036E+06         0.15873E+07         0.00000E+00
    0.15873E+07        -0.18922E+08         0.00000E+00
    0.00000E+00         0.00000E+00         0.00000E+00
 
   -0.84975E+06         0.16632E+07         0.00000E+00
    0.16632E+07        -0.18959E+08         0.00000E+00
    0.00000E+00         0.00000E+00         0.00000E+00
 
   -0.85770E+06         0.17404E+07         0.00000E+00
    0.17404E+07        -0.18996E+08         0.00000E+00
    0.00000E+00         0.00000E+00         0.00000E+00
 
   -0.86494E+06         0.18189E+07         0.00000E+00
    0.18189E+07        -0.19034E+08         0.00000E+00
    0.00000E+00         0.00000E+00         0.00000E+00
 
   -0.87147E+06         0.18970E+07         0.00000E+00
    0.18970E+07        -0.19072E+08         0.00000E+00
    0.00000E+00         0.00000E+00         0.00000E+00
 
   -0.87622E+06         0.19742E+07         0.00000E+00
    0.19742E+07        -0.19111E+08         0.00000E+00
    0.00000E+00         0.00000E+00         0.00000E+00
 
   -0.87800E+06         0.20508E+07         0.00000E+00
    0.20508E+07        -0.19151E+08         0.00000E+00
    0.00000E+00         0.00000E+00         0.00000E+00
 
   -0.87596E+06         0.21271E+07         0.00000E+00
    0.21271E+07        -0.19190E+08         0.00000E+00
    0.00000E+00         0.00000E+00         0.00000E+00
 
   -0.87022E+06         0.22057E+07         0.00000E+00
    0.22057E+07        -0.19242E+08         0.00000E+00
    0.00000E+00         0.00000E+00         0.00000E+00
 
   -0.85911E+06         0.22847E+07         0.00000E+00
    0.22847E+07        -0.19299E+08         0.00000E+00
    0.00000E+00         0.00000E+00         0.00000E+00
 
   -0.85476E+06         0.23635E+07         0.00000E+00
    0.23635E+07        -0.19351E+08         0.00000E+00
    0.00000E+00         0.00000E+00        -0.16690E+05
 
   -0.85428E+06         0.24439E+07         0.00000E+00
    0.24439E+07        -0.19400E+08         0.00000E+00
    0.00000E+00         0.00000E+00        -0.46914E+05
 
   -0.84751E+06         0.25273E+07         0.00000E+00
    0.25273E+07        -0.19449E+08         0.00000E+00
    0.00000E+00         0.00000E+00        -0.79058E+05
 
   -0.83550E+06         0.26130E+07         0.00000E+00
    0.26130E+07        -0.19496E+08         0.00000E+00
    0.00000E+00         0.00000E+00        -0.11583E+06
 
   -0.84514E+06         0.26956E+07         0.00000E+00
    0.26956E+07        -0.19528E+08         0.00000E+00
    0.00000E+00         0.00000E+00        -0.18860E+06
 
   -0.85459E+06         0.27756E+07         0.00000E+00
    0.27756E+07        -0.19560E+08         0.00000E+00
    0.00000E+00         0.00000E+00        -0.27021E+06
 
   -0.86985E+06         0.28553E+07         0.00000E+00
    0.28553E+07        -0.19603E+08         0.00000E+00
    0.00000E+00         0.00000E+00        -0.36381E+06
 
   -0.88444E+06         0.29304E+07         0.00000E+00
    0.29304E+07        -0.19650E+08         0.00000E+00
    0.00000E+00         0.00000E+00        -0.46010E+06
 
   -0.90124E+06         0.29995E+07         0.00000E+00
    0.29995E+07        -0.19700E+08         0.00000E+00
    0.00000E+00         0.00000E+00        -0.55574E+06
 
   -0.92417E+06         0.30645E+07         0.00000E+00
    0.30645E+07        -0.19755E+08         0.00000E+00
    0.00000E+00         0.00000E+00        -0.65028E+06
 
   -0.95261E+06         0.31277E+07         0.00000E+00
    0.31277E+07        -0.19812E+08         0.00000E+00
    0.00000E+00         0.00000E+00        -0.74189E+06
 
   -0.98455E+06         0.31892E+07         0.00000E+00
    0.31892E+07        -0.19867E+08         0.00000E+00
    0.00000E+00         0.00000E+00        -0.82811E+06
 
   -0.10217E+07         0.32513E+07         0.00000E+00
    0.32513E+07        -0.19923E+08         0.00000E+00
    0.00000E+00         0.00000E+00        -0.91125E+06
 
   -0.10617E+07         0.33134E+07         0.00000E+00
    0.33134E+07        -0.19978E+08         0.00000E+00
    0.00000E+00         0.00000E+00        -0.99051E+06
 
   -0.11040E+07         0.33755E+07         0.00000E+00
    0.33755E+07        -0.20030E+08         0.00000E+00
    0.00000E+00         0.00000E+00        -0.10657E+07
 
   -0.11494E+07         0.34377E+07         0.00000E+00
    0.34377E+07        -0.20081E+08         0.00000E+00
    0.00000E+00         0.00000E+00        -0.11378E+07
 
   -0.87406E+05         0.25993E+05         0.00000E+00
    0.25993E+05        -0.19046E+08         0.00000E+00
    0.00000E+00         0.00000E+00         0.00000E+00
 
   -0.18671E+06         0.76139E+05         0.00000E+00
    0.76139E+05        -0.19051E+08         0.00000E+00
    0.00000E+00         0.00000E+00         0.00000E+00
 
   -0.28100E+06         0.12629E+06         0.00000E+00
    0.12629E+06        -0.19056E+08         0.00000E+00
    0.00000E+00         0.00000E+00         0.00000E+00
 
   -0.37013E+06         0.17499E+06         0.00000E+00
    0.17499E+06        -0.19064E+08         0.00000E+00
    0.00000E+00         0.00000E+00         0.00000E+00
 
   -0.45327E+06         0.22273E+06         0.00000E+00
    0.22273E+06        -0.19075E+08         0.00000E+00
    0.00000E+00         0.00000E+00         0.00000E+00
 
   -0.53011E+06         0.27036E+06         0.00000E+00
    0.27036E+06        -0.19089E+08         0.00000E+00
    0.00000E+00         0.00000E+00         0.00000E+00
 
   -0.60076E+06         0.31840E+06         0.00000E+00
    0.31840E+06        -0.19106E+08         0.00000E+00
    0.00000E+00         0.00000E+00         0.00000E+00
 
   -0.66554E+06         0.36718E+06         0.00000E+00
    0.36718E+06        -0.19125E+08         0.00000E+00
    0.00000E+00         0.00000E+00         0.00000E+00
 
   -0.72477E+06         0.41692E+06         0.00000E+00
    0.41692E+06        -0.19146E+08         0.00000E+00
    0.00000E+00         0.00000E+00         0.00000E+00
 
   -0.77878E+06         0.46775E+06         0.00000E+00
    0.46775E+06        -0.19170E+08         0.00000E+00
    0.00000E+00         0.00000E+00         0.00000E+00
 
   -0.82788E+06         0.51977E+06         0.00000E+00
    0.51977E+06        -0.19195E+08         0.00000E+00
    0.00000E+00         0.00000E+00         0.00000E+00
 
   -0.87236E+06         0.57306E+06         0.00000E+00
    0.57306E+06        -0.19222E+08         0.00000E+00
    0.00000E+00         0.00000E+00         0.00000E+00
 
   -0.91248E+06         0.62770E+06         0.00000E+00
    0.62770E+06        -0.19250E+08         0.00000E+00
    0.00000E+00         0.00000E+00         0.00000E+00
 
   -0.94851E+06         0.68379E+06         0.00000E+00
    0.68379E+06        -0.19280E+08         0.00000E+00
    0.00000E+00         0.00000E+00         0.00000E+00
 
   -0.98075E+06         0.74146E+06         0.00000E+00
    0.74146E+06        -0.19312E+08         0.00000E+00
    0.00000E+00         0.00000E+00         0.00000E+00
 
   -0.10096E+07         0.80086E+06         0.00000E+00
    0.80086E+06        -0.19345E+08         0.00000E+00
    0.00000E+00         0.00000E+00         0.00000E+00
 
   -0.10353E+07         0.86186E+06         0.00000E+00
    0.86186E+06        -0.19378E+08         0.00000E+00
    0.00000E+00         0.00000E+00         0.00000E+00
 
   -0.10584E+07         0.92449E+06         0.00000E+00
    0.92449E+06        -0.19413E+08         0.00000E+00
    0.00000E+00         0.00000E+00         0.00000E+00
 
   -0.10793E+07         0.98875E+06         0.00000E+00
    0.98875E+06        -0.19448E+08         0.00000E+00
    0.00000E+00         0.00000E+00         0.00000E+00
 
   -0.10984E+07         0.10539E+07         0.00000E+00
    0.10539E+07        -0.19484E+08         0.00000E+00
    0.00000E+00         0.00000E+00         0.00000E+00
 
   -0.11153E+07         0.11194E+07         0.00000E+00
    0.11194E+07        -0.19521E+08         0.00000E+00
    0.00000E+00         0.00000E+00         0.00000E+00
 
   -0.11293E+07         0.11855E+07         0.00000E+00
    0.11855E+07        -0.19559E+08         0.00000E+00
    0.00000E+00         0.00000E+00         0.00000E+00
 
   -0.11403E+07         0.12523E+07         0.00000E+00
    0.12523E+07        -0.19597E+08         0.00000E+00
    0.00000E+00         0.00000E+00         0.00000E+00
 
   -0.11481E+07         0.13198E+07         0.00000E+00
    0.13198E+07        -0.19635E+08         0.00000E+00
    0.00000E+00         0.00000E+00         0.00000E+00
 
   -0.11526E+07         0.13881E+07         0.00000E+00
    0.13881E+07        -0.19673E+08         0.00000E+00
    0.00000E+00         0.00000E+00         0.00000E+00
 
   -0.11540E+07         0.14582E+07         0.00000E+00
    0.14582E+07        -0.19720E+08         0.00000E+00
    0.00000E+00         0.00000E+00         0.00000E+00
 
   -0.11513E+07         0.15295E+07         0.00000E+00
    0.15295E+07        -0.19770E+08         0.00000E+00
    0.00000E+00         0.00000E+00         0.00000E+00
 
   -0.11485E+07         0.16016E+07         0.00000E+00
    0.16016E+07        -0.19818E+08         0.00000E+00
    0.00000E+00         0.00000E+00        -0.73258E+04
 
   -0.11520E+07         0.16756E+07         0.00000E+00
    0.16756E+07        -0.19862E+08         0.00000E+00
    0.00000E+00         0.00000E+00        -0.30119E+05
 
   -0.11503E+07         0.17526E+07         0.00000E+00
    0.17526E+07        -0.19906E+08         0.00000E+00
    0.00000E+00         0.00000E+00        -0.54393E+05
 
   -0.11432E+07         0.18329E+07         0.00000E+00
    0.18329E+07        -0.19949E+08         0.00000E+00
    0.00000E+00         0.00000E+00        -0.80433E+05
 
   -0.11295E+07         0.19163E+07         0.00000E+00
    0.19163E+07        -0.19991E+08         0.00000E+00
    0.00000E+00         0.00000E+00        -0.10873E+06
 
   -0.11311E+07         0.19994E+07         0.00000E+00
    0.19994E+07        -0.20021E+08         0.00000E+00
    0.00000E+00         0.00000E+00        -0.16634E+06
 
   -0.11331E+07         0.20820E+07         0.00000E+00
    0.20820E+07        -0.20047E+08         0.00000E+00
    0.00000E+00         0.00000E+00        -0.23511E+06
 
   -0.11361E+07         0.21645E+07         0.00000E+00
    0.21645E+07        -0.20079E+08         0.00000E+00
    0.00000E+00         0.00000E+00        -0.31245E+06
 
   -0.11400E+07         0.22460E+07         0.00000E+00
    0.22460E+07        -0.20117E+08         0.00000E+00
    0.00000E+00         0.00000E+00        -0.39686E+06
 
   -0.11435E+07         0.23243E+07         0.00000E+00
    0.23243E+07        -0.20156E+08         0.00000E+00
    0.00000E+00         0.00000E+00        -0.48390E+06
 
   -0.11491E+07         0.23982E+07         0.00000E+00
    0.23982E+07        -0.20198E+08         0.00000E+00
    0.00000E+00         0.00000E+00        -0.57191E+06
 
   -0.11600E+07         0.24690E+07         0.00000E+00
    0.24690E+07        -0.20245E+08         0.00000E+00
    0.00000E+00         0.00000E+00        -0.66081E+06
 
   -0.11758E+07         0.25381E+07         0.00000E+00
    0.25381E+07        -0.20295E+08         0.00000E+00
    0.00000E+00         0.00000E+00        -0.74933E+06
 
   -0.11945E+07         0.26052E+07         0.00000E+00
    0.26052E+07        -0.20345E+08         0.00000E+00
    0.00000E+00         0.00000E+00        -0.83468E+06
 
   -0.12180E+07         0.26718E+07         0.00000E+00
    0.26718E+07        -0.20396E+08         0.00000E+00
    0.00000E+00         0.00000E+00        -0.91854E+06
 
   -0.12449E+07         0.27378E+07         0.00000E+00
    0.27378E+07        -0.20448E+08         0.00000E+00
    0.00000E+00         0.00000E+00        -0.10004E+07
 
   -0.12741E+07         0.28033E+07         0.00000E+00
    0.28033E+07        -0.20499E+08         0.00000E+00
    0.00000E+00         0.00000E+00        -0.10794E+07
 
   -0.13061E+07         0.28684E+07         0.00000E+00
    0.28684E+07        -0.20548E+08         0.00000E+00
    0.00000E+00         0.00000E+00        -0.11554E+07
 
   -0.13410E+07         0.29336E+07         0.00000E+00
    0.29336E+07        -0.20598E+08         0.00000E+00
    0.00000E+00         0.00000E+00        -0.12292E+07
 
   -0.13783E+07         0.29983E+07         0.00000E+00
    0.29983E+07        -0.20646E+08         0.00000E+00
    0.00000E+00         0.00000E+00        -0.13001E+07
 
   -0.14186E+07         0.30634E+07         0.00000E+00
    0.30634E+07        -0.20694E+08         0.00000E+00
    0.00000E+00         0.00000E+00        -0.13689E+07
 
   -0.14618E+07         0.31286E+07         0.00000E+00
    0.31286E+07        -0.20742E+08         0.00000E+00
    0.00000E+00         0.00000E+00        -0.14358E+07
 
   -0.15077E+07         0.31937E+07         0.00000E+00
    0.31937E+07        -0.20789E+08         0.00000E+00
    0.00000E+00         0.00000E+00        -0.15001E+07
 
   -0.56719E+06         0.28069E+05         0.00000E+00
    0.28069E+05        -0.19729E+08         0.00000E+00
    0.00000E+00         0.00000E+00        -0.32333E+05
 
   -0.66644E+06         0.55391E+05         0.00000E+00
    0.55391E+05        -0.19734E+08         0.00000E+00
    0.00000E+00         0.00000E+00        -0.79427E+04
 
   -0.76436E+06         0.83357E+05         0.00000E+00
    0.83357E+05        -0.19747E+08         0.00000E+00
    0.00000E+00         0.00000E+00         0.00000E+00
 
   -0.85592E+06         0.11300E+06         0.00000E+00
    0.11300E+06        -0.19762E+08         0.00000E+00
    0.00000E+00         0.00000E+00         0.00000E+00
 
   -0.93666E+06         0.14502E+06         0.00000E+00
    0.14502E+06        -0.19780E+08         0.00000E+00
    0.00000E+00         0.00000E+00         0.00000E+00
 
   -0.10086E+07         0.17935E+06         0.00000E+00
    0.17935E+06        -0.19800E+08         0.00000E+00
    0.00000E+00         0.00000E+00         0.00000E+00
 
   -0.10731E+07         0.21586E+06         0.00000E+00
    0.21586E+06        -0.19822E+08         0.00000E+00
    0.00000E+00         0.00000E+00         0.00000E+00
 
   -0.11310E+07         0.25445E+06         0.00000E+00
    0.25445E+06        -0.19846E+08         0.00000E+00
    0.00000E+00         0.00000E+00         0.00000E+00
 
   -0.11831E+07         0.29501E+06         0.00000E+00
    0.29501E+06        -0.19872E+08         0.00000E+00
    0.00000E+00         0.00000E+00         0.00000E+00
 
   -0.12298E+07         0.33746E+06         0.00000E+00
    0.33746E+06        -0.19899E+08         0.00000E+00
    0.00000E+00         0.00000E+00         0.00000E+00
 
   -0.12715E+07         0.38171E+06         0.00000E+00
    0.38171E+06        -0.19928E+08         0.00000E+00
    0.00000E+00         0.00000E+00         0.00000E+00
 
   -0.13085E+07         0.42770E+06         0.00000E+00
    0.42770E+06        -0.19957E+08         0.00000E+00
    0.00000E+00         0.00000E+00         0.00000E+00
 
   -0.13411E+07         0.47536E+06         0.00000E+00
    0.47536E+06        -0.19988E+08         0.00000E+00
    0.00000E+00         0.00000E+00         0.00000E+00
 
   -0.13694E+07         0.52460E+06         0.00000E+00
    0.52460E+06        -0.20020E+08         0.00000E+00
    0.00000E+00         0.00000E+00         0.00000E+00
 
   -0.13936E+07         0.57539E+06         0.00000E+00
    0.57539E+06        -0.20052E+08         0.00000E+00
    0.00000E+00         0.00000E+00         0.00000E+00
 
   -0.14140E+07         0.62771E+06         0.00000E+00
    0.62771E+06        -0.20085E+08         0.00000E+00
    0.00000E+00         0.00000E+00         0.00000E+00
 
   -0.14307E+07         0.68183E+06         0.00000E+00
    0.68183E+06        -0.20124E+08         0.00000E+00
    0.00000E+00         0.00000E+00         0.00000E+00
 
   -0.14432E+07         0.73749E+06         0.00000E+00
    0.73749E+06        -0.20165E+08         0.00000E+00
    0.00000E+00         0.00000E+00         0.00000E+00
 
   -0.14538E+07         0.79480E+06         0.00000E+00
    0.79480E+06        -0.20206E+08         0.00000E+00
    0.00000E+00         0.00000E+00        -0.40311E+04
 
   -0.14666E+07         0.85430E+06         0.00000E+00
    0.85430E+06        -0.20244E+08         0.00000E+00
    0.00000E+00         0.00000E+00        -0.17608E+05
 
   -0.14751E+07         0.91666E+06         0.00000E+00
    0.91666E+06        -0.20282E+08         0.00000E+00
    0.00000E+00         0.00000E+00        -0.32365E+05
 
   -0.14797E+07         0.98195E+06         0.00000E+00
    0.98195E+06        -0.20320E+08         0.00000E+00
    0.00000E+00         0.00000E+00        -0.48347E+05
 
   -0.14802E+07         0.10502E+07         0.00000E+00
    0.10502E+07        -0.20358E+08         0.00000E+00
    0.00000E+00         0.00000E+00        -0.65702E+05
 
   -0.14762E+07         0.11215E+07         0.00000E+00
    0.11215E+07        -0.20395E+08         0.00000E+00
    0.00000E+00         0.00000E+00        -0.84721E+05
 
   -0.14664E+07         0.11961E+07         0.00000E+00
    0.11961E+07        -0.20432E+08         0.00000E+00
    0.00000E+00         0.00000E+00        -0.10584E+06
 
   -0.14658E+07         0.12722E+07         0.00000E+00
    0.12722E+07        -0.20460E+08         0.00000E+00
    0.00000E+00         0.00000E+00        -0.14874E+06
 
   -0.14647E+07         0.13495E+07         0.00000E+00
    0.13495E+07        -0.20484E+08         0.00000E+00
    0.00000E+00         0.00000E+00        -0.20165E+06
 
   -0.14618E+07         0.14278E+07         0.00000E+00
    0.14278E+07        -0.20511E+08         0.00000E+00
    0.00000E+00         0.00000E+00        -0.26051E+06
 
   -0.14595E+07         0.15072E+07         0.00000E+00
    0.15072E+07        -0.20543E+08         0.00000E+00
    0.00000E+00         0.00000E+00        -0.32743E+06
 
   -0.14552E+07         0.15861E+07         0.00000E+00
    0.15861E+07        -0.20575E+08         0.00000E+00
    0.00000E+00         0.00000E+00        -0.39824E+06
 
   -0.14501E+07         0.16636E+07         0.00000E+00
    0.16636E+07        -0.20609E+08         0.00000E+00
    0.00000E+00         0.00000E+00        -0.47239E+06
 
   -0.14461E+07         0.17387E+07         0.00000E+00
    0.17387E+07        -0.20645E+08         0.00000E+00
    0.00000E+00         0.00000E+00        -0.54901E+06
 
   -0.14455E+07         0.18119E+07         0.00000E+00
    0.18119E+07        -0.20685E+08         0.00000E+00
    0.00000E+00         0.00000E+00        -0.62817E+06
 
   -0.14487E+07         0.18842E+07         0.00000E+00
    0.18842E+07        -0.20728E+08         0.00000E+00
    0.00000E+00         0.00000E+00        -0.70915E+06
 
   -0.14543E+07         0.19551E+07         0.00000E+00
    0.19551E+07        -0.20772E+08         0.00000E+00
    0.00000E+00         0.00000E+00        -0.79015E+06
 
   -0.14629E+07         0.20250E+07         0.00000E+00
    0.20250E+07        -0.20817E+08         0.00000E+00
    0.00000E+00         0.00000E+00        -0.87098E+06
 
   -0.14750E+07         0.20941E+07         0.00000E+00
    0.20941E+07        -0.20865E+08         0.00000E+00
    0.00000E+00         0.00000E+00        -0.95190E+06
 
   -0.14900E+07         0.21623E+07         0.00000E+00
    0.21623E+07        -0.20913E+08         0.00000E+00
    0.00000E+00         0.00000E+00        -0.10321E+07
 
   -0.15072E+07         0.22296E+07         0.00000E+00
    0.22296E+07        -0.20961E+08         0.00000E+00
    0.00000E+00         0.00000E+00        -0.11105E+07
 
   -0.15270E+07         0.22964E+07         0.00000E+00
    0.22964E+07        -0.21008E+08         0.00000E+00
    0.00000E+00         0.00000E+00        -0.11871E+07
 
   -0.15497E+07         0.23632E+07         0.00000E+00
    0.23632E+07        -0.21056E+08         0.00000E+00
    0.00000E+00         0.00000E+00        -0.12623E+07
 
   -0.15749E+07         0.24298E+07         0.00000E+00
    0.24298E+07        -0.21104E+08         0.00000E+00
    0.00000E+00         0.00000E+00        -0.13355E+07
 
   -0.16026E+07         0.24963E+07         0.00000E+00
    0.24963E+07        -0.21151E+08         0.00000E+00
    0.00000E+00         0.00000E+00        -0.14068E+07
 
   -0.16330E+07         0.25632E+07         0.00000E+00
    0.25632E+07        -0.21198E+08         0.00000E+00
    0.00000E+00         0.00000E+00        -0.14769E+07
 
   -0.16658E+07         0.26302E+07         0.00000E+00
    0.26302E+07        -0.21244E+08         0.00000E+00
    0.00000E+00         0.00000E+00        -0.15456E+07
 
   -0.17010E+07         0.26972E+07         0.00000E+00
    0.26972E+07        -0.21291E+08         0.00000E+00
    0.00000E+00         0.00000E+00        -0.16124E+07
 
   -0.17389E+07         0.27645E+07         0.00000E+00
    0.27645E+07        -0.21337E+08         0.00000E+00
    0.00000E+00         0.00000E+00        -0.16775E+07
 
   -0.17791E+07         0.28309E+07         0.00000E+00
    0.28309E+07        -0.21383E+08         0.00000E+00
    0.00000E+00         0.00000E+00        -0.17405E+07
 
   -0.18217E+07         0.28982E+07         0.00000E+00
    0.28982E+07        -0.21428E+08         0.00000E+00
    0.00000E+00         0.00000E+00        -0.18016E+07
 
   -0.18668E+07         0.29660E+07         0.00000E+00
    0.29660E+07        -0.21473E+08         0.00000E+00
    0.00000E+00         0.00000E+00        -0.18610E+07
 
   -0.11948E+07        -0.15258E+05         0.00000E+00
   -0.15258E+05        -0.20434E+08         0.00000E+00
    0.00000E+00         0.00000E+00        -0.17549E+06
 
   -0.12686E+07        -0.70106E+04         0.00000E+00
   -0.70106E+04        -0.20443E+08         0.00000E+00
    0.00000E+00         0.00000E+00        -0.12222E+06
 
   -0.13499E+07         0.73172E+04         0.00000E+00
    0.73172E+04        -0.20456E+08         0.00000E+00
    0.00000E+00         0.00000E+00        -0.94979E+05
 
   -0.14273E+07         0.25717E+05         0.00000E+00
    0.25717E+05        -0.20473E+08         0.00000E+00
    0.00000E+00         0.00000E+00        -0.80425E+05
 
   -0.14953E+07         0.47041E+05         0.00000E+00
    0.47041E+05        -0.20493E+08         0.00000E+00
    0.00000E+00         0.00000E+00        -0.69798E+05
 
   -0.15553E+07         0.71070E+05         0.00000E+00
    0.71070E+05        -0.20515E+08         0.00000E+00
    0.00000E+00         0.00000E+00        -0.62425E+05
 
   -0.16081E+07         0.97752E+05         0.00000E+00
    0.97752E+05        -0.20538E+08         0.00000E+00
    0.00000E+00         0.00000E+00        -0.57801E+05
 
   -0.16545E+07         0.12711E+06         0.00000E+00
    0.12711E+06        -0.20564E+08         0.00000E+00
    0.00000E+00         0.00000E+00        -0.55551E+05
 
   -0.16951E+07         0.15918E+06         0.00000E+00
    0.15918E+06        -0.20591E+08         0.00000E+00
    0.00000E+00         0.00000E+00        -0.55388E+05
 
   -0.17303E+07         0.19401E+06         0.00000E+00
    0.19401E+06        -0.20619E+08         0.00000E+00
    0.00000E+00         0.00000E+00        -0.57096E+05
 
   -0.17604E+07         0.23168E+06         0.00000E+00
    0.23168E+06        -0.20648E+08         0.00000E+00
    0.00000E+00         0.00000E+00        -0.60518E+05
 
   -0.17857E+07         0.27224E+06         0.00000E+00
    0.27224E+06        -0.20678E+08         0.00000E+00
    0.00000E+00         0.00000E+00        -0.65551E+05
 
   -0.18063E+07         0.31579E+06         0.00000E+00
    0.31579E+06        -0.20708E+08         0.00000E+00
    0.00000E+00         0.00000E+00        -0.72138E+05
 
   -0.18222E+07         0.36242E+06         0.00000E+00
    0.36242E+06        -0.20739E+08         0.00000E+00
    0.00000E+00         0.00000E+00        -0.80295E+05
 
   -0.18330E+07         0.41227E+06         0.00000E+00
    0.41227E+06        -0.20770E+08         0.00000E+00
    0.00000E+00         0.00000E+00        -0.90129E+05
 
   -0.18381E+07         0.46554E+06         0.00000E+00
    0.46554E+06        -0.20801E+08         0.00000E+00
    0.00000E+00         0.00000E+00        -0.10188E+06
 
   -0.18465E+07         0.52170E+06         0.00000E+00
    0.52170E+06        -0.20827E+08         0.00000E+00
    0.00000E+00         0.00000E+00        -0.12770E+06
 
   -0.18518E+07         0.58040E+06         0.00000E+00
    0.58040E+06        -0.20852E+08         0.00000E+00
    0.00000E+00         0.00000E+00        -0.15942E+06
 
   -0.18539E+07         0.64162E+06         0.00000E+00
    0.64162E+06        -0.20877E+08         0.00000E+00
    0.00000E+00         0.00000E+00        -0.19585E+06
 
   -0.18544E+07         0.70524E+06         0.00000E+00
    0.70524E+06        -0.20905E+08         0.00000E+00
    0.00000E+00         0.00000E+00        -0.23840E+06
 
   -0.18518E+07         0.77073E+06         0.00000E+00
    0.77073E+06        -0.20933E+08         0.00000E+00
    0.00000E+00         0.00000E+00        -0.28478E+06
 
   -0.18465E+07         0.83783E+06         0.00000E+00
    0.83783E+06        -0.20961E+08         0.00000E+00
    0.00000E+00         0.00000E+00        -0.33496E+06
 
   -0.18388E+07         0.90623E+06         0.00000E+00
    0.90623E+06        -0.20990E+08         0.00000E+00
    0.00000E+00         0.00000E+00        -0.38899E+06
 
   -0.18298E+07         0.97534E+06         0.00000E+00
    0.97534E+06        -0.21020E+08         0.00000E+00
    0.00000E+00         0.00000E+00        -0.44677E+06
 
   -0.18204E+07         0.10442E+07         0.00000E+00
    0.10442E+07        -0.21051E+08         0.00000E+00
    0.00000E+00         0.00000E+00        -0.50798E+06
 
   -0.18124E+07         0.11130E+07         0.00000E+00
    0.11130E+07        -0.21085E+08         0.00000E+00
    0.00000E+00         0.00000E+00        -0.57281E+06
 
   -0.18060E+07         0.11825E+07         0.00000E+00
    0.11825E+07        -0.21122E+08         0.00000E+00
    0.00000E+00         0.00000E+00        -0.64088E+06
 
   -0.18008E+07         0.12519E+07         0.00000E+00
    0.12519E+07        -0.21161E+08         0.00000E+00
    0.00000E+00         0.00000E+00        -0.71133E+06
 
   -0.17966E+07         0.13212E+07         0.00000E+00
    0.13212E+07        -0.21200E+08         0.00000E+00
    0.00000E+00         0.00000E+00        -0.78326E+06
 
   -0.17945E+07         0.13905E+07         0.00000E+00
    0.13905E+07        -0.21242E+08         0.00000E+00
    0.00000E+00         0.00000E+00        -0.85741E+06
 
   -0.17944E+07         0.14592E+07         0.00000E+00
    0.14592E+07        -0.21285E+08         0.00000E+00
    0.00000E+00         0.00000E+00        -0.93313E+06
 
   -0.17963E+07         0.15272E+07         0.00000E+00
    0.15272E+07        -0.21330E+08         0.00000E+00
    0.00000E+00         0.00000E+00        -0.10096E+07
 
   -0.18002E+07         0.15946E+07         0.00000E+00
    0.15946E+07        -0.21375E+08         0.00000E+00
    0.00000E+00         0.00000E+00        -0.10858E+07
 
   -0.18061E+07         0.16616E+07         0.00000E+00
    0.16616E+07        -0.21420E+08         0.00000E+00
    0.00000E+00         0.00000E+00        -0.11615E+07
 
   -0.18147E+07         0.17286E+07         0.00000E+00
    0.17286E+07        -0.21465E+08         0.00000E+00
    0.00000E+00         0.00000E+00        -0.12368E+07
 
   -0.18258E+07         0.17954E+07         0.00000E+00
    0.17954E+07        -0.21512E+08         0.00000E+00
    0.00000E+00         0.00000E+00        -0.13113E+07
 
   -0.18394E+07         0.18623E+07         0.00000E+00
    0.18623E+07        -0.21558E+08         0.00000E+00
    0.00000E+00         0.00000E+00        -0.13847E+07
 
   -0.18554E+07         0.19293E+07         0.00000E+00
    0.19293E+07        -0.21604E+08         0.00000E+00
    0.00000E+00         0.00000E+00        -0.14570E+07
 
   -0.18738E+07         0.19966E+07         0.00000E+00
    0.19966E+07        -0.21650E+08         0.00000E+00
    0.00000E+00         0.00000E+00        -0.15284E+07
 
   -0.18945E+07         0.20641E+07         0.00000E+00
    0.20641E+07        -0.21696E+08         0.00000E+00
    0.00000E+00         0.00000E+00        -0.15989E+07
 
   -0.19172E+07         0.21316E+07         0.00000E+00
    0.21316E+07        -0.21742E+08         0.00000E+00
    0.00000E+00         0.00000E+00        -0.16681E+07
 
   -0.19425E+07         0.21994E+07         0.00000E+00
    0.21994E+07        -0.21788E+08         0.00000E+00
    0.00000E+00         0.00000E+00        -0.17360E+07
 
   -0.19702E+07         0.22673E+07         0.00000E+00
    0.22673E+07        -0.21833E+08         0.00000E+00
    0.00000E+00         0.00000E+00        -0.18024E+07
 
   -0.20001E+07         0.23348E+07         0.00000E+00
    0.23348E+07        -0.21879E+08         0.00000E+00
    0.00000E+00         0.00000E+00        -0.18672E+07
 
   -0.20322E+07         0.24030E+07         0.00000E+00
    0.24030E+07        -0.21923E+08         0.00000E+00
    0.00000E+00         0.00000E+00        -0.19306E+07
 
   -0.20666E+07         0.24715E+07         0.00000E+00
    0.24715E+07        -0.21968E+08         0.00000E+00
    0.00000E+00         0.00000E+00        -0.19926E+07
 
   -0.21034E+07         0.25400E+07         0.00000E+00
    0.25400E+07        -0.22012E+08         0.00000E+00
    0.00000E+00         0.00000E+00        -0.20532E+07
 
   -0.21428E+07         0.26095E+07         0.00000E+00
    0.26095E+07        -0.22056E+08         0.00000E+00
    0.00000E+00         0.00000E+00        -0.21121E+07
 
   -0.21847E+07         0.26783E+07         0.00000E+00
    0.26783E+07        -0.22100E+08         0.00000E+00
    0.00000E+00         0.00000E+00        -0.21691E+07
 
   -0.22289E+07         0.27466E+07         0.00000E+00
    0.27466E+07        -0.22143E+08         0.00000E+00
    0.00000E+00         0.00000E+00        -0.22243E+07
 
   -0.19632E+07        -0.22536E+05         0.00000E+00
   -0.22536E+05        -0.21147E+08         0.00000E+00
    0.00000E+00         0.00000E+00        -0.38661E+06
 
   -0.20039E+07        -0.39846E+05         0.00000E+00
   -0.39846E+05        -0.21149E+08         0.00000E+00
    0.00000E+00         0.00000E+00        -0.35469E+06
 
   -0.20459E+07        -0.49358E+05         0.00000E+00
   -0.49358E+05        -0.21154E+08         0.00000E+00
    0.00000E+00         0.00000E+00        -0.32617E+06
 
   -0.20878E+07        -0.49917E+05         0.00000E+00
   -0.49917E+05        -0.21162E+08         0.00000E+00
    0.00000E+00         0.00000E+00        -0.30231E+06
 
   -0.21279E+07        -0.42647E+05         0.00000E+00
   -0.42647E+05        -0.21175E+08         0.00000E+00
    0.00000E+00         0.00000E+00        -0.28433E+06
 
   -0.21645E+07        -0.28954E+05         0.00000E+00
   -0.28954E+05        -0.21190E+08         0.00000E+00
    0.00000E+00         0.00000E+00        -0.27246E+06
 
   -0.21970E+07        -0.98333E+04         0.00000E+00
   -0.98333E+04        -0.21207E+08         0.00000E+00
    0.00000E+00         0.00000E+00        -0.26658E+06
 
   -0.22251E+07         0.14017E+05         0.00000E+00
    0.14017E+05        -0.21225E+08         0.00000E+00
    0.00000E+00         0.00000E+00        -0.26641E+06
 
   -0.22485E+07         0.42109E+05         0.00000E+00
    0.42109E+05        -0.21246E+08         0.00000E+00
    0.00000E+00         0.00000E+00        -0.27165E+06
 
   -0.22672E+07         0.74095E+05         0.00000E+00
    0.74095E+05        -0.21267E+08         0.00000E+00
    0.00000E+00         0.00000E+00        -0.28201E+06
 
   -0.22816E+07         0.10971E+06         0.00000E+00
    0.10971E+06        -0.21289E+08         0.00000E+00
    0.00000E+00         0.00000E+00        -0.29723E+06
 
   -0.22915E+07         0.14874E+06         0.00000E+00
    0.14874E+06        -0.21311E+08         0.00000E+00
    0.00000E+00         0.00000E+00        -0.31714E+06
 
   -0.22974E+07         0.19096E+06         0.00000E+00
    0.19096E+06        -0.21335E+08         0.00000E+00
    0.00000E+00         0.00000E+00        -0.34160E+06
 
   -0.22994E+07         0.23613E+06         0.00000E+00
    0.23613E+06        -0.21359E+08         0.00000E+00
    0.00000E+00         0.00000E+00        -0.37054E+06
 
   -0.22981E+07         0.28388E+06         0.00000E+00
    0.28388E+06        -0.21384E+08         0.00000E+00
    0.00000E+00         0.00000E+00        -0.40386E+06
 
   -0.22942E+07         0.33359E+06         0.00000E+00
    0.33359E+06        -0.21410E+08         0.00000E+00
    0.00000E+00         0.00000E+00        -0.44137E+06
 
   -0.22887E+07         0.38532E+06         0.00000E+00
    0.38532E+06        -0.21438E+08         0.00000E+00
    0.00000E+00         0.00000E+00        -0.48318E+06
 
   -0.22818E+07         0.43934E+06         0.00000E+00
    0.43934E+06        -0.21468E+08         0.00000E+00
    0.00000E+00         0.00000E+00        -0.52906E+06
 
   -0.22734E+07         0.49523E+06         0.00000E+00
    0.49523E+06        -0.21499E+08         0.00000E+00
    0.00000E+00         0.00000E+00        -0.57859E+06
 
   -0.22636E+07         0.55296E+06         0.00000E+00
    0.55296E+06        -0.21531E+08         0.00000E+00
    0.00000E+00         0.00000E+00        -0.63133E+06
 
   -0.22530E+07         0.61242E+06         0.00000E+00
    0.61242E+06        -0.21565E+08         0.00000E+00
    0.00000E+00         0.00000E+00        -0.68782E+06
 
   -0.22419E+07         0.67309E+06         0.00000E+00
    0.67309E+06        -0.21600E+08         0.00000E+00
    0.00000E+00         0.00000E+00        -0.74788E+06
 
   -0.22306E+07         0.73451E+06         0.00000E+00
    0.73451E+06        -0.21637E+08         0.00000E+00
    0.00000E+00         0.00000E+00        -0.81119E+06
 
   -0.22197E+07         0.79635E+06         0.00000E+00
    0.79635E+06        -0.21675E+08         0.00000E+00
    0.00000E+00         0.00000E+00        -0.87723E+06
 
   -0.22095E+07         0.85855E+06         0.00000E+00
    0.85855E+06        -0.21715E+08         0.00000E+00
    0.00000E+00         0.00000E+00        -0.94538E+06
 
   -0.22001E+07         0.92102E+06         0.00000E+00
    0.92102E+06        -0.21755E+08         0.00000E+00
    0.00000E+00         0.00000E+00        -0.10149E+07
 
   -0.21919E+07         0.98382E+06         0.00000E+00
    0.98382E+06        -0.21796E+08         0.00000E+00
    0.00000E+00         0.00000E+00        -0.10855E+07
 
   -0.21854E+07         0.10472E+07         0.00000E+00
    0.10472E+07        -0.21838E+08         0.00000E+00
    0.00000E+00         0.00000E+00        -0.11571E+07
 
   -0.21809E+07         0.11110E+07         0.00000E+00
    0.11110E+07        -0.21881E+08         0.00000E+00
    0.00000E+00         0.00000E+00        -0.12295E+07
 
   -0.21783E+07         0.11750E+07         0.00000E+00
    0.11750E+07        -0.21924E+08         0.00000E+00
    0.00000E+00         0.00000E+00        -0.13022E+07
 
   -0.21778E+07         0.12396E+07         0.00000E+00
    0.12396E+07        -0.21969E+08         0.00000E+00
    0.00000E+00         0.00000E+00        -0.13749E+07
 
   -0.21795E+07         0.13047E+07         0.00000E+00
    0.13047E+07        -0.22013E+08         0.00000E+00
    0.00000E+00         0.00000E+00        -0.14475E+07
 
   -0.21833E+07         0.13702E+07         0.00000E+00
    0.13702E+07        -0.22058E+08         0.00000E+00
    0.00000E+00         0.00000E+00        -0.15200E+07
 
   -0.21893E+07         0.14362E+07         0.00000E+00
    0.14362E+07        -0.22103E+08         0.00000E+00
    0.00000E+00         0.00000E+00        -0.15921E+07
 
   -0.21973E+07         0.15025E+07         0.00000E+00
    0.15025E+07        -0.22148E+08         0.00000E+00
    0.00000E+00         0.00000E+00        -0.16635E+07
 
   -0.22075E+07         0.15691E+07         0.00000E+00
    0.15691E+07        -0.22194E+08         0.00000E+00
    0.00000E+00         0.00000E+00        -0.17342E+07
 
   -0.22199E+07         0.16362E+07         0.00000E+00
    0.16362E+07        -0.22239E+08         0.00000E+00
    0.00000E+00         0.00000E+00        -0.18039E+07
 
   -0.22348E+07         0.17037E+07         0.00000E+00
    0.17037E+07        -0.22284E+08         0.00000E+00
    0.00000E+00         0.00000E+00        -0.18725E+07
 
   -0.22521E+07         0.17713E+07         0.00000E+00
    0.17713E+07        -0.22329E+08         0.00000E+00
    0.00000E+00         0.00000E+00        -0.19398E+07
 
   -0.22717E+07         0.18392E+07         0.00000E+00
    0.18392E+07        -0.22373E+08         0.00000E+00
    0.00000E+00         0.00000E+00        -0.20059E+07
 
   -0.22934E+07         0.19079E+07         0.00000E+00
    0.19079E+07        -0.22418E+08         0.00000E+00
    0.00000E+00         0.00000E+00        -0.20710E+07
 
   -0.23174E+07         0.19767E+07         0.00000E+00
    0.19767E+07        -0.22462E+08         0.00000E+00
    0.00000E+00         0.00000E+00        -0.21348E+07
 
   -0.23437E+07         0.20458E+07         0.00000E+00
    0.20458E+07        -0.22506E+08         0.00000E+00
    0.00000E+00         0.00000E+00        -0.21973E+07
 
   -0.23725E+07         0.21155E+07         0.00000E+00
    0.21155E+07        -0.22549E+08         0.00000E+00
    0.00000E+00         0.00000E+00        -0.22583E+07
 
   -0.24040E+07         0.21848E+07         0.00000E+00
    0.21848E+07        -0.22593E+08         0.00000E+00
    0.00000E+00         0.00000E+00        -0.23175E+07
 
   -0.24379E+07         0.22541E+07         0.00000E+00
    0.22541E+07        -0.22636E+08         0.00000E+00
    0.00000E+00         0.00000E+00        -0.23752E+07
 
   -0.24737E+07         0.23243E+07         0.00000E+00
    0.23243E+07        -0.22679E+08         0.00000E+00
    0.00000E+00         0.00000E+00        -0.24315E+07
 
   -0.25114E+07         0.23948E+07         0.00000E+00
    0.23948E+07        -0.22721E+08         0.00000E+00
    0.00000E+00         0.00000E+00        -0.24865E+07
 
   -0.25515E+07         0.24657E+07         0.00000E+00
    0.24657E+07        -0.22762E+08         0.00000E+00
    0.00000E+00         0.00000E+00        -0.25399E+07
 
   -0.25946E+07         0.25372E+07         0.00000E+00
    0.25372E+07        -0.22804E+08         0.00000E+00
    0.00000E+00         0.00000E+00        -0.25917E+07
 
   -0.28067E+07        -0.24096E+05         0.00000E+00
   -0.24096E+05        -0.21876E+08         0.00000E+00
    0.00000E+00         0.00000E+00        -0.57212E+06
 
   -0.28156E+07        -0.47713E+05         0.00000E+00
   -0.47713E+05        -0.21876E+08         0.00000E+00
    0.00000E+00         0.00000E+00        -0.56555E+06
 
   -0.28238E+07        -0.65409E+05         0.00000E+00
   -0.65409E+05        -0.21877E+08         0.00000E+00
    0.00000E+00         0.00000E+00        -0.56053E+06
 
   -0.28313E+07        -0.77081E+05         0.00000E+00
   -0.77081E+05        -0.21879E+08         0.00000E+00
    0.00000E+00         0.00000E+00        -0.55753E+06
 
   -0.28381E+07        -0.82391E+05         0.00000E+00
   -0.82391E+05        -0.21883E+08         0.00000E+00
    0.00000E+00         0.00000E+00        -0.55718E+06
 
   -0.28439E+07        -0.81286E+05         0.00000E+00
   -0.81286E+05        -0.21890E+08         0.00000E+00
    0.00000E+00         0.00000E+00        -0.56019E+06
 
   -0.28482E+07        -0.74042E+05         0.00000E+00
   -0.74042E+05        -0.21898E+08         0.00000E+00
    0.00000E+00         0.00000E+00        -0.56711E+06
 
   -0.28507E+07        -0.61085E+05         0.00000E+00
   -0.61085E+05        -0.21910E+08         0.00000E+00
    0.00000E+00         0.00000E+00        -0.57833E+06
 
   -0.28508E+07        -0.42897E+05         0.00000E+00
   -0.42897E+05        -0.21924E+08         0.00000E+00
    0.00000E+00         0.00000E+00        -0.59411E+06
 
   -0.28486E+07        -0.19967E+05         0.00000E+00
   -0.19967E+05        -0.21940E+08         0.00000E+00
    0.00000E+00         0.00000E+00        -0.61455E+06
 
   -0.28437E+07         0.72340E+04         0.00000E+00
    0.72340E+04        -0.21958E+08         0.00000E+00
    0.00000E+00         0.00000E+00        -0.63971E+06
 
   -0.28364E+07         0.38241E+05         0.00000E+00
    0.38241E+05        -0.21979E+08         0.00000E+00
    0.00000E+00         0.00000E+00        -0.66954E+06
 
   -0.28267E+07         0.72627E+05         0.00000E+00
    0.72627E+05        -0.22001E+08         0.00000E+00
    0.00000E+00         0.00000E+00        -0.70395E+06
 
   -0.28149E+07         0.10998E+06         0.00000E+00
    0.10998E+06        -0.22026E+08         0.00000E+00
    0.00000E+00         0.00000E+00        -0.74275E+06
 
   -0.28014E+07         0.14995E+06         0.00000E+00
    0.14995E+06        -0.22052E+08         0.00000E+00
    0.00000E+00         0.00000E+00        -0.78567E+06
 
   -0.27864E+07         0.19237E+06         0.00000E+00
    0.19237E+06        -0.22081E+08         0.00000E+00
    0.00000E+00         0.00000E+00        -0.83240E+06
 
   -0.27701E+07         0.23706E+06         0.00000E+00
    0.23706E+06        -0.22110E+08         0.00000E+00
    0.00000E+00         0.00000E+00        -0.88250E+06
 
   -0.27529E+07         0.28383E+06         0.00000E+00
    0.28383E+06        -0.22141E+08         0.00000E+00
    0.00000E+00         0.00000E+00        -0.93576E+06
 
   -0.27353E+07         0.33262E+06         0.00000E+00
    0.33262E+06        -0.22174E+08         0.00000E+00
    0.00000E+00         0.00000E+00        -0.99207E+06
 
   -0.27175E+07         0.38317E+06         0.00000E+00
    0.38317E+06        -0.22208E+08         0.00000E+00
    0.00000E+00         0.00000E+00        -0.10514E+07
 
   -0.26998E+07         0.43523E+06         0.00000E+00
    0.43523E+06        -0.22243E+08         0.00000E+00
    0.00000E+00         0.00000E+00        -0.11132E+07
 
   -0.26827E+07         0.48875E+06         0.00000E+00
    0.48875E+06        -0.22280E+08         0.00000E+00
    0.00000E+00         0.00000E+00        -0.11773E+07
 
   -0.26663E+07         0.54363E+06         0.00000E+00
    0.54363E+06        -0.22318E+08         0.00000E+00
    0.00000E+00         0.00000E+00        -0.12434E+07
 
   -0.26508E+07         0.59981E+06         0.00000E+00
    0.59981E+06        -0.22357E+08         0.00000E+00
    0.00000E+00         0.00000E+00        -0.13111E+07
 
   -0.26365E+07         0.65720E+06         0.00000E+00
    0.65720E+06        -0.22398E+08         0.00000E+00
    0.00000E+00         0.00000E+00        -0.13802E+07
 
   -0.26236E+07         0.71571E+06         0.00000E+00
    0.71571E+06        -0.22439E+08         0.00000E+00
    0.00000E+00         0.00000E+00        -0.14504E+07
 
   -0.26122E+07         0.77510E+06         0.00000E+00
    0.77510E+06        -0.22480E+08         0.00000E+00
    0.00000E+00         0.00000E+00        -0.15214E+07
 
   -0.26025E+07         0.83532E+06         0.00000E+00
    0.83532E+06        -0.22523E+08         0.00000E+00
    0.00000E+00         0.00000E+00        -0.15928E+07
 
   -0.25946E+07         0.89653E+06         0.00000E+00
    0.89653E+06        -0.22565E+08         0.00000E+00
    0.00000E+00         0.00000E+00        -0.16644E+07
 
   -0.25887E+07         0.95871E+06         0.00000E+00
    0.95871E+06        -0.22608E+08         0.00000E+00
    0.00000E+00         0.00000E+00        -0.17359E+07
 
   -0.25849E+07         0.10217E+07         0.00000E+00
    0.10217E+07        -0.22652E+08         0.00000E+00
    0.00000E+00         0.00000E+00        -0.18073E+07
 
   -0.25833E+07         0.10856E+07         0.00000E+00
    0.10856E+07        -0.22695E+08         0.00000E+00
    0.00000E+00         0.00000E+00        -0.18782E+07
 
   -0.25840E+07         0.11504E+07         0.00000E+00
    0.11504E+07        -0.22739E+08         0.00000E+00
    0.00000E+00         0.00000E+00        -0.19485E+07
 
   -0.25872E+07         0.12158E+07         0.00000E+00
    0.12158E+07        -0.22783E+08         0.00000E+00
    0.00000E+00         0.00000E+00        -0.20181E+07
 
   -0.25926E+07         0.12819E+07         0.00000E+00
    0.12819E+07        -0.22826E+08         0.00000E+00
    0.00000E+00         0.00000E+00        -0.20868E+07
 
   -0.26003E+07         0.13489E+07         0.00000E+00
    0.13489E+07        -0.22870E+08         0.00000E+00
    0.00000E+00         0.00000E+00        -0.21547E+07
 
   -0.26103E+07         0.14165E+07         0.00000E+00
    0.14165E+07        -0.22914E+08         0.00000E+00
    0.00000E+00         0.00000E+00        -0.22216E+07
 
   -0.26228E+07         0.14847E+07         0.00000E+00
    0.14847E+07        -0.22957E+08         0.00000E+00
    0.00000E+00         0.00000E+00        -0.22874E+07
 
   -0.26377E+07         0.15535E+07         0.00000E+00
    0.15535E+07        -0.23000E+08         0.00000E+00
    0.00000E+00         0.00000E+00        -0.23519E+07
 
   -0.26553E+07         0.16228E+07         0.00000E+00
    0.16228E+07        -0.23043E+08         0.00000E+00
    0.00000E+00         0.00000E+00        -0.24149E+07
 
   -0.26756E+07         0.16921E+07         0.00000E+00
    0.16921E+07        -0.23086E+08         0.00000E+00
    0.00000E+00         0.00000E+00        -0.24763E+07
 
   -0.26983E+07         0.17619E+07         0.00000E+00
    0.17619E+07        -0.23129E+08         0.00000E+00
    0.00000E+00         0.00000E+00        -0.25363E+07
 
   -0.27231E+07         0.18324E+07         0.00000E+00
    0.18324E+07        -0.23171E+08         0.00000E+00
    0.00000E+00         0.00000E+00        -0.25950E+07
 
   -0.27502E+07         0.19033E+07         0.00000E+00
    0.19033E+07        -0.23213E+08         0.00000E+00
    0.00000E+00         0.00000E+00        -0.26521E+07
 
   -0.27796E+07         0.19746E+07         0.00000E+00
    0.19746E+07        -0.23254E+08         0.00000E+00
    0.00000E+00         0.00000E+00        -0.27078E+07
 
   -0.28113E+07         0.20462E+07         0.00000E+00
    0.20462E+07        -0.23295E+08         0.00000E+00
    0.00000E+00         0.00000E+00        -0.27619E+07
 
   -0.28458E+07         0.21180E+07         0.00000E+00
    0.21180E+07        -0.23336E+08         0.00000E+00
    0.00000E+00         0.00000E+00        -0.28145E+07
 
   -0.28833E+07         0.21894E+07         0.00000E+00
    0.21894E+07        -0.23377E+08         0.00000E+00
    0.00000E+00         0.00000E+00        -0.28653E+07
 
   -0.29233E+07         0.22607E+07         0.00000E+00
    0.22607E+07        -0.23418E+08         0.00000E+00
    0.00000E+00         0.00000E+00        -0.29145E+07
 
   -0.29648E+07         0.23323E+07         0.00000E+00
    0.23323E+07        -0.23458E+08         0.00000E+00
    0.00000E+00         0.00000E+00        -0.29623E+07
 
   -0.36887E+07        -0.23318E+05         0.00000E+00
   -0.23318E+05        -0.22614E+08         0.00000E+00
    0.00000E+00         0.00000E+00        -0.76144E+06
 
   -0.36700E+07        -0.51368E+05         0.00000E+00
   -0.51368E+05        -0.22614E+08         0.00000E+00
    0.00000E+00         0.00000E+00        -0.77514E+06
 
   -0.36506E+07        -0.74344E+05         0.00000E+00
   -0.74344E+05        -0.22616E+08         0.00000E+00
    0.00000E+00         0.00000E+00        -0.79079E+06
 
   -0.36305E+07        -0.92294E+05         0.00000E+00
   -0.92294E+05        -0.22618E+08         0.00000E+00
    0.00000E+00         0.00000E+00        -0.80849E+06
 
   -0.36095E+07        -0.10527E+06         0.00000E+00
   -0.10527E+06        -0.22622E+08         0.00000E+00
    0.00000E+00         0.00000E+00        -0.82832E+06
 
   -0.35877E+07        -0.11326E+06         0.00000E+00
   -0.11326E+06        -0.22627E+08         0.00000E+00
    0.00000E+00         0.00000E+00        -0.85044E+06
 
   -0.35652E+07        -0.11624E+06         0.00000E+00
   -0.11624E+06        -0.22634E+08         0.00000E+00
    0.00000E+00         0.00000E+00        -0.87507E+06
 
   -0.35419E+07        -0.11426E+06         0.00000E+00
   -0.11426E+06        -0.22643E+08         0.00000E+00
    0.00000E+00         0.00000E+00        -0.90247E+06
 
   -0.35178E+07        -0.10748E+06         0.00000E+00
   -0.10748E+06        -0.22654E+08         0.00000E+00
    0.00000E+00         0.00000E+00        -0.93286E+06
 
   -0.34930E+07        -0.96084E+05         0.00000E+00
   -0.96084E+05        -0.22668E+08         0.00000E+00
    0.00000E+00         0.00000E+00        -0.96642E+06
 
   -0.34674E+07        -0.80352E+05         0.00000E+00
   -0.80352E+05        -0.22683E+08         0.00000E+00
    0.00000E+00         0.00000E+00        -0.10033E+07
 
   -0.34411E+07        -0.60543E+05         0.00000E+00
   -0.60543E+05        -0.22701E+08         0.00000E+00
    0.00000E+00         0.00000E+00        -0.10435E+07
 
   -0.34140E+07        -0.36932E+05         0.00000E+00
   -0.36932E+05        -0.22721E+08         0.00000E+00
    0.00000E+00         0.00000E+00        -0.10871E+07
 
   -0.33863E+07        -0.97763E+04         0.00000E+00
   -0.97763E+04        -0.22743E+08         0.00000E+00
    0.00000E+00         0.00000E+00        -0.11339E+07
 
   -0.33582E+07         0.20682E+05         0.00000E+00
    0.20682E+05        -0.22767E+08         0.00000E+00
    0.00000E+00         0.00000E+00        -0.11839E+07
 
   -0.33298E+07         0.54181E+05         0.00000E+00
    0.54181E+05        -0.22793E+08         0.00000E+00
    0.00000E+00         0.00000E+00        -0.12368E+07
 
   -0.33012E+07         0.90466E+05         0.00000E+00
    0.90466E+05        -0.22821E+08         0.00000E+00
    0.00000E+00         0.00000E+00        -0.12926E+07
 
   -0.32727E+07         0.12932E+06         0.00000E+00
    0.12932E+06        -0.22850E+08         0.00000E+00
    0.00000E+00         0.00000E+00        -0.13511E+07
 
   -0.32446E+07         0.17054E+06         0.00000E+00
    0.17054E+06        -0.22881E+08         0.00000E+00
    0.00000E+00         0.00000E+00        -0.14119E+07
 
   -0.32171E+07         0.21401E+06         0.00000E+00
    0.21401E+06        -0.22913E+08         0.00000E+00
    0.00000E+00         0.00000E+00        -0.14747E+07
 
   -0.31905E+07         0.25957E+06         0.00000E+00
    0.25957E+06        -0.22947E+08         0.00000E+00
    0.00000E+00         0.00000E+00        -0.15394E+07
 
   -0.31648E+07         0.30713E+06         0.00000E+00
    0.30713E+06        -0.22982E+08         0.00000E+00
    0.00000E+00         0.00000E+00        -0.16057E+07
 
   -0.31404E+07         0.35664E+06         0.00000E+00
    0.35664E+06        -0.23018E+08         0.00000E+00
    0.00000E+00         0.00000E+00        -0.16733E+07
 
   -0.31173E+07         0.40799E+06         0.00000E+00
    0.40799E+06        -0.23055E+08         0.00000E+00
    0.00000E+00         0.00000E+00        -0.17421E+07
 
   -0.30959E+07         0.46105E+06         0.00000E+00
    0.46105E+06        -0.23093E+08         0.00000E+00
    0.00000E+00         0.00000E+00        -0.18118E+07
 
   -0.30762E+07         0.51576E+06         0.00000E+00
    0.51576E+06        -0.23132E+08         0.00000E+00
    0.00000E+00         0.00000E+00        -0.18821E+07
 
   -0.30584E+07         0.57214E+06         0.00000E+00
    0.57214E+06        -0.23171E+08         0.00000E+00
    0.00000E+00         0.00000E+00        -0.19528E+07
 
   -0.30427E+07         0.63003E+06         0.00000E+00
    0.63003E+06        -0.23211E+08         0.00000E+00
    0.00000E+00         0.00000E+00        -0.20237E+07
 
   -0.30292E+07         0.68922E+06         0.00000E+00
    0.68922E+06        -0.23252E+08         0.00000E+00
    0.00000E+00         0.00000E+00        -0.20946E+07
 
   -0.30179E+07         0.74974E+06         0.00000E+00
    0.74974E+06        -0.23292E+08         0.00000E+00
    0.00000E+00         0.00000E+00        -0.21653E+07
 
   -0.30088E+07         0.81163E+06         0.00000E+00
    0.81163E+06        -0.23334E+08         0.00000E+00
    0.00000E+00         0.00000E+00        -0.22357E+07
 
   -0.30022E+07         0.87473E+06         0.00000E+00
    0.87473E+06        -0.23375E+08         0.00000E+00
    0.00000E+00         0.00000E+00        -0.23055E+07
 
   -0.29981E+07         0.93894E+06         0.00000E+00
    0.93894E+06        -0.23417E+08         0.00000E+00
    0.00000E+00         0.00000E+00        -0.23746E+07
 
   -0.29965E+07         0.10043E+07         0.00000E+00
    0.10043E+07        -0.23458E+08         0.00000E+00
    0.00000E+00         0.00000E+00        -0.24427E+07
 
   -0.29977E+07         0.10707E+07         0.00000E+00
    0.10707E+07        -0.23500E+08         0.00000E+00
    0.00000E+00         0.00000E+00        -0.25098E+07
 
   -0.30018E+07         0.11378E+07         0.00000E+00
    0.11378E+07        -0.23542E+08         0.00000E+00
    0.00000E+00         0.00000E+00        -0.25755E+07
 
   -0.30086E+07         0.12057E+07         0.00000E+00
    0.12057E+07        -0.23583E+08         0.00000E+00
    0.00000E+00         0.00000E+00        -0.26400E+07
 
   -0.30179E+07         0.12745E+07         0.00000E+00
    0.12745E+07        -0.23625E+08         0.00000E+00
    0.00000E+00         0.00000E+00        -0.27032E+07
 
   -0.30298E+07         0.13442E+07         0.00000E+00
    0.13442E+07        -0.23666E+08         0.00000E+00
    0.00000E+00         0.00000E+00        -0.27650E+07
 
   -0.30444E+07         0.14145E+07         0.00000E+00
    0.14145E+07        -0.23707E+08         0.00000E+00
    0.00000E+00         0.00000E+00        -0.28253E+07
 
   -0.30615E+07         0.14855E+07         0.00000E+00
    0.14855E+07        -0.23748E+08         0.00000E+00
    0.00000E+00         0.00000E+00        -0.28840E+07
 
   -0.30814E+07         0.15571E+07         0.00000E+00
    0.15571E+07        -0.23789E+08         0.00000E+00
    0.00000E+00         0.00000E+00        -0.29411E+07
 
   -0.31044E+07         0.16289E+07         0.00000E+00
    0.16289E+07        -0.23829E+08         0.00000E+00
    0.00000E+00         0.00000E+00        -0.29964E+07
 
   -0.31308E+07         0.17005E+07         0.00000E+00
    0.17005E+07        -0.23870E+08         0.00000E+00
    0.00000E+00         0.00000E+00        -0.30497E+07
 
   -0.31599E+07         0.17726E+07         0.00000E+00
    0.17726E+07        -0.23910E+08         0.00000E+00
    0.00000E+00         0.00000E+00        -0.31013E+07
 
   -0.31913E+07         0.18449E+07         0.00000E+00
    0.18449E+07        -0.23950E+08         0.00000E+00
    0.00000E+00         0.00000E+00        -0.31513E+07
 
   -0.32245E+07         0.19176E+07         0.00000E+00
    0.19176E+07        -0.23989E+08         0.00000E+00
    0.00000E+00         0.00000E+00        -0.31996E+07
 
   -0.32595E+07         0.19917E+07         0.00000E+00
    0.19917E+07        -0.24027E+08         0.00000E+00
    0.00000E+00         0.00000E+00        -0.32466E+07
 
   -0.32965E+07         0.20665E+07         0.00000E+00
    0.20665E+07        -0.24065E+08         0.00000E+00
    0.00000E+00         0.00000E+00        -0.32922E+07
 
   -0.33363E+07         0.21414E+07         0.00000E+00
    0.21414E+07        -0.24102E+08         0.00000E+00
    0.00000E+00         0.00000E+00        -0.33359E+07
 
   -0.46040E+07        -0.23979E+05         0.00000E+00
   -0.23979E+05        -0.23365E+08         0.00000E+00
    0.00000E+00         0.00000E+00        -0.96197E+06
 
   -0.45617E+07        -0.57315E+05         0.00000E+00
   -0.57315E+05        -0.23365E+08         0.00000E+00
    0.00000E+00         0.00000E+00        -0.99116E+06
 
   -0.45185E+07        -0.86159E+05         0.00000E+00
   -0.86159E+05        -0.23367E+08         0.00000E+00
    0.00000E+00         0.00000E+00        -0.10227E+07
 
   -0.44746E+07        -0.11047E+06         0.00000E+00
   -0.11047E+06        -0.23371E+08         0.00000E+00
    0.00000E+00         0.00000E+00        -0.10564E+07
 
   -0.44300E+07        -0.13026E+06         0.00000E+00
   -0.13026E+06        -0.23375E+08         0.00000E+00
    0.00000E+00         0.00000E+00        -0.10925E+07
 
   -0.43847E+07        -0.14559E+06         0.00000E+00
   -0.14559E+06        -0.23382E+08         0.00000E+00
    0.00000E+00         0.00000E+00        -0.11308E+07
 
   -0.43390E+07        -0.15650E+06         0.00000E+00
   -0.15650E+06        -0.23389E+08         0.00000E+00
    0.00000E+00         0.00000E+00        -0.11714E+07
 
   -0.42929E+07        -0.16306E+06         0.00000E+00
   -0.16306E+06        -0.23398E+08         0.00000E+00
    0.00000E+00         0.00000E+00        -0.12141E+07
 
   -0.42466E+07        -0.16532E+06         0.00000E+00
   -0.16532E+06        -0.23409E+08         0.00000E+00
    0.00000E+00         0.00000E+00        -0.12590E+07
 
   -0.42002E+07        -0.16336E+06         0.00000E+00
   -0.16336E+06        -0.23421E+08         0.00000E+00
    0.00000E+00         0.00000E+00        -0.13060E+07
 
   -0.41538E+07        -0.15725E+06         0.00000E+00
   -0.15725E+06        -0.23435E+08         0.00000E+00
    0.00000E+00         0.00000E+00        -0.13553E+07
 
   -0.41076E+07        -0.14711E+06         0.00000E+00
   -0.14711E+06        -0.23451E+08         0.00000E+00
    0.00000E+00         0.00000E+00        -0.14067E+07
 
   -0.40618E+07        -0.13309E+06         0.00000E+00
   -0.13309E+06        -0.23468E+08         0.00000E+00
    0.00000E+00         0.00000E+00        -0.14602E+07
 
   -0.40164E+07        -0.11534E+06         0.00000E+00
   -0.11534E+06        -0.23487E+08         0.00000E+00
    0.00000E+00         0.00000E+00        -0.15157E+07
 
   -0.39715E+07        -0.94057E+05         0.00000E+00
   -0.94057E+05        -0.23508E+08         0.00000E+00
    0.00000E+00         0.00000E+00        -0.15733E+07
 
   -0.39273E+07        -0.69362E+05         0.00000E+00
   -0.69362E+05        -0.23530E+08         0.00000E+00
    0.00000E+00         0.00000E+00        -0.16329E+07
 
   -0.38839E+07        -0.41414E+05         0.00000E+00
   -0.41414E+05        -0.23554E+08         0.00000E+00
    0.00000E+00         0.00000E+00        -0.16944E+07
 
   -0.38416E+07        -0.10381E+05         0.00000E+00
   -0.10381E+05        -0.23580E+08         0.00000E+00
    0.00000E+00         0.00000E+00        -0.17575E+07
 
   -0.38004E+07         0.23567E+05         0.00000E+00
    0.23567E+05        -0.23607E+08         0.00000E+00
    0.00000E+00         0.00000E+00        -0.18222E+07
 
   -0.37604E+07         0.60278E+05         0.00000E+00
    0.60278E+05        -0.23635E+08         0.00000E+00
    0.00000E+00         0.00000E+00        -0.18883E+07
 
   -0.37219E+07         0.99659E+05         0.00000E+00
    0.99659E+05        -0.23665E+08         0.00000E+00
    0.00000E+00         0.00000E+00        -0.19557E+07
 
   -0.36850E+07         0.14158E+06         0.00000E+00
    0.14158E+06        -0.23695E+08         0.00000E+00
    0.00000E+00         0.00000E+00        -0.20240E+07
 
   -0.36500E+07         0.18584E+06         0.00000E+00
    0.18584E+06        -0.23727E+08         0.00000E+00
    0.00000E+00         0.00000E+00        -0.20932E+07
 
   -0.36168E+07         0.23236E+06         0.00000E+00
    0.23236E+06        -0.23760E+08         0.00000E+00
    0.00000E+00         0.00000E+00        -0.21631E+07
 
   -0.35857E+07         0.28111E+06         0.00000E+00
    0.28111E+06        -0.23794E+08         0.00000E+00
    0.00000E+00         0.00000E+00        -0.22336E+07
 
   -0.35567E+07         0.33201E+06         0.00000E+00
    0.33201E+06        -0.23829E+08         0.00000E+00
    0.00000E+00         0.00000E+00        -0.23044E+07
 
   -0.35300E+07         0.38492E+06         0.00000E+00
    0.38492E+06        -0.23864E+08         0.00000E+00
    0.00000E+00         0.00000E+00        -0.23754E+07
 
   -0.35058E+07         0.43976E+06         0.00000E+00
    0.43976E+06        -0.23900E+08         0.00000E+00
    0.00000E+00         0.00000E+00        -0.24464E+07
 
   -0.34840E+07         0.49653E+06         0.00000E+00
    0.49653E+06        -0.23937E+08         0.00000E+00
    0.00000E+00         0.00000E+00        -0.25172E+07
 
   -0.34650E+07         0.55508E+06         0.00000E+00
    0.55508E+06        -0.23974E+08         0.00000E+00
    0.00000E+00         0.00000E+00        -0.25875E+07
 
   -0.34489E+07         0.61519E+06         0.00000E+00
    0.61519E+06        -0.24012E+08         0.00000E+00
    0.00000E+00         0.00000E+00        -0.26573E+07
 
   -0.34356E+07         0.67678E+06         0.00000E+00
    0.67678E+06        -0.24051E+08         0.00000E+00
    0.00000E+00         0.00000E+00        -0.27263E+07
 
   -0.34252E+07         0.73993E+06         0.00000E+00
    0.73993E+06        -0.24089E+08         0.00000E+00
    0.00000E+00         0.00000E+00        -0.27946E+07
 
   -0.34177E+07         0.80456E+06         0.00000E+00
    0.80456E+06        -0.24128E+08         0.00000E+00
    0.00000E+00         0.00000E+00        -0.28618E+07
 
   -0.34132E+07         0.87054E+06         0.00000E+00
    0.87054E+06        -0.24167E+08         0.00000E+00
    0.00000E+00         0.00000E+00        -0.29277E+07
 
   -0.34118E+07         0.93784E+06         0.00000E+00
    0.93784E+06        -0.24206E+08         0.00000E+00
    0.00000E+00         0.00000E+00        -0.29924E+07
 
   -0.34133E+07         0.10063E+07         0.00000E+00
    0.10063E+07        -0.24246E+08         0.00000E+00
    0.00000E+00         0.00000E+00        -0.30555E+07
 
   -0.34182E+07         0.10757E+07         0.00000E+00
    0.10757E+07        -0.24285E+08         0.00000E+00
    0.00000E+00         0.00000E+00        -0.31169E+07
 
   -0.34266E+07         0.11457E+07         0.00000E+00
    0.11457E+07        -0.24324E+08         0.00000E+00
    0.00000E+00         0.00000E+00        -0.31764E+07
 
   -0.34385E+07         0.12164E+07         0.00000E+00
    0.12164E+07        -0.24363E+08         0.00000E+00
    0.00000E+00         0.00000E+00        -0.32341E+07
 
   -0.34535E+07         0.12877E+07         0.00000E+00
    0.12877E+07        -0.24403E+08         0.00000E+00
    0.00000E+00         0.00000E+00        -0.32900E+07
 
   -0.34713E+07         0.13597E+07         0.00000E+00
    0.13597E+07        -0.24442E+08         0.00000E+00
    0.00000E+00         0.00000E+00        -0.33440E+07
 
   -0.34916E+07         0.14324E+07         0.00000E+00
    0.14324E+07        -0.24480E+08         0.00000E+00
    0.00000E+00         0.00000E+00        -0.33961E+07
 
   -0.35142E+07         0.15068E+07         0.00000E+00
    0.15068E+07        -0.24518E+08         0.00000E+00
    0.00000E+00         0.00000E+00        -0.34468E+07
 
   -0.35393E+07         0.15815E+07         0.00000E+00
    0.15815E+07        -0.24555E+08         0.00000E+00
    0.00000E+00         0.00000E+00        -0.34955E+07
 
   -0.35673E+07         0.16571E+07         0.00000E+00
    0.16571E+07        -0.24591E+08         0.00000E+00
    0.00000E+00         0.00000E+00        -0.35424E+07
 
   -0.35987E+07         0.17324E+07         0.00000E+00
    0.17324E+07        -0.24628E+08         0.00000E+00
    0.00000E+00         0.00000E+00        -0.35872E+07
 
   -0.36333E+07         0.18065E+07         0.00000E+00
    0.18065E+07        -0.24665E+08         0.00000E+00
    0.00000E+00         0.00000E+00        -0.36301E+07
 
   -0.36707E+07         0.18814E+07         0.00000E+00
    0.18814E+07        -0.24702E+08         0.00000E+00
    0.00000E+00         0.00000E+00        -0.36716E+07
 
   -0.37107E+07         0.19570E+07         0.00000E+00
    0.19570E+07        -0.24739E+08         0.00000E+00
    0.00000E+00         0.00000E+00        -0.37117E+07
 
   -0.55590E+07        -0.26710E+05         0.00000E+00
   -0.26710E+05        -0.24126E+08         0.00000E+00
    0.00000E+00         0.00000E+00        -0.11700E+07
 
   -0.54942E+07        -0.66650E+05         0.00000E+00
   -0.66650E+05        -0.24127E+08         0.00000E+00
    0.00000E+00         0.00000E+00        -0.12114E+07
 
   -0.54285E+07        -0.10202E+06         0.00000E+00
   -0.10202E+06        -0.24129E+08         0.00000E+00
    0.00000E+00         0.00000E+00        -0.12554E+07
 
   -0.53621E+07        -0.13291E+06         0.00000E+00
   -0.13291E+06        -0.24134E+08         0.00000E+00
    0.00000E+00         0.00000E+00        -0.13021E+07
 
   -0.52952E+07        -0.15933E+06         0.00000E+00
   -0.15933E+06        -0.24139E+08         0.00000E+00
    0.00000E+00         0.00000E+00        -0.13512E+07
 
   -0.52278E+07        -0.18131E+06         0.00000E+00
   -0.18131E+06        -0.24146E+08         0.00000E+00
    0.00000E+00         0.00000E+00        -0.14025E+07
 
   -0.51602E+07        -0.19891E+06         0.00000E+00
   -0.19891E+06        -0.24153E+08         0.00000E+00
    0.00000E+00         0.00000E+00        -0.14559E+07
 
   -0.50927E+07        -0.21221E+06         0.00000E+00
   -0.21221E+06        -0.24162E+08         0.00000E+00
    0.00000E+00         0.00000E+00        -0.15112E+07
 
   -0.50252E+07        -0.22129E+06         0.00000E+00
   -0.22129E+06        -0.24173E+08         0.00000E+00
    0.00000E+00         0.00000E+00        -0.15683E+07
 
   -0.49580E+07        -0.22623E+06         0.00000E+00
   -0.22623E+06        -0.24184E+08         0.00000E+00
    0.00000E+00         0.00000E+00        -0.16271E+07
 
   -0.48914E+07        -0.22710E+06         0.00000E+00
   -0.22710E+06        -0.24197E+08         0.00000E+00
    0.00000E+00         0.00000E+00        -0.16874E+07
 
   -0.48256E+07        -0.22400E+06         0.00000E+00
   -0.22400E+06        -0.24211E+08         0.00000E+00
    0.00000E+00         0.00000E+00        -0.17491E+07
 
   -0.47607E+07        -0.21706E+06         0.00000E+00
   -0.21706E+06        -0.24226E+08         0.00000E+00
    0.00000E+00         0.00000E+00        -0.18121E+07
 
   -0.46968E+07        -0.20638E+06         0.00000E+00
   -0.20638E+06        -0.24242E+08         0.00000E+00
    0.00000E+00         0.00000E+00        -0.18763E+07
 
   -0.46340E+07        -0.19202E+06         0.00000E+00
   -0.19202E+06        -0.24259E+08         0.00000E+00
    0.00000E+00         0.00000E+00        -0.19417E+07
 
   -0.45727E+07        -0.17417E+06         0.00000E+00
   -0.17417E+06        -0.24278E+08         0.00000E+00
    0.00000E+00         0.00000E+00        -0.20080E+07
 
   -0.45130E+07        -0.15291E+06         0.00000E+00
   -0.15291E+06        -0.24297E+08         0.00000E+00
    0.00000E+00         0.00000E+00        -0.20752E+07
 
   -0.44550E+07        -0.12845E+06         0.00000E+00
   -0.12845E+06        -0.24318E+08         0.00000E+00
    0.00000E+00         0.00000E+00        -0.21433E+07
 
   -0.43987E+07        -0.10084E+06         0.00000E+00
   -0.10084E+06        -0.24340E+08         0.00000E+00
    0.00000E+00         0.00000E+00        -0.22123E+07
 
   -0.43444E+07        -0.70166E+05         0.00000E+00
   -0.70166E+05        -0.24363E+08         0.00000E+00
    0.00000E+00         0.00000E+00        -0.22819E+07
 
   -0.42921E+07        -0.36578E+05         0.00000E+00
   -0.36578E+05        -0.24387E+08         0.00000E+00
    0.00000E+00         0.00000E+00        -0.23521E+07
 
   -0.42421E+07        -0.23428E+03         0.00000E+00
   -0.23428E+03        -0.24413E+08         0.00000E+00
    0.00000E+00         0.00000E+00        -0.24228E+07
 
   -0.41943E+07         0.38841E+05         0.00000E+00
    0.38841E+05        -0.24439E+08         0.00000E+00
    0.00000E+00         0.00000E+00        -0.24939E+07
 
   -0.41489E+07         0.80547E+05         0.00000E+00
    0.80547E+05        -0.24467E+08         0.00000E+00
    0.00000E+00         0.00000E+00        -0.25653E+07
 
   -0.41061E+07         0.12471E+06         0.00000E+00
    0.12471E+06        -0.24495E+08         0.00000E+00
    0.00000E+00         0.00000E+00        -0.26369E+07
 
   -0.40659E+07         0.17125E+06         0.00000E+00
    0.17125E+06        -0.24524E+08         0.00000E+00
    0.00000E+00         0.00000E+00        -0.27084E+07
 
   -0.40285E+07         0.22001E+06         0.00000E+00
    0.22001E+06        -0.24554E+08         0.00000E+00
    0.00000E+00         0.00000E+00        -0.27799E+07
 
   -0.39939E+07         0.27105E+06         0.00000E+00
    0.27105E+06        -0.24586E+08         0.00000E+00
    0.00000E+00         0.00000E+00        -0.28513E+07
 
   -0.39623E+07         0.32428E+06         0.00000E+00
    0.32428E+06        -0.24618E+08         0.00000E+00
    0.00000E+00         0.00000E+00        -0.29223E+07
 
   -0.39338E+07         0.37958E+06         0.00000E+00
    0.37958E+06        -0.24650E+08         0.00000E+00
    0.00000E+00         0.00000E+00        -0.29928E+07
 
   -0.39084E+07         0.43699E+06         0.00000E+00
    0.43699E+06        -0.24684E+08         0.00000E+00
    0.00000E+00         0.00000E+00        -0.30626E+07
 
   -0.38863E+07         0.49642E+06         0.00000E+00
    0.49642E+06        -0.24718E+08         0.00000E+00
    0.00000E+00         0.00000E+00        -0.31317E+07
 
   -0.38675E+07         0.55766E+06         0.00000E+00
    0.55766E+06        -0.24753E+08         0.00000E+00
    0.00000E+00         0.00000E+00        -0.31998E+07
 
   -0.38522E+07         0.62055E+06         0.00000E+00
    0.62055E+06        -0.24788E+08         0.00000E+00
    0.00000E+00         0.00000E+00        -0.32666E+07
 
   -0.38407E+07         0.68495E+06         0.00000E+00
    0.68495E+06        -0.24824E+08         0.00000E+00
    0.00000E+00         0.00000E+00        -0.33321E+07
 
   -0.38330E+07         0.75085E+06         0.00000E+00
    0.75085E+06        -0.24860E+08         0.00000E+00
    0.00000E+00         0.00000E+00        -0.33961E+07
 
   -0.38289E+07         0.81816E+06         0.00000E+00
    0.81816E+06        -0.24897E+08         0.00000E+00
    0.00000E+00         0.00000E+00        -0.34585E+07
 
   -0.38285E+07         0.88688E+06         0.00000E+00
    0.88688E+06        -0.24934E+08         0.00000E+00
    0.00000E+00         0.00000E+00        -0.35192E+07
 
   -0.38314E+07         0.95708E+06         0.00000E+00
    0.95708E+06        -0.24971E+08         0.00000E+00
    0.00000E+00         0.00000E+00        -0.35779E+07
 
   -0.38374E+07         0.10290E+07         0.00000E+00
    0.10290E+07        -0.25007E+08         0.00000E+00
    0.00000E+00         0.00000E+00        -0.36349E+07
 
   -0.38470E+07         0.11021E+07         0.00000E+00
    0.11021E+07        -0.25044E+08         0.00000E+00
    0.00000E+00         0.00000E+00        -0.36896E+07
 
   -0.38602E+07         0.11762E+07         0.00000E+00
    0.11762E+07        -0.25080E+08         0.00000E+00
    0.00000E+00         0.00000E+00        -0.37420E+07
 
   -0.38773E+07         0.12505E+07         0.00000E+00
    0.12505E+07        -0.25116E+08         0.00000E+00
    0.00000E+00         0.00000E+00        -0.37919E+07
 
   -0.38982E+07         0.13244E+07         0.00000E+00
    0.13244E+07        -0.25153E+08         0.00000E+00
    0.00000E+00         0.00000E+00        -0.38395E+07
 
   -0.39223E+07         0.13996E+07         0.00000E+00
    0.13996E+07        -0.25189E+08         0.00000E+00
    0.00000E+00         0.00000E+00        -0.38852E+07
 
   -0.39496E+07         0.14746E+07         0.00000E+00
    0.14746E+07        -0.25225E+08         0.00000E+00
    0.00000E+00         0.00000E+00        -0.39287E+07
 
   -0.39803E+07         0.15496E+07         0.00000E+00
    0.15496E+07        -0.25261E+08         0.00000E+00
    0.00000E+00         0.00000E+00        -0.39702E+07
 
   -0.40136E+07         0.16255E+07         0.00000E+00
    0.16255E+07        -0.25297E+08         0.00000E+00
    0.00000E+00         0.00000E+00        -0.40101E+07
 
   -0.40491E+07         0.17012E+07         0.00000E+00
    0.17012E+07        -0.25333E+08         0.00000E+00
    0.00000E+00         0.00000E+00        -0.40486E+07
 
   -0.40860E+07         0.17773E+07         0.00000E+00
    0.17773E+07        -0.25368E+08         0.00000E+00
    0.00000E+00         0.00000E+00        -0.40862E+07
 
   -0.65593E+07        -0.30606E+05         0.00000E+00
   -0.30606E+05        -0.24895E+08         0.00000E+00
    0.00000E+00         0.00000E+00        -0.13832E+07
 
   -0.64705E+07        -0.77924E+05         0.00000E+00
   -0.77924E+05        -0.24897E+08         0.00000E+00
    0.00000E+00         0.00000E+00        -0.14348E+07
 
   -0.63811E+07        -0.12037E+06         0.00000E+00
   -0.12037E+06        -0.24900E+08         0.00000E+00
    0.00000E+00         0.00000E+00        -0.14897E+07
 
   -0.62911E+07        -0.15776E+06         0.00000E+00
   -0.15776E+06        -0.24904E+08         0.00000E+00
    0.00000E+00         0.00000E+00        -0.15473E+07
 
   -0.62009E+07        -0.19018E+06         0.00000E+00
   -0.19018E+06        -0.24909E+08         0.00000E+00
    0.00000E+00         0.00000E+00        -0.16073E+07
 
   -0.61107E+07        -0.21781E+06         0.00000E+00
   -0.21781E+06        -0.24916E+08         0.00000E+00
    0.00000E+00         0.00000E+00        -0.16694E+07
 
   -0.60206E+07        -0.24078E+06         0.00000E+00
   -0.24078E+06        -0.24923E+08         0.00000E+00
    0.00000E+00         0.00000E+00        -0.17334E+07
 
   -0.59311E+07        -0.25923E+06         0.00000E+00
   -0.25923E+06        -0.24932E+08         0.00000E+00
    0.00000E+00         0.00000E+00        -0.17990E+07
 
   -0.58421E+07        -0.27323E+06         0.00000E+00
   -0.27323E+06        -0.24941E+08         0.00000E+00
    0.00000E+00         0.00000E+00        -0.18661E+07
 
   -0.57540E+07        -0.28295E+06         0.00000E+00
   -0.28295E+06        -0.24951E+08         0.00000E+00
    0.00000E+00         0.00000E+00        -0.19344E+07
 
   -0.56670E+07        -0.28850E+06         0.00000E+00
   -0.28850E+06        -0.24961E+08         0.00000E+00
    0.00000E+00         0.00000E+00        -0.20036E+07
 
   -0.55814E+07        -0.29002E+06         0.00000E+00
   -0.29002E+06        -0.24972E+08         0.00000E+00
    0.00000E+00         0.00000E+00        -0.20736E+07
 
   -0.54972E+07        -0.28768E+06         0.00000E+00
   -0.28768E+06        -0.24984E+08         0.00000E+00
    0.00000E+00         0.00000E+00        -0.21443E+07
 
   -0.54146E+07        -0.28155E+06         0.00000E+00
   -0.28155E+06        -0.24997E+08         0.00000E+00
    0.00000E+00         0.00000E+00        -0.22156E+07
 
   -0.53340E+07        -0.27181E+06         0.00000E+00
   -0.27181E+06        -0.25011E+08         0.00000E+00
    0.00000E+00         0.00000E+00        -0.22873E+07
 
   -0.52555E+07        -0.25861E+06         0.00000E+00
   -0.25861E+06        -0.25025E+08         0.00000E+00
    0.00000E+00         0.00000E+00        -0.23592E+07
 
   -0.51791E+07        -0.24213E+06         0.00000E+00
   -0.24213E+06        -0.25040E+08         0.00000E+00
    0.00000E+00         0.00000E+00        -0.24314E+07
 
   -0.51049E+07        -0.22236E+06         0.00000E+00
   -0.22236E+06        -0.25055E+08         0.00000E+00
    0.00000E+00         0.00000E+00        -0.25039E+07
 
   -0.50331E+07        -0.19951E+06         0.00000E+00
   -0.19951E+06        -0.25072E+08         0.00000E+00
    0.00000E+00         0.00000E+00        -0.25765E+07
 
   -0.49638E+07        -0.17374E+06         0.00000E+00
   -0.17374E+06        -0.25089E+08         0.00000E+00
    0.00000E+00         0.00000E+00        -0.26491E+07
 
   -0.48972E+07        -0.14511E+06         0.00000E+00
   -0.14511E+06        -0.25108E+08         0.00000E+00
    0.00000E+00         0.00000E+00        -0.27217E+07
 
   -0.48332E+07        -0.11374E+06         0.00000E+00
   -0.11374E+06        -0.25127E+08         0.00000E+00
    0.00000E+00         0.00000E+00        -0.27945E+07
 
   -0.47719E+07        -0.79658E+05         0.00000E+00
   -0.79658E+05        -0.25147E+08         0.00000E+00
    0.00000E+00         0.00000E+00        -0.28672E+07
 
   -0.47134E+07        -0.42925E+05         0.00000E+00
   -0.42925E+05        -0.25168E+08         0.00000E+00
    0.00000E+00         0.00000E+00        -0.29399E+07
 
   -0.46581E+07        -0.36162E+04         0.00000E+00
   -0.36162E+04        -0.25190E+08         0.00000E+00
    0.00000E+00         0.00000E+00        -0.30123E+07
 
   -0.46058E+07         0.38108E+05         0.00000E+00
    0.38108E+05        -0.25213E+08         0.00000E+00
    0.00000E+00         0.00000E+00        -0.30845E+07
 
   -0.45564E+07         0.82394E+05         0.00000E+00
    0.82394E+05        -0.25238E+08         0.00000E+00
    0.00000E+00         0.00000E+00        -0.31565E+07
 
   -0.45103E+07         0.12903E+06         0.00000E+00
    0.12903E+06        -0.25263E+08         0.00000E+00
    0.00000E+00         0.00000E+00        -0.32281E+07
 
   -0.44675E+07         0.17787E+06         0.00000E+00
    0.17787E+06        -0.25289E+08         0.00000E+00
    0.00000E+00         0.00000E+00        -0.32991E+07
 
   -0.44281E+07         0.22898E+06         0.00000E+00
    0.22898E+06        -0.25316E+08         0.00000E+00
    0.00000E+00         0.00000E+00        -0.33697E+07
 
   -0.43922E+07         0.28218E+06         0.00000E+00
    0.28218E+06        -0.25344E+08         0.00000E+00
    0.00000E+00         0.00000E+00        -0.34396E+07
 
   -0.43601E+07         0.33742E+06         0.00000E+00
    0.33742E+06        -0.25373E+08         0.00000E+00
    0.00000E+00         0.00000E+00        -0.35087E+07
 
   -0.43318E+07         0.39476E+06         0.00000E+00
    0.39476E+06        -0.25403E+08         0.00000E+00
    0.00000E+00         0.00000E+00        -0.35770E+07
 
   -0.43073E+07         0.45416E+06         0.00000E+00
    0.45416E+06        -0.25434E+08         0.00000E+00
    0.00000E+00         0.00000E+00        -0.36442E+07
 
   -0.42866E+07         0.51572E+06         0.00000E+00
    0.51572E+06        -0.25466E+08         0.00000E+00
    0.00000E+00         0.00000E+00        -0.37102E+07
 
   -0.42696E+07         0.57947E+06         0.00000E+00
    0.57947E+06        -0.25498E+08         0.00000E+00
    0.00000E+00         0.00000E+00        -0.37750E+07
 
   -0.42565E+07         0.64535E+06         0.00000E+00
    0.64535E+06        -0.25531E+08         0.00000E+00
    0.00000E+00         0.00000E+00        -0.38381E+07
 
   -0.42475E+07         0.71314E+06         0.00000E+00
    0.71314E+06        -0.25565E+08         0.00000E+00
    0.00000E+00         0.00000E+00        -0.38996E+07
 
   -0.42432E+07         0.78243E+06         0.00000E+00
    0.78243E+06        -0.25599E+08         0.00000E+00
    0.00000E+00         0.00000E+00        -0.39589E+07
 
   -0.42433E+07         0.85271E+06         0.00000E+00
    0.85271E+06        -0.25634E+08         0.00000E+00
    0.00000E+00         0.00000E+00        -0.40162E+07
 
   -0.42477E+07         0.92457E+06         0.00000E+00
    0.92457E+06        -0.25669E+08         0.00000E+00
    0.00000E+00         0.00000E+00        -0.40714E+07
 
   -0.42568E+07         0.99750E+06         0.00000E+00
    0.99750E+06        -0.25705E+08         0.00000E+00
    0.00000E+00         0.00000E+00        -0.41239E+07
 
   -0.42704E+07         0.10716E+07         0.00000E+00
    0.10716E+07        -0.25741E+08         0.00000E+00
    0.00000E+00         0.00000E+00        -0.41738E+07
 
   -0.42883E+07         0.11469E+07         0.00000E+00
    0.11469E+07        -0.25776E+08         0.00000E+00
    0.00000E+00         0.00000E+00        -0.42208E+07
 
   -0.43103E+07         0.12223E+07         0.00000E+00
    0.12223E+07        -0.25812E+08         0.00000E+00
    0.00000E+00         0.00000E+00        -0.42651E+07
 
   -0.43355E+07         0.12987E+07         0.00000E+00
    0.12987E+07        -0.25848E+08         0.00000E+00
    0.00000E+00         0.00000E+00        -0.43071E+07
 
   -0.43628E+07         0.13769E+07         0.00000E+00
    0.13769E+07        -0.25882E+08         0.00000E+00
    0.00000E+00         0.00000E+00        -0.43469E+07
 
   -0.43917E+07         0.14562E+07         0.00000E+00
    0.14562E+07        -0.25914E+08         0.00000E+00
    0.00000E+00         0.00000E+00        -0.43846E+07
 
   -0.44220E+07         0.15375E+07         0.00000E+00
    0.15375E+07        -0.25945E+08         0.00000E+00
    0.00000E+00         0.00000E+00        -0.44205E+07
 
   -0.44539E+07         0.16201E+07         0.00000E+00
    0.16201E+07        -0.25973E+08         0.00000E+00
    0.00000E+00         0.00000E+00        -0.44541E+07
 
   -0.76061E+07        -0.34977E+05         0.00000E+00
   -0.34977E+05        -0.25673E+08         0.00000E+00
    0.00000E+00         0.00000E+00        -0.16024E+07
 
   -0.74900E+07        -0.90004E+05         0.00000E+00
   -0.90004E+05        -0.25675E+08         0.00000E+00
    0.00000E+00         0.00000E+00        -0.16644E+07
 
   -0.73732E+07        -0.13840E+06         0.00000E+00
   -0.13840E+06        -0.25677E+08         0.00000E+00
    0.00000E+00         0.00000E+00        -0.17288E+07
 
   -0.72567E+07        -0.18115E+06         0.00000E+00
   -0.18115E+06        -0.25681E+08         0.00000E+00
    0.00000E+00         0.00000E+00        -0.17958E+07
 
   -0.71407E+07        -0.21858E+06         0.00000E+00
   -0.21858E+06        -0.25685E+08         0.00000E+00
    0.00000E+00         0.00000E+00        -0.18651E+07
 
   -0.70255E+07        -0.25071E+06         0.00000E+00
   -0.25071E+06        -0.25691E+08         0.00000E+00
    0.00000E+00         0.00000E+00        -0.19364E+07
 
   -0.69112E+07        -0.27763E+06         0.00000E+00
   -0.27763E+06        -0.25696E+08         0.00000E+00
    0.00000E+00         0.00000E+00        -0.20093E+07
 
   -0.67978E+07        -0.29944E+06         0.00000E+00
   -0.29944E+06        -0.25703E+08         0.00000E+00
    0.00000E+00         0.00000E+00        -0.20835E+07
 
   -0.66859E+07        -0.31636E+06         0.00000E+00
   -0.31636E+06        -0.25710E+08         0.00000E+00
    0.00000E+00         0.00000E+00        -0.21585E+07
 
   -0.65760E+07        -0.32864E+06         0.00000E+00
   -0.32864E+06        -0.25717E+08         0.00000E+00
    0.00000E+00         0.00000E+00        -0.22339E+07
 
   -0.64680E+07        -0.33659E+06         0.00000E+00
   -0.33659E+06        -0.25724E+08         0.00000E+00
    0.00000E+00         0.00000E+00        -0.23097E+07
 
   -0.63623E+07        -0.34047E+06         0.00000E+00
   -0.34047E+06        -0.25732E+08         0.00000E+00
    0.00000E+00         0.00000E+00        -0.23856E+07
 
   -0.62589E+07        -0.34047E+06         0.00000E+00
   -0.34047E+06        -0.25740E+08         0.00000E+00
    0.00000E+00         0.00000E+00        -0.24617E+07
 
   -0.61581E+07        -0.33692E+06         0.00000E+00
   -0.33692E+06        -0.25748E+08         0.00000E+00
    0.00000E+00         0.00000E+00        -0.25375E+07
 
   -0.60601E+07        -0.32996E+06         0.00000E+00
   -0.32996E+06        -0.25756E+08         0.00000E+00
    0.00000E+00         0.00000E+00        -0.26132E+07
 
   -0.59649E+07        -0.31978E+06         0.00000E+00
   -0.31978E+06        -0.25765E+08         0.00000E+00
    0.00000E+00         0.00000E+00        -0.26887E+07
 
   -0.58722E+07        -0.30646E+06         0.00000E+00
   -0.30646E+06        -0.25775E+08         0.00000E+00
    0.00000E+00         0.00000E+00        -0.27641E+07
 
   -0.57825E+07        -0.29012E+06         0.00000E+00
   -0.29012E+06        -0.25785E+08         0.00000E+00
    0.00000E+00         0.00000E+00        -0.28393E+07
 
   -0.56958E+07        -0.27087E+06         0.00000E+00
   -0.27087E+06        -0.25796E+08         0.00000E+00
    0.00000E+00         0.00000E+00        -0.29141E+07
 
   -0.56123E+07        -0.24881E+06         0.00000E+00
   -0.24881E+06        -0.25808E+08         0.00000E+00
    0.00000E+00         0.00000E+00        -0.29884E+07
 
   -0.55319E+07        -0.22415E+06         0.00000E+00
   -0.22415E+06        -0.25820E+08         0.00000E+00
    0.00000E+00         0.00000E+00        -0.30623E+07
 
   -0.54544E+07        -0.19677E+06         0.00000E+00
   -0.19677E+06        -0.25832E+08         0.00000E+00
    0.00000E+00         0.00000E+00        -0.31359E+07
 
   -0.53800E+07        -0.16688E+06         0.00000E+00
   -0.16688E+06        -0.25846E+08         0.00000E+00
    0.00000E+00         0.00000E+00        -0.32091E+07
 
   -0.53089E+07        -0.13460E+06         0.00000E+00
   -0.13460E+06        -0.25860E+08         0.00000E+00
    0.00000E+00         0.00000E+00        -0.32818E+07
 
   -0.52412E+07        -0.10001E+06         0.00000E+00
   -0.10001E+06        -0.25876E+08         0.00000E+00
    0.00000E+00         0.00000E+00        -0.33539E+07
 
   -0.51766E+07        -0.62990E+05         0.00000E+00
   -0.62990E+05        -0.25892E+08         0.00000E+00
    0.00000E+00         0.00000E+00        -0.34257E+07
 
   -0.51154E+07        -0.23832E+05         0.00000E+00
   -0.23832E+05        -0.25909E+08         0.00000E+00
    0.00000E+00         0.00000E+00        -0.34972E+07
 
   -0.50578E+07         0.17500E+05         0.00000E+00
    0.17500E+05        -0.25927E+08         0.00000E+00
    0.00000E+00         0.00000E+00        -0.35681E+07
 
   -0.50037E+07         0.61028E+05         0.00000E+00
    0.61028E+05        -0.25947E+08         0.00000E+00
    0.00000E+00         0.00000E+00        -0.36385E+07
 
   -0.49533E+07         0.10669E+06         0.00000E+00
    0.10669E+06        -0.25967E+08         0.00000E+00
    0.00000E+00         0.00000E+00        -0.37084E+07
 
   -0.49066E+07         0.15455E+06         0.00000E+00
    0.15455E+06        -0.25989E+08         0.00000E+00
    0.00000E+00         0.00000E+00        -0.37777E+07
 
   -0.48635E+07         0.20471E+06         0.00000E+00
    0.20471E+06        -0.26012E+08         0.00000E+00
    0.00000E+00         0.00000E+00        -0.38464E+07
 
   -0.48241E+07         0.25709E+06         0.00000E+00
    0.25709E+06        -0.26036E+08         0.00000E+00
    0.00000E+00         0.00000E+00        -0.39144E+07
 
   -0.47885E+07         0.31181E+06         0.00000E+00
    0.31181E+06        -0.26061E+08         0.00000E+00
    0.00000E+00         0.00000E+00        -0.39817E+07
 
   -0.47569E+07         0.36868E+06         0.00000E+00
    0.36868E+06        -0.26087E+08         0.00000E+00
    0.00000E+00         0.00000E+00        -0.40482E+07
 
   -0.47296E+07         0.42756E+06         0.00000E+00
    0.42756E+06        -0.26115E+08         0.00000E+00
    0.00000E+00         0.00000E+00        -0.41137E+07
 
   -0.47067E+07         0.48840E+06         0.00000E+00
    0.48840E+06        -0.26144E+08         0.00000E+00
    0.00000E+00         0.00000E+00        -0.41783E+07
 
   -0.46882E+07         0.55134E+06         0.00000E+00
    0.55134E+06        -0.26175E+08         0.00000E+00
    0.00000E+00         0.00000E+00        -0.42415E+07
 
   -0.46746E+07         0.61642E+06         0.00000E+00
    0.61642E+06        -0.26206E+08         0.00000E+00
    0.00000E+00         0.00000E+00        -0.43030E+07
 
   -0.46658E+07         0.68394E+06         0.00000E+00
    0.68394E+06        -0.26239E+08         0.00000E+00
    0.00000E+00         0.00000E+00        -0.43627E+07
 
   -0.46622E+07         0.75336E+06         0.00000E+00
    0.75336E+06        -0.26272E+08         0.00000E+00
    0.00000E+00         0.00000E+00        -0.44200E+07
 
   -0.46633E+07         0.82503E+06         0.00000E+00
    0.82503E+06        -0.26306E+08         0.00000E+00
    0.00000E+00         0.00000E+00        -0.44751E+07
 
   -0.46685E+07         0.89914E+06         0.00000E+00
    0.89914E+06        -0.26341E+08         0.00000E+00
    0.00000E+00         0.00000E+00        -0.45281E+07
 
   -0.46776E+07         0.97562E+06         0.00000E+00
    0.97562E+06        -0.26375E+08         0.00000E+00
    0.00000E+00         0.00000E+00        -0.45789E+07
 
   -0.46897E+07         0.10550E+07         0.00000E+00
    0.10550E+07        -0.26408E+08         0.00000E+00
    0.00000E+00         0.00000E+00        -0.46275E+07
 
   -0.47047E+07         0.11378E+07         0.00000E+00
    0.11378E+07        -0.26440E+08         0.00000E+00
    0.00000E+00         0.00000E+00        -0.46736E+07
 
   -0.47247E+07         0.12211E+07         0.00000E+00
    0.12211E+07        -0.26472E+08         0.00000E+00
    0.00000E+00         0.00000E+00        -0.47161E+07
 
   -0.47497E+07         0.13048E+07         0.00000E+00
    0.13048E+07        -0.26503E+08         0.00000E+00
    0.00000E+00         0.00000E+00        -0.47554E+07
 
   -0.47806E+07         0.13879E+07         0.00000E+00
    0.13879E+07        -0.26536E+08         0.00000E+00
    0.00000E+00         0.00000E+00        -0.47909E+07
 
   -0.48180E+07         0.14673E+07         0.00000E+00
    0.14673E+07        -0.26570E+08         0.00000E+00
    0.00000E+00         0.00000E+00        -0.48228E+07
 
   -0.86952E+07        -0.40307E+05         0.00000E+00
   -0.40307E+05        -0.26457E+08         0.00000E+00
    0.00000E+00         0.00000E+00        -0.18320E+07
 
   -0.85454E+07        -0.98704E+05         0.00000E+00
   -0.98704E+05        -0.26456E+08         0.00000E+00
    0.00000E+00         0.00000E+00        -0.19013E+07
 
   -0.83980E+07        -0.15274E+06         0.00000E+00
   -0.15274E+06        -0.26458E+08         0.00000E+00
    0.00000E+00         0.00000E+00        -0.19749E+07
 
   -0.82515E+07        -0.20050E+06         0.00000E+00
   -0.20050E+06        -0.26462E+08         0.00000E+00
    0.00000E+00         0.00000E+00        -0.20515E+07
 
   -0.81055E+07        -0.24120E+06         0.00000E+00
   -0.24120E+06        -0.26465E+08         0.00000E+00
    0.00000E+00         0.00000E+00        -0.21302E+07
 
   -0.79612E+07        -0.27510E+06         0.00000E+00
   -0.27510E+06        -0.26468E+08         0.00000E+00
    0.00000E+00         0.00000E+00        -0.22098E+07
 
   -0.78192E+07        -0.30281E+06         0.00000E+00
   -0.30281E+06        -0.26471E+08         0.00000E+00
    0.00000E+00         0.00000E+00        -0.22897E+07
 
   -0.76801E+07        -0.32500E+06         0.00000E+00
   -0.32500E+06        -0.26473E+08         0.00000E+00
    0.00000E+00         0.00000E+00        -0.23695E+07
 
   -0.75445E+07        -0.34233E+06         0.00000E+00
   -0.34233E+06        -0.26475E+08         0.00000E+00
    0.00000E+00         0.00000E+00        -0.24491E+07
 
   -0.74124E+07        -0.35530E+06         0.00000E+00
   -0.35530E+06        -0.26478E+08         0.00000E+00
    0.00000E+00         0.00000E+00        -0.25284E+07
 
   -0.72834E+07        -0.36418E+06         0.00000E+00
   -0.36418E+06        -0.26480E+08         0.00000E+00
    0.00000E+00         0.00000E+00        -0.26077E+07
 
   -0.71580E+07        -0.36925E+06         0.00000E+00
   -0.36925E+06        -0.26483E+08         0.00000E+00
    0.00000E+00         0.00000E+00        -0.26868E+07
 
   -0.70363E+07        -0.37075E+06         0.00000E+00
   -0.37075E+06        -0.26486E+08         0.00000E+00
    0.00000E+00         0.00000E+00        -0.27655E+07
 
   -0.69184E+07        -0.36883E+06         0.00000E+00
   -0.36883E+06        -0.26489E+08         0.00000E+00
    0.00000E+00         0.00000E+00        -0.28438E+07
 
   -0.68038E+07        -0.36367E+06         0.00000E+00
   -0.36367E+06        -0.26492E+08         0.00000E+00
    0.00000E+00         0.00000E+00        -0.29217E+07
 
   -0.66925E+07        -0.35530E+06         0.00000E+00
   -0.35530E+06        -0.26496E+08         0.00000E+00
    0.00000E+00         0.00000E+00        -0.29992E+07
 
   -0.65847E+07        -0.34390E+06         0.00000E+00
   -0.34390E+06        -0.26500E+08         0.00000E+00
    0.00000E+00         0.00000E+00        -0.30760E+07
 
   -0.64805E+07        -0.32970E+06         0.00000E+00
   -0.32970E+06        -0.26505E+08         0.00000E+00
    0.00000E+00         0.00000E+00        -0.31520E+07
 
   -0.63800E+07        -0.31283E+06         0.00000E+00
   -0.31283E+06        -0.26509E+08         0.00000E+00
    0.00000E+00         0.00000E+00        -0.32272E+07
 
   -0.62832E+07        -0.29342E+06         0.00000E+00
   -0.29342E+06        -0.26515E+08         0.00000E+00
    0.00000E+00         0.00000E+00        -0.33014E+07
 
   -0.61898E+07        -0.27147E+06         0.00000E+00
   -0.27147E+06        -0.26520E+08         0.00000E+00
    0.00000E+00         0.00000E+00        -0.33749E+07
 
   -0.61000E+07        -0.24729E+06         0.00000E+00
   -0.24729E+06        -0.26526E+08         0.00000E+00
    0.00000E+00         0.00000E+00        -0.34475E+07
 
   -0.60139E+07        -0.22094E+06         0.00000E+00
   -0.22094E+06        -0.26533E+08         0.00000E+00
    0.00000E+00         0.00000E+00        -0.35193E+07
 
   -0.59315E+07        -0.19252E+06         0.00000E+00
   -0.19252E+06        -0.26540E+08         0.00000E+00
    0.00000E+00         0.00000E+00        -0.35902E+07
 
   -0.58527E+07        -0.16210E+06         0.00000E+00
   -0.16210E+06        -0.26548E+08         0.00000E+00
    0.00000E+00         0.00000E+00        -0.36604E+07
 
   -0.57776E+07        -0.12982E+06         0.00000E+00
   -0.12982E+06        -0.26557E+08         0.00000E+00
    0.00000E+00         0.00000E+00        -0.37297E+07
 
   -0.57062E+07        -0.95657E+05         0.00000E+00
   -0.95657E+05        -0.26566E+08         0.00000E+00
    0.00000E+00         0.00000E+00        -0.37984E+07
 
   -0.56383E+07        -0.59621E+05         0.00000E+00
   -0.59621E+05        -0.26577E+08         0.00000E+00
    0.00000E+00         0.00000E+00        -0.38666E+07
 
   -0.55741E+07        -0.21674E+05         0.00000E+00
   -0.21674E+05        -0.26589E+08         0.00000E+00
    0.00000E+00         0.00000E+00        -0.39342E+07
 
   -0.55134E+07         0.18172E+05         0.00000E+00
    0.18172E+05        -0.26602E+08         0.00000E+00
    0.00000E+00         0.00000E+00        -0.40014E+07
 
   -0.54562E+07         0.59925E+05         0.00000E+00
    0.59925E+05        -0.26616E+08         0.00000E+00
    0.00000E+00         0.00000E+00        -0.40683E+07
 
   -0.54025E+07         0.10352E+06         0.00000E+00
    0.10352E+06        -0.26632E+08         0.00000E+00
    0.00000E+00         0.00000E+00        -0.41350E+07
 
   -0.53524E+07         0.14902E+06         0.00000E+00
    0.14902E+06        -0.26650E+08         0.00000E+00
    0.00000E+00         0.00000E+00        -0.42017E+07
 
   -0.53058E+07         0.19640E+06         0.00000E+00
    0.19640E+06        -0.26669E+08         0.00000E+00
    0.00000E+00         0.00000E+00        -0.42683E+07
 
   -0.52633E+07         0.24593E+06         0.00000E+00
    0.24593E+06        -0.26689E+08         0.00000E+00
    0.00000E+00         0.00000E+00        -0.43346E+07
 
   -0.52247E+07         0.29764E+06         0.00000E+00
    0.29764E+06        -0.26711E+08         0.00000E+00
    0.00000E+00         0.00000E+00        -0.44006E+07
 
   -0.51901E+07         0.35177E+06         0.00000E+00
    0.35177E+06        -0.26735E+08         0.00000E+00
    0.00000E+00         0.00000E+00        -0.44660E+07
 
   -0.51599E+07         0.40845E+06         0.00000E+00
    0.40845E+06        -0.26761E+08         0.00000E+00
    0.00000E+00         0.00000E+00        -0.45309E+07
 
   -0.51338E+07         0.46790E+06         0.00000E+00
    0.46790E+06        -0.26788E+08         0.00000E+00
    0.00000E+00         0.00000E+00        -0.45952E+07
 
   -0.51117E+07         0.53011E+06         0.00000E+00
    0.53011E+06        -0.26816E+08         0.00000E+00
    0.00000E+00         0.00000E+00        -0.46588E+07
 
   -0.50937E+07         0.59557E+06         0.00000E+00
    0.59557E+06        -0.26846E+08         0.00000E+00
    0.00000E+00         0.00000E+00        -0.47217E+07
 
   -0.50798E+07         0.66443E+06         0.00000E+00
    0.66443E+06        -0.26876E+08         0.00000E+00
    0.00000E+00         0.00000E+00        -0.47840E+07
 
   -0.50700E+07         0.73685E+06         0.00000E+00
    0.73685E+06        -0.26908E+08         0.00000E+00
    0.00000E+00         0.00000E+00        -0.48457E+07
 
   -0.50657E+07         0.81265E+06         0.00000E+00
    0.81265E+06        -0.26942E+08         0.00000E+00
    0.00000E+00         0.00000E+00        -0.49052E+07
 
   -0.50683E+07         0.89028E+06         0.00000E+00
    0.89028E+06        -0.26976E+08         0.00000E+00
    0.00000E+00         0.00000E+00        -0.49619E+07
 
   -0.50789E+07         0.96796E+06         0.00000E+00
    0.96796E+06        -0.27013E+08         0.00000E+00
    0.00000E+00         0.00000E+00        -0.50145E+07
 
   -0.50969E+07         0.10473E+07         0.00000E+00
    0.10473E+07        -0.27051E+08         0.00000E+00
    0.00000E+00         0.00000E+00        -0.50635E+07
 
   -0.51219E+07         0.11277E+07         0.00000E+00
    0.11277E+07        -0.27090E+08         0.00000E+00
    0.00000E+00         0.00000E+00        -0.51083E+07
 
   -0.51516E+07         0.12083E+07         0.00000E+00
    0.12083E+07        -0.27129E+08         0.00000E+00
    0.00000E+00         0.00000E+00        -0.51495E+07
 
   -0.51845E+07         0.12957E+07         0.00000E+00
    0.12957E+07        -0.27164E+08         0.00000E+00
    0.00000E+00         0.00000E+00        -0.51854E+07
 
   -0.98148E+07        -0.36894E+05         0.00000E+00
   -0.36894E+05        -0.27238E+08         0.00000E+00
    0.00000E+00         0.00000E+00        -0.20703E+07
 
   -0.96304E+07        -0.10998E+06         0.00000E+00
   -0.10998E+06        -0.27246E+08         0.00000E+00
    0.00000E+00         0.00000E+00        -0.21555E+07
 
   -0.94415E+07        -0.16619E+06         0.00000E+00
   -0.16619E+06        -0.27249E+08         0.00000E+00
    0.00000E+00         0.00000E+00        -0.22418E+07
 
   -0.92551E+07        -0.21003E+06         0.00000E+00
   -0.21003E+06        -0.27248E+08         0.00000E+00
    0.00000E+00         0.00000E+00        -0.23264E+07
 
   -0.90740E+07        -0.24604E+06         0.00000E+00
   -0.24604E+06        -0.27245E+08         0.00000E+00
    0.00000E+00         0.00000E+00        -0.24087E+07
 
   -0.88995E+07        -0.27653E+06         0.00000E+00
   -0.27653E+06        -0.27240E+08         0.00000E+00
    0.00000E+00         0.00000E+00        -0.24895E+07
 
   -0.87308E+07        -0.30252E+06         0.00000E+00
   -0.30252E+06        -0.27235E+08         0.00000E+00
    0.00000E+00         0.00000E+00        -0.25700E+07
 
   -0.85678E+07        -0.32451E+06         0.00000E+00
   -0.32451E+06        -0.27231E+08         0.00000E+00
    0.00000E+00         0.00000E+00        -0.26506E+07
 
   -0.84101E+07        -0.34264E+06         0.00000E+00
   -0.34264E+06        -0.27228E+08         0.00000E+00
    0.00000E+00         0.00000E+00        -0.27316E+07
 
   -0.82571E+07        -0.35690E+06         0.00000E+00
   -0.35690E+06        -0.27225E+08         0.00000E+00
    0.00000E+00         0.00000E+00        -0.28128E+07
 
   -0.81085E+07        -0.36732E+06         0.00000E+00
   -0.36732E+06        -0.27223E+08         0.00000E+00
    0.00000E+00         0.00000E+00        -0.28942E+07
 
   -0.79644E+07        -0.37391E+06         0.00000E+00
   -0.37391E+06        -0.27221E+08         0.00000E+00
    0.00000E+00         0.00000E+00        -0.29754E+07
 
   -0.78248E+07        -0.37675E+06         0.00000E+00
   -0.37675E+06        -0.27219E+08         0.00000E+00
    0.00000E+00         0.00000E+00        -0.30562E+07
 
   -0.76894E+07        -0.37590E+06         0.00000E+00
   -0.37590E+06        -0.27218E+08         0.00000E+00
    0.00000E+00         0.00000E+00        -0.31363E+07
 
   -0.75578E+07        -0.37151E+06         0.00000E+00
   -0.37151E+06        -0.27216E+08         0.00000E+00
    0.00000E+00         0.00000E+00        -0.32157E+07
 
   -0.74308E+07        -0.36382E+06         0.00000E+00
   -0.36382E+06        -0.27214E+08         0.00000E+00
    0.00000E+00         0.00000E+00        -0.32939E+07
 
   -0.73084E+07        -0.35308E+06         0.00000E+00
   -0.35308E+06        -0.27213E+08         0.00000E+00
    0.00000E+00         0.00000E+00        -0.33705E+07
 
   -0.71906E+07        -0.33957E+06         0.00000E+00
   -0.33957E+06        -0.27211E+08         0.00000E+00
    0.00000E+00         0.00000E+00        -0.34456E+07
 
   -0.70773E+07        -0.32352E+06         0.00000E+00
   -0.32352E+06        -0.27209E+08         0.00000E+00
    0.00000E+00         0.00000E+00        -0.35191E+07
 
   -0.69686E+07        -0.30522E+06         0.00000E+00
   -0.30522E+06        -0.27207E+08         0.00000E+00
    0.00000E+00         0.00000E+00        -0.35908E+07
 
   -0.68645E+07        -0.28492E+06         0.00000E+00
   -0.28492E+06        -0.27205E+08         0.00000E+00
    0.00000E+00         0.00000E+00        -0.36610E+07
 
   -0.67648E+07        -0.26281E+06         0.00000E+00
   -0.26281E+06        -0.27203E+08         0.00000E+00
    0.00000E+00         0.00000E+00        -0.37296E+07
 
   -0.66692E+07        -0.23906E+06         0.00000E+00
   -0.23906E+06        -0.27202E+08         0.00000E+00
    0.00000E+00         0.00000E+00        -0.37970E+07
 
   -0.65781E+07        -0.21378E+06         0.00000E+00
   -0.21378E+06        -0.27201E+08         0.00000E+00
    0.00000E+00         0.00000E+00        -0.38630E+07
 
   -0.64910E+07        -0.18700E+06         0.00000E+00
   -0.18700E+06        -0.27201E+08         0.00000E+00
    0.00000E+00         0.00000E+00        -0.39280E+07
 
   -0.64078E+07        -0.15892E+06         0.00000E+00
   -0.15892E+06        -0.27202E+08         0.00000E+00
    0.00000E+00         0.00000E+00        -0.39921E+07
 
   -0.63283E+07        -0.12955E+06         0.00000E+00
   -0.12955E+06        -0.27204E+08         0.00000E+00
    0.00000E+00         0.00000E+00        -0.40555E+07
 
   -0.62525E+07        -0.98939E+05         0.00000E+00
   -0.98939E+05        -0.27207E+08         0.00000E+00
    0.00000E+00         0.00000E+00        -0.41184E+07
 
   -0.61802E+07        -0.67163E+05         0.00000E+00
   -0.67163E+05        -0.27211E+08         0.00000E+00
    0.00000E+00         0.00000E+00        -0.41809E+07
 
   -0.61110E+07        -0.34139E+05         0.00000E+00
   -0.34139E+05        -0.27217E+08         0.00000E+00
    0.00000E+00         0.00000E+00        -0.42436E+07
 
   -0.60451E+07         0.24947E+03         0.00000E+00
    0.24947E+03        -0.27224E+08         0.00000E+00
    0.00000E+00         0.00000E+00        -0.43065E+07
 
   -0.59824E+07         0.36107E+05         0.00000E+00
    0.36107E+05        -0.27233E+08         0.00000E+00
    0.00000E+00         0.00000E+00        -0.43696E+07
 
   -0.59232E+07         0.73556E+05         0.00000E+00
    0.73556E+05        -0.27243E+08         0.00000E+00
    0.00000E+00         0.00000E+00        -0.44330E+07
 
   -0.58669E+07         0.11268E+06         0.00000E+00
    0.11268E+06        -0.27255E+08         0.00000E+00
    0.00000E+00         0.00000E+00        -0.44970E+07
 
   -0.58139E+07         0.15356E+06         0.00000E+00
    0.15356E+06        -0.27269E+08         0.00000E+00
    0.00000E+00         0.00000E+00        -0.45615E+07
 
   -0.57642E+07         0.19656E+06         0.00000E+00
    0.19656E+06        -0.27285E+08         0.00000E+00
    0.00000E+00         0.00000E+00        -0.46266E+07
 
   -0.57172E+07         0.24191E+06         0.00000E+00
    0.24191E+06        -0.27303E+08         0.00000E+00
    0.00000E+00         0.00000E+00        -0.46929E+07
 
   -0.56732E+07         0.28977E+06         0.00000E+00
    0.28977E+06        -0.27323E+08         0.00000E+00
    0.00000E+00         0.00000E+00        -0.47602E+07
 
   -0.56326E+07         0.34039E+06         0.00000E+00
    0.34039E+06        -0.27345E+08         0.00000E+00
    0.00000E+00         0.00000E+00        -0.48283E+07
 
   -0.55954E+07         0.39400E+06         0.00000E+00
    0.39400E+06        -0.27370E+08         0.00000E+00
    0.00000E+00         0.00000E+00        -0.48974E+07
 
   -0.55617E+07         0.45060E+06         0.00000E+00
    0.45060E+06        -0.27396E+08         0.00000E+00
    0.00000E+00         0.00000E+00        -0.49674E+07
 
   -0.55318E+07         0.51019E+06         0.00000E+00
    0.51019E+06        -0.27425E+08         0.00000E+00
    0.00000E+00         0.00000E+00        -0.50384E+07
 
   -0.55073E+07         0.57201E+06         0.00000E+00
    0.57201E+06        -0.27456E+08         0.00000E+00
    0.00000E+00         0.00000E+00        -0.51090E+07
 
   -0.54903E+07         0.63687E+06         0.00000E+00
    0.63687E+06        -0.27491E+08         0.00000E+00
    0.00000E+00         0.00000E+00        -0.51781E+07
 
   -0.54798E+07         0.70508E+06         0.00000E+00
    0.70508E+06        -0.27528E+08         0.00000E+00
    0.00000E+00         0.00000E+00        -0.52465E+07
 
   -0.54761E+07         0.77829E+06         0.00000E+00
    0.77829E+06        -0.27568E+08         0.00000E+00
    0.00000E+00         0.00000E+00        -0.53128E+07
 
   -0.54790E+07         0.85640E+06         0.00000E+00
    0.85640E+06        -0.27609E+08         0.00000E+00
    0.00000E+00         0.00000E+00        -0.53761E+07
 
   -0.54882E+07         0.93977E+06         0.00000E+00
    0.93977E+06        -0.27649E+08         0.00000E+00
    0.00000E+00         0.00000E+00        -0.54352E+07
 
   -0.55064E+07         0.10262E+07         0.00000E+00
    0.10262E+07        -0.27689E+08         0.00000E+00
    0.00000E+00         0.00000E+00        -0.54867E+07
 
   -0.55365E+07         0.11103E+07         0.00000E+00
    0.11103E+07        -0.27732E+08         0.00000E+00
    0.00000E+00         0.00000E+00        -0.55321E+07
 
   -0.10954E+08        -0.77903E+05         0.00000E+00
   -0.77903E+05        -0.28062E+08         0.00000E+00
    0.00000E+00         0.00000E+00        -0.23650E+07
 
   -0.10687E+08        -0.10195E+06         0.00000E+00
   -0.10195E+06        -0.28048E+08         0.00000E+00
    0.00000E+00         0.00000E+00        -0.24535E+07
 
   -0.10452E+08        -0.13107E+06         0.00000E+00
   -0.13107E+06        -0.28025E+08         0.00000E+00
    0.00000E+00         0.00000E+00        -0.25266E+07
 
   -0.10238E+08        -0.16650E+06         0.00000E+00
   -0.16650E+06        -0.28004E+08         0.00000E+00
    0.00000E+00         0.00000E+00        -0.25967E+07
 
   -0.10036E+08        -0.20316E+06         0.00000E+00
   -0.20316E+06        -0.27989E+08         0.00000E+00
    0.00000E+00         0.00000E+00        -0.26705E+07
 
   -0.98419E+07        -0.23864E+06         0.00000E+00
   -0.23864E+06        -0.27978E+08         0.00000E+00
    0.00000E+00         0.00000E+00        -0.27480E+07
 
   -0.96534E+07        -0.27131E+06         0.00000E+00
   -0.27131E+06        -0.27971E+08         0.00000E+00
    0.00000E+00         0.00000E+00        -0.28290E+07
 
   -0.94693E+07        -0.29992E+06         0.00000E+00
   -0.29992E+06        -0.27965E+08         0.00000E+00
    0.00000E+00         0.00000E+00        -0.29125E+07
 
   -0.92890E+07        -0.32340E+06         0.00000E+00
   -0.32340E+06        -0.27960E+08         0.00000E+00
    0.00000E+00         0.00000E+00        -0.29977E+07
 
   -0.91128E+07        -0.34087E+06         0.00000E+00
   -0.34087E+06        -0.27956E+08         0.00000E+00
    0.00000E+00         0.00000E+00        -0.30847E+07
 
   -0.89414E+07        -0.35257E+06         0.00000E+00
   -0.35257E+06        -0.27951E+08         0.00000E+00
    0.00000E+00         0.00000E+00        -0.31712E+07
 
   -0.87754E+07        -0.35893E+06         0.00000E+00
   -0.35893E+06        -0.27946E+08         0.00000E+00
    0.00000E+00         0.00000E+00        -0.32566E+07
 
   -0.86149E+07        -0.36032E+06         0.00000E+00
   -0.36032E+06        -0.27940E+08         0.00000E+00
    0.00000E+00         0.00000E+00        -0.33401E+07
 
   -0.84601E+07        -0.35722E+06         0.00000E+00
   -0.35722E+06        -0.27933E+08         0.00000E+00
    0.00000E+00         0.00000E+00        -0.34212E+07
 
   -0.83115E+07        -0.35027E+06         0.00000E+00
   -0.35027E+06        -0.27925E+08         0.00000E+00
    0.00000E+00         0.00000E+00        -0.34996E+07
 
   -0.81693E+07        -0.34012E+06         0.00000E+00
   -0.34012E+06        -0.27915E+08         0.00000E+00
    0.00000E+00         0.00000E+00        -0.35750E+07
 
   -0.80335E+07        -0.32734E+06         0.00000E+00
   -0.32734E+06        -0.27905E+08         0.00000E+00
    0.00000E+00         0.00000E+00        -0.36474E+07
 
   -0.79040E+07        -0.31239E+06         0.00000E+00
   -0.31239E+06        -0.27894E+08         0.00000E+00
    0.00000E+00         0.00000E+00        -0.37171E+07
 
   -0.77806E+07        -0.29569E+06         0.00000E+00
   -0.29569E+06        -0.27883E+08         0.00000E+00
    0.00000E+00         0.00000E+00        -0.37842E+07
 
   -0.76632E+07        -0.27756E+06         0.00000E+00
   -0.27756E+06        -0.27872E+08         0.00000E+00
    0.00000E+00         0.00000E+00        -0.38489E+07
 
   -0.75513E+07        -0.25822E+06         0.00000E+00
   -0.25822E+06        -0.27861E+08         0.00000E+00
    0.00000E+00         0.00000E+00        -0.39115E+07
 
   -0.74448E+07        -0.23789E+06         0.00000E+00
   -0.23789E+06        -0.27851E+08         0.00000E+00
    0.00000E+00         0.00000E+00        -0.39723E+07
 
   -0.73433E+07        -0.21673E+06         0.00000E+00
   -0.21673E+06        -0.27841E+08         0.00000E+00
    0.00000E+00         0.00000E+00        -0.40315E+07
 
   -0.72465E+07        -0.19490E+06         0.00000E+00
   -0.19490E+06        -0.27832E+08         0.00000E+00
    0.00000E+00         0.00000E+00        -0.40894E+07
 
   -0.71543E+07        -0.17252E+06         0.00000E+00
   -0.17252E+06        -0.27824E+08         0.00000E+00
    0.00000E+00         0.00000E+00        -0.41462E+07
 
   -0.70660E+07        -0.14949E+06         0.00000E+00
   -0.14949E+06        -0.27817E+08         0.00000E+00
    0.00000E+00         0.00000E+00        -0.42026E+07
 
   -0.69814E+07        -0.12582E+06         0.00000E+00
   -0.12582E+06        -0.27812E+08         0.00000E+00
    0.00000E+00         0.00000E+00        -0.42587E+07
 
   -0.69006E+07        -0.10150E+06         0.00000E+00
   -0.10150E+06        -0.27808E+08         0.00000E+00
    0.00000E+00         0.00000E+00        -0.43145E+07
 
   -0.68232E+07        -0.76489E+05         0.00000E+00
   -0.76489E+05        -0.27805E+08         0.00000E+00
    0.00000E+00         0.00000E+00        -0.43704E+07
 
   -0.67489E+07        -0.50775E+05         0.00000E+00
   -0.50775E+05        -0.27804E+08         0.00000E+00
    0.00000E+00         0.00000E+00        -0.44266E+07
 
   -0.66776E+07        -0.24346E+05         0.00000E+00
   -0.24346E+05        -0.27804E+08         0.00000E+00
    0.00000E+00         0.00000E+00        -0.44833E+07
 
   -0.66089E+07         0.29203E+04         0.00000E+00
    0.29203E+04        -0.27807E+08         0.00000E+00
    0.00000E+00         0.00000E+00        -0.45410E+07
 
   -0.65427E+07         0.31137E+05         0.00000E+00
    0.31137E+05        -0.27811E+08         0.00000E+00
    0.00000E+00         0.00000E+00        -0.45998E+07
 
   -0.64791E+07         0.60471E+05         0.00000E+00
    0.60471E+05        -0.27817E+08         0.00000E+00
    0.00000E+00         0.00000E+00        -0.46598E+07
 
   -0.64179E+07         0.91071E+05         0.00000E+00
    0.91071E+05        -0.27825E+08         0.00000E+00
    0.00000E+00         0.00000E+00        -0.47213E+07
 
   -0.63584E+07         0.12313E+06         0.00000E+00
    0.12313E+06        -0.27836E+08         0.00000E+00
    0.00000E+00         0.00000E+00        -0.47850E+07
 
   -0.63005E+07         0.15684E+06         0.00000E+00
    0.15684E+06        -0.27849E+08         0.00000E+00
    0.00000E+00         0.00000E+00        -0.48513E+07
 
   -0.62449E+07         0.19241E+06         0.00000E+00
    0.19241E+06        -0.27865E+08         0.00000E+00
    0.00000E+00         0.00000E+00        -0.49199E+07
 
   -0.61916E+07         0.23009E+06         0.00000E+00
    0.23009E+06        -0.27883E+08         0.00000E+00
    0.00000E+00         0.00000E+00        -0.49909E+07
 
   -0.61409E+07         0.27010E+06         0.00000E+00
    0.27010E+06        -0.27905E+08         0.00000E+00
    0.00000E+00         0.00000E+00        -0.50645E+07
 
   -0.60931E+07         0.31269E+06         0.00000E+00
    0.31269E+06        -0.27929E+08         0.00000E+00
    0.00000E+00         0.00000E+00        -0.51406E+07
 
   -0.60488E+07         0.35814E+06         0.00000E+00
    0.35814E+06        -0.27957E+08         0.00000E+00
    0.00000E+00         0.00000E+00        -0.52189E+07
 
   -0.60080E+07         0.40697E+06         0.00000E+00
    0.40697E+06        -0.27988E+08         0.00000E+00
    0.00000E+00         0.00000E+00        -0.52992E+07
 
   -0.59694E+07         0.45905E+06         0.00000E+00
    0.45905E+06        -0.28021E+08         0.00000E+00
    0.00000E+00         0.00000E+00        -0.53818E+07
 
   -0.59335E+07         0.51703E+06         0.00000E+00
    0.51703E+06        -0.28056E+08         0.00000E+00
    0.00000E+00         0.00000E+00        -0.54666E+07
 
   -0.59023E+07         0.58065E+06         0.00000E+00
    0.58065E+06        -0.28094E+08         0.00000E+00
    0.00000E+00         0.00000E+00        -0.55533E+07
 
   -0.58791E+07         0.65089E+06         0.00000E+00
    0.65089E+06        -0.28137E+08         0.00000E+00
    0.00000E+00         0.00000E+00        -0.56400E+07
 
   -0.58681E+07         0.72428E+06         0.00000E+00
    0.72428E+06        -0.28185E+08         0.00000E+00
    0.00000E+00         0.00000E+00        -0.57237E+07
 
   -0.58735E+07         0.80788E+06         0.00000E+00
    0.80788E+06        -0.28238E+08         0.00000E+00
    0.00000E+00         0.00000E+00        -0.58005E+07
 
   -0.58870E+07         0.89580E+06         0.00000E+00
    0.89580E+06        -0.28286E+08         0.00000E+00
    0.00000E+00         0.00000E+00        -0.58654E+07
 
   -0.11917E+08         0.72625E+05         0.00000E+00
    0.72625E+05        -0.28656E+08         0.00000E+00
    0.00000E+00         0.00000E+00        -0.25388E+07
 
   -0.11683E+08        -0.10363E+04         0.00000E+00
   -0.10363E+04        -0.28637E+08         0.00000E+00
    0.00000E+00         0.00000E+00        -0.26022E+07
 
   -0.11458E+08        -0.63559E+05         0.00000E+00
   -0.63559E+05        -0.28661E+08         0.00000E+00
    0.00000E+00         0.00000E+00        -0.27039E+07
 
   -0.11245E+08        -0.11694E+06         0.00000E+00
   -0.11694E+06        -0.28689E+08         0.00000E+00
    0.00000E+00         0.00000E+00        -0.28089E+07
 
   -0.11034E+08        -0.17129E+06         0.00000E+00
   -0.17129E+06        -0.28703E+08         0.00000E+00
    0.00000E+00         0.00000E+00        -0.29058E+07
 
   -0.10816E+08        -0.21930E+06         0.00000E+00
   -0.21930E+06        -0.28713E+08         0.00000E+00
    0.00000E+00         0.00000E+00        -0.30050E+07
 
   -0.10595E+08        -0.25580E+06         0.00000E+00
   -0.25580E+06        -0.28717E+08         0.00000E+00
    0.00000E+00         0.00000E+00        -0.31051E+07
 
   -0.10377E+08        -0.28089E+06         0.00000E+00
   -0.28089E+06        -0.28717E+08         0.00000E+00
    0.00000E+00         0.00000E+00        -0.32033E+07
 
   -0.10164E+08        -0.29694E+06         0.00000E+00
   -0.29694E+06        -0.28713E+08         0.00000E+00
    0.00000E+00         0.00000E+00        -0.32979E+07
 
   -0.99565E+07        -0.30683E+06         0.00000E+00
   -0.30683E+06        -0.28700E+08         0.00000E+00
    0.00000E+00         0.00000E+00        -0.33855E+07
 
   -0.97565E+07        -0.31026E+06         0.00000E+00
   -0.31026E+06        -0.28684E+08         0.00000E+00
    0.00000E+00         0.00000E+00        -0.34696E+07
 
   -0.95649E+07        -0.30747E+06         0.00000E+00
   -0.30747E+06        -0.28665E+08         0.00000E+00
    0.00000E+00         0.00000E+00        -0.35494E+07
 
   -0.93831E+07        -0.29998E+06         0.00000E+00
   -0.29998E+06        -0.28644E+08         0.00000E+00
    0.00000E+00         0.00000E+00        -0.36243E+07
 
   -0.92114E+07        -0.28936E+06         0.00000E+00
   -0.28936E+06        -0.28621E+08         0.00000E+00
    0.00000E+00         0.00000E+00        -0.36945E+07
 
   -0.90493E+07        -0.27670E+06         0.00000E+00
   -0.27670E+06        -0.28597E+08         0.00000E+00
    0.00000E+00         0.00000E+00        -0.37605E+07
 
   -0.88966E+07        -0.26273E+06         0.00000E+00
   -0.26273E+06        -0.28573E+08         0.00000E+00
    0.00000E+00         0.00000E+00        -0.38228E+07
 
   -0.87528E+07        -0.24790E+06         0.00000E+00
   -0.24790E+06        -0.28549E+08         0.00000E+00
    0.00000E+00         0.00000E+00        -0.38820E+07
 
   -0.86170E+07        -0.23251E+06         0.00000E+00
   -0.23251E+06        -0.28525E+08         0.00000E+00
    0.00000E+00         0.00000E+00        -0.39384E+07
 
   -0.84889E+07        -0.21679E+06         0.00000E+00
   -0.21679E+06        -0.28502E+08         0.00000E+00
    0.00000E+00         0.00000E+00        -0.39925E+07
 
   -0.83676E+07        -0.20089E+06         0.00000E+00
   -0.20089E+06        -0.28481E+08         0.00000E+00
    0.00000E+00         0.00000E+00        -0.40446E+07
 
   -0.82528E+07        -0.18491E+06         0.00000E+00
   -0.18491E+06        -0.28460E+08         0.00000E+00
    0.00000E+00         0.00000E+00        -0.40953E+07
 
   -0.81439E+07        -0.16889E+06         0.00000E+00
   -0.16889E+06        -0.28440E+08         0.00000E+00
    0.00000E+00         0.00000E+00        -0.41447E+07
 
   -0.80403E+07        -0.15284E+06         0.00000E+00
   -0.15284E+06        -0.28422E+08         0.00000E+00
    0.00000E+00         0.00000E+00        -0.41932E+07
 
   -0.79418E+07        -0.13676E+06         0.00000E+00
   -0.13676E+06        -0.28406E+08         0.00000E+00
    0.00000E+00         0.00000E+00        -0.42412E+07
 
   -0.78477E+07        -0.12061E+06         0.00000E+00
   -0.12061E+06        -0.28391E+08         0.00000E+00
    0.00000E+00         0.00000E+00        -0.42888E+07
 
   -0.77578E+07        -0.10442E+06         0.00000E+00
   -0.10442E+06        -0.28378E+08         0.00000E+00
    0.00000E+00         0.00000E+00        -0.43364E+07
 
   -0.76716E+07        -0.88170E+05         0.00000E+00
   -0.88170E+05        -0.28367E+08         0.00000E+00
    0.00000E+00         0.00000E+00        -0.43841E+07
 
   -0.75888E+07        -0.71818E+05         0.00000E+00
   -0.71818E+05        -0.28357E+08         0.00000E+00
    0.00000E+00         0.00000E+00        -0.44322E+07
 
   -0.75094E+07        -0.55306E+05         0.00000E+00
   -0.55306E+05        -0.28350E+08         0.00000E+00
    0.00000E+00         0.00000E+00        -0.44808E+07
 
   -0.74326E+07        -0.38566E+05         0.00000E+00
   -0.38566E+05        -0.28344E+08         0.00000E+00
    0.00000E+00         0.00000E+00        -0.45306E+07
 
   -0.73584E+07        -0.21499E+05         0.00000E+00
   -0.21499E+05        -0.28340E+08         0.00000E+00
    0.00000E+00         0.00000E+00        -0.45815E+07
 
   -0.72866E+07        -0.40817E+04         0.00000E+00
   -0.40817E+04        -0.28339E+08         0.00000E+00
    0.00000E+00         0.00000E+00        -0.46337E+07
 
   -0.72169E+07         0.13745E+05         0.00000E+00
    0.13745E+05        -0.28339E+08         0.00000E+00
    0.00000E+00         0.00000E+00        -0.46877E+07
 
   -0.71489E+07         0.32089E+05         0.00000E+00
    0.32089E+05        -0.28342E+08         0.00000E+00
    0.00000E+00         0.00000E+00        -0.47437E+07
 
   -0.70825E+07         0.51009E+05         0.00000E+00
    0.51009E+05        -0.28347E+08         0.00000E+00
    0.00000E+00         0.00000E+00        -0.48020E+07
 
   -0.70173E+07         0.70538E+05         0.00000E+00
    0.70538E+05        -0.28355E+08         0.00000E+00
    0.00000E+00         0.00000E+00        -0.48632E+07
 
   -0.69528E+07         0.90804E+05         0.00000E+00
    0.90804E+05        -0.28365E+08         0.00000E+00
    0.00000E+00         0.00000E+00        -0.49277E+07
 
   -0.68890E+07         0.11213E+06         0.00000E+00
    0.11213E+06        -0.28378E+08         0.00000E+00
    0.00000E+00         0.00000E+00        -0.49956E+07
 
   -0.68263E+07         0.13470E+06         0.00000E+00
    0.13470E+06        -0.28394E+08         0.00000E+00
    0.00000E+00         0.00000E+00        -0.50672E+07
 
   -0.67645E+07         0.15881E+06         0.00000E+00
    0.15881E+06        -0.28413E+08         0.00000E+00
    0.00000E+00         0.00000E+00        -0.51427E+07
 
   -0.67037E+07         0.18489E+06         0.00000E+00
    0.18489E+06        -0.28435E+08         0.00000E+00
    0.00000E+00         0.00000E+00        -0.52224E+07
 
   -0.66440E+07         0.21345E+06         0.00000E+00
    0.21345E+06        -0.28461E+08         0.00000E+00
    0.00000E+00         0.00000E+00        -0.53066E+07
 
   -0.65856E+07         0.24574E+06         0.00000E+00
    0.24574E+06        -0.28490E+08         0.00000E+00
    0.00000E+00         0.00000E+00        -0.53955E+07
 
   -0.65274E+07         0.28207E+06         0.00000E+00
    0.28207E+06        -0.28524E+08         0.00000E+00
    0.00000E+00         0.00000E+00        -0.54910E+07
 
   -0.64653E+07         0.32137E+06         0.00000E+00
    0.32137E+06        -0.28561E+08         0.00000E+00
    0.00000E+00         0.00000E+00        -0.55967E+07
 
   -0.64030E+07         0.36459E+06         0.00000E+00
    0.36459E+06        -0.28602E+08         0.00000E+00
    0.00000E+00         0.00000E+00        -0.57087E+07
 
   -0.63420E+07         0.41499E+06         0.00000E+00
    0.41499E+06        -0.28646E+08         0.00000E+00
    0.00000E+00         0.00000E+00        -0.58266E+07
 
   -0.62874E+07         0.47785E+06         0.00000E+00
    0.47785E+06        -0.28695E+08         0.00000E+00
    0.00000E+00         0.00000E+00        -0.59468E+07
 
   -0.62433E+07         0.54640E+06         0.00000E+00
    0.54640E+06        -0.28750E+08         0.00000E+00
    0.00000E+00         0.00000E+00        -0.60682E+07
 
   -0.62349E+07         0.63568E+06         0.00000E+00
    0.63568E+06        -0.28826E+08         0.00000E+00
    0.00000E+00         0.00000E+00        -0.61865E+07
 
   -0.12564E+08         0.22329E+05         0.00000E+00
    0.22329E+05        -0.29765E+08         0.00000E+00
    0.00000E+00         0.00000E+00        -0.51492E+07
 
   -0.12533E+08         0.37690E+05         0.00000E+00
    0.37690E+05        -0.29777E+08         0.00000E+00
    0.00000E+00         0.00000E+00        -0.40788E+07
 
   -0.12405E+08         0.71200E+04         0.00000E+00
    0.71200E+04        -0.29745E+08         0.00000E+00
    0.00000E+00         0.00000E+00        -0.34214E+07
 
   -0.12285E+08        -0.45535E+05         0.00000E+00
   -0.45535E+05        -0.29700E+08         0.00000E+00
    0.00000E+00         0.00000E+00        -0.33171E+07
 
   -0.12077E+08        -0.92395E+05         0.00000E+00
   -0.92395E+05        -0.29657E+08         0.00000E+00
    0.00000E+00         0.00000E+00        -0.33561E+07
 
   -0.11806E+08        -0.12470E+06         0.00000E+00
   -0.12470E+06        -0.29609E+08         0.00000E+00
    0.00000E+00         0.00000E+00        -0.34165E+07
 
   -0.11520E+08        -0.14289E+06         0.00000E+00
   -0.14289E+06        -0.29556E+08         0.00000E+00
    0.00000E+00         0.00000E+00        -0.34830E+07
 
   -0.11254E+08        -0.15179E+06         0.00000E+00
   -0.15179E+06        -0.29500E+08         0.00000E+00
    0.00000E+00         0.00000E+00        -0.35432E+07
 
   -0.11008E+08        -0.15524E+06         0.00000E+00
   -0.15524E+06        -0.29443E+08         0.00000E+00
    0.00000E+00         0.00000E+00        -0.35974E+07
 
   -0.10770E+08        -0.15399E+06         0.00000E+00
   -0.15399E+06        -0.29390E+08         0.00000E+00
    0.00000E+00         0.00000E+00        -0.36544E+07
 
   -0.10541E+08        -0.14745E+06         0.00000E+00
   -0.14745E+06        -0.29337E+08         0.00000E+00
    0.00000E+00         0.00000E+00        -0.37112E+07
 
   -0.10328E+08        -0.13858E+06         0.00000E+00
   -0.13858E+06        -0.29286E+08         0.00000E+00
    0.00000E+00         0.00000E+00        -0.37651E+07
 
   -0.10133E+08        -0.12947E+06         0.00000E+00
   -0.12947E+06        -0.29238E+08         0.00000E+00
    0.00000E+00         0.00000E+00        -0.38147E+07
 
   -0.99543E+07        -0.12064E+06         0.00000E+00
   -0.12064E+06        -0.29192E+08         0.00000E+00
    0.00000E+00         0.00000E+00        -0.38610E+07
 
   -0.97878E+07        -0.11220E+06         0.00000E+00
   -0.11220E+06        -0.29149E+08         0.00000E+00
    0.00000E+00         0.00000E+00        -0.39056E+07
 
   -0.96329E+07        -0.10406E+06         0.00000E+00
   -0.10406E+06        -0.29108E+08         0.00000E+00
    0.00000E+00         0.00000E+00        -0.39485E+07
 
   -0.94878E+07        -0.96212E+05         0.00000E+00
   -0.96212E+05        -0.29071E+08         0.00000E+00
    0.00000E+00         0.00000E+00        -0.39903E+07
 
   -0.93517E+07        -0.88717E+05         0.00000E+00
   -0.88717E+05        -0.29036E+08         0.00000E+00
    0.00000E+00         0.00000E+00        -0.40311E+07
 
   -0.92237E+07        -0.81565E+05         0.00000E+00
   -0.81565E+05        -0.29003E+08         0.00000E+00
    0.00000E+00         0.00000E+00        -0.40713E+07
 
   -0.91028E+07        -0.74693E+05         0.00000E+00
   -0.74693E+05        -0.28974E+08         0.00000E+00
    0.00000E+00         0.00000E+00        -0.41111E+07
 
   -0.89885E+07        -0.68053E+05         0.00000E+00
   -0.68053E+05        -0.28946E+08         0.00000E+00
    0.00000E+00         0.00000E+00        -0.41507E+07
 
   -0.88801E+07        -0.61611E+05         0.00000E+00
   -0.61611E+05        -0.28922E+08         0.00000E+00
    0.00000E+00         0.00000E+00        -0.41902E+07
 
   -0.87770E+07        -0.55324E+05         0.00000E+00
   -0.55324E+05        -0.28899E+08         0.00000E+00
    0.00000E+00         0.00000E+00        -0.42299E+07
 
   -0.86788E+07        -0.49157E+05         0.00000E+00
   -0.49157E+05        -0.28879E+08         0.00000E+00
    0.00000E+00         0.00000E+00        -0.42700E+07
 
   -0.85849E+07        -0.43078E+05         0.00000E+00
   -0.43078E+05        -0.28862E+08         0.00000E+00
    0.00000E+00         0.00000E+00        -0.43106E+07
 
   -0.84952E+07        -0.37064E+05         0.00000E+00
   -0.37064E+05        -0.28846E+08         0.00000E+00
    0.00000E+00         0.00000E+00        -0.43519E+07
 
   -0.84090E+07        -0.31101E+05         0.00000E+00
   -0.31101E+05        -0.28833E+08         0.00000E+00
    0.00000E+00         0.00000E+00        -0.43940E+07
 
   -0.83262E+07        -0.25174E+05         0.00000E+00
   -0.25174E+05        -0.28823E+08         0.00000E+00
    0.00000E+00         0.00000E+00        -0.44372E+07
 
   -0.82464E+07        -0.19250E+05         0.00000E+00
   -0.19250E+05        -0.28814E+08         0.00000E+00
    0.00000E+00         0.00000E+00        -0.44817E+07
 
   -0.81691E+07        -0.13317E+05         0.00000E+00
   -0.13317E+05        -0.28808E+08         0.00000E+00
    0.00000E+00         0.00000E+00        -0.45277E+07
 
   -0.80940E+07        -0.73582E+04         0.00000E+00
   -0.73582E+04        -0.28805E+08         0.00000E+00
    0.00000E+00         0.00000E+00        -0.45754E+07
 
   -0.80211E+07        -0.13210E+04         0.00000E+00
   -0.13210E+04        -0.28804E+08         0.00000E+00
    0.00000E+00         0.00000E+00        -0.46249E+07
 
   -0.79500E+07         0.47974E+04         0.00000E+00
    0.47974E+04        -0.28805E+08         0.00000E+00
    0.00000E+00         0.00000E+00        -0.46766E+07
 
   -0.78805E+07         0.11000E+05         0.00000E+00
    0.11000E+05        -0.28809E+08         0.00000E+00
    0.00000E+00         0.00000E+00        -0.47306E+07
 
   -0.78123E+07         0.17388E+05         0.00000E+00
    0.17388E+05        -0.28815E+08         0.00000E+00
    0.00000E+00         0.00000E+00        -0.47873E+07
 
   -0.77450E+07         0.23999E+05         0.00000E+00
    0.23999E+05        -0.28824E+08         0.00000E+00
    0.00000E+00         0.00000E+00        -0.48471E+07
 
   -0.76778E+07         0.30812E+05         0.00000E+00
    0.30812E+05        -0.28835E+08         0.00000E+00
    0.00000E+00         0.00000E+00        -0.49106E+07
 
   -0.76105E+07         0.37802E+05         0.00000E+00
    0.37802E+05        -0.28850E+08         0.00000E+00
    0.00000E+00         0.00000E+00        -0.49783E+07
 
   -0.75428E+07         0.45178E+05         0.00000E+00
    0.45178E+05        -0.28867E+08         0.00000E+00
    0.00000E+00         0.00000E+00        -0.50506E+07
 
   -0.74744E+07         0.53086E+05         0.00000E+00
    0.53086E+05        -0.28888E+08         0.00000E+00
    0.00000E+00         0.00000E+00        -0.51280E+07
 
   -0.74053E+07         0.61670E+05         0.00000E+00
    0.61670E+05        -0.28912E+08         0.00000E+00
    0.00000E+00         0.00000E+00        -0.52110E+07
 
   -0.73348E+07         0.71148E+05         0.00000E+00
    0.71148E+05        -0.28939E+08         0.00000E+00
    0.00000E+00         0.00000E+00        -0.53005E+07
 
   -0.72624E+07         0.81526E+05         0.00000E+00
    0.81526E+05        -0.28971E+08         0.00000E+00
    0.00000E+00         0.00000E+00        -0.53975E+07
 
   -0.71879E+07         0.93504E+05         0.00000E+00
    0.93504E+05        -0.29007E+08         0.00000E+00
    0.00000E+00         0.00000E+00        -0.55031E+07
 
   -0.71109E+07         0.10810E+06         0.00000E+00
    0.10810E+06        -0.29048E+08         0.00000E+00
    0.00000E+00         0.00000E+00        -0.56188E+07
 
   -0.70273E+07         0.12625E+06         0.00000E+00
    0.12625E+06        -0.29095E+08         0.00000E+00
    0.00000E+00         0.00000E+00        -0.57497E+07
 
   -0.69233E+07         0.14821E+06         0.00000E+00
    0.14821E+06        -0.29148E+08         0.00000E+00
    0.00000E+00         0.00000E+00        -0.59095E+07
 
   -0.68151E+07         0.17647E+06         0.00000E+00
    0.17647E+06        -0.29208E+08         0.00000E+00
    0.00000E+00         0.00000E+00        -0.60856E+07
 
   -0.67040E+07         0.21736E+06         0.00000E+00
    0.21736E+06        -0.29275E+08         0.00000E+00
    0.00000E+00         0.00000E+00        -0.62771E+07
 
   -0.65900E+07         0.26292E+06         0.00000E+00
    0.26292E+06        -0.29340E+08         0.00000E+00
    0.00000E+00         0.00000E+00        -0.64758E+07
 
TENSORS stresstot double 
   -0.49182E+08        -0.67769E+04         0.00000E+00
   -0.67769E+04        -0.50001E+08         0.00000E+00
    0.00000E+00         0.00000E+00        -0.49977E+08
 
   -0.49210E+08        -0.82010E+04         0.00000E+00
   -0.82010E+04        -0.50003E+08         0.00000E+00
    0.00000E+00         0.00000E+00        -0.49977E+08
 
   -0.49236E+08        -0.87707E+04         0.00000E+00
   -0.87707E+04        -0.50005E+08         0.00000E+00
    0.00000E+00         0.00000E+00        -0.49977E+08
 
   -0.49258E+08        -0.88619E+04         0.00000E+00
   -0.88619E+04        -0.50008E+08         0.00000E+00
    0.00000E+00         0.00000E+00        -0.49977E+08
 
   -0.49279E+08        -0.86757E+04         0.00000E+00
   -0.86757E+04        -0.50011E+08         0.00000E+00
    0.00000E+00         0.00000E+00        -0.49977E+08
 
   -0.49298E+08        -0.83231E+04         0.00000E+00
   -0.83231E+04        -0.50014E+08         0.00000E+00
    0.00000E+00         0.00000E+00        -0.49977E+08
 
   -0.49315E+08        -0.78676E+04         0.00000E+00
   -0.78676E+04        -0.50017E+08         0.00000E+00
    0.00000E+00         0.00000E+00        -0.49977E+08
 
   -0.49332E+08        -0.73466E+04         0.00000E+00
   -0.73466E+04        -0.50020E+08         0.00000E+00
    0.00000E+00         0.00000E+00        -0.49977E+08
 
   -0.49347E+08        -0.67831E+04         0.00000E+00
   -0.67831E+04        -0.50022E+08         0.00000E+00
    0.00000E+00         0.00000E+00        -0.49977E+08
 
   -0.49362E+08        -0.61915E+04         0.00000E+00
   -0.61915E+04        -0.50025E+08         0.00000E+00
    0.00000E+00         0.00000E+00        -0.49977E+08
 
   -0.49377E+08        -0.55812E+04         0.00000E+00
   -0.55812E+04        -0.50027E+08         0.00000E+00
    0.00000E+00         0.00000E+00        -0.49977E+08
 
   -0.49390E+08        -0.49584E+04         0.00000E+00
   -0.49584E+04        -0.50029E+08         0.00000E+00
    0.00000E+00         0.00000E+00        -0.49977E+08
 
   -0.49404E+08        -0.43274E+04         0.00000E+00
   -0.43274E+04        -0.50030E+08         0.00000E+00
    0.00000E+00         0.00000E+00        -0.49977E+08
 
   -0.49417E+08        -0.36910E+04         0.00000E+00
   -0.36910E+04        -0.50032E+08         0.00000E+00
    0.00000E+00         0.00000E+00        -0.49977E+08
 
   -0.49430E+08        -0.30513E+04         0.00000E+00
   -0.30513E+04        -0.50033E+08         0.00000E+00
    0.00000E+00         0.00000E+00        -0.49977E+08
 
   -0.49443E+08        -0.24094E+04         0.00000E+00
   -0.24094E+04        -0.50034E+08         0.00000E+00
    0.00000E+00         0.00000E+00        -0.49978E+08
 
   -0.49455E+08        -0.17662E+04         0.00000E+00
   -0.17662E+04        -0.50035E+08         0.00000E+00
    0.00000E+00         0.00000E+00        -0.49978E+08
 
   -0.49468E+08        -0.11222E+04         0.00000E+00
   -0.11222E+04        -0.50035E+08         0.00000E+00
    0.00000E+00         0.00000E+00        -0.49978E+08
 
   -0.49480E+08        -0.47765E+03         0.00000E+00
   -0.47765E+03        -0.50036E+08         0.00000E+00
    0.00000E+00         0.00000E+00        -0.49978E+08
 
   -0.49492E+08         0.16756E+03         0.00000E+00
    0.16756E+03        -0.50036E+08         0.00000E+00
    0.00000E+00         0.00000E+00        -0.49978E+08
 
   -0.49505E+08         0.81359E+03         0.00000E+00
    0.81359E+03        -0.50036E+08         0.00000E+00
    0.00000E+00         0.00000E+00        -0.49978E+08
 
   -0.49517E+08         0.14608E+04         0.00000E+00
    0.14608E+04        -0.50035E+08         0.00000E+00
    0.00000E+00         0.00000E+00        -0.49978E+08
 
   -0.49529E+08         0.21097E+04         0.00000E+00
    0.21097E+04        -0.50034E+08         0.00000E+00
    0.00000E+00         0.00000E+00        -0.49978E+08
 
   -0.49541E+08         0.27608E+04         0.00000E+00
    0.27608E+04        -0.50033E+08         0.00000E+00
    0.00000E+00         0.00000E+00        -0.49978E+08
 
   -0.49554E+08         0.34149E+04         0.00000E+00
    0.34149E+04        -0.50032E+08         0.00000E+00
    0.00000E+00         0.00000E+00        -0.49978E+08
 
   -0.49566E+08         0.40730E+04         0.00000E+00
    0.40730E+04        -0.50030E+08         0.00000E+00
    0.00000E+00         0.00000E+00        -0.49978E+08
 
   -0.49579E+08         0.47360E+04         0.00000E+00
    0.47360E+04        -0.50029E+08         0.00000E+00
    0.00000E+00         0.00000E+00        -0.49978E+08
 
   -0.49591E+08         0.54051E+04         0.00000E+00
    0.54051E+04        -0.50027E+08         0.00000E+00
    0.00000E+00         0.00000E+00        -0.49978E+08
 
   -0.49604E+08         0.60817E+04         0.00000E+00
    0.60817E+04        -0.50024E+08         0.00000E+00
    0.00000E+00         0.00000E+00        -0.49978E+08
 
   -0.49617E+08         0.67673E+04         0.00000E+00
    0.67673E+04        -0.50022E+08         0.00000E+00
    0.00000E+00         0.00000E+00        -0.49978E+08
 
   -0.49630E+08         0.74637E+04         0.00000E+00
    0.74637E+04        -0.50019E+08         0.00000E+00
    0.00000E+00         0.00000E+00        -0.49978E+08
 
   -0.49644E+08         0.81731E+04         0.00000E+00
    0.81731E+04        -0.50016E+08         0.00000E+00
    0.00000E+00         0.00000E+00        -0.49978E+08
 
   -0.49657E+08         0.88978E+04         0.00000E+00
    0.88978E+04        -0.50012E+08         0.00000E+00
    0.00000E+00         0.00000E+00        -0.49978E+08
 
   -0.49671E+08         0.96408E+04         0.00000E+00
    0.96408E+04        -0.50009E+08         0.00000E+00
    0.00000E+00         0.00000E+00        -0.49978E+08
 
   -0.49685E+08         0.10405E+05         0.00000E+00
    0.10405E+05        -0.50005E+08         0.00000E+00
    0.00000E+00         0.00000E+00        -0.49978E+08
 
   -0.49700E+08         0.11196E+05         0.00000E+00
    0.11196E+05        -0.50000E+08         0.00000E+00
    0.00000E+00         0.00000E+00        -0.49978E+08
 
   -0.49715E+08         0.12017E+05         0.00000E+00
    0.12017E+05        -0.49996E+08         0.00000E+00
    0.00000E+00         0.00000E+00        -0.49978E+08
 
   -0.49730E+08         0.12874E+05         0.00000E+00
    0.12874E+05        -0.49991E+08         0.00000E+00
    0.00000E+00         0.00000E+00        -0.49978E+08
 
   -0.49745E+08         0.13776E+05         0.00000E+00
    0.13776E+05        -0.49985E+08         0.00000E+00
    0.00000E+00         0.00000E+00        -0.49978E+08
 
   -0.49761E+08         0.14732E+05         0.00000E+00
    0.14732E+05        -0.49980E+08         0.00000E+00
    0.00000E+00         0.00000E+00        -0.49978E+08
 
   -0.49778E+08         0.15753E+05         0.00000E+00
    0.15753E+05        -0.49974E+08         0.00000E+00
    0.00000E+00         0.00000E+00        -0.49978E+08
 
   -0.49795E+08         0.16856E+05         0.00000E+00
    0.16856E+05        -0.49967E+08         0.00000E+00
    0.00000E+00         0.00000E+00        -0.49978E+08
 
   -0.49812E+08         0.18061E+05         0.00000E+00
    0.18061E+05        -0.49960E+08         0.00000E+00
    0.00000E+00         0.00000E+00        -0.49978E+08
 
   -0.49830E+08         0.19396E+05         0.00000E+00
    0.19396E+05        -0.49953E+08         0.00000E+00
    0.00000E+00         0.00000E+00        -0.49978E+08
 
   -0.49850E+08         0.20903E+05         0.00000E+00
    0.20903E+05        -0.49945E+08         0.00000E+00
    0.00000E+00         0.00000E+00        -0.49978E+08
 
   -0.49870E+08         0.22637E+05         0.00000E+00
    0.22637E+05        -0.49936E+08         0.00000E+00
    0.00000E+00         0.00000E+00        -0.49978E+08
 
   -0.49891E+08         0.24683E+05         0.00000E+00
    0.24683E+05        -0.49927E+08         0.00000E+00
    0.00000E+00         0.00000E+00        -0.49978E+08
 
   -0.49913E+08         0.27174E+05         0.00000E+00
    0.27174E+05        -0.49916E+08         0.00000E+00
    0.00000E+00         0.00000E+00        -0.49978E+08
 
   -0.49938E+08         0.30320E+05         0.00000E+00
    0.30320E+05        -0.49905E+08         0.00000E+00
    0.00000E+00         0.00000E+00        -0.49979E+08
 
   -0.49965E+08         0.34476E+05         0.00000E+00
    0.34476E+05        -0.49893E+08         0.00000E+00
    0.00000E+00         0.00000E+00        -0.49979E+08
 
   -0.49209E+08        -0.48065E+04         0.00000E+00
   -0.48065E+04        -0.50000E+08         0.00000E+00
    0.00000E+00         0.00000E+00        -0.49932E+08
 
   -0.49227E+08        -0.10104E+05         0.00000E+00
   -0.10104E+05        -0.49999E+08         0.00000E+00
    0.00000E+00         0.00000E+00        -0.49932E+08
 
   -0.49246E+08        -0.13528E+05         0.00000E+00
   -0.13528E+05        -0.49998E+08         0.00000E+00
    0.00000E+00         0.00000E+00        -0.49932E+08
 
   -0.49263E+08        -0.15588E+05         0.00000E+00
   -0.15588E+05        -0.49998E+08         0.00000E+00
    0.00000E+00         0.00000E+00        -0.49932E+08
 
   -0.49281E+08        -0.16656E+05         0.00000E+00
   -0.16656E+05        -0.49999E+08         0.00000E+00
    0.00000E+00         0.00000E+00        -0.49932E+08
 
   -0.49297E+08        -0.16999E+05         0.00000E+00
   -0.16999E+05        -0.49999E+08         0.00000E+00
    0.00000E+00         0.00000E+00        -0.49932E+08
 
   -0.49313E+08        -0.16810E+05         0.00000E+00
   -0.16810E+05        -0.50000E+08         0.00000E+00
    0.00000E+00         0.00000E+00        -0.49932E+08
 
   -0.49329E+08        -0.16226E+05         0.00000E+00
   -0.16226E+05        -0.50001E+08         0.00000E+00
    0.00000E+00         0.00000E+00        -0.49932E+08
 
   -0.49343E+08        -0.15350E+05         0.00000E+00
   -0.15350E+05        -0.50001E+08         0.00000E+00
    0.00000E+00         0.00000E+00        -0.49933E+08
 
   -0.49358E+08        -0.14252E+05         0.00000E+00
   -0.14252E+05        -0.50002E+08         0.00000E+00
    0.00000E+00         0.00000E+00        -0.49933E+08
 
   -0.49372E+08        -0.12987E+05         0.00000E+00
   -0.12987E+05        -0.50003E+08         0.00000E+00
    0.00000E+00         0.00000E+00        -0.49933E+08
 
   -0.49385E+08        -0.11594E+05         0.00000E+00
   -0.11594E+05        -0.50004E+08         0.00000E+00
    0.00000E+00         0.00000E+00        -0.49933E+08
 
   -0.49399E+08        -0.10104E+05         0.00000E+00
   -0.10104E+05        -0.50004E+08         0.00000E+00
    0.00000E+00         0.00000E+00        -0.49933E+08
 
   -0.49412E+08        -0.85373E+04         0.00000E+00
   -0.85373E+04        -0.50005E+08         0.00000E+00
    0.00000E+00         0.00000E+00        -0.49933E+08
 
   -0.49424E+08        -0.69114E+04         0.00000E+00
   -0.69114E+04        -0.50005E+08         0.00000E+00
    0.00000E+00         0.00000E+00        -0.49933E+08
 
   -0.49437E+08        -0.52386E+04         0.00000E+00
   -0.52386E+04        -0.50005E+08         0.00000E+00
    0.00000E+00         0.00000E+00        -0.49933E+08
 
   -0.49449E+08        -0.35282E+04         0.00000E+00
   -0.35282E+04        -0.50005E+08         0.00000E+00
    0.00000E+00         0.00000E+00        -0.49933E+08
 
   -0.49462E+08        -0.17871E+04         0.00000E+00
   -0.17871E+04        -0.50005E+08         0.00000E+00
    0.00000E+00         0.00000E+00        -0.49933E+08
 
   -0.49474E+08        -0.20496E+02         0.00000E+00
   -0.20496E+02        -0.50005E+08         0.00000E+00
    0.00000E+00         0.00000E+00        -0.49933E+08
 
   -0.49486E+08         0.17681E+04         0.00000E+00
    0.17681E+04        -0.50005E+08         0.00000E+00
    0.00000E+00         0.00000E+00        -0.49934E+08
 
   -0.49498E+08         0.35762E+04         0.00000E+00
    0.35762E+04        -0.50004E+08         0.00000E+00
    0.00000E+00         0.00000E+00        -0.49934E+08
 
   -0.49511E+08         0.54024E+04         0.00000E+00
    0.54024E+04        -0.50003E+08         0.00000E+00
    0.00000E+00         0.00000E+00        -0.49934E+08
 
   -0.49523E+08         0.72461E+04         0.00000E+00
    0.72461E+04        -0.50002E+08         0.00000E+00
    0.00000E+00         0.00000E+00        -0.49934E+08
 
   -0.49535E+08         0.91074E+04         0.00000E+00
    0.91074E+04        -0.50000E+08         0.00000E+00
    0.00000E+00         0.00000E+00        -0.49934E+08
 
   -0.49547E+08         0.10987E+05         0.00000E+00
    0.10987E+05        -0.49999E+08         0.00000E+00
    0.00000E+00         0.00000E+00        -0.49934E+08
 
   -0.49560E+08         0.12886E+05         0.00000E+00
    0.12886E+05        -0.49997E+08         0.00000E+00
    0.00000E+00         0.00000E+00        -0.49934E+08
 
   -0.49572E+08         0.14808E+05         0.00000E+00
    0.14808E+05        -0.49995E+08         0.00000E+00
    0.00000E+00         0.00000E+00        -0.49934E+08
 
   -0.49585E+08         0.16753E+05         0.00000E+00
    0.16753E+05        -0.49993E+08         0.00000E+00
    0.00000E+00         0.00000E+00        -0.49934E+08
 
   -0.49598E+08         0.18725E+05         0.00000E+00
    0.18725E+05        -0.49990E+08         0.00000E+00
    0.00000E+00         0.00000E+00        -0.49934E+08
 
   -0.49610E+08         0.20729E+05         0.00000E+00
    0.20729E+05        -0.49987E+08         0.00000E+00
    0.00000E+00         0.00000E+00        -0.49934E+08
 
   -0.49624E+08         0.22769E+05         0.00000E+00
    0.22769E+05        -0.49984E+08         0.00000E+00
    0.00000E+00         0.00000E+00        -0.49935E+08
 
   -0.49637E+08         0.24850E+05         0.00000E+00
    0.24850E+05        -0.49981E+08         0.00000E+00
    0.00000E+00         0.00000E+00        -0.49935E+08
 
   -0.49650E+08         0.26978E+05         0.00000E+00
    0.26978E+05        -0.49977E+08         0.00000E+00
    0.00000E+00         0.00000E+00        -0.49935E+08
 
   -0.49664E+08         0.29161E+05         0.00000E+00
    0.29161E+05        -0.49974E+08         0.00000E+00
    0.00000E+00         0.00000E+00        -0.49935E+08
 
   -0.49678E+08         0.31409E+05         0.00000E+00
    0.31409E+05        -0.49969E+08         0.00000E+00
    0.00000E+00         0.00000E+00        -0.49935E+08
 
   -0.49692E+08         0.33731E+05         0.00000E+00
    0.33731E+05        -0.49965E+08         0.00000E+00
    0.00000E+00         0.00000E+00        -0.49935E+08
 
   -0.49706E+08         0.36141E+05         0.00000E+00
    0.36141E+05        -0.49960E+08         0.00000E+00
    0.00000E+00         0.00000E+00        -0.49935E+08
 
   -0.49721E+08         0.38653E+05         0.00000E+00
    0.38653E+05        -0.49955E+08         0.00000E+00
    0.00000E+00         0.00000E+00        -0.49935E+08
 
   -0.49736E+08         0.41287E+05         0.00000E+00
    0.41287E+05        -0.49950E+08         0.00000E+00
    0.00000E+00         0.00000E+00        -0.49935E+08
 
   -0.49751E+08         0.44065E+05         0.00000E+00
    0.44065E+05        -0.49944E+08         0.00000E+00
    0.00000E+00         0.00000E+00        -0.49935E+08
 
   -0.49767E+08         0.47014E+05         0.00000E+00
    0.47014E+05        -0.49938E+08         0.00000E+00
    0.00000E+00         0.00000E+00        -0.49935E+08
 
   -0.49783E+08         0.50170E+05         0.00000E+00
    0.50170E+05        -0.49932E+08         0.00000E+00
    0.00000E+00         0.00000E+00        -0.49935E+08
 
   -0.49800E+08         0.53576E+05         0.00000E+00
    0.53576E+05        -0.49925E+08         0.00000E+00
    0.00000E+00         0.00000E+00        -0.49935E+08
 
   -0.49817E+08         0.57287E+05         0.00000E+00
    0.57287E+05        -0.49918E+08         0.00000E+00
    0.00000E+00         0.00000E+00        -0.49936E+08
 
   -0.49834E+08         0.61373E+05         0.00000E+00
    0.61373E+05        -0.49910E+08         0.00000E+00
    0.00000E+00         0.00000E+00        -0.49936E+08
 
   -0.49852E+08         0.65926E+05         0.00000E+00
    0.65926E+05        -0.49902E+08         0.00000E+00
    0.00000E+00         0.00000E+00        -0.49936E+08
 
   -0.49870E+08         0.71064E+05         0.00000E+00
    0.71064E+05        -0.49894E+08         0.00000E+00
    0.00000E+00         0.00000E+00        -0.49936E+08
 
   -0.49889E+08         0.76942E+05         0.00000E+00
    0.76942E+05        -0.49885E+08         0.00000E+00
    0.00000E+00         0.00000E+00        -0.49936E+08
 
   -0.49908E+08         0.83757E+05         0.00000E+00
    0.83757E+05        -0.49876E+08         0.00000E+00
    0.00000E+00         0.00000E+00        -0.49936E+08
 
   -0.49927E+08         0.91764E+05         0.00000E+00
    0.91764E+05        -0.49866E+08         0.00000E+00
    0.00000E+00         0.00000E+00        -0.49936E+08
 
   -0.49236E+08        -0.31474E+04         0.00000E+00
   -0.31474E+04        -0.50000E+08         0.00000E+00
    0.00000E+00         0.00000E+00        -0.49888E+08
 
   -0.49248E+08        -0.72667E+04         0.00000E+00
   -0.72667E+04        -0.50000E+08         0.00000E+00
    0.00000E+00         0.00000E+00        -0.49888E+08
 
   -0.49260E+08        -0.10611E+05         0.00000E+00
   -0.10611E+05        -0.49999E+08         0.00000E+00
    0.00000E+00         0.00000E+00        -0.49889E+08
 
   -0.49273E+08        -0.13119E+05         0.00000E+00
   -0.13119E+05        -0.49998E+08         0.00000E+00
    0.00000E+00         0.00000E+00        -0.49889E+08
 
   -0.49286E+08        -0.14826E+05         0.00000E+00
   -0.14826E+05        -0.49997E+08         0.00000E+00
    0.00000E+00         0.00000E+00        -0.49889E+08
 
   -0.49300E+08        -0.15814E+05         0.00000E+00
   -0.15814E+05        -0.49997E+08         0.00000E+00
    0.00000E+00         0.00000E+00        -0.49889E+08
 
   -0.49313E+08        -0.16174E+05         0.00000E+00
   -0.16174E+05        -0.49996E+08         0.00000E+00
    0.00000E+00         0.00000E+00        -0.49889E+08
 
   -0.49326E+08        -0.16000E+05         0.00000E+00
   -0.16000E+05        -0.49995E+08         0.00000E+00
    0.00000E+00         0.00000E+00        -0.49889E+08
 
   -0.49339E+08        -0.15373E+05         0.00000E+00
   -0.15373E+05        -0.49994E+08         0.00000E+00
    0.00000E+00         0.00000E+00        -0.49889E+08
 
   -0.49352E+08        -0.14369E+05         0.00000E+00
   -0.14369E+05        -0.49994E+08         0.00000E+00
    0.00000E+00         0.00000E+00        -0.49889E+08
 
   -0.49365E+08        -0.13049E+05         0.00000E+00
   -0.13049E+05        -0.49993E+08         0.00000E+00
    0.00000E+00         0.00000E+00        -0.49889E+08
 
   -0.49378E+08        -0.11466E+05         0.00000E+00
   -0.11466E+05        -0.49992E+08         0.00000E+00
    0.00000E+00         0.00000E+00        -0.49889E+08
 
   -0.49390E+08        -0.96630E+04         0.00000E+00
   -0.96630E+04        -0.49992E+08         0.00000E+00
    0.00000E+00         0.00000E+00        -0.49889E+08
 
   -0.49402E+08        -0.76766E+04         0.00000E+00
   -0.76766E+04        -0.49991E+08         0.00000E+00
    0.00000E+00         0.00000E+00        -0.49889E+08
 
   -0.49415E+08        -0.55362E+04         0.00000E+00
   -0.55362E+04        -0.49990E+08         0.00000E+00
    0.00000E+00         0.00000E+00        -0.49890E+08
 
   -0.49427E+08        -0.32659E+04         0.00000E+00
   -0.32659E+04        -0.49989E+08         0.00000E+00
    0.00000E+00         0.00000E+00        -0.49890E+08
 
   -0.49439E+08        -0.88531E+03         0.00000E+00
   -0.88531E+03        -0.49988E+08         0.00000E+00
    0.00000E+00         0.00000E+00        -0.49890E+08
 
   -0.49451E+08         0.15897E+04         0.00000E+00
    0.15897E+04        -0.49987E+08         0.00000E+00
    0.00000E+00         0.00000E+00        -0.49890E+08
 
   -0.49463E+08         0.41464E+04         0.00000E+00
    0.41464E+04        -0.49986E+08         0.00000E+00
    0.00000E+00         0.00000E+00        -0.49890E+08
 
   -0.49475E+08         0.67749E+04         0.00000E+00
    0.67749E+04        -0.49985E+08         0.00000E+00
    0.00000E+00         0.00000E+00        -0.49890E+08
 
   -0.49487E+08         0.94674E+04         0.00000E+00
    0.94674E+04        -0.49983E+08         0.00000E+00
    0.00000E+00         0.00000E+00        -0.49890E+08
 
   -0.49499E+08         0.12218E+05         0.00000E+00
    0.12218E+05        -0.49982E+08         0.00000E+00
    0.00000E+00         0.00000E+00        -0.49891E+08
 
   -0.49511E+08         0.15022E+05         0.00000E+00
    0.15022E+05        -0.49980E+08         0.00000E+00
    0.00000E+00         0.00000E+00        -0.49891E+08
 
   -0.49523E+08         0.17878E+05         0.00000E+00
    0.17878E+05        -0.49978E+08         0.00000E+00
    0.00000E+00         0.00000E+00        -0.49891E+08
 
   -0.49535E+08         0.20784E+05         0.00000E+00
    0.20784E+05        -0.49976E+08         0.00000E+00
    0.00000E+00         0.00000E+00        -0.49891E+08
 
   -0.49548E+08         0.23739E+05         0.00000E+00
    0.23739E+05        -0.49973E+08         0.00000E+00
    0.00000E+00         0.00000E+00        -0.49891E+08
 
   -0.49560E+08         0.26745E+05         0.00000E+00
    0.26745E+05        -0.49971E+08         0.00000E+00
    0.00000E+00         0.00000E+00        -0.49891E+08
 
   -0.49572E+08         0.29803E+05         0.00000E+00
    0.29803E+05        -0.49968E+08         0.00000E+00
    0.00000E+00         0.00000E+00        -0.49891E+08
 
   -0.49585E+08         0.32917E+05         0.00000E+00
    0.32917E+05        -0.49965E+08         0.00000E+00
    0.00000E+00         0.00000E+00        -0.49892E+08
 
   -0.49597E+08         0.36090E+05         0.00000E+00
    0.36090E+05        -0.49962E+08         0.00000E+00
    0.00000E+00         0.00000E+00        -0.49892E+08
 
   -0.49610E+08         0.39329E+05         0.00000E+00
    0.39329E+05        -0.49959E+08         0.00000E+00
    0.00000E+00         0.00000E+00        -0.49892E+08
 
   -0.49623E+08         0.42638E+05         0.00000E+00
    0.42638E+05        -0.49955E+08         0.00000E+00
    0.00000E+00         0.00000E+00        -0.49892E+08
 
   -0.49636E+08         0.46028E+05         0.00000E+00
    0.46028E+05        -0.49951E+08         0.00000E+00
    0.00000E+00         0.00000E+00        -0.49892E+08
 
   -0.49649E+08         0.49505E+05         0.00000E+00
    0.49505E+05        -0.49947E+08         0.00000E+00
    0.00000E+00         0.00000E+00        -0.49892E+08
 
   -0.49663E+08         0.53083E+05         0.00000E+00
    0.53083E+05        -0.49943E+08         0.00000E+00
    0.00000E+00         0.00000E+00        -0.49892E+08
 
   -0.49676E+08         0.56772E+05         0.00000E+00
    0.56772E+05        -0.49938E+08         0.00000E+00
    0.00000E+00         0.00000E+00        -0.49892E+08
 
   -0.49690E+08         0.60588E+05         0.00000E+00
    0.60588E+05        -0.49934E+08         0.00000E+00
    0.00000E+00         0.00000E+00        -0.49892E+08
 
   -0.49704E+08         0.64549E+05         0.00000E+00
    0.64549E+05        -0.49929E+08         0.00000E+00
    0.00000E+00         0.00000E+00        -0.49893E+08
 
   -0.49719E+08         0.68674E+05         0.00000E+00
    0.68674E+05        -0.49923E+08         0.00000E+00
    0.00000E+00         0.00000E+00        -0.49893E+08
 
   -0.49733E+08         0.72987E+05         0.00000E+00
    0.72987E+05        -0.49918E+08         0.00000E+00
    0.00000E+00         0.00000E+00        -0.49893E+08
 
   -0.49748E+08         0.77515E+05         0.00000E+00
    0.77515E+05        -0.49912E+08         0.00000E+00
    0.00000E+00         0.00000E+00        -0.49893E+08
 
   -0.49763E+08         0.82287E+05         0.00000E+00
    0.82287E+05        -0.49906E+08         0.00000E+00
    0.00000E+00         0.00000E+00        -0.49893E+08
 
   -0.49778E+08         0.87339E+05         0.00000E+00
    0.87339E+05        -0.49899E+08         0.00000E+00
    0.00000E+00         0.00000E+00        -0.49893E+08
 
   -0.49793E+08         0.92709E+05         0.00000E+00
    0.92709E+05        -0.49893E+08         0.00000E+00
    0.00000E+00         0.00000E+00        -0.49893E+08
 
   -0.49808E+08         0.98438E+05         0.00000E+00
    0.98438E+05        -0.49886E+08         0.00000E+00
    0.00000E+00         0.00000E+00        -0.49893E+08
 
   -0.49824E+08         0.10457E+06         0.00000E+00
    0.10457E+06        -0.49879E+08         0.00000E+00
    0.00000E+00         0.00000E+00        -0.49893E+08
 
   -0.49839E+08         0.11114E+06         0.00000E+00
    0.11114E+06        -0.49871E+08         0.00000E+00
    0.00000E+00         0.00000E+00        -0.49893E+08
 
   -0.49855E+08         0.11817E+06         0.00000E+00
    0.11817E+06        -0.49864E+08         0.00000E+00
    0.00000E+00         0.00000E+00        -0.49893E+08
 
   -0.49870E+08         0.12567E+06         0.00000E+00
    0.12567E+06        -0.49856E+08         0.00000E+00
    0.00000E+00         0.00000E+00        -0.49893E+08
 
   -0.49886E+08         0.13356E+06         0.00000E+00
    0.13356E+06        -0.49849E+08         0.00000E+00
    0.00000E+00         0.00000E+00        -0.49893E+08
 
   -0.49255E+08        -0.21645E+04         0.00000E+00
   -0.21645E+04        -0.50000E+08         0.00000E+00
    0.00000E+00         0.00000E+00        -0.49846E+08
 
   -0.49263E+08        -0.49512E+04         0.00000E+00
   -0.49512E+04        -0.50000E+08         0.00000E+00
    0.00000E+00         0.00000E+00        -0.49846E+08
 
   -0.49273E+08        -0.71762E+04         0.00000E+00
   -0.71762E+04        -0.49999E+08         0.00000E+00
    0.00000E+00         0.00000E+00        -0.49846E+08
 
   -0.49282E+08        -0.88667E+04         0.00000E+00
   -0.88667E+04        -0.49998E+08         0.00000E+00
    0.00000E+00         0.00000E+00        -0.49846E+08
 
   -0.49292E+08        -0.10034E+05         0.00000E+00
   -0.10034E+05        -0.49997E+08         0.00000E+00
    0.00000E+00         0.00000E+00        -0.49846E+08
 
   -0.49303E+08        -0.10693E+05         0.00000E+00
   -0.10693E+05        -0.49996E+08         0.00000E+00
    0.00000E+00         0.00000E+00        -0.49846E+08
 
   -0.49313E+08        -0.10867E+05         0.00000E+00
   -0.10867E+05        -0.49995E+08         0.00000E+00
    0.00000E+00         0.00000E+00        -0.49846E+08
 
   -0.49324E+08        -0.10588E+05         0.00000E+00
   -0.10588E+05        -0.49994E+08         0.00000E+00
    0.00000E+00         0.00000E+00        -0.49846E+08
 
   -0.49335E+08        -0.98910E+04         0.00000E+00
   -0.98910E+04        -0.49992E+08         0.00000E+00
    0.00000E+00         0.00000E+00        -0.49846E+08
 
   -0.49346E+08        -0.88141E+04         0.00000E+00
   -0.88141E+04        -0.49991E+08         0.00000E+00
    0.00000E+00         0.00000E+00        -0.49846E+08
 
   -0.49358E+08        -0.73948E+04         0.00000E+00
   -0.73948E+04        -0.49989E+08         0.00000E+00
    0.00000E+00         0.00000E+00        -0.49847E+08
 
   -0.49369E+08        -0.56690E+04         0.00000E+00
   -0.56690E+04        -0.49988E+08         0.00000E+00
    0.00000E+00         0.00000E+00        -0.49847E+08
 
   -0.49380E+08        -0.36703E+04         0.00000E+00
   -0.36703E+04        -0.49986E+08         0.00000E+00
    0.00000E+00         0.00000E+00        -0.49847E+08
 
   -0.49392E+08        -0.14292E+04         0.00000E+00
   -0.14292E+04        -0.49985E+08         0.00000E+00
    0.00000E+00         0.00000E+00        -0.49847E+08
 
   -0.49403E+08         0.10269E+04         0.00000E+00
    0.10269E+04        -0.49983E+08         0.00000E+00
    0.00000E+00         0.00000E+00        -0.49847E+08
 
   -0.49414E+08         0.36739E+04         0.00000E+00
    0.36739E+04        -0.49981E+08         0.00000E+00
    0.00000E+00         0.00000E+00        -0.49847E+08
 
   -0.49426E+08         0.64907E+04         0.00000E+00
    0.64907E+04        -0.49979E+08         0.00000E+00
    0.00000E+00         0.00000E+00        -0.49847E+08
 
   -0.49437E+08         0.94590E+04         0.00000E+00
    0.94590E+04        -0.49977E+08         0.00000E+00
    0.00000E+00         0.00000E+00        -0.49848E+08
 
   -0.49449E+08         0.12563E+05         0.00000E+00
    0.12563E+05        -0.49975E+08         0.00000E+00
    0.00000E+00         0.00000E+00        -0.49848E+08
 
   -0.49460E+08         0.15791E+05         0.00000E+00
    0.15791E+05        -0.49973E+08         0.00000E+00
    0.00000E+00         0.00000E+00        -0.49848E+08
 
   -0.49472E+08         0.19130E+05         0.00000E+00
    0.19130E+05        -0.49971E+08         0.00000E+00
    0.00000E+00         0.00000E+00        -0.49848E+08
 
   -0.49483E+08         0.22573E+05         0.00000E+00
    0.22573E+05        -0.49969E+08         0.00000E+00
    0.00000E+00         0.00000E+00        -0.49848E+08
 
   -0.49495E+08         0.26111E+05         0.00000E+00
    0.26111E+05        -0.49966E+08         0.00000E+00
    0.00000E+00         0.00000E+00        -0.49848E+08
 
   -0.49507E+08         0.29741E+05         0.00000E+00
    0.29741E+05        -0.49963E+08         0.00000E+00
    0.00000E+00         0.00000E+00        -0.49848E+08
 
   -0.49519E+08         0.33457E+05         0.00000E+00
    0.33457E+05        -0.49961E+08         0.00000E+00
    0.00000E+00         0.00000E+00        -0.49849E+08
 
   -0.49530E+08         0.37258E+05         0.00000E+00
    0.37258E+05        -0.49958E+08         0.00000E+00
    0.00000E+00         0.00000E+00        -0.49849E+08
 
   -0.49542E+08         0.41143E+05         0.00000E+00
    0.41143E+05        -0.49955E+08         0.00000E+00
    0.00000E+00         0.00000E+00        -0.49849E+08
 
   -0.49554E+08         0.45111E+05         0.00000E+00
    0.45111E+05        -0.49952E+08         0.00000E+00
    0.00000E+00         0.00000E+00        -0.49849E+08
 
   -0.49567E+08         0.49165E+05         0.00000E+00
    0.49165E+05        -0.49948E+08         0.00000E+00
    0.00000E+00         0.00000E+00        -0.49849E+08
 
   -0.49579E+08         0.53307E+05         0.00000E+00
    0.53307E+05        -0.49945E+08         0.00000E+00
    0.00000E+00         0.00000E+00        -0.49849E+08
 
   -0.49591E+08         0.57542E+05         0.00000E+00
    0.57542E+05        -0.49941E+08         0.00000E+00
    0.00000E+00         0.00000E+00        -0.49850E+08
 
   -0.49604E+08         0.61873E+05         0.00000E+00
    0.61873E+05        -0.49937E+08         0.00000E+00
    0.00000E+00         0.00000E+00        -0.49850E+08
 
   -0.49616E+08         0.66309E+05         0.00000E+00
    0.66309E+05        -0.49933E+08         0.00000E+00
    0.00000E+00         0.00000E+00        -0.49850E+08
 
   -0.49629E+08         0.70855E+05         0.00000E+00
    0.70855E+05        -0.49929E+08         0.00000E+00
    0.00000E+00         0.00000E+00        -0.49850E+08
 
   -0.49642E+08         0.75523E+05         0.00000E+00
    0.75523E+05        -0.49924E+08         0.00000E+00
    0.00000E+00         0.00000E+00        -0.49850E+08
 
   -0.49655E+08         0.80320E+05         0.00000E+00
    0.80320E+05        -0.49920E+08         0.00000E+00
    0.00000E+00         0.00000E+00        -0.49850E+08
 
   -0.49668E+08         0.85261E+05         0.00000E+00
    0.85261E+05        -0.49915E+08         0.00000E+00
    0.00000E+00         0.00000E+00        -0.49850E+08
 
   -0.49681E+08         0.90356E+05         0.00000E+00
    0.90356E+05        -0.49910E+08         0.00000E+00
    0.00000E+00         0.00000E+00        -0.49850E+08
 
   -0.49695E+08         0.95620E+05         0.00000E+00
    0.95620E+05        -0.49905E+08         0.00000E+00
    0.00000E+00         0.00000E+00        -0.49851E+08
 
   -0.49708E+08         0.10107E+06         0.00000E+00
    0.10107E+06        -0.49899E+08         0.00000E+00
    0.00000E+00         0.00000E+00        -0.49851E+08
 
   -0.49722E+08         0.10672E+06         0.00000E+00
    0.10672E+06        -0.49893E+08         0.00000E+00
    0.00000E+00         0.00000E+00        -0.49851E+08
 
   -0.49735E+08         0.11259E+06         0.00000E+00
    0.11259E+06        -0.49888E+08         0.00000E+00
    0.00000E+00         0.00000E+00        -0.49851E+08
 
   -0.49749E+08         0.11869E+06         0.00000E+00
    0.11869E+06        -0.49882E+08         0.00000E+00
    0.00000E+00         0.00000E+00        -0.49851E+08
 
   -0.49763E+08         0.12505E+06         0.00000E+00
    0.12505E+06        -0.49876E+08         0.00000E+00
    0.00000E+00         0.00000E+00        -0.49851E+08
 
   -0.49776E+08         0.13167E+06         0.00000E+00
    0.13167E+06        -0.49869E+08         0.00000E+00
    0.00000E+00         0.00000E+00        -0.49851E+08
 
   -0.49790E+08         0.13856E+06         0.00000E+00
    0.13856E+06        -0.49863E+08         0.00000E+00
    0.00000E+00         0.00000E+00        -0.49851E+08
 
   -0.49804E+08         0.14574E+06         0.00000E+00
    0.14574E+06        -0.49857E+08         0.00000E+00
    0.00000E+00         0.00000E+00        -0.49851E+08
 
   -0.49818E+08         0.15321E+06         0.00000E+00
    0.15321E+06        -0.49850E+08         0.00000E+00
    0.00000E+00         0.00000E+00        -0.49851E+08
 
   -0.49831E+08         0.16098E+06         0.00000E+00
    0.16098E+06        -0.49843E+08         0.00000E+00
    0.00000E+00         0.00000E+00        -0.49851E+08
 
   -0.49845E+08         0.16908E+06         0.00000E+00
    0.16908E+06        -0.49837E+08         0.00000E+00
    0.00000E+00         0.00000E+00        -0.49851E+08
 
   -0.49266E+08        -0.12367E+04         0.00000E+00
   -0.12367E+04        -0.50000E+08         0.00000E+00
    0.00000E+00         0.00000E+00        -0.49804E+08
 
   -0.49273E+08        -0.26603E+04         0.00000E+00
   -0.26603E+04        -0.50000E+08         0.00000E+00
    0.00000E+00         0.00000E+00        -0.49804E+08
 
   -0.49280E+08        -0.36926E+04         0.00000E+00
   -0.36926E+04        -0.49999E+08         0.00000E+00
    0.00000E+00         0.00000E+00        -0.49804E+08
 
   -0.49287E+08        -0.43311E+04         0.00000E+00
   -0.43311E+04        -0.49998E+08         0.00000E+00
    0.00000E+00         0.00000E+00        -0.49804E+08
 
   -0.49295E+08        -0.45830E+04         0.00000E+00
   -0.45830E+04        -0.49997E+08         0.00000E+00
    0.00000E+00         0.00000E+00        -0.49804E+08
 
   -0.49303E+08        -0.44579E+04         0.00000E+00
   -0.44579E+04        -0.49996E+08         0.00000E+00
    0.00000E+00         0.00000E+00        -0.49804E+08
 
   -0.49312E+08        -0.39670E+04         0.00000E+00
   -0.39670E+04        -0.49995E+08         0.00000E+00
    0.00000E+00         0.00000E+00        -0.49804E+08
 
   -0.49321E+08        -0.31234E+04         0.00000E+00
   -0.31234E+04        -0.49993E+08         0.00000E+00
    0.00000E+00         0.00000E+00        -0.49804E+08
 
   -0.49330E+08        -0.19424E+04         0.00000E+00
   -0.19424E+04        -0.49991E+08         0.00000E+00
    0.00000E+00         0.00000E+00        -0.49804E+08
 
   -0.49339E+08        -0.44097E+03         0.00000E+00
   -0.44097E+03        -0.49990E+08         0.00000E+00
    0.00000E+00         0.00000E+00        -0.49805E+08
 
   -0.49349E+08         0.13626E+04         0.00000E+00
    0.13626E+04        -0.49988E+08         0.00000E+00
    0.00000E+00         0.00000E+00        -0.49805E+08
 
   -0.49359E+08         0.34494E+04         0.00000E+00
    0.34494E+04        -0.49986E+08         0.00000E+00
    0.00000E+00         0.00000E+00        -0.49805E+08
 
   -0.49369E+08         0.57999E+04         0.00000E+00
    0.57999E+04        -0.49984E+08         0.00000E+00
    0.00000E+00         0.00000E+00        -0.49805E+08
 
   -0.49379E+08         0.83953E+04         0.00000E+00
    0.83953E+04        -0.49982E+08         0.00000E+00
    0.00000E+00         0.00000E+00        -0.49805E+08
 
   -0.49389E+08         0.11217E+05         0.00000E+00
    0.11217E+05        -0.49979E+08         0.00000E+00
    0.00000E+00         0.00000E+00        -0.49805E+08
 
   -0.49400E+08         0.14249E+05         0.00000E+00
    0.14249E+05        -0.49977E+08         0.00000E+00
    0.00000E+00         0.00000E+00        -0.49805E+08
 
   -0.49410E+08         0.17474E+05         0.00000E+00
    0.17474E+05        -0.49975E+08         0.00000E+00
    0.00000E+00         0.00000E+00        -0.49805E+08
 
   -0.49421E+08         0.20877E+05         0.00000E+00
    0.20877E+05        -0.49972E+08         0.00000E+00
    0.00000E+00         0.00000E+00        -0.49806E+08
 
   -0.49432E+08         0.24446E+05         0.00000E+00
    0.24446E+05        -0.49969E+08         0.00000E+00
    0.00000E+00         0.00000E+00        -0.49806E+08
 
   -0.49443E+08         0.28169E+05         0.00000E+00
    0.28169E+05        -0.49967E+08         0.00000E+00
    0.00000E+00         0.00000E+00        -0.49806E+08
 
   -0.49454E+08         0.32035E+05         0.00000E+00
    0.32035E+05        -0.49964E+08         0.00000E+00
    0.00000E+00         0.00000E+00        -0.49806E+08
 
   -0.49465E+08         0.36035E+05         0.00000E+00
    0.36035E+05        -0.49961E+08         0.00000E+00
    0.00000E+00         0.00000E+00        -0.49806E+08
 
   -0.49476E+08         0.40163E+05         0.00000E+00
    0.40163E+05        -0.49958E+08         0.00000E+00
    0.00000E+00         0.00000E+00        -0.49806E+08
 
   -0.49487E+08         0.44411E+05         0.00000E+00
    0.44411E+05        -0.49955E+08         0.00000E+00
    0.00000E+00         0.00000E+00        -0.49807E+08
 
   -0.49498E+08         0.48776E+05         0.00000E+00
    0.48776E+05        -0.49952E+08         0.00000E+00
    0.00000E+00         0.00000E+00        -0.49807E+08
 
   -0.49510E+08         0.53252E+05         0.00000E+00
    0.53252E+05        -0.49948E+08         0.00000E+00
    0.00000E+00         0.00000E+00        -0.49807E+08
 
   -0.49521E+08         0.57838E+05         0.00000E+00
    0.57838E+05        -0.49945E+08         0.00000E+00
    0.00000E+00         0.00000E+00        -0.49807E+08
 
   -0.49533E+08         0.62533E+05         0.00000E+00
    0.62533E+05        -0.49941E+08         0.00000E+00
    0.00000E+00         0.00000E+00        -0.49807E+08
 
   -0.49544E+08         0.67336E+05         0.00000E+00
    0.67336E+05        -0.49938E+08         0.00000E+00
    0.00000E+00         0.00000E+00        -0.49807E+08
 
   -0.49556E+08         0.72248E+05         0.00000E+00
    0.72248E+05        -0.49934E+08         0.00000E+00
    0.00000E+00         0.00000E+00        -0.49808E+08
 
   -0.49568E+08         0.77271E+05         0.00000E+00
    0.77271E+05        -0.49930E+08         0.00000E+00
    0.00000E+00         0.00000E+00        -0.49808E+08
 
   -0.49580E+08         0.82407E+05         0.00000E+00
    0.82407E+05        -0.49926E+08         0.00000E+00
    0.00000E+00         0.00000E+00        -0.49808E+08
 
   -0.49592E+08         0.87660E+05         0.00000E+00
    0.87660E+05        -0.49921E+08         0.00000E+00
    0.00000E+00         0.00000E+00        -0.49808E+08
 
   -0.49604E+08         0.93035E+05         0.00000E+00
    0.93035E+05        -0.49917E+08         0.00000E+00
    0.00000E+00         0.00000E+00        -0.49808E+08
 
   -0.49616E+08         0.98536E+05         0.00000E+00
    0.98536E+05        -0.49912E+08         0.00000E+00
    0.00000E+00         0.00000E+00        -0.49808E+08
 
   -0.49628E+08         0.10417E+06         0.00000E+00
    0.10417E+06        -0.49908E+08         0.00000E+00
    0.00000E+00         0.00000E+00        -0.49808E+08
 
   -0.49641E+08         0.10994E+06         0.00000E+00
    0.10994E+06        -0.49903E+08         0.00000E+00
    0.00000E+00         0.00000E+00        -0.49809E+08
 
   -0.49653E+08         0.11586E+06         0.00000E+00
    0.11586E+06        -0.49898E+08         0.00000E+00
    0.00000E+00         0.00000E+00        -0.49809E+08
 
   -0.49666E+08         0.12193E+06         0.00000E+00
    0.12193E+06        -0.49893E+08         0.00000E+00
    0.00000E+00         0.00000E+00        -0.49809E+08
 
   -0.49678E+08         0.12817E+06         0.00000E+00
    0.12817E+06        -0.49887E+08         0.00000E+00
    0.00000E+00         0.00000E+00        -0.49809E+08
 
   -0.49691E+08         0.13457E+06         0.00000E+00
    0.13457E+06        -0.49882E+08         0.00000E+00
    0.00000E+00         0.00000E+00        -0.49809E+08
 
   -0.49704E+08         0.14115E+06         0.00000E+00
    0.14115E+06        -0.49876E+08         0.00000E+00
    0.00000E+00         0.00000E+00        -0.49809E+08
 
   -0.49716E+08         0.14791E+06         0.00000E+00
    0.14791E+06        -0.49871E+08         0.00000E+00
    0.00000E+00         0.00000E+00        -0.49809E+08
 
   -0.49729E+08         0.15486E+06         0.00000E+00
    0.15486E+06        -0.49865E+08         0.00000E+00
    0.00000E+00         0.00000E+00        -0.49809E+08
 
   -0.49741E+08         0.16200E+06         0.00000E+00
    0.16200E+06        -0.49859E+08         0.00000E+00
    0.00000E+00         0.00000E+00        -0.49809E+08
 
   -0.49754E+08         0.16934E+06         0.00000E+00
    0.16934E+06        -0.49853E+08         0.00000E+00
    0.00000E+00         0.00000E+00        -0.49809E+08
 
   -0.49767E+08         0.17688E+06         0.00000E+00
    0.17688E+06        -0.49847E+08         0.00000E+00
    0.00000E+00         0.00000E+00        -0.49810E+08
 
   -0.49779E+08         0.18461E+06         0.00000E+00
    0.18461E+06        -0.49841E+08         0.00000E+00
    0.00000E+00         0.00000E+00        -0.49810E+08
 
   -0.49791E+08         0.19255E+06         0.00000E+00
    0.19255E+06        -0.49835E+08         0.00000E+00
    0.00000E+00         0.00000E+00        -0.49810E+08
 
   -0.49804E+08         0.20068E+06         0.00000E+00
    0.20068E+06        -0.49829E+08         0.00000E+00
    0.00000E+00         0.00000E+00        -0.49810E+08
 
   -0.49271E+08        -0.40178E+03         0.00000E+00
   -0.40178E+03        -0.50000E+08         0.00000E+00
    0.00000E+00         0.00000E+00        -0.49763E+08
 
   -0.49276E+08        -0.45689E+03         0.00000E+00
   -0.45689E+03        -0.50000E+08         0.00000E+00
    0.00000E+00         0.00000E+00        -0.49763E+08
 
   -0.49281E+08        -0.23184E+03         0.00000E+00
   -0.23184E+03        -0.49999E+08         0.00000E+00
    0.00000E+00         0.00000E+00        -0.49763E+08
 
   -0.49286E+08         0.27569E+03         0.00000E+00
    0.27569E+03        -0.49998E+08         0.00000E+00
    0.00000E+00         0.00000E+00        -0.49763E+08
 
   -0.49293E+08         0.10671E+04         0.00000E+00
    0.10671E+04        -0.49997E+08         0.00000E+00
    0.00000E+00         0.00000E+00        -0.49763E+08
 
   -0.49299E+08         0.21412E+04         0.00000E+00
    0.21412E+04        -0.49996E+08         0.00000E+00
    0.00000E+00         0.00000E+00        -0.49763E+08
 
   -0.49306E+08         0.34945E+04         0.00000E+00
    0.34945E+04        -0.49995E+08         0.00000E+00
    0.00000E+00         0.00000E+00        -0.49763E+08
 
   -0.49314E+08         0.51217E+04         0.00000E+00
    0.51217E+04        -0.49993E+08         0.00000E+00
    0.00000E+00         0.00000E+00        -0.49763E+08
 
   -0.49321E+08         0.70164E+04         0.00000E+00
    0.70164E+04        -0.49991E+08         0.00000E+00
    0.00000E+00         0.00000E+00        -0.49763E+08
 
   -0.49329E+08         0.91705E+04         0.00000E+00
    0.91705E+04        -0.49989E+08         0.00000E+00
    0.00000E+00         0.00000E+00        -0.49763E+08
 
   -0.49338E+08         0.11575E+05         0.00000E+00
    0.11575E+05        -0.49987E+08         0.00000E+00
    0.00000E+00         0.00000E+00        -0.49763E+08
 
   -0.49346E+08         0.14221E+05         0.00000E+00
    0.14221E+05        -0.49985E+08         0.00000E+00
    0.00000E+00         0.00000E+00        -0.49763E+08
 
   -0.49355E+08         0.17098E+05         0.00000E+00
    0.17098E+05        -0.49983E+08         0.00000E+00
    0.00000E+00         0.00000E+00        -0.49763E+08
 
   -0.49364E+08         0.20196E+05         0.00000E+00
    0.20196E+05        -0.49980E+08         0.00000E+00
    0.00000E+00         0.00000E+00        -0.49764E+08
 
   -0.49374E+08         0.23503E+05         0.00000E+00
    0.23503E+05        -0.49978E+08         0.00000E+00
    0.00000E+00         0.00000E+00        -0.49764E+08
 
   -0.49383E+08         0.27010E+05         0.00000E+00
    0.27010E+05        -0.49975E+08         0.00000E+00
    0.00000E+00         0.00000E+00        -0.49764E+08
 
   -0.49393E+08         0.30706E+05         0.00000E+00
    0.30706E+05        -0.49972E+08         0.00000E+00
    0.00000E+00         0.00000E+00        -0.49764E+08
 
   -0.49402E+08         0.34582E+05         0.00000E+00
    0.34582E+05        -0.49970E+08         0.00000E+00
    0.00000E+00         0.00000E+00        -0.49764E+08
 
   -0.49412E+08         0.38628E+05         0.00000E+00
    0.38628E+05        -0.49967E+08         0.00000E+00
    0.00000E+00         0.00000E+00        -0.49764E+08
 
   -0.49422E+08         0.42836E+05         0.00000E+00
    0.42836E+05        -0.49964E+08         0.00000E+00
    0.00000E+00         0.00000E+00        -0.49764E+08
 
   -0.49433E+08         0.47198E+05         0.00000E+00
    0.47198E+05        -0.49960E+08         0.00000E+00
    0.00000E+00         0.00000E+00        -0.49765E+08
 
   -0.49443E+08         0.51706E+05         0.00000E+00
    0.51706E+05        -0.49957E+08         0.00000E+00
    0.00000E+00         0.00000E+00        -0.49765E+08
 
   -0.49453E+08         0.56355E+05         0.00000E+00
    0.56355E+05        -0.49954E+08         0.00000E+00
    0.00000E+00         0.00000E+00        -0.49765E+08
 
   -0.49464E+08         0.61138E+05         0.00000E+00
    0.61138E+05        -0.49950E+08         0.00000E+00
    0.00000E+00         0.00000E+00        -0.49765E+08
 
   -0.49475E+08         0.66052E+05         0.00000E+00
    0.66052E+05        -0.49947E+08         0.00000E+00
    0.00000E+00         0.00000E+00        -0.49765E+08
 
   -0.49485E+08         0.71092E+05         0.00000E+00
    0.71092E+05        -0.49943E+08         0.00000E+00
    0.00000E+00         0.00000E+00        -0.49765E+08
 
   -0.49496E+08         0.76256E+05         0.00000E+00
    0.76256E+05        -0.49939E+08         0.00000E+00
    0.00000E+00         0.00000E+00        -0.49766E+08
 
   -0.49507E+08         0.81540E+05         0.00000E+00
    0.81540E+05        -0.49936E+08         0.00000E+00
    0.00000E+00         0.00000E+00        -0.49766E+08
 
   -0.49518E+08         0.86944E+05         0.00000E+00
    0.86944E+05        -0.49932E+08         0.00000E+00
    0.00000E+00         0.00000E+00        -0.49766E+08
 
   -0.49530E+08         0.92466E+05         0.00000E+00
    0.92466E+05        -0.49928E+08         0.00000E+00
    0.00000E+00         0.00000E+00        -0.49766E+08
 
   -0.49541E+08         0.98107E+05         0.00000E+00
    0.98107E+05        -0.49923E+08         0.00000E+00
    0.00000E+00         0.00000E+00        -0.49766E+08
 
   -0.49552E+08         0.10387E+06         0.00000E+00
    0.10387E+06        -0.49919E+08         0.00000E+00
    0.00000E+00         0.00000E+00        -0.49766E+08
 
   -0.49564E+08         0.10975E+06         0.00000E+00
    0.10975E+06        -0.49915E+08         0.00000E+00
    0.00000E+00         0.00000E+00        -0.49767E+08
 
   -0.49575E+08         0.11575E+06         0.00000E+00
    0.11575E+06        -0.49910E+08         0.00000E+00
    0.00000E+00         0.00000E+00        -0.49767E+08
 
   -0.49587E+08         0.12187E+06         0.00000E+00
    0.12187E+06        -0.49905E+08         0.00000E+00
    0.00000E+00         0.00000E+00        -0.49767E+08
 
   -0.49598E+08         0.12812E+06         0.00000E+00
    0.12812E+06        -0.49901E+08         0.00000E+00
    0.00000E+00         0.00000E+00        -0.49767E+08
 
   -0.49610E+08         0.13449E+06         0.00000E+00
    0.13449E+06        -0.49896E+08         0.00000E+00
    0.00000E+00         0.00000E+00        -0.49767E+08
 
   -0.49622E+08         0.14100E+06         0.00000E+00
    0.14100E+06        -0.49891E+08         0.00000E+00
    0.00000E+00         0.00000E+00        -0.49767E+08
 
   -0.49634E+08         0.14764E+06         0.00000E+00
    0.14764E+06        -0.49886E+08         0.00000E+00
    0.00000E+00         0.00000E+00        -0.49767E+08
 
   -0.49645E+08         0.15442E+06         0.00000E+00
    0.15442E+06        -0.49881E+08         0.00000E+00
    0.00000E+00         0.00000E+00        -0.49768E+08
 
   -0.49657E+08         0.16133E+06         0.00000E+00
    0.16133E+06        -0.49876E+08         0.00000E+00
    0.00000E+00         0.00000E+00        -0.49768E+08
 
   -0.49669E+08         0.16838E+06         0.00000E+00
    0.16838E+06        -0.49870E+08         0.00000E+00
    0.00000E+00         0.00000E+00        -0.49768E+08
 
   -0.49681E+08         0.17558E+06         0.00000E+00
    0.17558E+06        -0.49865E+08         0.00000E+00
    0.00000E+00         0.00000E+00        -0.49768E+08
 
   -0.49693E+08         0.18291E+06         0.00000E+00
    0.18291E+06        -0.49859E+08         0.00000E+00
    0.00000E+00         0.00000E+00        -0.49768E+08
 
   -0.49704E+08         0.19039E+06         0.00000E+00
    0.19039E+06        -0.49854E+08         0.00000E+00
    0.00000E+00         0.00000E+00        -0.49768E+08
 
   -0.49716E+08         0.19801E+06         0.00000E+00
    0.19801E+06        -0.49848E+08         0.00000E+00
    0.00000E+00         0.00000E+00        -0.49768E+08
 
   -0.49728E+08         0.20577E+06         0.00000E+00
    0.20577E+06        -0.49843E+08         0.00000E+00
    0.00000E+00         0.00000E+00        -0.49768E+08
 
   -0.49740E+08         0.21367E+06         0.00000E+00
    0.21367E+06        -0.49837E+08         0.00000E+00
    0.00000E+00         0.00000E+00        -0.49768E+08
 
   -0.49751E+08         0.22170E+06         0.00000E+00
    0.22170E+06        -0.49832E+08         0.00000E+00
    0.00000E+00         0.00000E+00        -0.49768E+08
 
   -0.49762E+08         0.22986E+06         0.00000E+00
    0.22986E+06        -0.49826E+08         0.00000E+00
    0.00000E+00         0.00000E+00        -0.49768E+08
 
   -0.49268E+08         0.37514E+03         0.00000E+00
    0.37514E+03        -0.50000E+08         0.00000E+00
    0.00000E+00         0.00000E+00        -0.49721E+08
 
   -0.49272E+08         0.16472E+04         0.00000E+00
    0.16472E+04        -0.50000E+08         0.00000E+00
    0.00000E+00         0.00000E+00        -0.49721E+08
 
   -0.49276E+08         0.31189E+04         0.00000E+00
    0.31189E+04        -0.49999E+08         0.00000E+00
    0.00000E+00         0.00000E+00        -0.49721E+08
 
   -0.49280E+08         0.47950E+04         0.00000E+00
    0.47950E+04        -0.49998E+08         0.00000E+00
    0.00000E+00         0.00000E+00        -0.49721E+08
 
   -0.49285E+08         0.66788E+04         0.00000E+00
    0.66788E+04        -0.49997E+08         0.00000E+00
    0.00000E+00         0.00000E+00        -0.49722E+08
 
   -0.49291E+08         0.87721E+04         0.00000E+00
    0.87721E+04        -0.49996E+08         0.00000E+00
    0.00000E+00         0.00000E+00        -0.49722E+08
 
   -0.49297E+08         0.11076E+05         0.00000E+00
    0.11076E+05        -0.49995E+08         0.00000E+00
    0.00000E+00         0.00000E+00        -0.49722E+08
 
   -0.49303E+08         0.13589E+05         0.00000E+00
    0.13589E+05        -0.49993E+08         0.00000E+00
    0.00000E+00         0.00000E+00        -0.49722E+08
 
   -0.49309E+08         0.16311E+05         0.00000E+00
    0.16311E+05        -0.49991E+08         0.00000E+00
    0.00000E+00         0.00000E+00        -0.49722E+08
 
   -0.49316E+08         0.19238E+05         0.00000E+00
    0.19238E+05        -0.49989E+08         0.00000E+00
    0.00000E+00         0.00000E+00        -0.49722E+08
 
   -0.49323E+08         0.22367E+05         0.00000E+00
    0.22367E+05        -0.49987E+08         0.00000E+00
    0.00000E+00         0.00000E+00        -0.49722E+08
 
   -0.49331E+08         0.25695E+05         0.00000E+00
    0.25695E+05        -0.49985E+08         0.00000E+00
    0.00000E+00         0.00000E+00        -0.49722E+08
 
   -0.49339E+08         0.29215E+05         0.00000E+00
    0.29215E+05        -0.49983E+08         0.00000E+00
    0.00000E+00         0.00000E+00        -0.49722E+08
 
   -0.49347E+08         0.32924E+05         0.00000E+00
    0.32924E+05        -0.49980E+08         0.00000E+00
    0.00000E+00         0.00000E+00        -0.49722E+08
 
   -0.49355E+08         0.36815E+05         0.00000E+00
    0.36815E+05        -0.49977E+08         0.00000E+00
    0.00000E+00         0.00000E+00        -0.49723E+08
 
   -0.49364E+08         0.40883E+05         0.00000E+00
    0.40883E+05        -0.49975E+08         0.00000E+00
    0.00000E+00         0.00000E+00        -0.49723E+08
 
   -0.49372E+08         0.45121E+05         0.00000E+00
    0.45121E+05        -0.49972E+08         0.00000E+00
    0.00000E+00         0.00000E+00        -0.49723E+08
 
   -0.49381E+08         0.49525E+05         0.00000E+00
    0.49525E+05        -0.49969E+08         0.00000E+00
    0.00000E+00         0.00000E+00        -0.49723E+08
 
   -0.49390E+08         0.54088E+05         0.00000E+00
    0.54088E+05        -0.49966E+08         0.00000E+00
    0.00000E+00         0.00000E+00        -0.49723E+08
 
   -0.49400E+08         0.58805E+05         0.00000E+00
    0.58805E+05        -0.49962E+08         0.00000E+00
    0.00000E+00         0.00000E+00        -0.49723E+08
 
   -0.49409E+08         0.63671E+05         0.00000E+00
    0.63671E+05        -0.49959E+08         0.00000E+00
    0.00000E+00         0.00000E+00        -0.49723E+08
 
   -0.49419E+08         0.68680E+05         0.00000E+00
    0.68680E+05        -0.49956E+08         0.00000E+00
    0.00000E+00         0.00000E+00        -0.49724E+08
 
   -0.49429E+08         0.73828E+05         0.00000E+00
    0.73828E+05        -0.49952E+08         0.00000E+00
    0.00000E+00         0.00000E+00        -0.49724E+08
 
   -0.49439E+08         0.79110E+05         0.00000E+00
    0.79110E+05        -0.49949E+08         0.00000E+00
    0.00000E+00         0.00000E+00        -0.49724E+08
 
   -0.49449E+08         0.84523E+05         0.00000E+00
    0.84523E+05        -0.49945E+08         0.00000E+00
    0.00000E+00         0.00000E+00        -0.49724E+08
 
   -0.49459E+08         0.90064E+05         0.00000E+00
    0.90064E+05        -0.49941E+08         0.00000E+00
    0.00000E+00         0.00000E+00        -0.49724E+08
 
   -0.49469E+08         0.95729E+05         0.00000E+00
    0.95729E+05        -0.49937E+08         0.00000E+00
    0.00000E+00         0.00000E+00        -0.49724E+08
 
   -0.49479E+08         0.10152E+06         0.00000E+00
    0.10152E+06        -0.49933E+08         0.00000E+00
    0.00000E+00         0.00000E+00        -0.49725E+08
 
   -0.49490E+08         0.10742E+06         0.00000E+00
    0.10742E+06        -0.49929E+08         0.00000E+00
    0.00000E+00         0.00000E+00        -0.49725E+08
 
   -0.49500E+08         0.11345E+06         0.00000E+00
    0.11345E+06        -0.49925E+08         0.00000E+00
    0.00000E+00         0.00000E+00        -0.49725E+08
 
   -0.49511E+08         0.11959E+06         0.00000E+00
    0.11959E+06        -0.49921E+08         0.00000E+00
    0.00000E+00         0.00000E+00        -0.49725E+08
 
   -0.49522E+08         0.12584E+06         0.00000E+00
    0.12584E+06        -0.49916E+08         0.00000E+00
    0.00000E+00         0.00000E+00        -0.49725E+08
 
   -0.49533E+08         0.13221E+06         0.00000E+00
    0.13221E+06        -0.49912E+08         0.00000E+00
    0.00000E+00         0.00000E+00        -0.49725E+08
 
   -0.49544E+08         0.13870E+06         0.00000E+00
    0.13870E+06        -0.49907E+08         0.00000E+00
    0.00000E+00         0.00000E+00        -0.49725E+08
 
   -0.49555E+08         0.14530E+06         0.00000E+00
    0.14530E+06        -0.49903E+08         0.00000E+00
    0.00000E+00         0.00000E+00        -0.49726E+08
 
   -0.49566E+08         0.15201E+06         0.00000E+00
    0.15201E+06        -0.49898E+08         0.00000E+00
    0.00000E+00         0.00000E+00        -0.49726E+08
 
   -0.49577E+08         0.15883E+06         0.00000E+00
    0.15883E+06        -0.49893E+08         0.00000E+00
    0.00000E+00         0.00000E+00        -0.49726E+08
 
   -0.49588E+08         0.16577E+06         0.00000E+00
    0.16577E+06        -0.49888E+08         0.00000E+00
    0.00000E+00         0.00000E+00        -0.49726E+08
 
   -0.49599E+08         0.17282E+06         0.00000E+00
    0.17282E+06        -0.49883E+08         0.00000E+00
    0.00000E+00         0.00000E+00        -0.49726E+08
 
   -0.49610E+08         0.17998E+06         0.00000E+00
    0.17998E+06        -0.49878E+08         0.00000E+00
    0.00000E+00         0.00000E+00        -0.49726E+08
 
   -0.49621E+08         0.18726E+06         0.00000E+00
    0.18726E+06        -0.49873E+08         0.00000E+00
    0.00000E+00         0.00000E+00        -0.49726E+08
 
   -0.49633E+08         0.19465E+06         0.00000E+00
    0.19465E+06        -0.49868E+08         0.00000E+00
    0.00000E+00         0.00000E+00        -0.49726E+08
 
   -0.49644E+08         0.20215E+06         0.00000E+00
    0.20215E+06        -0.49863E+08         0.00000E+00
    0.00000E+00         0.00000E+00        -0.49726E+08
 
   -0.49655E+08         0.20975E+06         0.00000E+00
    0.20975E+06        -0.49857E+08         0.00000E+00
    0.00000E+00         0.00000E+00        -0.49727E+08
 
   -0.49666E+08         0.21746E+06         0.00000E+00
    0.21746E+06        -0.49852E+08         0.00000E+00
    0.00000E+00         0.00000E+00        -0.49727E+08
 
   -0.49677E+08         0.22528E+06         0.00000E+00
    0.22528E+06        -0.49847E+08         0.00000E+00
    0.00000E+00         0.00000E+00        -0.49727E+08
 
   -0.49688E+08         0.23320E+06         0.00000E+00
    0.23320E+06        -0.49841E+08         0.00000E+00
    0.00000E+00         0.00000E+00        -0.49727E+08
 
   -0.49699E+08         0.24121E+06         0.00000E+00
    0.24121E+06        -0.49836E+08         0.00000E+00
    0.00000E+00         0.00000E+00        -0.49727E+08
 
   -0.49710E+08         0.24931E+06         0.00000E+00
    0.24931E+06        -0.49831E+08         0.00000E+00
    0.00000E+00         0.00000E+00        -0.49727E+08
 
   -0.49721E+08         0.25750E+06         0.00000E+00
    0.25750E+06        -0.49825E+08         0.00000E+00
    0.00000E+00         0.00000E+00        -0.49727E+08
 
   -0.49259E+08         0.10968E+04         0.00000E+00
    0.10968E+04        -0.50000E+08         0.00000E+00
    0.00000E+00         0.00000E+00        -0.49680E+08
 
   -0.49262E+08         0.36413E+04         0.00000E+00
    0.36413E+04        -0.50000E+08         0.00000E+00
    0.00000E+00         0.00000E+00        -0.49680E+08
 
   -0.49265E+08         0.63235E+04         0.00000E+00
    0.63235E+04        -0.49999E+08         0.00000E+00
    0.00000E+00         0.00000E+00        -0.49680E+08
 
   -0.49269E+08         0.91495E+04         0.00000E+00
    0.91495E+04        -0.49998E+08         0.00000E+00
    0.00000E+00         0.00000E+00        -0.49680E+08
 
   -0.49273E+08         0.12124E+05         0.00000E+00
    0.12124E+05        -0.49997E+08         0.00000E+00
    0.00000E+00         0.00000E+00        -0.49680E+08
 
   -0.49277E+08         0.15251E+05         0.00000E+00
    0.15251E+05        -0.49996E+08         0.00000E+00
    0.00000E+00         0.00000E+00        -0.49681E+08
 
   -0.49282E+08         0.18534E+05         0.00000E+00
    0.18534E+05        -0.49995E+08         0.00000E+00
    0.00000E+00         0.00000E+00        -0.49681E+08
 
   -0.49287E+08         0.21974E+05         0.00000E+00
    0.21974E+05        -0.49993E+08         0.00000E+00
    0.00000E+00         0.00000E+00        -0.49681E+08
 
   -0.49293E+08         0.25573E+05         0.00000E+00
    0.25573E+05        -0.49992E+08         0.00000E+00
    0.00000E+00         0.00000E+00        -0.49681E+08
 
   -0.49299E+08         0.29330E+05         0.00000E+00
    0.29330E+05        -0.49990E+08         0.00000E+00
    0.00000E+00         0.00000E+00        -0.49681E+08
 
   -0.49305E+08         0.33246E+05         0.00000E+00
    0.33246E+05        -0.49988E+08         0.00000E+00
    0.00000E+00         0.00000E+00        -0.49681E+08
 
   -0.49312E+08         0.37320E+05         0.00000E+00
    0.37320E+05        -0.49985E+08         0.00000E+00
    0.00000E+00         0.00000E+00        -0.49681E+08
 
   -0.49319E+08         0.41551E+05         0.00000E+00
    0.41551E+05        -0.49983E+08         0.00000E+00
    0.00000E+00         0.00000E+00        -0.49681E+08
 
   -0.49326E+08         0.45936E+05         0.00000E+00
    0.45936E+05        -0.49980E+08         0.00000E+00
    0.00000E+00         0.00000E+00        -0.49681E+08
 
   -0.49334E+08         0.50472E+05         0.00000E+00
    0.50472E+05        -0.49978E+08         0.00000E+00
    0.00000E+00         0.00000E+00        -0.49681E+08
 
   -0.49341E+08         0.55158E+05         0.00000E+00
    0.55158E+05        -0.49975E+08         0.00000E+00
    0.00000E+00         0.00000E+00        -0.49681E+08
 
   -0.49349E+08         0.59991E+05         0.00000E+00
    0.59991E+05        -0.49972E+08         0.00000E+00
    0.00000E+00         0.00000E+00        -0.49682E+08
 
   -0.49358E+08         0.64967E+05         0.00000E+00
    0.64967E+05        -0.49969E+08         0.00000E+00
    0.00000E+00         0.00000E+00        -0.49682E+08
 
   -0.49366E+08         0.70084E+05         0.00000E+00
    0.70084E+05        -0.49966E+08         0.00000E+00
    0.00000E+00         0.00000E+00        -0.49682E+08
 
   -0.49375E+08         0.75337E+05         0.00000E+00
    0.75337E+05        -0.49963E+08         0.00000E+00
    0.00000E+00         0.00000E+00        -0.49682E+08
 
   -0.49383E+08         0.80724E+05         0.00000E+00
    0.80724E+05        -0.49959E+08         0.00000E+00
    0.00000E+00         0.00000E+00        -0.49682E+08
 
   -0.49392E+08         0.86242E+05         0.00000E+00
    0.86242E+05        -0.49956E+08         0.00000E+00
    0.00000E+00         0.00000E+00        -0.49682E+08
 
   -0.49401E+08         0.91887E+05         0.00000E+00
    0.91887E+05        -0.49952E+08         0.00000E+00
    0.00000E+00         0.00000E+00        -0.49682E+08
 
   -0.49411E+08         0.97656E+05         0.00000E+00
    0.97656E+05        -0.49948E+08         0.00000E+00
    0.00000E+00         0.00000E+00        -0.49683E+08
 
   -0.49420E+08         0.10355E+06         0.00000E+00
    0.10355E+06        -0.49945E+08         0.00000E+00
    0.00000E+00         0.00000E+00        -0.49683E+08
 
   -0.49430E+08         0.10956E+06         0.00000E+00
    0.10956E+06        -0.49941E+08         0.00000E+00
    0.00000E+00         0.00000E+00        -0.49683E+08
 
   -0.49439E+08         0.11568E+06         0.00000E+00
    0.11568E+06        -0.49937E+08         0.00000E+00
    0.00000E+00         0.00000E+00        -0.49683E+08
 
   -0.49449E+08         0.12192E+06         0.00000E+00
    0.12192E+06        -0.49933E+08         0.00000E+00
    0.00000E+00         0.00000E+00        -0.49683E+08
 
   -0.49459E+08         0.12827E+06         0.00000E+00
    0.12827E+06        -0.49929E+08         0.00000E+00
    0.00000E+00         0.00000E+00        -0.49683E+08
 
   -0.49469E+08         0.13474E+06         0.00000E+00
    0.13474E+06        -0.49924E+08         0.00000E+00
    0.00000E+00         0.00000E+00        -0.49684E+08
 
   -0.49479E+08         0.14130E+06         0.00000E+00
    0.14130E+06        -0.49920E+08         0.00000E+00
    0.00000E+00         0.00000E+00        -0.49684E+08
 
   -0.49489E+08         0.14798E+06         0.00000E+00
    0.14798E+06        -0.49916E+08         0.00000E+00
    0.00000E+00         0.00000E+00        -0.49684E+08
 
   -0.49500E+08         0.15476E+06         0.00000E+00
    0.15476E+06        -0.49911E+08         0.00000E+00
    0.00000E+00         0.00000E+00        -0.49684E+08
 
   -0.49510E+08         0.16164E+06         0.00000E+00
    0.16164E+06        -0.49907E+08         0.00000E+00
    0.00000E+00         0.00000E+00        -0.49684E+08
 
   -0.49520E+08         0.16862E+06         0.00000E+00
    0.16862E+06        -0.49902E+08         0.00000E+00
    0.00000E+00         0.00000E+00        -0.49684E+08
 
   -0.49531E+08         0.17570E+06         0.00000E+00
    0.17570E+06        -0.49897E+08         0.00000E+00
    0.00000E+00         0.00000E+00        -0.49684E+08
 
   -0.49541E+08         0.18288E+06         0.00000E+00
    0.18288E+06        -0.49893E+08         0.00000E+00
    0.00000E+00         0.00000E+00        -0.49685E+08
 
   -0.49552E+08         0.19016E+06         0.00000E+00
    0.19016E+06        -0.49888E+08         0.00000E+00
    0.00000E+00         0.00000E+00        -0.49685E+08
 
   -0.49563E+08         0.19753E+06         0.00000E+00
    0.19753E+06        -0.49883E+08         0.00000E+00
    0.00000E+00         0.00000E+00        -0.49685E+08
 
   -0.49573E+08         0.20499E+06         0.00000E+00
    0.20499E+06        -0.49878E+08         0.00000E+00
    0.00000E+00         0.00000E+00        -0.49685E+08
 
   -0.49584E+08         0.21255E+06         0.00000E+00
    0.21255E+06        -0.49873E+08         0.00000E+00
    0.00000E+00         0.00000E+00        -0.49685E+08
 
   -0.49595E+08         0.22019E+06         0.00000E+00
    0.22019E+06        -0.49868E+08         0.00000E+00
    0.00000E+00         0.00000E+00        -0.49685E+08
 
   -0.49606E+08         0.22792E+06         0.00000E+00
    0.22792E+06        -0.49863E+08         0.00000E+00
    0.00000E+00         0.00000E+00        -0.49685E+08
 
   -0.49616E+08         0.23573E+06         0.00000E+00
    0.23573E+06        -0.49858E+08         0.00000E+00
    0.00000E+00         0.00000E+00        -0.49685E+08
 
   -0.49627E+08         0.24362E+06         0.00000E+00
    0.24362E+06        -0.49853E+08         0.00000E+00
    0.00000E+00         0.00000E+00        -0.49685E+08
 
   -0.49638E+08         0.25159E+06         0.00000E+00
    0.25159E+06        -0.49848E+08         0.00000E+00
    0.00000E+00         0.00000E+00        -0.49685E+08
 
   -0.49648E+08         0.25963E+06         0.00000E+00
    0.25963E+06        -0.49842E+08         0.00000E+00
    0.00000E+00         0.00000E+00        -0.49685E+08
 
   -0.49659E+08         0.26774E+06         0.00000E+00
    0.26774E+06        -0.49837E+08         0.00000E+00
    0.00000E+00         0.00000E+00        -0.49685E+08
 
   -0.49670E+08         0.27592E+06         0.00000E+00
    0.27592E+06        -0.49832E+08         0.00000E+00
    0.00000E+00         0.00000E+00        -0.49685E+08
 
   -0.49680E+08         0.28415E+06         0.00000E+00
    0.28415E+06        -0.49827E+08         0.00000E+00
    0.00000E+00         0.00000E+00        -0.49685E+08
 
   -0.49244E+08         0.17661E+04         0.00000E+00
    0.17661E+04        -0.50000E+08         0.00000E+00
    0.00000E+00         0.00000E+00        -0.49639E+08
 
   -0.49246E+08         0.55167E+04         0.00000E+00
    0.55167E+04        -0.50000E+08         0.00000E+00
    0.00000E+00         0.00000E+00        -0.49639E+08
 
   -0.49248E+08         0.93570E+04         0.00000E+00
    0.93570E+04        -0.49999E+08         0.00000E+00
    0.00000E+00         0.00000E+00        -0.49639E+08
 
   -0.49251E+08         0.13294E+05         0.00000E+00
    0.13294E+05        -0.49999E+08         0.00000E+00
    0.00000E+00         0.00000E+00        -0.49639E+08
 
   -0.49255E+08         0.17332E+05         0.00000E+00
    0.17332E+05        -0.49998E+08         0.00000E+00
    0.00000E+00         0.00000E+00        -0.49639E+08
 
   -0.49259E+08         0.21477E+05         0.00000E+00
    0.21477E+05        -0.49996E+08         0.00000E+00
    0.00000E+00         0.00000E+00        -0.49639E+08
 
   -0.49263E+08         0.25733E+05         0.00000E+00
    0.25733E+05        -0.49995E+08         0.00000E+00
    0.00000E+00         0.00000E+00        -0.49639E+08
 
   -0.49268E+08         0.30104E+05         0.00000E+00
    0.30104E+05        -0.49994E+08         0.00000E+00
    0.00000E+00         0.00000E+00        -0.49639E+08
 
   -0.49273E+08         0.34591E+05         0.00000E+00
    0.34591E+05        -0.49992E+08         0.00000E+00
    0.00000E+00         0.00000E+00        -0.49640E+08
 
   -0.49278E+08         0.39198E+05         0.00000E+00
    0.39198E+05        -0.49990E+08         0.00000E+00
    0.00000E+00         0.00000E+00        -0.49640E+08
 
   -0.49283E+08         0.43926E+05         0.00000E+00
    0.43926E+05        -0.49988E+08         0.00000E+00
    0.00000E+00         0.00000E+00        -0.49640E+08
 
   -0.49289E+08         0.48775E+05         0.00000E+00
    0.48775E+05        -0.49986E+08         0.00000E+00
    0.00000E+00         0.00000E+00        -0.49640E+08
 
   -0.49296E+08         0.53746E+05         0.00000E+00
    0.53746E+05        -0.49984E+08         0.00000E+00
    0.00000E+00         0.00000E+00        -0.49640E+08
 
   -0.49302E+08         0.58840E+05         0.00000E+00
    0.58840E+05        -0.49981E+08         0.00000E+00
    0.00000E+00         0.00000E+00        -0.49640E+08
 
   -0.49309E+08         0.64056E+05         0.00000E+00
    0.64056E+05        -0.49979E+08         0.00000E+00
    0.00000E+00         0.00000E+00        -0.49640E+08
 
   -0.49316E+08         0.69393E+05         0.00000E+00
    0.69393E+05        -0.49976E+08         0.00000E+00
    0.00000E+00         0.00000E+00        -0.49640E+08
 
   -0.49323E+08         0.74850E+05         0.00000E+00
    0.74850E+05        -0.49973E+08         0.00000E+00
    0.00000E+00         0.00000E+00        -0.49640E+08
 
   -0.49331E+08         0.80427E+05         0.00000E+00
    0.80427E+05        -0.49970E+08         0.00000E+00
    0.00000E+00         0.00000E+00        -0.49640E+08
 
   -0.49339E+08         0.86121E+05         0.00000E+00
    0.86121E+05        -0.49967E+08         0.00000E+00
    0.00000E+00         0.00000E+00        -0.49641E+08
 
   -0.49347E+08         0.91931E+05         0.00000E+00
    0.91931E+05        -0.49963E+08         0.00000E+00
    0.00000E+00         0.00000E+00        -0.49641E+08
 
   -0.49355E+08         0.97856E+05         0.00000E+00
    0.97856E+05        -0.49960E+08         0.00000E+00
    0.00000E+00         0.00000E+00        -0.49641E+08
 
   -0.49363E+08         0.10389E+06         0.00000E+00
    0.10389E+06        -0.49957E+08         0.00000E+00
    0.00000E+00         0.00000E+00        -0.49641E+08
 
   -0.49372E+08         0.11004E+06         0.00000E+00
    0.11004E+06        -0.49953E+08         0.00000E+00
    0.00000E+00         0.00000E+00        -0.49641E+08
 
   -0.49380E+08         0.11630E+06         0.00000E+00
    0.11630E+06        -0.49949E+08         0.00000E+00
    0.00000E+00         0.00000E+00        -0.49641E+08
 
   -0.49389E+08         0.12266E+06         0.00000E+00
    0.12266E+06        -0.49946E+08         0.00000E+00
    0.00000E+00         0.00000E+00        -0.49641E+08
 
   -0.49398E+08         0.12913E+06         0.00000E+00
    0.12913E+06        -0.49942E+08         0.00000E+00
    0.00000E+00         0.00000E+00        -0.49642E+08
 
   -0.49407E+08         0.13570E+06         0.00000E+00
    0.13570E+06        -0.49938E+08         0.00000E+00
    0.00000E+00         0.00000E+00        -0.49642E+08
 
   -0.49416E+08         0.14237E+06         0.00000E+00
    0.14237E+06        -0.49934E+08         0.00000E+00
    0.00000E+00         0.00000E+00        -0.49642E+08
 
   -0.49426E+08         0.14913E+06         0.00000E+00
    0.14913E+06        -0.49930E+08         0.00000E+00
    0.00000E+00         0.00000E+00        -0.49642E+08
 
   -0.49435E+08         0.15600E+06         0.00000E+00
    0.15600E+06        -0.49926E+08         0.00000E+00
    0.00000E+00         0.00000E+00        -0.49642E+08
 
   -0.49445E+08         0.16296E+06         0.00000E+00
    0.16296E+06        -0.49921E+08         0.00000E+00
    0.00000E+00         0.00000E+00        -0.49642E+08
 
   -0.49455E+08         0.17001E+06         0.00000E+00
    0.17001E+06        -0.49917E+08         0.00000E+00
    0.00000E+00         0.00000E+00        -0.49642E+08
 
   -0.49465E+08         0.17715E+06         0.00000E+00
    0.17715E+06        -0.49912E+08         0.00000E+00
    0.00000E+00         0.00000E+00        -0.49643E+08
 
   -0.49474E+08         0.18438E+06         0.00000E+00
    0.18438E+06        -0.49908E+08         0.00000E+00
    0.00000E+00         0.00000E+00        -0.49643E+08
 
   -0.49484E+08         0.19170E+06         0.00000E+00
    0.19170E+06        -0.49903E+08         0.00000E+00
    0.00000E+00         0.00000E+00        -0.49643E+08
 
   -0.49494E+08         0.19910E+06         0.00000E+00
    0.19910E+06        -0.49899E+08         0.00000E+00
    0.00000E+00         0.00000E+00        -0.49643E+08
 
   -0.49505E+08         0.20659E+06         0.00000E+00
    0.20659E+06        -0.49894E+08         0.00000E+00
    0.00000E+00         0.00000E+00        -0.49643E+08
 
   -0.49515E+08         0.21415E+06         0.00000E+00
    0.21415E+06        -0.49889E+08         0.00000E+00
    0.00000E+00         0.00000E+00        -0.49643E+08
 
   -0.49525E+08         0.22179E+06         0.00000E+00
    0.22179E+06        -0.49885E+08         0.00000E+00
    0.00000E+00         0.00000E+00        -0.49643E+08
 
   -0.49535E+08         0.22951E+06         0.00000E+00
    0.22951E+06        -0.49880E+08         0.00000E+00
    0.00000E+00         0.00000E+00        -0.49643E+08
 
   -0.49546E+08         0.23730E+06         0.00000E+00
    0.23730E+06        -0.49875E+08         0.00000E+00
    0.00000E+00         0.00000E+00        -0.49643E+08
 
   -0.49556E+08         0.24516E+06         0.00000E+00
    0.24516E+06        -0.49870E+08         0.00000E+00
    0.00000E+00         0.00000E+00        -0.49644E+08
 
   -0.49566E+08         0.25309E+06         0.00000E+00
    0.25309E+06        -0.49865E+08         0.00000E+00
    0.00000E+00         0.00000E+00        -0.49644E+08
 
   -0.49577E+08         0.26108E+06         0.00000E+00
    0.26108E+06        -0.49860E+08         0.00000E+00
    0.00000E+00         0.00000E+00        -0.49644E+08
 
   -0.49587E+08         0.26913E+06         0.00000E+00
    0.26913E+06        -0.49855E+08         0.00000E+00
    0.00000E+00         0.00000E+00        -0.49644E+08
 
   -0.49597E+08         0.27724E+06         0.00000E+00
    0.27724E+06        -0.49850E+08         0.00000E+00
    0.00000E+00         0.00000E+00        -0.49644E+08
 
   -0.49608E+08         0.28539E+06         0.00000E+00
    0.28539E+06        -0.49845E+08         0.00000E+00
    0.00000E+00         0.00000E+00        -0.49644E+08
 
   -0.49618E+08         0.29360E+06         0.00000E+00
    0.29360E+06        -0.49840E+08         0.00000E+00
    0.00000E+00         0.00000E+00        -0.49644E+08
 
   -0.49628E+08         0.30185E+06         0.00000E+00
    0.30185E+06        -0.49835E+08         0.00000E+00
    0.00000E+00         0.00000E+00        -0.49644E+08
 
   -0.49639E+08         0.31014E+06         0.00000E+00
    0.31014E+06        -0.49829E+08         0.00000E+00
    0.00000E+00         0.00000E+00        -0.49644E+08
 
   -0.49222E+08         0.23851E+04         0.00000E+00
    0.23851E+04        -0.50000E+08         0.00000E+00
    0.00000E+00         0.00000E+00        -0.49598E+08
 
   -0.49224E+08         0.72705E+04         0.00000E+00
    0.72705E+04        -0.50000E+08         0.00000E+00
    0.00000E+00         0.00000E+00        -0.49598E+08
 
   -0.49226E+08         0.12208E+05         0.00000E+00
    0.12208E+05        -0.49999E+08         0.00000E+00
    0.00000E+00         0.00000E+00        -0.49598E+08
 
   -0.49229E+08         0.17204E+05         0.00000E+00
    0.17204E+05        -0.49999E+08         0.00000E+00
    0.00000E+00         0.00000E+00        -0.49598E+08
 
   -0.49232E+08         0.22265E+05         0.00000E+00
    0.22265E+05        -0.49998E+08         0.00000E+00
    0.00000E+00         0.00000E+00        -0.49598E+08
 
   -0.49235E+08         0.27396E+05         0.00000E+00
    0.27396E+05        -0.49997E+08         0.00000E+00
    0.00000E+00         0.00000E+00        -0.49598E+08
 
   -0.49239E+08         0.32601E+05         0.00000E+00
    0.32601E+05        -0.49995E+08         0.00000E+00
    0.00000E+00         0.00000E+00        -0.49598E+08
 
   -0.49243E+08         0.37885E+05         0.00000E+00
    0.37885E+05        -0.49994E+08         0.00000E+00
    0.00000E+00         0.00000E+00        -0.49598E+08
 
   -0.49248E+08         0.43251E+05         0.00000E+00
    0.43251E+05        -0.49992E+08         0.00000E+00
    0.00000E+00         0.00000E+00        -0.49598E+08
 
   -0.49252E+08         0.48703E+05         0.00000E+00
    0.48703E+05        -0.49991E+08         0.00000E+00
    0.00000E+00         0.00000E+00        -0.49598E+08
 
   -0.49258E+08         0.54242E+05         0.00000E+00
    0.54242E+05        -0.49989E+08         0.00000E+00
    0.00000E+00         0.00000E+00        -0.49598E+08
 
   -0.49263E+08         0.59872E+05         0.00000E+00
    0.59872E+05        -0.49987E+08         0.00000E+00
    0.00000E+00         0.00000E+00        -0.49598E+08
 
   -0.49269E+08         0.65593E+05         0.00000E+00
    0.65593E+05        -0.49984E+08         0.00000E+00
    0.00000E+00         0.00000E+00        -0.49598E+08
 
   -0.49275E+08         0.71408E+05         0.00000E+00
    0.71408E+05        -0.49982E+08         0.00000E+00
    0.00000E+00         0.00000E+00        -0.49598E+08
 
   -0.49281E+08         0.77316E+05         0.00000E+00
    0.77316E+05        -0.49979E+08         0.00000E+00
    0.00000E+00         0.00000E+00        -0.49599E+08
 
   -0.49287E+08         0.83319E+05         0.00000E+00
    0.83319E+05        -0.49977E+08         0.00000E+00
    0.00000E+00         0.00000E+00        -0.49599E+08
 
   -0.49294E+08         0.89416E+05         0.00000E+00
    0.89416E+05        -0.49974E+08         0.00000E+00
    0.00000E+00         0.00000E+00        -0.49599E+08
 
   -0.49301E+08         0.95608E+05         0.00000E+00
    0.95608E+05        -0.49971E+08         0.00000E+00
    0.00000E+00         0.00000E+00        -0.49599E+08
 
   -0.49308E+08         0.10189E+06         0.00000E+00
    0.10189E+06        -0.49968E+08         0.00000E+00
    0.00000E+00         0.00000E+00        -0.49599E+08
 
   -0.49316E+08         0.10827E+06         0.00000E+00
    0.10827E+06        -0.49965E+08         0.00000E+00
    0.00000E+00         0.00000E+00        -0.49599E+08
 
   -0.49323E+08         0.11475E+06         0.00000E+00
    0.11475E+06        -0.49961E+08         0.00000E+00
    0.00000E+00         0.00000E+00        -0.49599E+08
 
   -0.49331E+08         0.12131E+06         0.00000E+00
    0.12131E+06        -0.49958E+08         0.00000E+00
    0.00000E+00         0.00000E+00        -0.49599E+08
 
   -0.49339E+08         0.12797E+06         0.00000E+00
    0.12797E+06        -0.49955E+08         0.00000E+00
    0.00000E+00         0.00000E+00        -0.49600E+08
 
   -0.49348E+08         0.13472E+06         0.00000E+00
    0.13472E+06        -0.49951E+08         0.00000E+00
    0.00000E+00         0.00000E+00        -0.49600E+08
 
   -0.49356E+08         0.14155E+06         0.00000E+00
    0.14155E+06        -0.49947E+08         0.00000E+00
    0.00000E+00         0.00000E+00        -0.49600E+08
 
   -0.49364E+08         0.14848E+06         0.00000E+00
    0.14848E+06        -0.49944E+08         0.00000E+00
    0.00000E+00         0.00000E+00        -0.49600E+08
 
   -0.49373E+08         0.15549E+06         0.00000E+00
    0.15549E+06        -0.49940E+08         0.00000E+00
    0.00000E+00         0.00000E+00        -0.49600E+08
 
   -0.49382E+08         0.16258E+06         0.00000E+00
    0.16258E+06        -0.49936E+08         0.00000E+00
    0.00000E+00         0.00000E+00        -0.49600E+08
 
   -0.49391E+08         0.16975E+06         0.00000E+00
    0.16975E+06        -0.49932E+08         0.00000E+00
    0.00000E+00         0.00000E+00        -0.49600E+08
 
   -0.49400E+08         0.17701E+06         0.00000E+00
    0.17701E+06        -0.49927E+08         0.00000E+00
    0.00000E+00         0.00000E+00        -0.49600E+08
 
   -0.49409E+08         0.18435E+06         0.00000E+00
    0.18435E+06        -0.49923E+08         0.00000E+00
    0.00000E+00         0.00000E+00        -0.49601E+08
 
   -0.49418E+08         0.19176E+06         0.00000E+00
    0.19176E+06        -0.49919E+08         0.00000E+00
    0.00000E+00         0.00000E+00        -0.49601E+08
 
   -0.49428E+08         0.19925E+06         0.00000E+00
    0.19925E+06        -0.49915E+08         0.00000E+00
    0.00000E+00         0.00000E+00        -0.49601E+08
 
   -0.49437E+08         0.20681E+06         0.00000E+00
    0.20681E+06        -0.49910E+08         0.00000E+00
    0.00000E+00         0.00000E+00        -0.49601E+08
 
   -0.49447E+08         0.21444E+06         0.00000E+00
    0.21444E+06        -0.49906E+08         0.00000E+00
    0.00000E+00         0.00000E+00        -0.49601E+08
 
   -0.49457E+08         0.22214E+06         0.00000E+00
    0.22214E+06        -0.49901E+08         0.00000E+00
    0.00000E+00         0.00000E+00        -0.49601E+08
 
   -0.49466E+08         0.22991E+06         0.00000E+00
    0.22991E+06        -0.49897E+08         0.00000E+00
    0.00000E+00         0.00000E+00        -0.49601E+08
 
   -0.49476E+08         0.23775E+06         0.00000E+00
    0.23775E+06        -0.49892E+08         0.00000E+00
    0.00000E+00         0.00000E+00        -0.49601E+08
 
   -0.49486E+08         0.24564E+06         0.00000E+00
    0.24564E+06        -0.49887E+08         0.00000E+00
    0.00000E+00         0.00000E+00        -0.49602E+08
 
   -0.49496E+08         0.25359E+06         0.00000E+00
    0.25359E+06        -0.49883E+08         0.00000E+00
    0.00000E+00         0.00000E+00        -0.49602E+08
 
   -0.49506E+08         0.26161E+06         0.00000E+00
    0.26161E+06        -0.49878E+08         0.00000E+00
    0.00000E+00         0.00000E+00        -0.49602E+08
 
   -0.49516E+08         0.26967E+06         0.00000E+00
    0.26967E+06        -0.49873E+08         0.00000E+00
    0.00000E+00         0.00000E+00        -0.49602E+08
 
   -0.49526E+08         0.27779E+06         0.00000E+00
    0.27779E+06        -0.49868E+08         0.00000E+00
    0.00000E+00         0.00000E+00        -0.49602E+08
 
   -0.49536E+08         0.28595E+06         0.00000E+00
    0.28595E+06        -0.49863E+08         0.00000E+00
    0.00000E+00         0.00000E+00        -0.49602E+08
 
   -0.49546E+08         0.29416E+06         0.00000E+00
    0.29416E+06        -0.49858E+08         0.00000E+00
    0.00000E+00         0.00000E+00        -0.49602E+08
 
   -0.49556E+08         0.30240E+06         0.00000E+00
    0.30240E+06        -0.49853E+08         0.00000E+00
    0.00000E+00         0.00000E+00        -0.49602E+08
 
   -0.49567E+08         0.31069E+06         0.00000E+00
    0.31069E+06        -0.49848E+08         0.00000E+00
    0.00000E+00         0.00000E+00        -0.49602E+08
 
   -0.49577E+08         0.31901E+06         0.00000E+00
    0.31901E+06        -0.49843E+08         0.00000E+00
    0.00000E+00         0.00000E+00        -0.49602E+08
 
   -0.49587E+08         0.32736E+06         0.00000E+00
    0.32736E+06        -0.49838E+08         0.00000E+00
    0.00000E+00         0.00000E+00        -0.49602E+08
 
   -0.49597E+08         0.33573E+06         0.00000E+00
    0.33573E+06        -0.49833E+08         0.00000E+00
    0.00000E+00         0.00000E+00        -0.49602E+08
 
   -0.49195E+08         0.29565E+04         0.00000E+00
    0.29565E+04        -0.50000E+08         0.00000E+00
    0.00000E+00         0.00000E+00        -0.49556E+08
 
   -0.49197E+08         0.89050E+04         0.00000E+00
    0.89050E+04        -0.50000E+08         0.00000E+00
    0.00000E+00         0.00000E+00        -0.49556E+08
 
   -0.49199E+08         0.14876E+05         0.00000E+00
    0.14876E+05        -0.49999E+08         0.00000E+00
    0.00000E+00         0.00000E+00        -0.49556E+08
 
   -0.49201E+08         0.20876E+05         0.00000E+00
    0.20876E+05        -0.49999E+08         0.00000E+00
    0.00000E+00         0.00000E+00        -0.49556E+08
 
   -0.49204E+08         0.26911E+05         0.00000E+00
    0.26911E+05        -0.49998E+08         0.00000E+00
    0.00000E+00         0.00000E+00        -0.49556E+08
 
   -0.49207E+08         0.32986E+05         0.00000E+00
    0.32986E+05        -0.49997E+08         0.00000E+00
    0.00000E+00         0.00000E+00        -0.49556E+08
 
   -0.49211E+08         0.39106E+05         0.00000E+00
    0.39106E+05        -0.49996E+08         0.00000E+00
    0.00000E+00         0.00000E+00        -0.49556E+08
 
   -0.49214E+08         0.45275E+05         0.00000E+00
    0.45275E+05        -0.49994E+08         0.00000E+00
    0.00000E+00         0.00000E+00        -0.49556E+08
 
   -0.49218E+08         0.51498E+05         0.00000E+00
    0.51498E+05        -0.49993E+08         0.00000E+00
    0.00000E+00         0.00000E+00        -0.49556E+08
 
   -0.49223E+08         0.57777E+05         0.00000E+00
    0.57777E+05        -0.49991E+08         0.00000E+00
    0.00000E+00         0.00000E+00        -0.49556E+08
 
   -0.49228E+08         0.64117E+05         0.00000E+00
    0.64117E+05        -0.49989E+08         0.00000E+00
    0.00000E+00         0.00000E+00        -0.49556E+08
 
   -0.49233E+08         0.70519E+05         0.00000E+00
    0.70519E+05        -0.49987E+08         0.00000E+00
    0.00000E+00         0.00000E+00        -0.49556E+08
 
   -0.49238E+08         0.76986E+05         0.00000E+00
    0.76986E+05        -0.49985E+08         0.00000E+00
    0.00000E+00         0.00000E+00        -0.49556E+08
 
   -0.49244E+08         0.83519E+05         0.00000E+00
    0.83519E+05        -0.49983E+08         0.00000E+00
    0.00000E+00         0.00000E+00        -0.49557E+08
 
   -0.49249E+08         0.90122E+05         0.00000E+00
    0.90122E+05        -0.49980E+08         0.00000E+00
    0.00000E+00         0.00000E+00        -0.49557E+08
 
   -0.49256E+08         0.96793E+05         0.00000E+00
    0.96793E+05        -0.49978E+08         0.00000E+00
    0.00000E+00         0.00000E+00        -0.49557E+08
 
   -0.49262E+08         0.10354E+06         0.00000E+00
    0.10354E+06        -0.49975E+08         0.00000E+00
    0.00000E+00         0.00000E+00        -0.49557E+08
 
   -0.49268E+08         0.11035E+06         0.00000E+00
    0.11035E+06        -0.49972E+08         0.00000E+00
    0.00000E+00         0.00000E+00        -0.49557E+08
 
   -0.49275E+08         0.11724E+06         0.00000E+00
    0.11724E+06        -0.49969E+08         0.00000E+00
    0.00000E+00         0.00000E+00        -0.49557E+08
 
   -0.49282E+08         0.12419E+06         0.00000E+00
    0.12419E+06        -0.49966E+08         0.00000E+00
    0.00000E+00         0.00000E+00        -0.49557E+08
 
   -0.49289E+08         0.13122E+06         0.00000E+00
    0.13122E+06        -0.49963E+08         0.00000E+00
    0.00000E+00         0.00000E+00        -0.49557E+08
 
   -0.49297E+08         0.13832E+06         0.00000E+00
    0.13832E+06        -0.49960E+08         0.00000E+00
    0.00000E+00         0.00000E+00        -0.49557E+08
 
   -0.49305E+08         0.14550E+06         0.00000E+00
    0.14550E+06        -0.49956E+08         0.00000E+00
    0.00000E+00         0.00000E+00        -0.49558E+08
 
   -0.49312E+08         0.15274E+06         0.00000E+00
    0.15274E+06        -0.49953E+08         0.00000E+00
    0.00000E+00         0.00000E+00        -0.49558E+08
 
   -0.49320E+08         0.16006E+06         0.00000E+00
    0.16006E+06        -0.49949E+08         0.00000E+00
    0.00000E+00         0.00000E+00        -0.49558E+08
 
   -0.49328E+08         0.16744E+06         0.00000E+00
    0.16744E+06        -0.49946E+08         0.00000E+00
    0.00000E+00         0.00000E+00        -0.49558E+08
 
   -0.49337E+08         0.17489E+06         0.00000E+00
    0.17489E+06        -0.49942E+08         0.00000E+00
    0.00000E+00         0.00000E+00        -0.49558E+08
 
   -0.49345E+08         0.18241E+06         0.00000E+00
    0.18241E+06        -0.49938E+08         0.00000E+00
    0.00000E+00         0.00000E+00        -0.49558E+08
 
   -0.49354E+08         0.18999E+06         0.00000E+00
    0.18999E+06        -0.49934E+08         0.00000E+00
    0.00000E+00         0.00000E+00        -0.49558E+08
 
   -0.49362E+08         0.19764E+06         0.00000E+00
    0.19764E+06        -0.49930E+08         0.00000E+00
    0.00000E+00         0.00000E+00        -0.49558E+08
 
   -0.49371E+08         0.20535E+06         0.00000E+00
    0.20535E+06        -0.49926E+08         0.00000E+00
    0.00000E+00         0.00000E+00        -0.49559E+08
 
   -0.49380E+08         0.21313E+06         0.00000E+00
    0.21313E+06        -0.49922E+08         0.00000E+00
    0.00000E+00         0.00000E+00        -0.49559E+08
 
   -0.49389E+08         0.22096E+06         0.00000E+00
    0.22096E+06        -0.49917E+08         0.00000E+00
    0.00000E+00         0.00000E+00        -0.49559E+08
 
   -0.49398E+08         0.22885E+06         0.00000E+00
    0.22885E+06        -0.49913E+08         0.00000E+00
    0.00000E+00         0.00000E+00        -0.49559E+08
 
   -0.49408E+08         0.23680E+06         0.00000E+00
    0.23680E+06        -0.49909E+08         0.00000E+00
    0.00000E+00         0.00000E+00        -0.49559E+08
 
   -0.49417E+08         0.24480E+06         0.00000E+00
    0.24480E+06        -0.49904E+08         0.00000E+00
    0.00000E+00         0.00000E+00        -0.49559E+08
 
   -0.49427E+08         0.25285E+06         0.00000E+00
    0.25285E+06        -0.49900E+08         0.00000E+00
    0.00000E+00         0.00000E+00        -0.49559E+08
 
   -0.49436E+08         0.26095E+06         0.00000E+00
    0.26095E+06        -0.49895E+08         0.00000E+00
    0.00000E+00         0.00000E+00        -0.49559E+08
 
   -0.49446E+08         0.26910E+06         0.00000E+00
    0.26910E+06        -0.49890E+08         0.00000E+00
    0.00000E+00         0.00000E+00        -0.49559E+08
 
   -0.49455E+08         0.27729E+06         0.00000E+00
    0.27729E+06        -0.49886E+08         0.00000E+00
    0.00000E+00         0.00000E+00        -0.49559E+08
 
   -0.49465E+08         0.28552E+06         0.00000E+00
    0.28552E+06        -0.49881E+08         0.00000E+00
    0.00000E+00         0.00000E+00        -0.49560E+08
 
   -0.49475E+08         0.29380E+06         0.00000E+00
    0.29380E+06        -0.49876E+08         0.00000E+00
    0.00000E+00         0.00000E+00        -0.49560E+08
 
   -0.49485E+08         0.30211E+06         0.00000E+00
    0.30211E+06        -0.49871E+08         0.00000E+00
    0.00000E+00         0.00000E+00        -0.49560E+08
 
   -0.49495E+08         0.31046E+06         0.00000E+00
    0.31046E+06        -0.49867E+08         0.00000E+00
    0.00000E+00         0.00000E+00        -0.49560E+08
 
   -0.49505E+08         0.31883E+06         0.00000E+00
    0.31883E+06        -0.49862E+08         0.00000E+00
    0.00000E+00         0.00000E+00        -0.49560E+08
 
   -0.49515E+08         0.32724E+06         0.00000E+00
    0.32724E+06        -0.49857E+08         0.00000E+00
    0.00000E+00         0.00000E+00        -0.49560E+08
 
   -0.49525E+08         0.33567E+06         0.00000E+00
    0.33567E+06        -0.49852E+08         0.00000E+00
    0.00000E+00         0.00000E+00        -0.49560E+08
 
   -0.49535E+08         0.34411E+06         0.00000E+00
    0.34411E+06        -0.49847E+08         0.00000E+00
    0.00000E+00         0.00000E+00        -0.49560E+08
 
   -0.49545E+08         0.35258E+06         0.00000E+00
    0.35258E+06        -0.49842E+08         0.00000E+00
    0.00000E+00         0.00000E+00        -0.49560E+08
 
   -0.49555E+08         0.36106E+06         0.00000E+00
    0.36106E+06        -0.49837E+08         0.00000E+00
    0.00000E+00         0.00000E+00        -0.49560E+08
 
   -0.49163E+08         0.34840E+04         0.00000E+00
    0.34840E+04        -0.50000E+08         0.00000E+00
    0.00000E+00         0.00000E+00        -0.49513E+08
 
   -0.49165E+08         0.10427E+05         0.00000E+00
    0.10427E+05        -0.50000E+08         0.00000E+00
    0.00000E+00         0.00000E+00        -0.49513E+08
 
   -0.49167E+08         0.17369E+05         0.00000E+00
    0.17369E+05        -0.49999E+08         0.00000E+00
    0.00000E+00         0.00000E+00        -0.49513E+08
 
   -0.49169E+08         0.24317E+05         0.00000E+00
    0.24317E+05        -0.49999E+08         0.00000E+00
    0.00000E+00         0.00000E+00        -0.49513E+08
 
   -0.49171E+08         0.31276E+05         0.00000E+00
    0.31276E+05        -0.49998E+08         0.00000E+00
    0.00000E+00         0.00000E+00        -0.49513E+08
 
   -0.49174E+08         0.38251E+05         0.00000E+00
    0.38251E+05        -0.49997E+08         0.00000E+00
    0.00000E+00         0.00000E+00        -0.49513E+08
 
   -0.49178E+08         0.45248E+05         0.00000E+00
    0.45248E+05        -0.49996E+08         0.00000E+00
    0.00000E+00         0.00000E+00        -0.49513E+08
 
   -0.49181E+08         0.52269E+05         0.00000E+00
    0.52269E+05        -0.49995E+08         0.00000E+00
    0.00000E+00         0.00000E+00        -0.49514E+08
 
   -0.49185E+08         0.59320E+05         0.00000E+00
    0.59320E+05        -0.49993E+08         0.00000E+00
    0.00000E+00         0.00000E+00        -0.49514E+08
 
   -0.49189E+08         0.66404E+05         0.00000E+00
    0.66404E+05        -0.49992E+08         0.00000E+00
    0.00000E+00         0.00000E+00        -0.49514E+08
 
   -0.49194E+08         0.73524E+05         0.00000E+00
    0.73524E+05        -0.49990E+08         0.00000E+00
    0.00000E+00         0.00000E+00        -0.49514E+08
 
   -0.49199E+08         0.80683E+05         0.00000E+00
    0.80683E+05        -0.49988E+08         0.00000E+00
    0.00000E+00         0.00000E+00        -0.49514E+08
 
   -0.49204E+08         0.87884E+05         0.00000E+00
    0.87884E+05        -0.49986E+08         0.00000E+00
    0.00000E+00         0.00000E+00        -0.49514E+08
 
   -0.49209E+08         0.95128E+05         0.00000E+00
    0.95128E+05        -0.49984E+08         0.00000E+00
    0.00000E+00         0.00000E+00        -0.49514E+08
 
   -0.49215E+08         0.10242E+06         0.00000E+00
    0.10242E+06        -0.49981E+08         0.00000E+00
    0.00000E+00         0.00000E+00        -0.49514E+08
 
   -0.49220E+08         0.10976E+06         0.00000E+00
    0.10976E+06        -0.49979E+08         0.00000E+00
    0.00000E+00         0.00000E+00        -0.49514E+08
 
   -0.49226E+08         0.11714E+06         0.00000E+00
    0.11714E+06        -0.49976E+08         0.00000E+00
    0.00000E+00         0.00000E+00        -0.49514E+08
 
   -0.49233E+08         0.12458E+06         0.00000E+00
    0.12458E+06        -0.49974E+08         0.00000E+00
    0.00000E+00         0.00000E+00        -0.49514E+08
 
   -0.49239E+08         0.13207E+06         0.00000E+00
    0.13207E+06        -0.49971E+08         0.00000E+00
    0.00000E+00         0.00000E+00        -0.49514E+08
 
   -0.49246E+08         0.13961E+06         0.00000E+00
    0.13961E+06        -0.49968E+08         0.00000E+00
    0.00000E+00         0.00000E+00        -0.49515E+08
 
   -0.49253E+08         0.14720E+06         0.00000E+00
    0.14720E+06        -0.49965E+08         0.00000E+00
    0.00000E+00         0.00000E+00        -0.49515E+08
 
   -0.49260E+08         0.15484E+06         0.00000E+00
    0.15484E+06        -0.49961E+08         0.00000E+00
    0.00000E+00         0.00000E+00        -0.49515E+08
 
   -0.49267E+08         0.16254E+06         0.00000E+00
    0.16254E+06        -0.49958E+08         0.00000E+00
    0.00000E+00         0.00000E+00        -0.49515E+08
 
   -0.49275E+08         0.17029E+06         0.00000E+00
    0.17029E+06        -0.49955E+08         0.00000E+00
    0.00000E+00         0.00000E+00        -0.49515E+08
 
   -0.49282E+08         0.17809E+06         0.00000E+00
    0.17809E+06        -0.49951E+08         0.00000E+00
    0.00000E+00         0.00000E+00        -0.49515E+08
 
   -0.49290E+08         0.18594E+06         0.00000E+00
    0.18594E+06        -0.49948E+08         0.00000E+00
    0.00000E+00         0.00000E+00        -0.49515E+08
 
   -0.49298E+08         0.19384E+06         0.00000E+00
    0.19384E+06        -0.49944E+08         0.00000E+00
    0.00000E+00         0.00000E+00        -0.49515E+08
 
   -0.49306E+08         0.20179E+06         0.00000E+00
    0.20179E+06        -0.49940E+08         0.00000E+00
    0.00000E+00         0.00000E+00        -0.49515E+08
 
   -0.49315E+08         0.20979E+06         0.00000E+00
    0.20979E+06        -0.49936E+08         0.00000E+00
    0.00000E+00         0.00000E+00        -0.49516E+08
 
   -0.49323E+08         0.21784E+06         0.00000E+00
    0.21784E+06        -0.49932E+08         0.00000E+00
    0.00000E+00         0.00000E+00        -0.49516E+08
 
   -0.49332E+08         0.22594E+06         0.00000E+00
    0.22594E+06        -0.49928E+08         0.00000E+00
    0.00000E+00         0.00000E+00        -0.49516E+08
 
   -0.49340E+08         0.23408E+06         0.00000E+00
    0.23408E+06        -0.49924E+08         0.00000E+00
    0.00000E+00         0.00000E+00        -0.49516E+08
 
   -0.49349E+08         0.24226E+06         0.00000E+00
    0.24226E+06        -0.49920E+08         0.00000E+00
    0.00000E+00         0.00000E+00        -0.49516E+08
 
   -0.49358E+08         0.25049E+06         0.00000E+00
    0.25049E+06        -0.49916E+08         0.00000E+00
    0.00000E+00         0.00000E+00        -0.49516E+08
 
   -0.49367E+08         0.25876E+06         0.00000E+00
    0.25876E+06        -0.49911E+08         0.00000E+00
    0.00000E+00         0.00000E+00        -0.49516E+08
 
   -0.49376E+08         0.26707E+06         0.00000E+00
    0.26707E+06        -0.49907E+08         0.00000E+00
    0.00000E+00         0.00000E+00        -0.49516E+08
 
   -0.49386E+08         0.27541E+06         0.00000E+00
    0.27541E+06        -0.49903E+08         0.00000E+00
    0.00000E+00         0.00000E+00        -0.49516E+08
 
   -0.49395E+08         0.28379E+06         0.00000E+00
    0.28379E+06        -0.49898E+08         0.00000E+00
    0.00000E+00         0.00000E+00        -0.49517E+08
 
   -0.49404E+08         0.29221E+06         0.00000E+00
    0.29221E+06        -0.49894E+08         0.00000E+00
    0.00000E+00         0.00000E+00        -0.49517E+08
 
   -0.49414E+08         0.30065E+06         0.00000E+00
    0.30065E+06        -0.49889E+08         0.00000E+00
    0.00000E+00         0.00000E+00        -0.49517E+08
 
   -0.49423E+08         0.30912E+06         0.00000E+00
    0.30912E+06        -0.49884E+08         0.00000E+00
    0.00000E+00         0.00000E+00        -0.49517E+08
 
   -0.49433E+08         0.31763E+06         0.00000E+00
    0.31763E+06        -0.49880E+08         0.00000E+00
    0.00000E+00         0.00000E+00        -0.49517E+08
 
   -0.49443E+08         0.32615E+06         0.00000E+00
    0.32615E+06        -0.49875E+08         0.00000E+00
    0.00000E+00         0.00000E+00        -0.49517E+08
 
   -0.49452E+08         0.33470E+06         0.00000E+00
    0.33470E+06        -0.49870E+08         0.00000E+00
    0.00000E+00         0.00000E+00        -0.49517E+08
 
   -0.49462E+08         0.34326E+06         0.00000E+00
    0.34326E+06        -0.49865E+08         0.00000E+00
    0.00000E+00         0.00000E+00        -0.49517E+08
 
   -0.49472E+08         0.35184E+06         0.00000E+00
    0.35184E+06        -0.49860E+08         0.00000E+00
    0.00000E+00         0.00000E+00        -0.49517E+08
 
   -0.49482E+08         0.36044E+06         0.00000E+00
    0.36044E+06        -0.49855E+08         0.00000E+00
    0.00000E+00         0.00000E+00        -0.49517E+08
 
   -0.49492E+08         0.36904E+06         0.00000E+00
    0.36904E+06        -0.49850E+08         0.00000E+00
    0.00000E+00         0.00000E+00        -0.49517E+08
 
   -0.49502E+08         0.37766E+06         0.00000E+00
    0.37766E+06        -0.49845E+08         0.00000E+00
    0.00000E+00         0.00000E+00        -0.49517E+08
 
   -0.49512E+08         0.38627E+06         0.00000E+00
    0.38627E+06        -0.49840E+08         0.00000E+00
    0.00000E+00         0.00000E+00        -0.49517E+08
 
   -0.49126E+08         0.39724E+04         0.00000E+00
    0.39724E+04        -0.50000E+08         0.00000E+00
    0.00000E+00         0.00000E+00        -0.49470E+08
 
   -0.49128E+08         0.11846E+05         0.00000E+00
    0.11846E+05        -0.50000E+08         0.00000E+00
    0.00000E+00         0.00000E+00        -0.49470E+08
 
   -0.49130E+08         0.19702E+05         0.00000E+00
    0.19702E+05        -0.49999E+08         0.00000E+00
    0.00000E+00         0.00000E+00        -0.49470E+08
 
   -0.49132E+08         0.27544E+05         0.00000E+00
    0.27544E+05        -0.49999E+08         0.00000E+00
    0.00000E+00         0.00000E+00        -0.49470E+08
 
   -0.49134E+08         0.35380E+05         0.00000E+00
    0.35380E+05        -0.49998E+08         0.00000E+00
    0.00000E+00         0.00000E+00        -0.49470E+08
 
   -0.49137E+08         0.43212E+05         0.00000E+00
    0.43212E+05        -0.49997E+08         0.00000E+00
    0.00000E+00         0.00000E+00        -0.49470E+08
 
   -0.49141E+08         0.51047E+05         0.00000E+00
    0.51047E+05        -0.49996E+08         0.00000E+00
    0.00000E+00         0.00000E+00        -0.49470E+08
 
   -0.49144E+08         0.58887E+05         0.00000E+00
    0.58887E+05        -0.49995E+08         0.00000E+00
    0.00000E+00         0.00000E+00        -0.49470E+08
 
   -0.49148E+08         0.66736E+05         0.00000E+00
    0.66736E+05        -0.49994E+08         0.00000E+00
    0.00000E+00         0.00000E+00        -0.49470E+08
 
   -0.49152E+08         0.74598E+05         0.00000E+00
    0.74598E+05        -0.49992E+08         0.00000E+00
    0.00000E+00         0.00000E+00        -0.49470E+08
 
   -0.49156E+08         0.82477E+05         0.00000E+00
    0.82477E+05        -0.49990E+08         0.00000E+00
    0.00000E+00         0.00000E+00        -0.49470E+08
 
   -0.49161E+08         0.90375E+05         0.00000E+00
    0.90375E+05        -0.49989E+08         0.00000E+00
    0.00000E+00         0.00000E+00        -0.49470E+08
 
   -0.49166E+08         0.98294E+05         0.00000E+00
    0.98294E+05        -0.49987E+08         0.00000E+00
    0.00000E+00         0.00000E+00        -0.49471E+08
 
   -0.49171E+08         0.10624E+06         0.00000E+00
    0.10624E+06        -0.49985E+08         0.00000E+00
    0.00000E+00         0.00000E+00        -0.49471E+08
 
   -0.49176E+08         0.11421E+06         0.00000E+00
    0.11421E+06        -0.49982E+08         0.00000E+00
    0.00000E+00         0.00000E+00        -0.49471E+08
 
   -0.49182E+08         0.12220E+06         0.00000E+00
    0.12220E+06        -0.49980E+08         0.00000E+00
    0.00000E+00         0.00000E+00        -0.49471E+08
 
   -0.49188E+08         0.13023E+06         0.00000E+00
    0.13023E+06        -0.49977E+08         0.00000E+00
    0.00000E+00         0.00000E+00        -0.49471E+08
 
   -0.49194E+08         0.13829E+06         0.00000E+00
    0.13829E+06        -0.49975E+08         0.00000E+00
    0.00000E+00         0.00000E+00        -0.49471E+08
 
   -0.49200E+08         0.14638E+06         0.00000E+00
    0.14638E+06        -0.49972E+08         0.00000E+00
    0.00000E+00         0.00000E+00        -0.49471E+08
 
   -0.49207E+08         0.15450E+06         0.00000E+00
    0.15450E+06        -0.49969E+08         0.00000E+00
    0.00000E+00         0.00000E+00        -0.49471E+08
 
   -0.49213E+08         0.16266E+06         0.00000E+00
    0.16266E+06        -0.49966E+08         0.00000E+00
    0.00000E+00         0.00000E+00        -0.49471E+08
 
   -0.49220E+08         0.17085E+06         0.00000E+00
    0.17085E+06        -0.49963E+08         0.00000E+00
    0.00000E+00         0.00000E+00        -0.49471E+08
 
   -0.49227E+08         0.17907E+06         0.00000E+00
    0.17907E+06        -0.49960E+08         0.00000E+00
    0.00000E+00         0.00000E+00        -0.49472E+08
 
   -0.49235E+08         0.18733E+06         0.00000E+00
    0.18733E+06        -0.49957E+08         0.00000E+00
    0.00000E+00         0.00000E+00        -0.49472E+08
 
   -0.49242E+08         0.19563E+06         0.00000E+00
    0.19563E+06        -0.49953E+08         0.00000E+00
    0.00000E+00         0.00000E+00        -0.49472E+08
 
   -0.49250E+08         0.20396E+06         0.00000E+00
    0.20396E+06        -0.49950E+08         0.00000E+00
    0.00000E+00         0.00000E+00        -0.49472E+08
 
   -0.49257E+08         0.21232E+06         0.00000E+00
    0.21232E+06        -0.49946E+08         0.00000E+00
    0.00000E+00         0.00000E+00        -0.49472E+08
 
   -0.49265E+08         0.22072E+06         0.00000E+00
    0.22072E+06        -0.49942E+08         0.00000E+00
    0.00000E+00         0.00000E+00        -0.49472E+08
 
   -0.49273E+08         0.22914E+06         0.00000E+00
    0.22914E+06        -0.49939E+08         0.00000E+00
    0.00000E+00         0.00000E+00        -0.49472E+08
 
   -0.49282E+08         0.23761E+06         0.00000E+00
    0.23761E+06        -0.49935E+08         0.00000E+00
    0.00000E+00         0.00000E+00        -0.49472E+08
 
   -0.49290E+08         0.24610E+06         0.00000E+00
    0.24610E+06        -0.49931E+08         0.00000E+00
    0.00000E+00         0.00000E+00        -0.49472E+08
 
   -0.49299E+08         0.25462E+06         0.00000E+00
    0.25462E+06        -0.49927E+08         0.00000E+00
    0.00000E+00         0.00000E+00        -0.49473E+08
 
   -0.49307E+08         0.26318E+06         0.00000E+00
    0.26318E+06        -0.49923E+08         0.00000E+00
    0.00000E+00         0.00000E+00        -0.49473E+08
 
   -0.49316E+08         0.27176E+06         0.00000E+00
    0.27176E+06        -0.49918E+08         0.00000E+00
    0.00000E+00         0.00000E+00        -0.49473E+08
 
   -0.49325E+08         0.28036E+06         0.00000E+00
    0.28036E+06        -0.49914E+08         0.00000E+00
    0.00000E+00         0.00000E+00        -0.49473E+08
 
   -0.49334E+08         0.28899E+06         0.00000E+00
    0.28899E+06        -0.49910E+08         0.00000E+00
    0.00000E+00         0.00000E+00        -0.49473E+08
 
   -0.49343E+08         0.29765E+06         0.00000E+00
    0.29765E+06        -0.49905E+08         0.00000E+00
    0.00000E+00         0.00000E+00        -0.49473E+08
 
   -0.49352E+08         0.30633E+06         0.00000E+00
    0.30633E+06        -0.49901E+08         0.00000E+00
    0.00000E+00         0.00000E+00        -0.49473E+08
 
   -0.49361E+08         0.31503E+06         0.00000E+00
    0.31503E+06        -0.49897E+08         0.00000E+00
    0.00000E+00         0.00000E+00        -0.49473E+08
 
   -0.49371E+08         0.32374E+06         0.00000E+00
    0.32374E+06        -0.49892E+08         0.00000E+00
    0.00000E+00         0.00000E+00        -0.49473E+08
 
   -0.49380E+08         0.33248E+06         0.00000E+00
    0.33248E+06        -0.49887E+08         0.00000E+00
    0.00000E+00         0.00000E+00        -0.49473E+08
 
   -0.49390E+08         0.34122E+06         0.00000E+00
    0.34122E+06        -0.49883E+08         0.00000E+00
    0.00000E+00         0.00000E+00        -0.49473E+08
 
   -0.49399E+08         0.34998E+06         0.00000E+00
    0.34998E+06        -0.49878E+08         0.00000E+00
    0.00000E+00         0.00000E+00        -0.49473E+08
 
   -0.49409E+08         0.35875E+06         0.00000E+00
    0.35875E+06        -0.49873E+08         0.00000E+00
    0.00000E+00         0.00000E+00        -0.49474E+08
 
   -0.49419E+08         0.36753E+06         0.00000E+00
    0.36753E+06        -0.49868E+08         0.00000E+00
    0.00000E+00         0.00000E+00        -0.49474E+08
 
   -0.49429E+08         0.37632E+06         0.00000E+00
    0.37632E+06        -0.49863E+08         0.00000E+00
    0.00000E+00         0.00000E+00        -0.49474E+08
 
   -0.49439E+08         0.38510E+06         0.00000E+00
    0.38510E+06        -0.49859E+08         0.00000E+00
    0.00000E+00         0.00000E+00        -0.49474E+08
 
   -0.49449E+08         0.39389E+06         0.00000E+00
    0.39389E+06        -0.49854E+08         0.00000E+00
    0.00000E+00         0.00000E+00        -0.49474E+08
 
   -0.49459E+08         0.40268E+06         0.00000E+00
    0.40268E+06        -0.49849E+08         0.00000E+00
    0.00000E+00         0.00000E+00        -0.49474E+08
 
   -0.49469E+08         0.41146E+06         0.00000E+00
    0.41146E+06        -0.49844E+08         0.00000E+00
    0.00000E+00         0.00000E+00        -0.49474E+08
 
   -0.49084E+08         0.44268E+04         0.00000E+00
    0.44268E+04        -0.50000E+08         0.00000E+00
    0.00000E+00         0.00000E+00        -0.49426E+08
 
   -0.49086E+08         0.13175E+05         0.00000E+00
    0.13175E+05        -0.50000E+08         0.00000E+00
    0.00000E+00         0.00000E+00        -0.49426E+08
 
   -0.49088E+08         0.21892E+05         0.00000E+00
    0.21892E+05        -0.49999E+08         0.00000E+00
    0.00000E+00         0.00000E+00        -0.49426E+08
 
   -0.49090E+08         0.30582E+05         0.00000E+00
    0.30582E+05        -0.49999E+08         0.00000E+00
    0.00000E+00         0.00000E+00        -0.49426E+08
 
   -0.49093E+08         0.39250E+05         0.00000E+00
    0.39250E+05        -0.49998E+08         0.00000E+00
    0.00000E+00         0.00000E+00        -0.49426E+08
 
   -0.49096E+08         0.47900E+05         0.00000E+00
    0.47900E+05        -0.49997E+08         0.00000E+00
    0.00000E+00         0.00000E+00        -0.49426E+08
 
   -0.49099E+08         0.56536E+05         0.00000E+00
    0.56536E+05        -0.49996E+08         0.00000E+00
    0.00000E+00         0.00000E+00        -0.49426E+08
 
   -0.49103E+08         0.65163E+05         0.00000E+00
    0.65163E+05        -0.49995E+08         0.00000E+00
    0.00000E+00         0.00000E+00        -0.49426E+08
 
   -0.49107E+08         0.73782E+05         0.00000E+00
    0.73782E+05        -0.49994E+08         0.00000E+00
    0.00000E+00         0.00000E+00        -0.49426E+08
 
   -0.49111E+08         0.82398E+05         0.00000E+00
    0.82398E+05        -0.49993E+08         0.00000E+00
    0.00000E+00         0.00000E+00        -0.49426E+08
 
   -0.49115E+08         0.91014E+05         0.00000E+00
    0.91014E+05        -0.49991E+08         0.00000E+00
    0.00000E+00         0.00000E+00        -0.49426E+08
 
   -0.49120E+08         0.99631E+05         0.00000E+00
    0.99631E+05        -0.49989E+08         0.00000E+00
    0.00000E+00         0.00000E+00        -0.49426E+08
 
   -0.49124E+08         0.10825E+06         0.00000E+00
    0.10825E+06        -0.49987E+08         0.00000E+00
    0.00000E+00         0.00000E+00        -0.49426E+08
 
   -0.49129E+08         0.11688E+06         0.00000E+00
    0.11688E+06        -0.49985E+08         0.00000E+00
    0.00000E+00         0.00000E+00        -0.49426E+08
 
   -0.49135E+08         0.12552E+06         0.00000E+00
    0.12552E+06        -0.49983E+08         0.00000E+00
    0.00000E+00         0.00000E+00        -0.49427E+08
 
   -0.49140E+08         0.13417E+06         0.00000E+00
    0.13417E+06        -0.49981E+08         0.00000E+00
    0.00000E+00         0.00000E+00        -0.49427E+08
 
   -0.49146E+08         0.14283E+06         0.00000E+00
    0.14283E+06        -0.49978E+08         0.00000E+00
    0.00000E+00         0.00000E+00        -0.49427E+08
 
   -0.49152E+08         0.15151E+06         0.00000E+00
    0.15151E+06        -0.49976E+08         0.00000E+00
    0.00000E+00         0.00000E+00        -0.49427E+08
 
   -0.49158E+08         0.16020E+06         0.00000E+00
    0.16020E+06        -0.49973E+08         0.00000E+00
    0.00000E+00         0.00000E+00        -0.49427E+08
 
   -0.49164E+08         0.16891E+06         0.00000E+00
    0.16891E+06        -0.49970E+08         0.00000E+00
    0.00000E+00         0.00000E+00        -0.49427E+08
 
   -0.49171E+08         0.17763E+06         0.00000E+00
    0.17763E+06        -0.49968E+08         0.00000E+00
    0.00000E+00         0.00000E+00        -0.49427E+08
 
   -0.49178E+08         0.18638E+06         0.00000E+00
    0.18638E+06        -0.49965E+08         0.00000E+00
    0.00000E+00         0.00000E+00        -0.49427E+08
 
   -0.49185E+08         0.19514E+06         0.00000E+00
    0.19514E+06        -0.49961E+08         0.00000E+00
    0.00000E+00         0.00000E+00        -0.49427E+08
 
   -0.49192E+08         0.20392E+06         0.00000E+00
    0.20392E+06        -0.49958E+08         0.00000E+00
    0.00000E+00         0.00000E+00        -0.49427E+08
 
   -0.49199E+08         0.21271E+06         0.00000E+00
    0.21271E+06        -0.49955E+08         0.00000E+00
    0.00000E+00         0.00000E+00        -0.49427E+08
 
   -0.49207E+08         0.22153E+06         0.00000E+00
    0.22153E+06        -0.49951E+08         0.00000E+00
    0.00000E+00         0.00000E+00        -0.49428E+08
 
   -0.49214E+08         0.23037E+06         0.00000E+00
    0.23037E+06        -0.49948E+08         0.00000E+00
    0.00000E+00         0.00000E+00        -0.49428E+08
 
   -0.49222E+08         0.23922E+06         0.00000E+00
    0.23922E+06        -0.49944E+08         0.00000E+00
    0.00000E+00         0.00000E+00        -0.49428E+08
 
   -0.49230E+08         0.24809E+06         0.00000E+00
    0.24809E+06        -0.49941E+08         0.00000E+00
    0.00000E+00         0.00000E+00        -0.49428E+08
 
   -0.49238E+08         0.25698E+06         0.00000E+00
    0.25698E+06        -0.49937E+08         0.00000E+00
    0.00000E+00         0.00000E+00        -0.49428E+08
 
   -0.49247E+08         0.26589E+06         0.00000E+00
    0.26589E+06        -0.49933E+08         0.00000E+00
    0.00000E+00         0.00000E+00        -0.49428E+08
 
   -0.49255E+08         0.27481E+06         0.00000E+00
    0.27481E+06        -0.49929E+08         0.00000E+00
    0.00000E+00         0.00000E+00        -0.49428E+08
 
   -0.49263E+08         0.28375E+06         0.00000E+00
    0.28375E+06        -0.49925E+08         0.00000E+00
    0.00000E+00         0.00000E+00        -0.49428E+08
 
   -0.49272E+08         0.29270E+06         0.00000E+00
    0.29270E+06        -0.49921E+08         0.00000E+00
    0.00000E+00         0.00000E+00        -0.49428E+08
 
   -0.49281E+08         0.30166E+06         0.00000E+00
    0.30166E+06        -0.49917E+08         0.00000E+00
    0.00000E+00         0.00000E+00        -0.49429E+08
 
   -0.49290E+08         0.31064E+06         0.00000E+00
    0.31064E+06        -0.49912E+08         0.00000E+00
    0.00000E+00         0.00000E+00        -0.49429E+08
 
   -0.49299E+08         0.31963E+06         0.00000E+00
    0.31963E+06        -0.49908E+08         0.00000E+00
    0.00000E+00         0.00000E+00        -0.49429E+08
 
   -0.49308E+08         0.32862E+06         0.00000E+00
    0.32862E+06        -0.49904E+08         0.00000E+00
    0.00000E+00         0.00000E+00        -0.49429E+08
 
   -0.49317E+08         0.33763E+06         0.00000E+00
    0.33763E+06        -0.49899E+08         0.00000E+00
    0.00000E+00         0.00000E+00        -0.49429E+08
 
   -0.49326E+08         0.34664E+06         0.00000E+00
    0.34664E+06        -0.49895E+08         0.00000E+00
    0.00000E+00         0.00000E+00        -0.49429E+08
 
   -0.49336E+08         0.35566E+06         0.00000E+00
    0.35566E+06        -0.49890E+08         0.00000E+00
    0.00000E+00         0.00000E+00        -0.49429E+08
 
   -0.49345E+08         0.36468E+06         0.00000E+00
    0.36468E+06        -0.49885E+08         0.00000E+00
    0.00000E+00         0.00000E+00        -0.49429E+08
 
   -0.49355E+08         0.37370E+06         0.00000E+00
    0.37370E+06        -0.49881E+08         0.00000E+00
    0.00000E+00         0.00000E+00        -0.49429E+08
 
   -0.49365E+08         0.38272E+06         0.00000E+00
    0.38272E+06        -0.49876E+08         0.00000E+00
    0.00000E+00         0.00000E+00        -0.49429E+08
 
   -0.49374E+08         0.39174E+06         0.00000E+00
    0.39174E+06        -0.49871E+08         0.00000E+00
    0.00000E+00         0.00000E+00        -0.49429E+08
 
   -0.49384E+08         0.40075E+06         0.00000E+00
    0.40075E+06        -0.49866E+08         0.00000E+00
    0.00000E+00         0.00000E+00        -0.49429E+08
 
   -0.49394E+08         0.40976E+06         0.00000E+00
    0.40976E+06        -0.49861E+08         0.00000E+00
    0.00000E+00         0.00000E+00        -0.49429E+08
 
   -0.49404E+08         0.41876E+06         0.00000E+00
    0.41876E+06        -0.49856E+08         0.00000E+00
    0.00000E+00         0.00000E+00        -0.49429E+08
 
   -0.49414E+08         0.42775E+06         0.00000E+00
    0.42775E+06        -0.49851E+08         0.00000E+00
    0.00000E+00         0.00000E+00        -0.49429E+08
 
   -0.49424E+08         0.43673E+06         0.00000E+00
    0.43673E+06        -0.49846E+08         0.00000E+00
    0.00000E+00         0.00000E+00        -0.49429E+08
 
   -0.49038E+08         0.48524E+04         0.00000E+00
    0.48524E+04        -0.50000E+08         0.00000E+00
    0.00000E+00         0.00000E+00        -0.49381E+08
 
   -0.49040E+08         0.14427E+05         0.00000E+00
    0.14427E+05        -0.50000E+08         0.00000E+00
    0.00000E+00         0.00000E+00        -0.49381E+08
 
   -0.49043E+08         0.23961E+05         0.00000E+00
    0.23961E+05        -0.49999E+08         0.00000E+00
    0.00000E+00         0.00000E+00        -0.49381E+08
 
   -0.49045E+08         0.33457E+05         0.00000E+00
    0.33457E+05        -0.49999E+08         0.00000E+00
    0.00000E+00         0.00000E+00        -0.49381E+08
 
   -0.49048E+08         0.42919E+05         0.00000E+00
    0.42919E+05        -0.49998E+08         0.00000E+00
    0.00000E+00         0.00000E+00        -0.49381E+08
 
   -0.49051E+08         0.52352E+05         0.00000E+00
    0.52352E+05        -0.49998E+08         0.00000E+00
    0.00000E+00         0.00000E+00        -0.49381E+08
 
   -0.49054E+08         0.61759E+05         0.00000E+00
    0.61759E+05        -0.49997E+08         0.00000E+00
    0.00000E+00         0.00000E+00        -0.49381E+08
 
   -0.49058E+08         0.71143E+05         0.00000E+00
    0.71143E+05        -0.49996E+08         0.00000E+00
    0.00000E+00         0.00000E+00        -0.49381E+08
 
   -0.49062E+08         0.80507E+05         0.00000E+00
    0.80507E+05        -0.49994E+08         0.00000E+00
    0.00000E+00         0.00000E+00        -0.49381E+08
 
   -0.49066E+08         0.89854E+05         0.00000E+00
    0.89854E+05        -0.49993E+08         0.00000E+00
    0.00000E+00         0.00000E+00        -0.49381E+08
 
   -0.49070E+08         0.99187E+05         0.00000E+00
    0.99187E+05        -0.49991E+08         0.00000E+00
    0.00000E+00         0.00000E+00        -0.49381E+08
 
   -0.49075E+08         0.10851E+06         0.00000E+00
    0.10851E+06        -0.49990E+08         0.00000E+00
    0.00000E+00         0.00000E+00        -0.49381E+08
 
   -0.49080E+08         0.11782E+06         0.00000E+00
    0.11782E+06        -0.49988E+08         0.00000E+00
    0.00000E+00         0.00000E+00        -0.49381E+08
 
   -0.49085E+08         0.12712E+06         0.00000E+00
    0.12712E+06        -0.49986E+08         0.00000E+00
    0.00000E+00         0.00000E+00        -0.49381E+08
 
   -0.49090E+08         0.13642E+06         0.00000E+00
    0.13642E+06        -0.49984E+08         0.00000E+00
    0.00000E+00         0.00000E+00        -0.49381E+08
 
   -0.49095E+08         0.14572E+06         0.00000E+00
    0.14572E+06        -0.49982E+08         0.00000E+00
    0.00000E+00         0.00000E+00        -0.49381E+08
 
   -0.49101E+08         0.15501E+06         0.00000E+00
    0.15501E+06        -0.49979E+08         0.00000E+00
    0.00000E+00         0.00000E+00        -0.49381E+08
 
   -0.49107E+08         0.16430E+06         0.00000E+00
    0.16430E+06        -0.49977E+08         0.00000E+00
    0.00000E+00         0.00000E+00        -0.49382E+08
 
   -0.49113E+08         0.17360E+06         0.00000E+00
    0.17360E+06        -0.49974E+08         0.00000E+00
    0.00000E+00         0.00000E+00        -0.49382E+08
 
   -0.49119E+08         0.18289E+06         0.00000E+00
    0.18289E+06        -0.49972E+08         0.00000E+00
    0.00000E+00         0.00000E+00        -0.49382E+08
 
   -0.49126E+08         0.19219E+06         0.00000E+00
    0.19219E+06        -0.49969E+08         0.00000E+00
    0.00000E+00         0.00000E+00        -0.49382E+08
 
   -0.49133E+08         0.20149E+06         0.00000E+00
    0.20149E+06        -0.49966E+08         0.00000E+00
    0.00000E+00         0.00000E+00        -0.49382E+08
 
   -0.49140E+08         0.21079E+06         0.00000E+00
    0.21079E+06        -0.49963E+08         0.00000E+00
    0.00000E+00         0.00000E+00        -0.49382E+08
 
   -0.49147E+08         0.22010E+06         0.00000E+00
    0.22010E+06        -0.49960E+08         0.00000E+00
    0.00000E+00         0.00000E+00        -0.49382E+08
 
   -0.49154E+08         0.22941E+06         0.00000E+00
    0.22941E+06        -0.49956E+08         0.00000E+00
    0.00000E+00         0.00000E+00        -0.49382E+08
 
   -0.49161E+08         0.23872E+06         0.00000E+00
    0.23872E+06        -0.49953E+08         0.00000E+00
    0.00000E+00         0.00000E+00        -0.49382E+08
 
   -0.49169E+08         0.24804E+06         0.00000E+00
    0.24804E+06        -0.49950E+08         0.00000E+00
    0.00000E+00         0.00000E+00        -0.49382E+08
 
   -0.49177E+08         0.25737E+06         0.00000E+00
    0.25737E+06        -0.49946E+08         0.00000E+00
    0.00000E+00         0.00000E+00        -0.49383E+08
 
   -0.49185E+08         0.26670E+06         0.00000E+00
    0.26670E+06        -0.49942E+08         0.00000E+00
    0.00000E+00         0.00000E+00        -0.49383E+08
 
   -0.49193E+08         0.27603E+06         0.00000E+00
    0.27603E+06        -0.49939E+08         0.00000E+00
    0.00000E+00         0.00000E+00        -0.49383E+08
 
   -0.49201E+08         0.28537E+06         0.00000E+00
    0.28537E+06        -0.49935E+08         0.00000E+00
    0.00000E+00         0.00000E+00        -0.49383E+08
 
   -0.49209E+08         0.29471E+06         0.00000E+00
    0.29471E+06        -0.49931E+08         0.00000E+00
    0.00000E+00         0.00000E+00        -0.49383E+08
 
   -0.49218E+08         0.30405E+06         0.00000E+00
    0.30405E+06        -0.49927E+08         0.00000E+00
    0.00000E+00         0.00000E+00        -0.49383E+08
 
   -0.49226E+08         0.31339E+06         0.00000E+00
    0.31339E+06        -0.49923E+08         0.00000E+00
    0.00000E+00         0.00000E+00        -0.49383E+08
 
   -0.49235E+08         0.32274E+06         0.00000E+00
    0.32274E+06        -0.49919E+08         0.00000E+00
    0.00000E+00         0.00000E+00        -0.49383E+08
 
   -0.49244E+08         0.33208E+06         0.00000E+00
    0.33208E+06        -0.49914E+08         0.00000E+00
    0.00000E+00         0.00000E+00        -0.49383E+08
 
   -0.49253E+08         0.34142E+06         0.00000E+00
    0.34142E+06        -0.49910E+08         0.00000E+00
    0.00000E+00         0.00000E+00        -0.49383E+08
 
   -0.49262E+08         0.35076E+06         0.00000E+00
    0.35076E+06        -0.49906E+08         0.00000E+00
    0.00000E+00         0.00000E+00        -0.49383E+08
 
   -0.49271E+08         0.36010E+06         0.00000E+00
    0.36010E+06        -0.49901E+08         0.00000E+00
    0.00000E+00         0.00000E+00        -0.49384E+08
 
   -0.49281E+08         0.36943E+06         0.00000E+00
    0.36943E+06        -0.49897E+08         0.00000E+00
    0.00000E+00         0.00000E+00        -0.49384E+08
 
   -0.49290E+08         0.37875E+06         0.00000E+00
    0.37875E+06        -0.49892E+08         0.00000E+00
    0.00000E+00         0.00000E+00        -0.49384E+08
 
   -0.49300E+08         0.38807E+06         0.00000E+00
    0.38807E+06        -0.49888E+08         0.00000E+00
    0.00000E+00         0.00000E+00        -0.49384E+08
 
   -0.49309E+08         0.39738E+06         0.00000E+00
    0.39738E+06        -0.49883E+08         0.00000E+00
    0.00000E+00         0.00000E+00        -0.49384E+08
 
   -0.49319E+08         0.40668E+06         0.00000E+00
    0.40668E+06        -0.49878E+08         0.00000E+00
    0.00000E+00         0.00000E+00        -0.49384E+08
 
   -0.49329E+08         0.41596E+06         0.00000E+00
    0.41596E+06        -0.49873E+08         0.00000E+00
    0.00000E+00         0.00000E+00        -0.49384E+08
 
   -0.49339E+08         0.42524E+06         0.00000E+00
    0.42524E+06        -0.49868E+08         0.00000E+00
    0.00000E+00         0.00000E+00        -0.49384E+08
 
   -0.49349E+08         0.43449E+06         0.00000E+00
    0.43449E+06        -0.49863E+08         0.00000E+00
    0.00000E+00         0.00000E+00        -0.49384E+08
 
   -0.49359E+08         0.44374E+06         0.00000E+00
    0.44374E+06        -0.49858E+08         0.00000E+00
    0.00000E+00         0.00000E+00        -0.49384E+08
 
   -0.49369E+08         0.45296E+06         0.00000E+00
    0.45296E+06        -0.49853E+08         0.00000E+00
    0.00000E+00         0.00000E+00        -0.49384E+08
 
   -0.49379E+08         0.46216E+06         0.00000E+00
    0.46216E+06        -0.49848E+08         0.00000E+00
    0.00000E+00         0.00000E+00        -0.49384E+08
 
   -0.48988E+08         0.52548E+04         0.00000E+00
    0.52548E+04        -0.50000E+08         0.00000E+00
    0.00000E+00         0.00000E+00        -0.49334E+08
 
   -0.48991E+08         0.15617E+05         0.00000E+00
    0.15617E+05        -0.50000E+08         0.00000E+00
    0.00000E+00         0.00000E+00        -0.49334E+08
 
   -0.48993E+08         0.25930E+05         0.00000E+00
    0.25930E+05        -0.49999E+08         0.00000E+00
    0.00000E+00         0.00000E+00        -0.49334E+08
 
   -0.48996E+08         0.36197E+05         0.00000E+00
    0.36197E+05        -0.49999E+08         0.00000E+00
    0.00000E+00         0.00000E+00        -0.49334E+08
 
   -0.48999E+08         0.46423E+05         0.00000E+00
    0.46423E+05        -0.49998E+08         0.00000E+00
    0.00000E+00         0.00000E+00        -0.49334E+08
 
   -0.49002E+08         0.56610E+05         0.00000E+00
    0.56610E+05        -0.49998E+08         0.00000E+00
    0.00000E+00         0.00000E+00        -0.49334E+08
 
   -0.49005E+08         0.66760E+05         0.00000E+00
    0.66760E+05        -0.49997E+08         0.00000E+00
    0.00000E+00         0.00000E+00        -0.49334E+08
 
   -0.49009E+08         0.76878E+05         0.00000E+00
    0.76878E+05        -0.49996E+08         0.00000E+00
    0.00000E+00         0.00000E+00        -0.49334E+08
 
   -0.49013E+08         0.86965E+05         0.00000E+00
    0.86965E+05        -0.49995E+08         0.00000E+00
    0.00000E+00         0.00000E+00        -0.49334E+08
 
   -0.49017E+08         0.97024E+05         0.00000E+00
    0.97024E+05        -0.49993E+08         0.00000E+00
    0.00000E+00         0.00000E+00        -0.49334E+08
 
   -0.49022E+08         0.10706E+06         0.00000E+00
    0.10706E+06        -0.49992E+08         0.00000E+00
    0.00000E+00         0.00000E+00        -0.49335E+08
 
   -0.49026E+08         0.11707E+06         0.00000E+00
    0.11707E+06        -0.49990E+08         0.00000E+00
    0.00000E+00         0.00000E+00        -0.49335E+08
 
   -0.49031E+08         0.12706E+06         0.00000E+00
    0.12706E+06        -0.49988E+08         0.00000E+00
    0.00000E+00         0.00000E+00        -0.49335E+08
 
   -0.49036E+08         0.13703E+06         0.00000E+00
    0.13703E+06        -0.49986E+08         0.00000E+00
    0.00000E+00         0.00000E+00        -0.49335E+08
 
   -0.49042E+08         0.14698E+06         0.00000E+00
    0.14698E+06        -0.49984E+08         0.00000E+00
    0.00000E+00         0.00000E+00        -0.49335E+08
 
   -0.49047E+08         0.15691E+06         0.00000E+00
    0.15691E+06        -0.49982E+08         0.00000E+00
    0.00000E+00         0.00000E+00        -0.49335E+08
 
   -0.49053E+08         0.16683E+06         0.00000E+00
    0.16683E+06        -0.49980E+08         0.00000E+00
    0.00000E+00         0.00000E+00        -0.49335E+08
 
   -0.49059E+08         0.17674E+06         0.00000E+00
    0.17674E+06        -0.49978E+08         0.00000E+00
    0.00000E+00         0.00000E+00        -0.49335E+08
 
   -0.49065E+08         0.18664E+06         0.00000E+00
    0.18664E+06        -0.49975E+08         0.00000E+00
    0.00000E+00         0.00000E+00        -0.49335E+08
 
   -0.49071E+08         0.19652E+06         0.00000E+00
    0.19652E+06        -0.49972E+08         0.00000E+00
    0.00000E+00         0.00000E+00        -0.49335E+08
 
   -0.49078E+08         0.20639E+06         0.00000E+00
    0.20639E+06        -0.49970E+08         0.00000E+00
    0.00000E+00         0.00000E+00        -0.49335E+08
 
   -0.49085E+08         0.21625E+06         0.00000E+00
    0.21625E+06        -0.49967E+08         0.00000E+00
    0.00000E+00         0.00000E+00        -0.49335E+08
 
   -0.49092E+08         0.22611E+06         0.00000E+00
    0.22611E+06        -0.49964E+08         0.00000E+00
    0.00000E+00         0.00000E+00        -0.49336E+08
 
   -0.49099E+08         0.23595E+06         0.00000E+00
    0.23595E+06        -0.49961E+08         0.00000E+00
    0.00000E+00         0.00000E+00        -0.49336E+08
 
   -0.49106E+08         0.24579E+06         0.00000E+00
    0.24579E+06        -0.49958E+08         0.00000E+00
    0.00000E+00         0.00000E+00        -0.49336E+08
 
   -0.49114E+08         0.25561E+06         0.00000E+00
    0.25561E+06        -0.49954E+08         0.00000E+00
    0.00000E+00         0.00000E+00        -0.49336E+08
 
   -0.49121E+08         0.26543E+06         0.00000E+00
    0.26543E+06        -0.49951E+08         0.00000E+00
    0.00000E+00         0.00000E+00        -0.49336E+08
 
   -0.49129E+08         0.27524E+06         0.00000E+00
    0.27524E+06        -0.49947E+08         0.00000E+00
    0.00000E+00         0.00000E+00        -0.49336E+08
 
   -0.49137E+08         0.28505E+06         0.00000E+00
    0.28505E+06        -0.49944E+08         0.00000E+00
    0.00000E+00         0.00000E+00        -0.49336E+08
 
   -0.49145E+08         0.29484E+06         0.00000E+00
    0.29484E+06        -0.49940E+08         0.00000E+00
    0.00000E+00         0.00000E+00        -0.49336E+08
 
   -0.49153E+08         0.30463E+06         0.00000E+00
    0.30463E+06        -0.49936E+08         0.00000E+00
    0.00000E+00         0.00000E+00        -0.49336E+08
 
   -0.49161E+08         0.31440E+06         0.00000E+00
    0.31440E+06        -0.49932E+08         0.00000E+00
    0.00000E+00         0.00000E+00        -0.49336E+08
 
   -0.49170E+08         0.32417E+06         0.00000E+00
    0.32417E+06        -0.49928E+08         0.00000E+00
    0.00000E+00         0.00000E+00        -0.49337E+08
 
   -0.49179E+08         0.33392E+06         0.00000E+00
    0.33392E+06        -0.49924E+08         0.00000E+00
    0.00000E+00         0.00000E+00        -0.49337E+08
 
   -0.49187E+08         0.34367E+06         0.00000E+00
    0.34367E+06        -0.49920E+08         0.00000E+00
    0.00000E+00         0.00000E+00        -0.49337E+08
 
   -0.49196E+08         0.35340E+06         0.00000E+00
    0.35340E+06        -0.49916E+08         0.00000E+00
    0.00000E+00         0.00000E+00        -0.49337E+08
 
   -0.49205E+08         0.36312E+06         0.00000E+00
    0.36312E+06        -0.49912E+08         0.00000E+00
    0.00000E+00         0.00000E+00        -0.49337E+08
 
   -0.49214E+08         0.37283E+06         0.00000E+00
    0.37283E+06        -0.49907E+08         0.00000E+00
    0.00000E+00         0.00000E+00        -0.49337E+08
 
   -0.49224E+08         0.38252E+06         0.00000E+00
    0.38252E+06        -0.49903E+08         0.00000E+00
    0.00000E+00         0.00000E+00        -0.49337E+08
 
   -0.49233E+08         0.39220E+06         0.00000E+00
    0.39220E+06        -0.49898E+08         0.00000E+00
    0.00000E+00         0.00000E+00        -0.49337E+08
 
   -0.49243E+08         0.40186E+06         0.00000E+00
    0.40186E+06        -0.49894E+08         0.00000E+00
    0.00000E+00         0.00000E+00        -0.49337E+08
 
   -0.49252E+08         0.41150E+06         0.00000E+00
    0.41150E+06        -0.49889E+08         0.00000E+00
    0.00000E+00         0.00000E+00        -0.49337E+08
 
   -0.49262E+08         0.42113E+06         0.00000E+00
    0.42113E+06        -0.49884E+08         0.00000E+00
    0.00000E+00         0.00000E+00        -0.49337E+08
 
   -0.49272E+08         0.43073E+06         0.00000E+00
    0.43073E+06        -0.49880E+08         0.00000E+00
    0.00000E+00         0.00000E+00        -0.49337E+08
 
   -0.49282E+08         0.44031E+06         0.00000E+00
    0.44031E+06        -0.49875E+08         0.00000E+00
    0.00000E+00         0.00000E+00        -0.49337E+08
 
   -0.49292E+08         0.44987E+06         0.00000E+00
    0.44987E+06        -0.49870E+08         0.00000E+00
    0.00000E+00         0.00000E+00        -0.49337E+08
 
   -0.49302E+08         0.45941E+06         0.00000E+00
    0.45941E+06        -0.49865E+08         0.00000E+00
    0.00000E+00         0.00000E+00        -0.49337E+08
 
   -0.49312E+08         0.46892E+06         0.00000E+00
    0.46892E+06        -0.49860E+08         0.00000E+00
    0.00000E+00         0.00000E+00        -0.49337E+08
 
   -0.49322E+08         0.47840E+06         0.00000E+00
    0.47840E+06        -0.49855E+08         0.00000E+00
    0.00000E+00         0.00000E+00        -0.49338E+08
 
   -0.49332E+08         0.48786E+06         0.00000E+00
    0.48786E+06        -0.49850E+08         0.00000E+00
    0.00000E+00         0.00000E+00        -0.49338E+08
 
   -0.48935E+08         0.56389E+04         0.00000E+00
    0.56389E+04        -0.50000E+08         0.00000E+00
    0.00000E+00         0.00000E+00        -0.49286E+08
 
   -0.48937E+08         0.16757E+05         0.00000E+00
    0.16757E+05        -0.50000E+08         0.00000E+00
    0.00000E+00         0.00000E+00        -0.49286E+08
 
   -0.48940E+08         0.27820E+05         0.00000E+00
    0.27820E+05        -0.50000E+08         0.00000E+00
    0.00000E+00         0.00000E+00        -0.49286E+08
 
   -0.48943E+08         0.38833E+05         0.00000E+00
    0.38833E+05        -0.49999E+08         0.00000E+00
    0.00000E+00         0.00000E+00        -0.49286E+08
 
   -0.48946E+08         0.49796E+05         0.00000E+00
    0.49796E+05        -0.49998E+08         0.00000E+00
    0.00000E+00         0.00000E+00        -0.49287E+08
 
   -0.48949E+08         0.60714E+05         0.00000E+00
    0.60714E+05        -0.49998E+08         0.00000E+00
    0.00000E+00         0.00000E+00        -0.49287E+08
 
   -0.48953E+08         0.71588E+05         0.00000E+00
    0.71588E+05        -0.49997E+08         0.00000E+00
    0.00000E+00         0.00000E+00        -0.49287E+08
 
   -0.48957E+08         0.82420E+05         0.00000E+00
    0.82420E+05        -0.49996E+08         0.00000E+00
    0.00000E+00         0.00000E+00        -0.49287E+08
 
   -0.48961E+08         0.93214E+05         0.00000E+00
    0.93214E+05        -0.49995E+08         0.00000E+00
    0.00000E+00         0.00000E+00        -0.49287E+08
 
   -0.48965E+08         0.10397E+06         0.00000E+00
    0.10397E+06        -0.49993E+08         0.00000E+00
    0.00000E+00         0.00000E+00        -0.49287E+08
 
   -0.48970E+08         0.11469E+06         0.00000E+00
    0.11469E+06        -0.49992E+08         0.00000E+00
    0.00000E+00         0.00000E+00        -0.49287E+08
 
   -0.48975E+08         0.12538E+06         0.00000E+00
    0.12538E+06        -0.49990E+08         0.00000E+00
    0.00000E+00         0.00000E+00        -0.49287E+08
 
   -0.48980E+08         0.13604E+06         0.00000E+00
    0.13604E+06        -0.49989E+08         0.00000E+00
    0.00000E+00         0.00000E+00        -0.49287E+08
 
   -0.48985E+08         0.14667E+06         0.00000E+00
    0.14667E+06        -0.49987E+08         0.00000E+00
    0.00000E+00         0.00000E+00        -0.49287E+08
 
   -0.48990E+08         0.15727E+06         0.00000E+00
    0.15727E+06        -0.49985E+08         0.00000E+00
    0.00000E+00         0.00000E+00        -0.49287E+08
 
   -0.48996E+08         0.16784E+06         0.00000E+00
    0.16784E+06        -0.49983E+08         0.00000E+00
    0.00000E+00         0.00000E+00        -0.49287E+08
 
   -0.49002E+08         0.17838E+06         0.00000E+00
    0.17838E+06        -0.49981E+08         0.00000E+00
    0.00000E+00         0.00000E+00        -0.49287E+08
 
   -0.49008E+08         0.18891E+06         0.00000E+00
    0.18891E+06        -0.49978E+08         0.00000E+00
    0.00000E+00         0.00000E+00        -0.49287E+08
 
   -0.49014E+08         0.19940E+06         0.00000E+00
    0.19940E+06        -0.49976E+08         0.00000E+00
    0.00000E+00         0.00000E+00        -0.49287E+08
 
   -0.49021E+08         0.20988E+06         0.00000E+00
    0.20988E+06        -0.49973E+08         0.00000E+00
    0.00000E+00         0.00000E+00        -0.49287E+08
 
   -0.49027E+08         0.22033E+06         0.00000E+00
    0.22033E+06        -0.49970E+08         0.00000E+00
    0.00000E+00         0.00000E+00        -0.49288E+08
 
   -0.49034E+08         0.23077E+06         0.00000E+00
    0.23077E+06        -0.49968E+08         0.00000E+00
    0.00000E+00         0.00000E+00        -0.49288E+08
 
   -0.49041E+08         0.24118E+06         0.00000E+00
    0.24118E+06        -0.49965E+08         0.00000E+00
    0.00000E+00         0.00000E+00        -0.49288E+08
 
   -0.49048E+08         0.25157E+06         0.00000E+00
    0.25157E+06        -0.49962E+08         0.00000E+00
    0.00000E+00         0.00000E+00        -0.49288E+08
 
   -0.49056E+08         0.26194E+06         0.00000E+00
    0.26194E+06        -0.49958E+08         0.00000E+00
    0.00000E+00         0.00000E+00        -0.49288E+08
 
   -0.49063E+08         0.27229E+06         0.00000E+00
    0.27229E+06        -0.49955E+08         0.00000E+00
    0.00000E+00         0.00000E+00        -0.49288E+08
 
   -0.49071E+08         0.28262E+06         0.00000E+00
    0.28262E+06        -0.49952E+08         0.00000E+00
    0.00000E+00         0.00000E+00        -0.49288E+08
 
   -0.49079E+08         0.29294E+06         0.00000E+00
    0.29294E+06        -0.49948E+08         0.00000E+00
    0.00000E+00         0.00000E+00        -0.49288E+08
 
   -0.49087E+08         0.30323E+06         0.00000E+00
    0.30323E+06        -0.49945E+08         0.00000E+00
    0.00000E+00         0.00000E+00        -0.49288E+08
 
   -0.49095E+08         0.31350E+06         0.00000E+00
    0.31350E+06        -0.49941E+08         0.00000E+00
    0.00000E+00         0.00000E+00        -0.49288E+08
 
   -0.49103E+08         0.32376E+06         0.00000E+00
    0.32376E+06        -0.49937E+08         0.00000E+00
    0.00000E+00         0.00000E+00        -0.49289E+08
 
   -0.49111E+08         0.33399E+06         0.00000E+00
    0.33399E+06        -0.49933E+08         0.00000E+00
    0.00000E+00         0.00000E+00        -0.49289E+08
 
   -0.49120E+08         0.34420E+06         0.00000E+00
    0.34420E+06        -0.49929E+08         0.00000E+00
    0.00000E+00         0.00000E+00        -0.49289E+08
 
   -0.49129E+08         0.35439E+06         0.00000E+00
    0.35439E+06        -0.49925E+08         0.00000E+00
    0.00000E+00         0.00000E+00        -0.49289E+08
 
   -0.49138E+08         0.36456E+06         0.00000E+00
    0.36456E+06        -0.49921E+08         0.00000E+00
    0.00000E+00         0.00000E+00        -0.49289E+08
 
   -0.49147E+08         0.37470E+06         0.00000E+00
    0.37470E+06        -0.49917E+08         0.00000E+00
    0.00000E+00         0.00000E+00        -0.49289E+08
 
   -0.49156E+08         0.38483E+06         0.00000E+00
    0.38483E+06        -0.49913E+08         0.00000E+00
    0.00000E+00         0.00000E+00        -0.49289E+08
 
   -0.49165E+08         0.39492E+06         0.00000E+00
    0.39492E+06        -0.49908E+08         0.00000E+00
    0.00000E+00         0.00000E+00        -0.49289E+08
 
   -0.49174E+08         0.40500E+06         0.00000E+00
    0.40500E+06        -0.49904E+08         0.00000E+00
    0.00000E+00         0.00000E+00        -0.49289E+08
 
   -0.49184E+08         0.41505E+06         0.00000E+00
    0.41505E+06        -0.49899E+08         0.00000E+00
    0.00000E+00         0.00000E+00        -0.49289E+08
 
   -0.49193E+08         0.42507E+06         0.00000E+00
    0.42507E+06        -0.49895E+08         0.00000E+00
    0.00000E+00         0.00000E+00        -0.49289E+08
 
   -0.49203E+08         0.43506E+06         0.00000E+00
    0.43506E+06        -0.49890E+08         0.00000E+00
    0.00000E+00         0.00000E+00        -0.49289E+08
 
   -0.49213E+08         0.44503E+06         0.00000E+00
    0.44503E+06        -0.49885E+08         0.00000E+00
    0.00000E+00         0.00000E+00        -0.49289E+08
 
   -0.49223E+08         0.45497E+06         0.00000E+00
    0.45497E+06        -0.49880E+08         0.00000E+00
    0.00000E+00         0.00000E+00        -0.49290E+08
 
   -0.49233E+08         0.46488E+06         0.00000E+00
    0.46488E+06        -0.49876E+08         0.00000E+00
    0.00000E+00         0.00000E+00        -0.49290E+08
 
   -0.49243E+08         0.47475E+06         0.00000E+00
    0.47475E+06        -0.49871E+08         0.00000E+00
    0.00000E+00         0.00000E+00        -0.49290E+08
 
   -0.49253E+08         0.48459E+06         0.00000E+00
    0.48459E+06        -0.49865E+08         0.00000E+00
    0.00000E+00         0.00000E+00        -0.49290E+08
 
   -0.49264E+08         0.49440E+06         0.00000E+00
    0.49440E+06        -0.49860E+08         0.00000E+00
    0.00000E+00         0.00000E+00        -0.49290E+08
 
   -0.49274E+08         0.50418E+06         0.00000E+00
    0.50418E+06        -0.49855E+08         0.00000E+00
    0.00000E+00         0.00000E+00        -0.49290E+08
 
   -0.49284E+08         0.51392E+06         0.00000E+00
    0.51392E+06        -0.49850E+08         0.00000E+00
    0.00000E+00         0.00000E+00        -0.49290E+08
 
   -0.48877E+08         0.60096E+04         0.00000E+00
    0.60096E+04        -0.50000E+08         0.00000E+00
    0.00000E+00         0.00000E+00        -0.49237E+08
 
   -0.48880E+08         0.17860E+05         0.00000E+00
    0.17860E+05        -0.50000E+08         0.00000E+00
    0.00000E+00         0.00000E+00        -0.49237E+08
 
   -0.48883E+08         0.29653E+05         0.00000E+00
    0.29653E+05        -0.50000E+08         0.00000E+00
    0.00000E+00         0.00000E+00        -0.49237E+08
 
   -0.48886E+08         0.41390E+05         0.00000E+00
    0.41390E+05        -0.49999E+08         0.00000E+00
    0.00000E+00         0.00000E+00        -0.49237E+08
 
   -0.48889E+08         0.53073E+05         0.00000E+00
    0.53073E+05        -0.49999E+08         0.00000E+00
    0.00000E+00         0.00000E+00        -0.49237E+08
 
   -0.48893E+08         0.64705E+05         0.00000E+00
    0.64705E+05        -0.49998E+08         0.00000E+00
    0.00000E+00         0.00000E+00        -0.49237E+08
 
   -0.48897E+08         0.76286E+05         0.00000E+00
    0.76286E+05        -0.49997E+08         0.00000E+00
    0.00000E+00         0.00000E+00        -0.49237E+08
 
   -0.48901E+08         0.87821E+05         0.00000E+00
    0.87821E+05        -0.49996E+08         0.00000E+00
    0.00000E+00         0.00000E+00        -0.49237E+08
 
   -0.48905E+08         0.99309E+05         0.00000E+00
    0.99309E+05        -0.49995E+08         0.00000E+00
    0.00000E+00         0.00000E+00        -0.49237E+08
 
   -0.48910E+08         0.11075E+06         0.00000E+00
    0.11075E+06        -0.49994E+08         0.00000E+00
    0.00000E+00         0.00000E+00        -0.49238E+08
 
   -0.48915E+08         0.12215E+06         0.00000E+00
    0.12215E+06        -0.49992E+08         0.00000E+00
    0.00000E+00         0.00000E+00        -0.49238E+08
 
   -0.48920E+08         0.13351E+06         0.00000E+00
    0.13351E+06        -0.49991E+08         0.00000E+00
    0.00000E+00         0.00000E+00        -0.49238E+08
 
   -0.48925E+08         0.14483E+06         0.00000E+00
    0.14483E+06        -0.49989E+08         0.00000E+00
    0.00000E+00         0.00000E+00        -0.49238E+08
 
   -0.48930E+08         0.15612E+06         0.00000E+00
    0.15612E+06        -0.49987E+08         0.00000E+00
    0.00000E+00         0.00000E+00        -0.49238E+08
 
   -0.48936E+08         0.16736E+06         0.00000E+00
    0.16736E+06        -0.49985E+08         0.00000E+00
    0.00000E+00         0.00000E+00        -0.49238E+08
 
   -0.48942E+08         0.17857E+06         0.00000E+00
    0.17857E+06        -0.49983E+08         0.00000E+00
    0.00000E+00         0.00000E+00        -0.49238E+08
 
   -0.48948E+08         0.18975E+06         0.00000E+00
    0.18975E+06        -0.49981E+08         0.00000E+00
    0.00000E+00         0.00000E+00        -0.49238E+08
 
   -0.48954E+08         0.20089E+06         0.00000E+00
    0.20089E+06        -0.49979E+08         0.00000E+00
    0.00000E+00         0.00000E+00        -0.49238E+08
 
   -0.48960E+08         0.21199E+06         0.00000E+00
    0.21199E+06        -0.49976E+08         0.00000E+00
    0.00000E+00         0.00000E+00        -0.49238E+08
 
   -0.48967E+08         0.22307E+06         0.00000E+00
    0.22307E+06        -0.49974E+08         0.00000E+00
    0.00000E+00         0.00000E+00        -0.49238E+08
 
   -0.48974E+08         0.23411E+06         0.00000E+00
    0.23411E+06        -0.49971E+08         0.00000E+00
    0.00000E+00         0.00000E+00        -0.49238E+08
 
   -0.48981E+08         0.24512E+06         0.00000E+00
    0.24512E+06        -0.49968E+08         0.00000E+00
    0.00000E+00         0.00000E+00        -0.49238E+08
 
   -0.48988E+08         0.25610E+06         0.00000E+00
    0.25610E+06        -0.49965E+08         0.00000E+00
    0.00000E+00         0.00000E+00        -0.49239E+08
 
   -0.48995E+08         0.26705E+06         0.00000E+00
    0.26705E+06        -0.49962E+08         0.00000E+00
    0.00000E+00         0.00000E+00        -0.49239E+08
 
   -0.49002E+08         0.27797E+06         0.00000E+00
    0.27797E+06        -0.49959E+08         0.00000E+00
    0.00000E+00         0.00000E+00        -0.49239E+08
 
   -0.49010E+08         0.28886E+06         0.00000E+00
    0.28886E+06        -0.49956E+08         0.00000E+00
    0.00000E+00         0.00000E+00        -0.49239E+08
 
   -0.49018E+08         0.29972E+06         0.00000E+00
    0.29972E+06        -0.49952E+08         0.00000E+00
    0.00000E+00         0.00000E+00        -0.49239E+08
 
   -0.49026E+08         0.31054E+06         0.00000E+00
    0.31054E+06        -0.49949E+08         0.00000E+00
    0.00000E+00         0.00000E+00        -0.49239E+08
 
   -0.49034E+08         0.32134E+06         0.00000E+00
    0.32134E+06        -0.49945E+08         0.00000E+00
    0.00000E+00         0.00000E+00        -0.49239E+08
 
   -0.49042E+08         0.33211E+06         0.00000E+00
    0.33211E+06        -0.49942E+08         0.00000E+00
    0.00000E+00         0.00000E+00        -0.49239E+08
 
   -0.49051E+08         0.34285E+06         0.00000E+00
    0.34285E+06        -0.49938E+08         0.00000E+00
    0.00000E+00         0.00000E+00        -0.49239E+08
 
   -0.49059E+08         0.35356E+06         0.00000E+00
    0.35356E+06        -0.49934E+08         0.00000E+00
    0.00000E+00         0.00000E+00        -0.49239E+08
 
   -0.49068E+08         0.36424E+06         0.00000E+00
    0.36424E+06        -0.49930E+08         0.00000E+00
    0.00000E+00         0.00000E+00        -0.49239E+08
 
   -0.49077E+08         0.37488E+06         0.00000E+00
    0.37488E+06        -0.49926E+08         0.00000E+00
    0.00000E+00         0.00000E+00        -0.49240E+08
 
   -0.49086E+08         0.38550E+06         0.00000E+00
    0.38550E+06        -0.49922E+08         0.00000E+00
    0.00000E+00         0.00000E+00        -0.49240E+08
 
   -0.49095E+08         0.39608E+06         0.00000E+00
    0.39608E+06        -0.49918E+08         0.00000E+00
    0.00000E+00         0.00000E+00        -0.49240E+08
 
   -0.49104E+08         0.40663E+06         0.00000E+00
    0.40663E+06        -0.49913E+08         0.00000E+00
    0.00000E+00         0.00000E+00        -0.49240E+08
 
   -0.49114E+08         0.41714E+06         0.00000E+00
    0.41714E+06        -0.49909E+08         0.00000E+00
    0.00000E+00         0.00000E+00        -0.49240E+08
 
   -0.49123E+08         0.42763E+06         0.00000E+00
    0.42763E+06        -0.49904E+08         0.00000E+00
    0.00000E+00         0.00000E+00        -0.49240E+08
 
   -0.49133E+08         0.43807E+06         0.00000E+00
    0.43807E+06        -0.49900E+08         0.00000E+00
    0.00000E+00         0.00000E+00        -0.49240E+08
 
   -0.49142E+08         0.44848E+06         0.00000E+00
    0.44848E+06        -0.49895E+08         0.00000E+00
    0.00000E+00         0.00000E+00        -0.49240E+08
 
   -0.49152E+08         0.45886E+06         0.00000E+00
    0.45886E+06        -0.49890E+08         0.00000E+00
    0.00000E+00         0.00000E+00        -0.49240E+08
 
   -0.49162E+08         0.46919E+06         0.00000E+00
    0.46919E+06        -0.49885E+08         0.00000E+00
    0.00000E+00         0.00000E+00        -0.49240E+08
 
   -0.49172E+08         0.47949E+06         0.00000E+00
    0.47949E+06        -0.49881E+08         0.00000E+00
    0.00000E+00         0.00000E+00        -0.49240E+08
 
   -0.49183E+08         0.48975E+06         0.00000E+00
    0.48975E+06        -0.49876E+08         0.00000E+00
    0.00000E+00         0.00000E+00        -0.49240E+08
 
   -0.49193E+08         0.49997E+06         0.00000E+00
    0.49997E+06        -0.49871E+08         0.00000E+00
    0.00000E+00         0.00000E+00        -0.49240E+08
 
   -0.49203E+08         0.51015E+06         0.00000E+00
    0.51015E+06        -0.49865E+08         0.00000E+00
    0.00000E+00         0.00000E+00        -0.49240E+08
 
   -0.49214E+08         0.52029E+06         0.00000E+00
    0.52029E+06        -0.49860E+08         0.00000E+00
    0.00000E+00         0.00000E+00        -0.49240E+08
 
   -0.49224E+08         0.53038E+06         0.00000E+00
    0.53038E+06        -0.49855E+08         0.00000E+00
    0.00000E+00         0.00000E+00        -0.49240E+08
 
   -0.49235E+08         0.54043E+06         0.00000E+00
    0.54043E+06        -0.49850E+08         0.00000E+00
    0.00000E+00         0.00000E+00        -0.49240E+08
 
   -0.48816E+08         0.63712E+04         0.00000E+00
    0.63712E+04        -0.50000E+08         0.00000E+00
    0.00000E+00         0.00000E+00        -0.49186E+08
 
   -0.48819E+08         0.18940E+05         0.00000E+00
    0.18940E+05        -0.50000E+08         0.00000E+00
    0.00000E+00         0.00000E+00        -0.49186E+08
 
   -0.48822E+08         0.31447E+05         0.00000E+00
    0.31447E+05        -0.50000E+08         0.00000E+00
    0.00000E+00         0.00000E+00        -0.49186E+08
 
   -0.48826E+08         0.43895E+05         0.00000E+00
    0.43895E+05        -0.49999E+08         0.00000E+00
    0.00000E+00         0.00000E+00        -0.49186E+08
 
   -0.48829E+08         0.56286E+05         0.00000E+00
    0.56286E+05        -0.49999E+08         0.00000E+00
    0.00000E+00         0.00000E+00        -0.49186E+08
 
   -0.48833E+08         0.68620E+05         0.00000E+00
    0.68620E+05        -0.49998E+08         0.00000E+00
    0.00000E+00         0.00000E+00        -0.49187E+08
 
   -0.48837E+08         0.80901E+05         0.00000E+00
    0.80901E+05        -0.49997E+08         0.00000E+00
    0.00000E+00         0.00000E+00        -0.49187E+08
 
   -0.48842E+08         0.93128E+05         0.00000E+00
    0.93128E+05        -0.49996E+08         0.00000E+00
    0.00000E+00         0.00000E+00        -0.49187E+08
 
   -0.48846E+08         0.10530E+06         0.00000E+00
    0.10530E+06        -0.49995E+08         0.00000E+00
    0.00000E+00         0.00000E+00        -0.49187E+08
 
   -0.48851E+08         0.11743E+06         0.00000E+00
    0.11743E+06        -0.49994E+08         0.00000E+00
    0.00000E+00         0.00000E+00        -0.49187E+08
 
   -0.48856E+08         0.12951E+06         0.00000E+00
    0.12951E+06        -0.49992E+08         0.00000E+00
    0.00000E+00         0.00000E+00        -0.49187E+08
 
   -0.48861E+08         0.14153E+06         0.00000E+00
    0.14153E+06        -0.49991E+08         0.00000E+00
    0.00000E+00         0.00000E+00        -0.49187E+08
 
   -0.48867E+08         0.15352E+06         0.00000E+00
    0.15352E+06        -0.49989E+08         0.00000E+00
    0.00000E+00         0.00000E+00        -0.49187E+08
 
   -0.48872E+08         0.16545E+06         0.00000E+00
    0.16545E+06        -0.49987E+08         0.00000E+00
    0.00000E+00         0.00000E+00        -0.49187E+08
 
   -0.48878E+08         0.17734E+06         0.00000E+00
    0.17734E+06        -0.49985E+08         0.00000E+00
    0.00000E+00         0.00000E+00        -0.49187E+08
 
   -0.48884E+08         0.18919E+06         0.00000E+00
    0.18919E+06        -0.49983E+08         0.00000E+00
    0.00000E+00         0.00000E+00        -0.49187E+08
 
   -0.48890E+08         0.20100E+06         0.00000E+00
    0.20100E+06        -0.49981E+08         0.00000E+00
    0.00000E+00         0.00000E+00        -0.49187E+08
 
   -0.48897E+08         0.21276E+06         0.00000E+00
    0.21276E+06        -0.49979E+08         0.00000E+00
    0.00000E+00         0.00000E+00        -0.49187E+08
 
   -0.48903E+08         0.22448E+06         0.00000E+00
    0.22448E+06        -0.49976E+08         0.00000E+00
    0.00000E+00         0.00000E+00        -0.49187E+08
 
   -0.48910E+08         0.23616E+06         0.00000E+00
    0.23616E+06        -0.49974E+08         0.00000E+00
    0.00000E+00         0.00000E+00        -0.49187E+08
 
   -0.48917E+08         0.24780E+06         0.00000E+00
    0.24780E+06        -0.49971E+08         0.00000E+00
    0.00000E+00         0.00000E+00        -0.49188E+08
 
   -0.48924E+08         0.25940E+06         0.00000E+00
    0.25940E+06        -0.49968E+08         0.00000E+00
    0.00000E+00         0.00000E+00        -0.49188E+08
 
   -0.48931E+08         0.27096E+06         0.00000E+00
    0.27096E+06        -0.49965E+08         0.00000E+00
    0.00000E+00         0.00000E+00        -0.49188E+08
 
   -0.48939E+08         0.28248E+06         0.00000E+00
    0.28248E+06        -0.49962E+08         0.00000E+00
    0.00000E+00         0.00000E+00        -0.49188E+08
 
   -0.48946E+08         0.29396E+06         0.00000E+00
    0.29396E+06        -0.49959E+08         0.00000E+00
    0.00000E+00         0.00000E+00        -0.49188E+08
 
   -0.48954E+08         0.30540E+06         0.00000E+00
    0.30540E+06        -0.49956E+08         0.00000E+00
    0.00000E+00         0.00000E+00        -0.49188E+08
 
   -0.48962E+08         0.31680E+06         0.00000E+00
    0.31680E+06        -0.49953E+08         0.00000E+00
    0.00000E+00         0.00000E+00        -0.49188E+08
 
   -0.48970E+08         0.32816E+06         0.00000E+00
    0.32816E+06        -0.49949E+08         0.00000E+00
    0.00000E+00         0.00000E+00        -0.49188E+08
 
   -0.48979E+08         0.33949E+06         0.00000E+00
    0.33949E+06        -0.49946E+08         0.00000E+00
    0.00000E+00         0.00000E+00        -0.49188E+08
 
   -0.48987E+08         0.35077E+06         0.00000E+00
    0.35077E+06        -0.49942E+08         0.00000E+00
    0.00000E+00         0.00000E+00        -0.49188E+08
 
   -0.48996E+08         0.36202E+06         0.00000E+00
    0.36202E+06        -0.49938E+08         0.00000E+00
    0.00000E+00         0.00000E+00        -0.49188E+08
 
   -0.49005E+08         0.37322E+06         0.00000E+00
    0.37322E+06        -0.49934E+08         0.00000E+00
    0.00000E+00         0.00000E+00        -0.49189E+08
 
   -0.49013E+08         0.38439E+06         0.00000E+00
    0.38439E+06        -0.49930E+08         0.00000E+00
    0.00000E+00         0.00000E+00        -0.49189E+08
 
   -0.49022E+08         0.39551E+06         0.00000E+00
    0.39551E+06        -0.49926E+08         0.00000E+00
    0.00000E+00         0.00000E+00        -0.49189E+08
 
   -0.49032E+08         0.40659E+06         0.00000E+00
    0.40659E+06        -0.49922E+08         0.00000E+00
    0.00000E+00         0.00000E+00        -0.49189E+08
 
   -0.49041E+08         0.41763E+06         0.00000E+00
    0.41763E+06        -0.49918E+08         0.00000E+00
    0.00000E+00         0.00000E+00        -0.49189E+08
 
   -0.49050E+08         0.42863E+06         0.00000E+00
    0.42863E+06        -0.49913E+08         0.00000E+00
    0.00000E+00         0.00000E+00        -0.49189E+08
 
   -0.49060E+08         0.43959E+06         0.00000E+00
    0.43959E+06        -0.49909E+08         0.00000E+00
    0.00000E+00         0.00000E+00        -0.49189E+08
 
   -0.49070E+08         0.45050E+06         0.00000E+00
    0.45050E+06        -0.49904E+08         0.00000E+00
    0.00000E+00         0.00000E+00        -0.49189E+08
 
   -0.49080E+08         0.46137E+06         0.00000E+00
    0.46137E+06        -0.49900E+08         0.00000E+00
    0.00000E+00         0.00000E+00        -0.49189E+08
 
   -0.49089E+08         0.47220E+06         0.00000E+00
    0.47220E+06        -0.49895E+08         0.00000E+00
    0.00000E+00         0.00000E+00        -0.49189E+08
 
   -0.49100E+08         0.48298E+06         0.00000E+00
    0.48298E+06        -0.49890E+08         0.00000E+00
    0.00000E+00         0.00000E+00        -0.49189E+08
 
   -0.49110E+08         0.49371E+06         0.00000E+00
    0.49371E+06        -0.49885E+08         0.00000E+00
    0.00000E+00         0.00000E+00        -0.49189E+08
 
   -0.49120E+08         0.50440E+06         0.00000E+00
    0.50440E+06        -0.49880E+08         0.00000E+00
    0.00000E+00         0.00000E+00        -0.49189E+08
 
   -0.49130E+08         0.51504E+06         0.00000E+00
    0.51504E+06        -0.49875E+08         0.00000E+00
    0.00000E+00         0.00000E+00        -0.49189E+08
 
   -0.49141E+08         0.52563E+06         0.00000E+00
    0.52563E+06        -0.49870E+08         0.00000E+00
    0.00000E+00         0.00000E+00        -0.49190E+08
 
   -0.49152E+08         0.53618E+06         0.00000E+00
    0.53618E+06        -0.49865E+08         0.00000E+00
    0.00000E+00         0.00000E+00        -0.49190E+08
 
   -0.49162E+08         0.54667E+06         0.00000E+00
    0.54667E+06        -0.49859E+08         0.00000E+00
    0.00000E+00         0.00000E+00        -0.49190E+08
 
   -0.49173E+08         0.55711E+06         0.00000E+00
    0.55711E+06        -0.49854E+08         0.00000E+00
    0.00000E+00         0.00000E+00        -0.49190E+08
 
   -0.49184E+08         0.56750E+06         0.00000E+00
    0.56750E+06        -0.49849E+08         0.00000E+00
    0.00000E+00         0.00000E+00        -0.49190E+08
 
   -0.48751E+08         0.67276E+04         0.00000E+00
    0.67276E+04        -0.50000E+08         0.00000E+00
    0.00000E+00         0.00000E+00        -0.49134E+08
 
   -0.48754E+08         0.20005E+05         0.00000E+00
    0.20005E+05        -0.50000E+08         0.00000E+00
    0.00000E+00         0.00000E+00        -0.49134E+08
 
   -0.48758E+08         0.33219E+05         0.00000E+00
    0.33219E+05        -0.50000E+08         0.00000E+00
    0.00000E+00         0.00000E+00        -0.49134E+08
 
   -0.48762E+08         0.46372E+05         0.00000E+00
    0.46372E+05        -0.49999E+08         0.00000E+00
    0.00000E+00         0.00000E+00        -0.49134E+08
 
   -0.48766E+08         0.59464E+05         0.00000E+00
    0.59464E+05        -0.49999E+08         0.00000E+00
    0.00000E+00         0.00000E+00        -0.49134E+08
 
   -0.48770E+08         0.72497E+05         0.00000E+00
    0.72497E+05        -0.49998E+08         0.00000E+00
    0.00000E+00         0.00000E+00        -0.49134E+08
 
   -0.48774E+08         0.85471E+05         0.00000E+00
    0.85471E+05        -0.49997E+08         0.00000E+00
    0.00000E+00         0.00000E+00        -0.49134E+08
 
   -0.48779E+08         0.98388E+05         0.00000E+00
    0.98388E+05        -0.49996E+08         0.00000E+00
    0.00000E+00         0.00000E+00        -0.49134E+08
 
   -0.48784E+08         0.11125E+06         0.00000E+00
    0.11125E+06        -0.49995E+08         0.00000E+00
    0.00000E+00         0.00000E+00        -0.49134E+08
 
   -0.48789E+08         0.12406E+06         0.00000E+00
    0.12406E+06        -0.49994E+08         0.00000E+00
    0.00000E+00         0.00000E+00        -0.49134E+08
 
   -0.48794E+08         0.13681E+06         0.00000E+00
    0.13681E+06        -0.49992E+08         0.00000E+00
    0.00000E+00         0.00000E+00        -0.49134E+08
 
   -0.48800E+08         0.14950E+06         0.00000E+00
    0.14950E+06        -0.49991E+08         0.00000E+00
    0.00000E+00         0.00000E+00        -0.49134E+08
 
   -0.48805E+08         0.16215E+06         0.00000E+00
    0.16215E+06        -0.49989E+08         0.00000E+00
    0.00000E+00         0.00000E+00        -0.49134E+08
 
   -0.48811E+08         0.17474E+06         0.00000E+00
    0.17474E+06        -0.49987E+08         0.00000E+00
    0.00000E+00         0.00000E+00        -0.49134E+08
 
   -0.48817E+08         0.18729E+06         0.00000E+00
    0.18729E+06        -0.49985E+08         0.00000E+00
    0.00000E+00         0.00000E+00        -0.49134E+08
 
   -0.48823E+08         0.19978E+06         0.00000E+00
    0.19978E+06        -0.49983E+08         0.00000E+00
    0.00000E+00         0.00000E+00        -0.49135E+08
 
   -0.48830E+08         0.21222E+06         0.00000E+00
    0.21222E+06        -0.49981E+08         0.00000E+00
    0.00000E+00         0.00000E+00        -0.49135E+08
 
   -0.48836E+08         0.22461E+06         0.00000E+00
    0.22461E+06        -0.49979E+08         0.00000E+00
    0.00000E+00         0.00000E+00        -0.49135E+08
 
   -0.48843E+08         0.23696E+06         0.00000E+00
    0.23696E+06        -0.49976E+08         0.00000E+00
    0.00000E+00         0.00000E+00        -0.49135E+08
 
   -0.48850E+08         0.24925E+06         0.00000E+00
    0.24925E+06        -0.49974E+08         0.00000E+00
    0.00000E+00         0.00000E+00        -0.49135E+08
 
   -0.48857E+08         0.26150E+06         0.00000E+00
    0.26150E+06        -0.49971E+08         0.00000E+00
    0.00000E+00         0.00000E+00        -0.49135E+08
 
   -0.48865E+08         0.27370E+06         0.00000E+00
    0.27370E+06        -0.49968E+08         0.00000E+00
    0.00000E+00         0.00000E+00        -0.49135E+08
 
   -0.48872E+08         0.28585E+06         0.00000E+00
    0.28585E+06        -0.49965E+08         0.00000E+00
    0.00000E+00         0.00000E+00        -0.49135E+08
 
   -0.48880E+08         0.29795E+06         0.00000E+00
    0.29795E+06        -0.49962E+08         0.00000E+00
    0.00000E+00         0.00000E+00        -0.49135E+08
 
   -0.48888E+08         0.31001E+06         0.00000E+00
    0.31001E+06        -0.49959E+08         0.00000E+00
    0.00000E+00         0.00000E+00        -0.49135E+08
 
   -0.48896E+08         0.32202E+06         0.00000E+00
    0.32202E+06        -0.49956E+08         0.00000E+00
    0.00000E+00         0.00000E+00        -0.49135E+08
 
   -0.48904E+08         0.33398E+06         0.00000E+00
    0.33398E+06        -0.49953E+08         0.00000E+00
    0.00000E+00         0.00000E+00        -0.49136E+08
 
   -0.48912E+08         0.34589E+06         0.00000E+00
    0.34589E+06        -0.49949E+08         0.00000E+00
    0.00000E+00         0.00000E+00        -0.49136E+08
 
   -0.48921E+08         0.35776E+06         0.00000E+00
    0.35776E+06        -0.49945E+08         0.00000E+00
    0.00000E+00         0.00000E+00        -0.49136E+08
 
   -0.48930E+08         0.36958E+06         0.00000E+00
    0.36958E+06        -0.49942E+08         0.00000E+00
    0.00000E+00         0.00000E+00        -0.49136E+08
 
   -0.48938E+08         0.38135E+06         0.00000E+00
    0.38135E+06        -0.49938E+08         0.00000E+00
    0.00000E+00         0.00000E+00        -0.49136E+08
 
   -0.48947E+08         0.39307E+06         0.00000E+00
    0.39307E+06        -0.49934E+08         0.00000E+00
    0.00000E+00         0.00000E+00        -0.49136E+08
 
   -0.48956E+08         0.40474E+06         0.00000E+00
    0.40474E+06        -0.49930E+08         0.00000E+00
    0.00000E+00         0.00000E+00        -0.49136E+08
 
   -0.48966E+08         0.41637E+06         0.00000E+00
    0.41637E+06        -0.49926E+08         0.00000E+00
    0.00000E+00         0.00000E+00        -0.49136E+08
 
   -0.48975E+08         0.42794E+06         0.00000E+00
    0.42794E+06        -0.49921E+08         0.00000E+00
    0.00000E+00         0.00000E+00        -0.49136E+08
 
   -0.48985E+08         0.43946E+06         0.00000E+00
    0.43946E+06        -0.49917E+08         0.00000E+00
    0.00000E+00         0.00000E+00        -0.49136E+08
 
   -0.48994E+08         0.45094E+06         0.00000E+00
    0.45094E+06        -0.49913E+08         0.00000E+00
    0.00000E+00         0.00000E+00        -0.49136E+08
 
   -0.49004E+08         0.46236E+06         0.00000E+00
    0.46236E+06        -0.49908E+08         0.00000E+00
    0.00000E+00         0.00000E+00        -0.49136E+08
 
   -0.49014E+08         0.47373E+06         0.00000E+00
    0.47373E+06        -0.49903E+08         0.00000E+00
    0.00000E+00         0.00000E+00        -0.49137E+08
 
   -0.49024E+08         0.48505E+06         0.00000E+00
    0.48505E+06        -0.49899E+08         0.00000E+00
    0.00000E+00         0.00000E+00        -0.49137E+08
 
   -0.49034E+08         0.49632E+06         0.00000E+00
    0.49632E+06        -0.49894E+08         0.00000E+00
    0.00000E+00         0.00000E+00        -0.49137E+08
 
   -0.49045E+08         0.50753E+06         0.00000E+00
    0.50753E+06        -0.49889E+08         0.00000E+00
    0.00000E+00         0.00000E+00        -0.49137E+08
 
   -0.49055E+08         0.51869E+06         0.00000E+00
    0.51869E+06        -0.49884E+08         0.00000E+00
    0.00000E+00         0.00000E+00        -0.49137E+08
 
   -0.49066E+08         0.52979E+06         0.00000E+00
    0.52979E+06        -0.49879E+08         0.00000E+00
    0.00000E+00         0.00000E+00        -0.49137E+08
 
   -0.49076E+08         0.54084E+06         0.00000E+00
    0.54084E+06        -0.49874E+08         0.00000E+00
    0.00000E+00         0.00000E+00        -0.49137E+08
 
   -0.49087E+08         0.55183E+06         0.00000E+00
    0.55183E+06        -0.49868E+08         0.00000E+00
    0.00000E+00         0.00000E+00        -0.49137E+08
 
   -0.49098E+08         0.56277E+06         0.00000E+00
    0.56277E+06        -0.49863E+08         0.00000E+00
    0.00000E+00         0.00000E+00        -0.49137E+08
 
   -0.49109E+08         0.57364E+06         0.00000E+00
    0.57364E+06        -0.49858E+08         0.00000E+00
    0.00000E+00         0.00000E+00        -0.49137E+08
 
   -0.49120E+08         0.58446E+06         0.00000E+00
    0.58446E+06        -0.49852E+08         0.00000E+00
    0.00000E+00         0.00000E+00        -0.49137E+08
 
   -0.49131E+08         0.59522E+06         0.00000E+00
    0.59522E+06        -0.49847E+08         0.00000E+00
    0.00000E+00         0.00000E+00        -0.49137E+08
 
   -0.48683E+08         0.70823E+04         0.00000E+00
    0.70823E+04        -0.50000E+08         0.00000E+00
    0.00000E+00         0.00000E+00        -0.49079E+08
 
   -0.48686E+08         0.21066E+05         0.00000E+00
    0.21066E+05        -0.50000E+08         0.00000E+00
    0.00000E+00         0.00000E+00        -0.49079E+08
 
   -0.48690E+08         0.34986E+05         0.00000E+00
    0.34986E+05        -0.50000E+08         0.00000E+00
    0.00000E+00         0.00000E+00        -0.49079E+08
 
   -0.48694E+08         0.48841E+05         0.00000E+00
    0.48841E+05        -0.49999E+08         0.00000E+00
    0.00000E+00         0.00000E+00        -0.49079E+08
 
   -0.48699E+08         0.62634E+05         0.00000E+00
    0.62634E+05        -0.49999E+08         0.00000E+00
    0.00000E+00         0.00000E+00        -0.49079E+08
 
   -0.48703E+08         0.76365E+05         0.00000E+00
    0.76365E+05        -0.49998E+08         0.00000E+00
    0.00000E+00         0.00000E+00        -0.49079E+08
 
   -0.48708E+08         0.90034E+05         0.00000E+00
    0.90034E+05        -0.49997E+08         0.00000E+00
    0.00000E+00         0.00000E+00        -0.49079E+08
 
   -0.48713E+08         0.10364E+06         0.00000E+00
    0.10364E+06        -0.49996E+08         0.00000E+00
    0.00000E+00         0.00000E+00        -0.49080E+08
 
   -0.48718E+08         0.11719E+06         0.00000E+00
    0.11719E+06        -0.49995E+08         0.00000E+00
    0.00000E+00         0.00000E+00        -0.49080E+08
 
   -0.48723E+08         0.13068E+06         0.00000E+00
    0.13068E+06        -0.49994E+08         0.00000E+00
    0.00000E+00         0.00000E+00        -0.49080E+08
 
   -0.48729E+08         0.14411E+06         0.00000E+00
    0.14411E+06        -0.49992E+08         0.00000E+00
    0.00000E+00         0.00000E+00        -0.49080E+08
 
   -0.48735E+08         0.15748E+06         0.00000E+00
    0.15748E+06        -0.49991E+08         0.00000E+00
    0.00000E+00         0.00000E+00        -0.49080E+08
 
   -0.48740E+08         0.17080E+06         0.00000E+00
    0.17080E+06        -0.49989E+08         0.00000E+00
    0.00000E+00         0.00000E+00        -0.49080E+08
 
   -0.48747E+08         0.18405E+06         0.00000E+00
    0.18405E+06        -0.49987E+08         0.00000E+00
    0.00000E+00         0.00000E+00        -0.49080E+08
 
   -0.48753E+08         0.19726E+06         0.00000E+00
    0.19726E+06        -0.49985E+08         0.00000E+00
    0.00000E+00         0.00000E+00        -0.49080E+08
 
   -0.48759E+08         0.21040E+06         0.00000E+00
    0.21040E+06        -0.49983E+08         0.00000E+00
    0.00000E+00         0.00000E+00        -0.49080E+08
 
   -0.48766E+08         0.22349E+06         0.00000E+00
    0.22349E+06        -0.49981E+08         0.00000E+00
    0.00000E+00         0.00000E+00        -0.49080E+08
 
   -0.48773E+08         0.23652E+06         0.00000E+00
    0.23652E+06        -0.49979E+08         0.00000E+00
    0.00000E+00         0.00000E+00        -0.49080E+08
 
   -0.48780E+08         0.24950E+06         0.00000E+00
    0.24950E+06        -0.49976E+08         0.00000E+00
    0.00000E+00         0.00000E+00        -0.49080E+08
 
   -0.48787E+08         0.26242E+06         0.00000E+00
    0.26242E+06        -0.49974E+08         0.00000E+00
    0.00000E+00         0.00000E+00        -0.49080E+08
 
   -0.48795E+08         0.27529E+06         0.00000E+00
    0.27529E+06        -0.49971E+08         0.00000E+00
    0.00000E+00         0.00000E+00        -0.49080E+08
 
   -0.48802E+08         0.28810E+06         0.00000E+00
    0.28810E+06        -0.49968E+08         0.00000E+00
    0.00000E+00         0.00000E+00        -0.49081E+08
 
   -0.48810E+08         0.30086E+06         0.00000E+00
    0.30086E+06        -0.49965E+08         0.00000E+00
    0.00000E+00         0.00000E+00        -0.49081E+08
 
   -0.48818E+08         0.31356E+06         0.00000E+00
    0.31356E+06        -0.49962E+08         0.00000E+00
    0.00000E+00         0.00000E+00        -0.49081E+08
 
   -0.48826E+08         0.32621E+06         0.00000E+00
    0.32621E+06        -0.49959E+08         0.00000E+00
    0.00000E+00         0.00000E+00        -0.49081E+08
 
   -0.48834E+08         0.33880E+06         0.00000E+00
    0.33880E+06        -0.49956E+08         0.00000E+00
    0.00000E+00         0.00000E+00        -0.49081E+08
 
   -0.48843E+08         0.35134E+06         0.00000E+00
    0.35134E+06        -0.49952E+08         0.00000E+00
    0.00000E+00         0.00000E+00        -0.49081E+08
 
   -0.48851E+08         0.36382E+06         0.00000E+00
    0.36382E+06        -0.49949E+08         0.00000E+00
    0.00000E+00         0.00000E+00        -0.49081E+08
 
   -0.48860E+08         0.37625E+06         0.00000E+00
    0.37625E+06        -0.49945E+08         0.00000E+00
    0.00000E+00         0.00000E+00        -0.49081E+08
 
   -0.48869E+08         0.38862E+06         0.00000E+00
    0.38862E+06        -0.49941E+08         0.00000E+00
    0.00000E+00         0.00000E+00        -0.49081E+08
 
   -0.48878E+08         0.40094E+06         0.00000E+00
    0.40094E+06        -0.49937E+08         0.00000E+00
    0.00000E+00         0.00000E+00        -0.49081E+08
 
   -0.48887E+08         0.41320E+06         0.00000E+00
    0.41320E+06        -0.49933E+08         0.00000E+00
    0.00000E+00         0.00000E+00        -0.49082E+08
 
   -0.48897E+08         0.42540E+06         0.00000E+00
    0.42540E+06        -0.49929E+08         0.00000E+00
    0.00000E+00         0.00000E+00        -0.49082E+08
 
   -0.48906E+08         0.43755E+06         0.00000E+00
    0.43755E+06        -0.49925E+08         0.00000E+00
    0.00000E+00         0.00000E+00        -0.49082E+08
 
   -0.48916E+08         0.44963E+06         0.00000E+00
    0.44963E+06        -0.49921E+08         0.00000E+00
    0.00000E+00         0.00000E+00        -0.49082E+08
 
   -0.48926E+08         0.46167E+06         0.00000E+00
    0.46167E+06        -0.49916E+08         0.00000E+00
    0.00000E+00         0.00000E+00        -0.49082E+08
 
   -0.48936E+08         0.47364E+06         0.00000E+00
    0.47364E+06        -0.49912E+08         0.00000E+00
    0.00000E+00         0.00000E+00        -0.49082E+08
 
   -0.48946E+08         0.48555E+06         0.00000E+00
    0.48555E+06        -0.49907E+08         0.00000E+00
    0.00000E+00         0.00000E+00        -0.49082E+08
 
   -0.48956E+08         0.49741E+06         0.00000E+00
    0.49741E+06        -0.49902E+08         0.00000E+00
    0.00000E+00         0.00000E+00        -0.49082E+08
 
   -0.48967E+08         0.50920E+06         0.00000E+00
    0.50920E+06        -0.49897E+08         0.00000E+00
    0.00000E+00         0.00000E+00        -0.49082E+08
 
   -0.48977E+08         0.52093E+06         0.00000E+00
    0.52093E+06        -0.49892E+08         0.00000E+00
    0.00000E+00         0.00000E+00        -0.49082E+08
 
   -0.48988E+08         0.53261E+06         0.00000E+00
    0.53261E+06        -0.49887E+08         0.00000E+00
    0.00000E+00         0.00000E+00        -0.49082E+08
 
   -0.48998E+08         0.54422E+06         0.00000E+00
    0.54422E+06        -0.49882E+08         0.00000E+00
    0.00000E+00         0.00000E+00        -0.49082E+08
 
   -0.49009E+08         0.55576E+06         0.00000E+00
    0.55576E+06        -0.49877E+08         0.00000E+00
    0.00000E+00         0.00000E+00        -0.49082E+08
 
   -0.49020E+08         0.56725E+06         0.00000E+00
    0.56725E+06        -0.49872E+08         0.00000E+00
    0.00000E+00         0.00000E+00        -0.49082E+08
 
   -0.49031E+08         0.57867E+06         0.00000E+00
    0.57867E+06        -0.49866E+08         0.00000E+00
    0.00000E+00         0.00000E+00        -0.49082E+08
 
   -0.49043E+08         0.59002E+06         0.00000E+00
    0.59002E+06        -0.49861E+08         0.00000E+00
    0.00000E+00         0.00000E+00        -0.49083E+08
 
   -0.49054E+08         0.60131E+06         0.00000E+00
    0.60131E+06        -0.49855E+08         0.00000E+00
    0.00000E+00         0.00000E+00        -0.49083E+08
 
   -0.49065E+08         0.61253E+06         0.00000E+00
    0.61253E+06        -0.49850E+08         0.00000E+00
    0.00000E+00         0.00000E+00        -0.49083E+08
 
   -0.49077E+08         0.62369E+06         0.00000E+00
    0.62369E+06        -0.49844E+08         0.00000E+00
    0.00000E+00         0.00000E+00        -0.49083E+08
 
   -0.48611E+08         0.74383E+04         0.00000E+00
    0.74383E+04        -0.50000E+08         0.00000E+00
    0.00000E+00         0.00000E+00        -0.49023E+08
 
   -0.48615E+08         0.22132E+05         0.00000E+00
    0.22132E+05        -0.50000E+08         0.00000E+00
    0.00000E+00         0.00000E+00        -0.49023E+08
 
   -0.48619E+08         0.36760E+05         0.00000E+00
    0.36760E+05        -0.50000E+08         0.00000E+00
    0.00000E+00         0.00000E+00        -0.49023E+08
 
   -0.48623E+08         0.51323E+05         0.00000E+00
    0.51323E+05        -0.49999E+08         0.00000E+00
    0.00000E+00         0.00000E+00        -0.49023E+08
 
   -0.48628E+08         0.65821E+05         0.00000E+00
    0.65821E+05        -0.49999E+08         0.00000E+00
    0.00000E+00         0.00000E+00        -0.49023E+08
 
   -0.48633E+08         0.80254E+05         0.00000E+00
    0.80254E+05        -0.49998E+08         0.00000E+00
    0.00000E+00         0.00000E+00        -0.49023E+08
 
   -0.48638E+08         0.94624E+05         0.00000E+00
    0.94624E+05        -0.49997E+08         0.00000E+00
    0.00000E+00         0.00000E+00        -0.49023E+08
 
   -0.48643E+08         0.10893E+06         0.00000E+00
    0.10893E+06        -0.49996E+08         0.00000E+00
    0.00000E+00         0.00000E+00        -0.49023E+08
 
   -0.48649E+08         0.12317E+06         0.00000E+00
    0.12317E+06        -0.49995E+08         0.00000E+00
    0.00000E+00         0.00000E+00        -0.49023E+08
 
   -0.48654E+08         0.13735E+06         0.00000E+00
    0.13735E+06        -0.49994E+08         0.00000E+00
    0.00000E+00         0.00000E+00        -0.49023E+08
 
   -0.48660E+08         0.15147E+06         0.00000E+00
    0.15147E+06        -0.49992E+08         0.00000E+00
    0.00000E+00         0.00000E+00        -0.49023E+08
 
   -0.48666E+08         0.16552E+06         0.00000E+00
    0.16552E+06        -0.49991E+08         0.00000E+00
    0.00000E+00         0.00000E+00        -0.49023E+08
 
   -0.48672E+08         0.17951E+06         0.00000E+00
    0.17951E+06        -0.49989E+08         0.00000E+00
    0.00000E+00         0.00000E+00        -0.49023E+08
 
   -0.48679E+08         0.19344E+06         0.00000E+00
    0.19344E+06        -0.49987E+08         0.00000E+00
    0.00000E+00         0.00000E+00        -0.49023E+08
 
   -0.48685E+08         0.20731E+06         0.00000E+00
    0.20731E+06        -0.49985E+08         0.00000E+00
    0.00000E+00         0.00000E+00        -0.49023E+08
 
   -0.48692E+08         0.22112E+06         0.00000E+00
    0.22112E+06        -0.49983E+08         0.00000E+00
    0.00000E+00         0.00000E+00        -0.49024E+08
 
   -0.48699E+08         0.23487E+06         0.00000E+00
    0.23487E+06        -0.49981E+08         0.00000E+00
    0.00000E+00         0.00000E+00        -0.49024E+08
 
   -0.48706E+08         0.24855E+06         0.00000E+00
    0.24855E+06        -0.49978E+08         0.00000E+00
    0.00000E+00         0.00000E+00        -0.49024E+08
 
   -0.48714E+08         0.26218E+06         0.00000E+00
    0.26218E+06        -0.49976E+08         0.00000E+00
    0.00000E+00         0.00000E+00        -0.49024E+08
 
   -0.48721E+08         0.27574E+06         0.00000E+00
    0.27574E+06        -0.49973E+08         0.00000E+00
    0.00000E+00         0.00000E+00        -0.49024E+08
 
   -0.48729E+08         0.28924E+06         0.00000E+00
    0.28924E+06        -0.49971E+08         0.00000E+00
    0.00000E+00         0.00000E+00        -0.49024E+08
 
   -0.48737E+08         0.30268E+06         0.00000E+00
    0.30268E+06        -0.49968E+08         0.00000E+00
    0.00000E+00         0.00000E+00        -0.49024E+08
 
   -0.48745E+08         0.31606E+06         0.00000E+00
    0.31606E+06        -0.49965E+08         0.00000E+00
    0.00000E+00         0.00000E+00        -0.49024E+08
 
   -0.48753E+08         0.32938E+06         0.00000E+00
    0.32938E+06        -0.49962E+08         0.00000E+00
    0.00000E+00         0.00000E+00        -0.49024E+08
 
   -0.48762E+08         0.34263E+06         0.00000E+00
    0.34263E+06        -0.49958E+08         0.00000E+00
    0.00000E+00         0.00000E+00        -0.49024E+08
 
   -0.48770E+08         0.35583E+06         0.00000E+00
    0.35583E+06        -0.49955E+08         0.00000E+00
    0.00000E+00         0.00000E+00        -0.49024E+08
 
   -0.48779E+08         0.36896E+06         0.00000E+00
    0.36896E+06        -0.49951E+08         0.00000E+00
    0.00000E+00         0.00000E+00        -0.49025E+08
 
   -0.48788E+08         0.38203E+06         0.00000E+00
    0.38203E+06        -0.49948E+08         0.00000E+00
    0.00000E+00         0.00000E+00        -0.49025E+08
 
   -0.48797E+08         0.39504E+06         0.00000E+00
    0.39504E+06        -0.49944E+08         0.00000E+00
    0.00000E+00         0.00000E+00        -0.49025E+08
 
   -0.48806E+08         0.40799E+06         0.00000E+00
    0.40799E+06        -0.49940E+08         0.00000E+00
    0.00000E+00         0.00000E+00        -0.49025E+08
 
   -0.48815E+08         0.42087E+06         0.00000E+00
    0.42087E+06        -0.49936E+08         0.00000E+00
    0.00000E+00         0.00000E+00        -0.49025E+08
 
   -0.48825E+08         0.43369E+06         0.00000E+00
    0.43369E+06        -0.49932E+08         0.00000E+00
    0.00000E+00         0.00000E+00        -0.49025E+08
 
   -0.48835E+08         0.44645E+06         0.00000E+00
    0.44645E+06        -0.49928E+08         0.00000E+00
    0.00000E+00         0.00000E+00        -0.49025E+08
 
   -0.48844E+08         0.45914E+06         0.00000E+00
    0.45914E+06        -0.49924E+08         0.00000E+00
    0.00000E+00         0.00000E+00        -0.49025E+08
 
   -0.48854E+08         0.47177E+06         0.00000E+00
    0.47177E+06        -0.49919E+08         0.00000E+00
    0.00000E+00         0.00000E+00        -0.49025E+08
 
   -0.48865E+08         0.48433E+06         0.00000E+00
    0.48433E+06        -0.49915E+08         0.00000E+00
    0.00000E+00         0.00000E+00        -0.49025E+08
 
   -0.48875E+08         0.49683E+06         0.00000E+00
    0.49683E+06        -0.49910E+08         0.00000E+00
    0.00000E+00         0.00000E+00        -0.49025E+08
 
   -0.48885E+08         0.50926E+06         0.00000E+00
    0.50926E+06        -0.49905E+08         0.00000E+00
    0.00000E+00         0.00000E+00        -0.49026E+08
 
   -0.48896E+08         0.52162E+06         0.00000E+00
    0.52162E+06        -0.49901E+08         0.00000E+00
    0.00000E+00         0.00000E+00        -0.49026E+08
 
   -0.48906E+08         0.53392E+06         0.00000E+00
    0.53392E+06        -0.49896E+08         0.00000E+00
    0.00000E+00         0.00000E+00        -0.49026E+08
 
   -0.48917E+08         0.54614E+06         0.00000E+00
    0.54614E+06        -0.49891E+08         0.00000E+00
    0.00000E+00         0.00000E+00        -0.49026E+08
 
   -0.48928E+08         0.55830E+06         0.00000E+00
    0.55830E+06        -0.49885E+08         0.00000E+00
    0.00000E+00         0.00000E+00        -0.49026E+08
 
   -0.48939E+08         0.57039E+06         0.00000E+00
    0.57039E+06        -0.49880E+08         0.00000E+00
    0.00000E+00         0.00000E+00        -0.49026E+08
 
   -0.48950E+08         0.58241E+06         0.00000E+00
    0.58241E+06        -0.49875E+08         0.00000E+00
    0.00000E+00         0.00000E+00        -0.49026E+08
 
   -0.48962E+08         0.59436E+06         0.00000E+00
    0.59436E+06        -0.49869E+08         0.00000E+00
    0.00000E+00         0.00000E+00        -0.49026E+08
 
   -0.48973E+08         0.60623E+06         0.00000E+00
    0.60623E+06        -0.49864E+08         0.00000E+00
    0.00000E+00         0.00000E+00        -0.49026E+08
 
   -0.48985E+08         0.61803E+06         0.00000E+00
    0.61803E+06        -0.49858E+08         0.00000E+00
    0.00000E+00         0.00000E+00        -0.49026E+08
 
   -0.48996E+08         0.62976E+06         0.00000E+00
    0.62976E+06        -0.49852E+08         0.00000E+00
    0.00000E+00         0.00000E+00        -0.49026E+08
 
   -0.49008E+08         0.64142E+06         0.00000E+00
    0.64142E+06        -0.49847E+08         0.00000E+00
    0.00000E+00         0.00000E+00        -0.49026E+08
 
   -0.49020E+08         0.65300E+06         0.00000E+00
    0.65300E+06        -0.49841E+08         0.00000E+00
    0.00000E+00         0.00000E+00        -0.49026E+08
 
   -0.48535E+08         0.77983E+04         0.00000E+00
    0.77983E+04        -0.50000E+08         0.00000E+00
    0.00000E+00         0.00000E+00        -0.48964E+08
 
   -0.48540E+08         0.23210E+05         0.00000E+00
    0.23210E+05        -0.50000E+08         0.00000E+00
    0.00000E+00         0.00000E+00        -0.48964E+08
 
   -0.48544E+08         0.38556E+05         0.00000E+00
    0.38556E+05        -0.50000E+08         0.00000E+00
    0.00000E+00         0.00000E+00        -0.48964E+08
 
   -0.48549E+08         0.53834E+05         0.00000E+00
    0.53834E+05        -0.49999E+08         0.00000E+00
    0.00000E+00         0.00000E+00        -0.48964E+08
 
   -0.48554E+08         0.69046E+05         0.00000E+00
    0.69046E+05        -0.49999E+08         0.00000E+00
    0.00000E+00         0.00000E+00        -0.48964E+08
 
   -0.48559E+08         0.84191E+05         0.00000E+00
    0.84191E+05        -0.49998E+08         0.00000E+00
    0.00000E+00         0.00000E+00        -0.48964E+08
 
   -0.48564E+08         0.99270E+05         0.00000E+00
    0.99270E+05        -0.49997E+08         0.00000E+00
    0.00000E+00         0.00000E+00        -0.48964E+08
 
   -0.48570E+08         0.11428E+06         0.00000E+00
    0.11428E+06        -0.49996E+08         0.00000E+00
    0.00000E+00         0.00000E+00        -0.48964E+08
 
   -0.48576E+08         0.12923E+06         0.00000E+00
    0.12923E+06        -0.49995E+08         0.00000E+00
    0.00000E+00         0.00000E+00        -0.48964E+08
 
   -0.48582E+08         0.14411E+06         0.00000E+00
    0.14411E+06        -0.49993E+08         0.00000E+00
    0.00000E+00         0.00000E+00        -0.48964E+08
 
   -0.48588E+08         0.15892E+06         0.00000E+00
    0.15892E+06        -0.49992E+08         0.00000E+00
    0.00000E+00         0.00000E+00        -0.48965E+08
 
   -0.48594E+08         0.17367E+06         0.00000E+00
    0.17367E+06        -0.49990E+08         0.00000E+00
    0.00000E+00         0.00000E+00        -0.48965E+08
 
   -0.48601E+08         0.18835E+06         0.00000E+00
    0.18835E+06        -0.49989E+08         0.00000E+00
    0.00000E+00         0.00000E+00        -0.48965E+08
 
   -0.48608E+08         0.20297E+06         0.00000E+00
    0.20297E+06        -0.49987E+08         0.00000E+00
    0.00000E+00         0.00000E+00        -0.48965E+08
 
   -0.48615E+08         0.21752E+06         0.00000E+00
    0.21752E+06        -0.49985E+08         0.00000E+00
    0.00000E+00         0.00000E+00        -0.48965E+08
 
   -0.48622E+08         0.23200E+06         0.00000E+00
    0.23200E+06        -0.49983E+08         0.00000E+00
    0.00000E+00         0.00000E+00        -0.48965E+08
 
   -0.48629E+08         0.24642E+06         0.00000E+00
    0.24642E+06        -0.49981E+08         0.00000E+00
    0.00000E+00         0.00000E+00        -0.48965E+08
 
   -0.48636E+08         0.26077E+06         0.00000E+00
    0.26077E+06        -0.49978E+08         0.00000E+00
    0.00000E+00         0.00000E+00        -0.48965E+08
 
   -0.48644E+08         0.27506E+06         0.00000E+00
    0.27506E+06        -0.49976E+08         0.00000E+00
    0.00000E+00         0.00000E+00        -0.48965E+08
 
   -0.48652E+08         0.28928E+06         0.00000E+00
    0.28928E+06        -0.49973E+08         0.00000E+00
    0.00000E+00         0.00000E+00        -0.48965E+08
 
   -0.48660E+08         0.30343E+06         0.00000E+00
    0.30343E+06        -0.49970E+08         0.00000E+00
    0.00000E+00         0.00000E+00        -0.48965E+08
 
   -0.48668E+08         0.31752E+06         0.00000E+00
    0.31752E+06        -0.49967E+08         0.00000E+00
    0.00000E+00         0.00000E+00        -0.48965E+08
 
   -0.48677E+08         0.33154E+06         0.00000E+00
    0.33154E+06        -0.49964E+08         0.00000E+00
    0.00000E+00         0.00000E+00        -0.48966E+08
 
   -0.48685E+08         0.34549E+06         0.00000E+00
    0.34549E+06        -0.49961E+08         0.00000E+00
    0.00000E+00         0.00000E+00        -0.48966E+08
 
   -0.48694E+08         0.35937E+06         0.00000E+00
    0.35937E+06        -0.49958E+08         0.00000E+00
    0.00000E+00         0.00000E+00        -0.48966E+08
 
   -0.48703E+08         0.37319E+06         0.00000E+00
    0.37319E+06        -0.49954E+08         0.00000E+00
    0.00000E+00         0.00000E+00        -0.48966E+08
 
   -0.48712E+08         0.38694E+06         0.00000E+00
    0.38694E+06        -0.49951E+08         0.00000E+00
    0.00000E+00         0.00000E+00        -0.48966E+08
 
   -0.48721E+08         0.40062E+06         0.00000E+00
    0.40062E+06        -0.49947E+08         0.00000E+00
    0.00000E+00         0.00000E+00        -0.48966E+08
 
   -0.48730E+08         0.41423E+06         0.00000E+00
    0.41423E+06        -0.49943E+08         0.00000E+00
    0.00000E+00         0.00000E+00        -0.48966E+08
 
   -0.48740E+08         0.42777E+06         0.00000E+00
    0.42777E+06        -0.49939E+08         0.00000E+00
    0.00000E+00         0.00000E+00        -0.48966E+08
 
   -0.48750E+08         0.44125E+06         0.00000E+00
    0.44125E+06        -0.49935E+08         0.00000E+00
    0.00000E+00         0.00000E+00        -0.48966E+08
 
   -0.48760E+08         0.45465E+06         0.00000E+00
    0.45465E+06        -0.49931E+08         0.00000E+00
    0.00000E+00         0.00000E+00        -0.48966E+08
 
   -0.48770E+08         0.46798E+06         0.00000E+00
    0.46798E+06        -0.49927E+08         0.00000E+00
    0.00000E+00         0.00000E+00        -0.48967E+08
 
   -0.48780E+08         0.48124E+06         0.00000E+00
    0.48124E+06        -0.49922E+08         0.00000E+00
    0.00000E+00         0.00000E+00        -0.48967E+08
 
   -0.48790E+08         0.49443E+06         0.00000E+00
    0.49443E+06        -0.49918E+08         0.00000E+00
    0.00000E+00         0.00000E+00        -0.48967E+08
 
   -0.48801E+08         0.50755E+06         0.00000E+00
    0.50755E+06        -0.49913E+08         0.00000E+00
    0.00000E+00         0.00000E+00        -0.48967E+08
 
   -0.48811E+08         0.52060E+06         0.00000E+00
    0.52060E+06        -0.49908E+08         0.00000E+00
    0.00000E+00         0.00000E+00        -0.48967E+08
 
   -0.48822E+08         0.53357E+06         0.00000E+00
    0.53357E+06        -0.49903E+08         0.00000E+00
    0.00000E+00         0.00000E+00        -0.48967E+08
 
   -0.48833E+08         0.54647E+06         0.00000E+00
    0.54647E+06        -0.49898E+08         0.00000E+00
    0.00000E+00         0.00000E+00        -0.48967E+08
 
   -0.48844E+08         0.55929E+06         0.00000E+00
    0.55929E+06        -0.49893E+08         0.00000E+00
    0.00000E+00         0.00000E+00        -0.48967E+08
 
   -0.48855E+08         0.57204E+06         0.00000E+00
    0.57204E+06        -0.49888E+08         0.00000E+00
    0.00000E+00         0.00000E+00        -0.48967E+08
 
   -0.48866E+08         0.58471E+06         0.00000E+00
    0.58471E+06        -0.49883E+08         0.00000E+00
    0.00000E+00         0.00000E+00        -0.48967E+08
 
   -0.48878E+08         0.59730E+06         0.00000E+00
    0.59730E+06        -0.49877E+08         0.00000E+00
    0.00000E+00         0.00000E+00        -0.48967E+08
 
   -0.48889E+08         0.60982E+06         0.00000E+00
    0.60982E+06        -0.49872E+08         0.00000E+00
    0.00000E+00         0.00000E+00        -0.48967E+08
 
   -0.48901E+08         0.62226E+06         0.00000E+00
    0.62226E+06        -0.49866E+08         0.00000E+00
    0.00000E+00         0.00000E+00        -0.48967E+08
 
   -0.48913E+08         0.63462E+06         0.00000E+00
    0.63462E+06        -0.49861E+08         0.00000E+00
    0.00000E+00         0.00000E+00        -0.48967E+08
 
   -0.48925E+08         0.64690E+06         0.00000E+00
    0.64690E+06        -0.49855E+08         0.00000E+00
    0.00000E+00         0.00000E+00        -0.48967E+08
 
   -0.48937E+08         0.65910E+06         0.00000E+00
    0.65910E+06        -0.49849E+08         0.00000E+00
    0.00000E+00         0.00000E+00        -0.48967E+08
 
   -0.48949E+08         0.67122E+06         0.00000E+00
    0.67122E+06        -0.49843E+08         0.00000E+00
    0.00000E+00         0.00000E+00        -0.48967E+08
 
   -0.48961E+08         0.68325E+06         0.00000E+00
    0.68325E+06        -0.49837E+08         0.00000E+00
    0.00000E+00         0.00000E+00        -0.48967E+08
 
   -0.48456E+08         0.81646E+04         0.00000E+00
    0.81646E+04        -0.50000E+08         0.00000E+00
    0.00000E+00         0.00000E+00        -0.48903E+08
 
   -0.48461E+08         0.24307E+05         0.00000E+00
    0.24307E+05        -0.50000E+08         0.00000E+00
    0.00000E+00         0.00000E+00        -0.48903E+08
 
   -0.48466E+08         0.40382E+05         0.00000E+00
    0.40382E+05        -0.50000E+08         0.00000E+00
    0.00000E+00         0.00000E+00        -0.48903E+08
 
   -0.48471E+08         0.56389E+05         0.00000E+00
    0.56389E+05        -0.49999E+08         0.00000E+00
    0.00000E+00         0.00000E+00        -0.48903E+08
 
   -0.48476E+08         0.72328E+05         0.00000E+00
    0.72328E+05        -0.49998E+08         0.00000E+00
    0.00000E+00         0.00000E+00        -0.48903E+08
 
   -0.48482E+08         0.88198E+05         0.00000E+00
    0.88198E+05        -0.49998E+08         0.00000E+00
    0.00000E+00         0.00000E+00        -0.48903E+08
 
   -0.48487E+08         0.10400E+06         0.00000E+00
    0.10400E+06        -0.49997E+08         0.00000E+00
    0.00000E+00         0.00000E+00        -0.48903E+08
 
   -0.48493E+08         0.11973E+06         0.00000E+00
    0.11973E+06        -0.49996E+08         0.00000E+00
    0.00000E+00         0.00000E+00        -0.48903E+08
 
   -0.48499E+08         0.13540E+06         0.00000E+00
    0.13540E+06        -0.49995E+08         0.00000E+00
    0.00000E+00         0.00000E+00        -0.48903E+08
 
   -0.48506E+08         0.15099E+06         0.00000E+00
    0.15099E+06        -0.49993E+08         0.00000E+00
    0.00000E+00         0.00000E+00        -0.48903E+08
 
   -0.48512E+08         0.16652E+06         0.00000E+00
    0.16652E+06        -0.49992E+08         0.00000E+00
    0.00000E+00         0.00000E+00        -0.48904E+08
 
   -0.48519E+08         0.18197E+06         0.00000E+00
    0.18197E+06        -0.49990E+08         0.00000E+00
    0.00000E+00         0.00000E+00        -0.48904E+08
 
   -0.48526E+08         0.19736E+06         0.00000E+00
    0.19736E+06        -0.49989E+08         0.00000E+00
    0.00000E+00         0.00000E+00        -0.48904E+08
 
   -0.48533E+08         0.21268E+06         0.00000E+00
    0.21268E+06        -0.49987E+08         0.00000E+00
    0.00000E+00         0.00000E+00        -0.48904E+08
 
   -0.48540E+08         0.22792E+06         0.00000E+00
    0.22792E+06        -0.49985E+08         0.00000E+00
    0.00000E+00         0.00000E+00        -0.48904E+08
 
   -0.48548E+08         0.24310E+06         0.00000E+00
    0.24310E+06        -0.49982E+08         0.00000E+00
    0.00000E+00         0.00000E+00        -0.48904E+08
 
   -0.48555E+08         0.25821E+06         0.00000E+00
    0.25821E+06        -0.49980E+08         0.00000E+00
    0.00000E+00         0.00000E+00        -0.48904E+08
 
   -0.48563E+08         0.27324E+06         0.00000E+00
    0.27324E+06        -0.49978E+08         0.00000E+00
    0.00000E+00         0.00000E+00        -0.48904E+08
 
   -0.48571E+08         0.28821E+06         0.00000E+00
    0.28821E+06        -0.49975E+08         0.00000E+00
    0.00000E+00         0.00000E+00        -0.48904E+08
 
   -0.48579E+08         0.30310E+06         0.00000E+00
    0.30310E+06        -0.49972E+08         0.00000E+00
    0.00000E+00         0.00000E+00        -0.48904E+08
 
   -0.48588E+08         0.31793E+06         0.00000E+00
    0.31793E+06        -0.49969E+08         0.00000E+00
    0.00000E+00         0.00000E+00        -0.48904E+08
 
   -0.48596E+08         0.33268E+06         0.00000E+00
    0.33268E+06        -0.49966E+08         0.00000E+00
    0.00000E+00         0.00000E+00        -0.48904E+08
 
   -0.48605E+08         0.34735E+06         0.00000E+00
    0.34735E+06        -0.49963E+08         0.00000E+00
    0.00000E+00         0.00000E+00        -0.48905E+08
 
   -0.48614E+08         0.36196E+06         0.00000E+00
    0.36196E+06        -0.49960E+08         0.00000E+00
    0.00000E+00         0.00000E+00        -0.48905E+08
 
   -0.48623E+08         0.37649E+06         0.00000E+00
    0.37649E+06        -0.49957E+08         0.00000E+00
    0.00000E+00         0.00000E+00        -0.48905E+08
 
   -0.48632E+08         0.39095E+06         0.00000E+00
    0.39095E+06        -0.49953E+08         0.00000E+00
    0.00000E+00         0.00000E+00        -0.48905E+08
 
   -0.48642E+08         0.40534E+06         0.00000E+00
    0.40534E+06        -0.49949E+08         0.00000E+00
    0.00000E+00         0.00000E+00        -0.48905E+08
 
   -0.48651E+08         0.41965E+06         0.00000E+00
    0.41965E+06        -0.49946E+08         0.00000E+00
    0.00000E+00         0.00000E+00        -0.48905E+08
 
   -0.48661E+08         0.43389E+06         0.00000E+00
    0.43389E+06        -0.49942E+08         0.00000E+00
    0.00000E+00         0.00000E+00        -0.48905E+08
 
   -0.48671E+08         0.44805E+06         0.00000E+00
    0.44805E+06        -0.49938E+08         0.00000E+00
    0.00000E+00         0.00000E+00        -0.48905E+08
 
   -0.48681E+08         0.46214E+06         0.00000E+00
    0.46214E+06        -0.49934E+08         0.00000E+00
    0.00000E+00         0.00000E+00        -0.48905E+08
 
   -0.48691E+08         0.47615E+06         0.00000E+00
    0.47615E+06        -0.49929E+08         0.00000E+00
    0.00000E+00         0.00000E+00        -0.48905E+08
 
   -0.48702E+08         0.49008E+06         0.00000E+00
    0.49008E+06        -0.49925E+08         0.00000E+00
    0.00000E+00         0.00000E+00        -0.48906E+08
 
   -0.48712E+08         0.50393E+06         0.00000E+00
    0.50393E+06        -0.49920E+08         0.00000E+00
    0.00000E+00         0.00000E+00        -0.48906E+08
 
   -0.48723E+08         0.51771E+06         0.00000E+00
    0.51771E+06        -0.49916E+08         0.00000E+00
    0.00000E+00         0.00000E+00        -0.48906E+08
 
   -0.48734E+08         0.53141E+06         0.00000E+00
    0.53141E+06        -0.49911E+08         0.00000E+00
    0.00000E+00         0.00000E+00        -0.48906E+08
 
   -0.48745E+08         0.54503E+06         0.00000E+00
    0.54503E+06        -0.49906E+08         0.00000E+00
    0.00000E+00         0.00000E+00        -0.48906E+08
 
   -0.48756E+08         0.55857E+06         0.00000E+00
    0.55857E+06        -0.49901E+08         0.00000E+00
    0.00000E+00         0.00000E+00        -0.48906E+08
 
   -0.48767E+08         0.57203E+06         0.00000E+00
    0.57203E+06        -0.49896E+08         0.00000E+00
    0.00000E+00         0.00000E+00        -0.48906E+08
 
   -0.48779E+08         0.58541E+06         0.00000E+00
    0.58541E+06        -0.49891E+08         0.00000E+00
    0.00000E+00         0.00000E+00        -0.48906E+08
 
   -0.48790E+08         0.59870E+06         0.00000E+00
    0.59870E+06        -0.49885E+08         0.00000E+00
    0.00000E+00         0.00000E+00        -0.48906E+08
 
   -0.48802E+08         0.61191E+06         0.00000E+00
    0.61191E+06        -0.49880E+08         0.00000E+00
    0.00000E+00         0.00000E+00        -0.48906E+08
 
   -0.48814E+08         0.62504E+06         0.00000E+00
    0.62504E+06        -0.49874E+08         0.00000E+00
    0.00000E+00         0.00000E+00        -0.48906E+08
 
   -0.48826E+08         0.63809E+06         0.00000E+00
    0.63809E+06        -0.49868E+08         0.00000E+00
    0.00000E+00         0.00000E+00        -0.48906E+08
 
   -0.48838E+08         0.65105E+06         0.00000E+00
    0.65105E+06        -0.49863E+08         0.00000E+00
    0.00000E+00         0.00000E+00        -0.48906E+08
 
   -0.48850E+08         0.66392E+06         0.00000E+00
    0.66392E+06        -0.49857E+08         0.00000E+00
    0.00000E+00         0.00000E+00        -0.48906E+08
 
   -0.48862E+08         0.67671E+06         0.00000E+00
    0.67671E+06        -0.49851E+08         0.00000E+00
    0.00000E+00         0.00000E+00        -0.48906E+08
 
   -0.48875E+08         0.68940E+06         0.00000E+00
    0.68940E+06        -0.49845E+08         0.00000E+00
    0.00000E+00         0.00000E+00        -0.48906E+08
 
   -0.48887E+08         0.70201E+06         0.00000E+00
    0.70201E+06        -0.49838E+08         0.00000E+00
    0.00000E+00         0.00000E+00        -0.48906E+08
 
   -0.48900E+08         0.71453E+06         0.00000E+00
    0.71453E+06        -0.49832E+08         0.00000E+00
    0.00000E+00         0.00000E+00        -0.48906E+08
 
   -0.48374E+08         0.85392E+04         0.00000E+00
    0.85392E+04        -0.50000E+08         0.00000E+00
    0.00000E+00         0.00000E+00        -0.48840E+08
 
   -0.48379E+08         0.25429E+05         0.00000E+00
    0.25429E+05        -0.50000E+08         0.00000E+00
    0.00000E+00         0.00000E+00        -0.48840E+08
 
   -0.48384E+08         0.42250E+05         0.00000E+00
    0.42250E+05        -0.50000E+08         0.00000E+00
    0.00000E+00         0.00000E+00        -0.48840E+08
 
   -0.48389E+08         0.59002E+05         0.00000E+00
    0.59002E+05        -0.49999E+08         0.00000E+00
    0.00000E+00         0.00000E+00        -0.48840E+08
 
   -0.48395E+08         0.75684E+05         0.00000E+00
    0.75684E+05        -0.49998E+08         0.00000E+00
    0.00000E+00         0.00000E+00        -0.48840E+08
 
   -0.48401E+08         0.92295E+05         0.00000E+00
    0.92295E+05        -0.49998E+08         0.00000E+00
    0.00000E+00         0.00000E+00        -0.48840E+08
 
   -0.48407E+08         0.10884E+06         0.00000E+00
    0.10884E+06        -0.49997E+08         0.00000E+00
    0.00000E+00         0.00000E+00        -0.48840E+08
 
   -0.48413E+08         0.12531E+06         0.00000E+00
    0.12531E+06        -0.49996E+08         0.00000E+00
    0.00000E+00         0.00000E+00        -0.48840E+08
 
   -0.48419E+08         0.14170E+06         0.00000E+00
    0.14170E+06        -0.49995E+08         0.00000E+00
    0.00000E+00         0.00000E+00        -0.48840E+08
 
   -0.48426E+08         0.15803E+06         0.00000E+00
    0.15803E+06        -0.49993E+08         0.00000E+00
    0.00000E+00         0.00000E+00        -0.48840E+08
 
   -0.48433E+08         0.17429E+06         0.00000E+00
    0.17429E+06        -0.49992E+08         0.00000E+00
    0.00000E+00         0.00000E+00        -0.48840E+08
 
   -0.48440E+08         0.19047E+06         0.00000E+00
    0.19047E+06        -0.49990E+08         0.00000E+00
    0.00000E+00         0.00000E+00        -0.48840E+08
 
   -0.48447E+08         0.20658E+06         0.00000E+00
    0.20658E+06        -0.49988E+08         0.00000E+00
    0.00000E+00         0.00000E+00        -0.48840E+08
 
   -0.48455E+08         0.22261E+06         0.00000E+00
    0.22261E+06        -0.49986E+08         0.00000E+00
    0.00000E+00         0.00000E+00        -0.48840E+08
 
   -0.48462E+08         0.23858E+06         0.00000E+00
    0.23858E+06        -0.49984E+08         0.00000E+00
    0.00000E+00         0.00000E+00        -0.48840E+08
 
   -0.48470E+08         0.25447E+06         0.00000E+00
    0.25447E+06        -0.49982E+08         0.00000E+00
    0.00000E+00         0.00000E+00        -0.48840E+08
 
   -0.48478E+08         0.27028E+06         0.00000E+00
    0.27028E+06        -0.49980E+08         0.00000E+00
    0.00000E+00         0.00000E+00        -0.48841E+08
 
   -0.48486E+08         0.28602E+06         0.00000E+00
    0.28602E+06        -0.49977E+08         0.00000E+00
    0.00000E+00         0.00000E+00        -0.48841E+08
 
   -0.48495E+08         0.30168E+06         0.00000E+00
    0.30168E+06        -0.49974E+08         0.00000E+00
    0.00000E+00         0.00000E+00        -0.48841E+08
 
   -0.48503E+08         0.31727E+06         0.00000E+00
    0.31727E+06        -0.49972E+08         0.00000E+00
    0.00000E+00         0.00000E+00        -0.48841E+08
 
   -0.48512E+08         0.33279E+06         0.00000E+00
    0.33279E+06        -0.49969E+08         0.00000E+00
    0.00000E+00         0.00000E+00        -0.48841E+08
 
   -0.48521E+08         0.34822E+06         0.00000E+00
    0.34822E+06        -0.49966E+08         0.00000E+00
    0.00000E+00         0.00000E+00        -0.48841E+08
 
   -0.48530E+08         0.36358E+06         0.00000E+00
    0.36358E+06        -0.49962E+08         0.00000E+00
    0.00000E+00         0.00000E+00        -0.48841E+08
 
   -0.48539E+08         0.37886E+06         0.00000E+00
    0.37886E+06        -0.49959E+08         0.00000E+00
    0.00000E+00         0.00000E+00        -0.48841E+08
 
   -0.48549E+08         0.39407E+06         0.00000E+00
    0.39407E+06        -0.49956E+08         0.00000E+00
    0.00000E+00         0.00000E+00        -0.48841E+08
 
   -0.48558E+08         0.40919E+06         0.00000E+00
    0.40919E+06        -0.49952E+08         0.00000E+00
    0.00000E+00         0.00000E+00        -0.48841E+08
 
   -0.48568E+08         0.42424E+06         0.00000E+00
    0.42424E+06        -0.49948E+08         0.00000E+00
    0.00000E+00         0.00000E+00        -0.48842E+08
 
   -0.48578E+08         0.43920E+06         0.00000E+00
    0.43920E+06        -0.49944E+08         0.00000E+00
    0.00000E+00         0.00000E+00        -0.48842E+08
 
   -0.48588E+08         0.45409E+06         0.00000E+00
    0.45409E+06        -0.49940E+08         0.00000E+00
    0.00000E+00         0.00000E+00        -0.48842E+08
 
   -0.48599E+08         0.46889E+06         0.00000E+00
    0.46889E+06        -0.49936E+08         0.00000E+00
    0.00000E+00         0.00000E+00        -0.48842E+08
 
   -0.48609E+08         0.48362E+06         0.00000E+00
    0.48362E+06        -0.49932E+08         0.00000E+00
    0.00000E+00         0.00000E+00        -0.48842E+08
 
   -0.48620E+08         0.49826E+06         0.00000E+00
    0.49826E+06        -0.49927E+08         0.00000E+00
    0.00000E+00         0.00000E+00        -0.48842E+08
 
   -0.48631E+08         0.51282E+06         0.00000E+00
    0.51282E+06        -0.49923E+08         0.00000E+00
    0.00000E+00         0.00000E+00        -0.48842E+08
 
   -0.48642E+08         0.52729E+06         0.00000E+00
    0.52729E+06        -0.49918E+08         0.00000E+00
    0.00000E+00         0.00000E+00        -0.48842E+08
 
   -0.48653E+08         0.54168E+06         0.00000E+00
    0.54168E+06        -0.49913E+08         0.00000E+00
    0.00000E+00         0.00000E+00        -0.48842E+08
 
   -0.48664E+08         0.55599E+06         0.00000E+00
    0.55599E+06        -0.49908E+08         0.00000E+00
    0.00000E+00         0.00000E+00        -0.48842E+08
 
   -0.48675E+08         0.57021E+06         0.00000E+00
    0.57021E+06        -0.49903E+08         0.00000E+00
    0.00000E+00         0.00000E+00        -0.48842E+08
 
   -0.48687E+08         0.58434E+06         0.00000E+00
    0.58434E+06        -0.49898E+08         0.00000E+00
    0.00000E+00         0.00000E+00        -0.48843E+08
 
   -0.48699E+08         0.59839E+06         0.00000E+00
    0.59839E+06        -0.49893E+08         0.00000E+00
    0.00000E+00         0.00000E+00        -0.48843E+08
 
   -0.48710E+08         0.61235E+06         0.00000E+00
    0.61235E+06        -0.49887E+08         0.00000E+00
    0.00000E+00         0.00000E+00        -0.48843E+08
 
   -0.48722E+08         0.62622E+06         0.00000E+00
    0.62622E+06        -0.49882E+08         0.00000E+00
    0.00000E+00         0.00000E+00        -0.48843E+08
 
   -0.48735E+08         0.64000E+06         0.00000E+00
    0.64000E+06        -0.49876E+08         0.00000E+00
    0.00000E+00         0.00000E+00        -0.48843E+08
 
   -0.48747E+08         0.65369E+06         0.00000E+00
    0.65369E+06        -0.49870E+08         0.00000E+00
    0.00000E+00         0.00000E+00        -0.48843E+08
 
   -0.48759E+08         0.66729E+06         0.00000E+00
    0.66729E+06        -0.49865E+08         0.00000E+00
    0.00000E+00         0.00000E+00        -0.48843E+08
 
   -0.48772E+08         0.68080E+06         0.00000E+00
    0.68080E+06        -0.49859E+08         0.00000E+00
    0.00000E+00         0.00000E+00        -0.48843E+08
 
   -0.48784E+08         0.69422E+06         0.00000E+00
    0.69422E+06        -0.49852E+08         0.00000E+00
    0.00000E+00         0.00000E+00        -0.48843E+08
 
   -0.48797E+08         0.70754E+06         0.00000E+00
    0.70754E+06        -0.49846E+08         0.00000E+00
    0.00000E+00         0.00000E+00        -0.48843E+08
 
   -0.48810E+08         0.72077E+06         0.00000E+00
    0.72077E+06        -0.49840E+08         0.00000E+00
    0.00000E+00         0.00000E+00        -0.48843E+08
 
   -0.48823E+08         0.73390E+06         0.00000E+00
    0.73390E+06        -0.49833E+08         0.00000E+00
    0.00000E+00         0.00000E+00        -0.48843E+08
 
   -0.48836E+08         0.74694E+06         0.00000E+00
    0.74694E+06        -0.49827E+08         0.00000E+00
    0.00000E+00         0.00000E+00        -0.48843E+08
 
   -0.48287E+08         0.89240E+04         0.00000E+00
    0.89240E+04        -0.50000E+08         0.00000E+00
    0.00000E+00         0.00000E+00        -0.48774E+08
 
   -0.48292E+08         0.26581E+05         0.00000E+00
    0.26581E+05        -0.50000E+08         0.00000E+00
    0.00000E+00         0.00000E+00        -0.48774E+08
 
   -0.48298E+08         0.44168E+05         0.00000E+00
    0.44168E+05        -0.49999E+08         0.00000E+00
    0.00000E+00         0.00000E+00        -0.48774E+08
 
   -0.48304E+08         0.61684E+05         0.00000E+00
    0.61684E+05        -0.49999E+08         0.00000E+00
    0.00000E+00         0.00000E+00        -0.48774E+08
 
   -0.48310E+08         0.79129E+05         0.00000E+00
    0.79129E+05        -0.49998E+08         0.00000E+00
    0.00000E+00         0.00000E+00        -0.48774E+08
 
   -0.48316E+08         0.96501E+05         0.00000E+00
    0.96501E+05        -0.49998E+08         0.00000E+00
    0.00000E+00         0.00000E+00        -0.48774E+08
 
   -0.48322E+08         0.11380E+06         0.00000E+00
    0.11380E+06        -0.49997E+08         0.00000E+00
    0.00000E+00         0.00000E+00        -0.48774E+08
 
   -0.48329E+08         0.13103E+06         0.00000E+00
    0.13103E+06        -0.49996E+08         0.00000E+00
    0.00000E+00         0.00000E+00        -0.48774E+08
 
   -0.48336E+08         0.14818E+06         0.00000E+00
    0.14818E+06        -0.49994E+08         0.00000E+00
    0.00000E+00         0.00000E+00        -0.48774E+08
 
   -0.48343E+08         0.16526E+06         0.00000E+00
    0.16526E+06        -0.49993E+08         0.00000E+00
    0.00000E+00         0.00000E+00        -0.48774E+08
 
   -0.48350E+08         0.18226E+06         0.00000E+00
    0.18226E+06        -0.49991E+08         0.00000E+00
    0.00000E+00         0.00000E+00        -0.48774E+08
 
   -0.48357E+08         0.19919E+06         0.00000E+00
    0.19919E+06        -0.49990E+08         0.00000E+00
    0.00000E+00         0.00000E+00        -0.48774E+08
 
   -0.48365E+08         0.21604E+06         0.00000E+00
    0.21604E+06        -0.49988E+08         0.00000E+00
    0.00000E+00         0.00000E+00        -0.48774E+08
 
   -0.48373E+08         0.23282E+06         0.00000E+00
    0.23282E+06        -0.49986E+08         0.00000E+00
    0.00000E+00         0.00000E+00        -0.48774E+08
 
   -0.48381E+08         0.24952E+06         0.00000E+00
    0.24952E+06        -0.49984E+08         0.00000E+00
    0.00000E+00         0.00000E+00        -0.48774E+08
 
   -0.48389E+08         0.26614E+06         0.00000E+00
    0.26614E+06        -0.49981E+08         0.00000E+00
    0.00000E+00         0.00000E+00        -0.48774E+08
 
   -0.48397E+08         0.28268E+06         0.00000E+00
    0.28268E+06        -0.49979E+08         0.00000E+00
    0.00000E+00         0.00000E+00        -0.48774E+08
 
   -0.48406E+08         0.29915E+06         0.00000E+00
    0.29915E+06        -0.49976E+08         0.00000E+00
    0.00000E+00         0.00000E+00        -0.48775E+08
 
   -0.48415E+08         0.31554E+06         0.00000E+00
    0.31554E+06        -0.49974E+08         0.00000E+00
    0.00000E+00         0.00000E+00        -0.48775E+08
 
   -0.48424E+08         0.33184E+06         0.00000E+00
    0.33184E+06        -0.49971E+08         0.00000E+00
    0.00000E+00         0.00000E+00        -0.48775E+08
 
   -0.48433E+08         0.34807E+06         0.00000E+00
    0.34807E+06        -0.49968E+08         0.00000E+00
    0.00000E+00         0.00000E+00        -0.48775E+08
 
   -0.48442E+08         0.36421E+06         0.00000E+00
    0.36421E+06        -0.49965E+08         0.00000E+00
    0.00000E+00         0.00000E+00        -0.48775E+08
 
   -0.48452E+08         0.38027E+06         0.00000E+00
    0.38027E+06        -0.49961E+08         0.00000E+00
    0.00000E+00         0.00000E+00        -0.48775E+08
 
   -0.48461E+08         0.39625E+06         0.00000E+00
    0.39625E+06        -0.49958E+08         0.00000E+00
    0.00000E+00         0.00000E+00        -0.48775E+08
 
   -0.48471E+08         0.41215E+06         0.00000E+00
    0.41215E+06        -0.49954E+08         0.00000E+00
    0.00000E+00         0.00000E+00        -0.48775E+08
 
   -0.48481E+08         0.42796E+06         0.00000E+00
    0.42796E+06        -0.49950E+08         0.00000E+00
    0.00000E+00         0.00000E+00        -0.48775E+08
 
   -0.48492E+08         0.44369E+06         0.00000E+00
    0.44369E+06        -0.49947E+08         0.00000E+00
    0.00000E+00         0.00000E+00        -0.48775E+08
 
   -0.48502E+08         0.45934E+06         0.00000E+00
    0.45934E+06        -0.49943E+08         0.00000E+00
    0.00000E+00         0.00000E+00        -0.48776E+08
 
   -0.48512E+08         0.47490E+06         0.00000E+00
    0.47490E+06        -0.49938E+08         0.00000E+00
    0.00000E+00         0.00000E+00        -0.48776E+08
 
   -0.48523E+08         0.49037E+06         0.00000E+00
    0.49037E+06        -0.49934E+08         0.00000E+00
    0.00000E+00         0.00000E+00        -0.48776E+08
 
   -0.48534E+08         0.50576E+06         0.00000E+00
    0.50576E+06        -0.49930E+08         0.00000E+00
    0.00000E+00         0.00000E+00        -0.48776E+08
 
   -0.48545E+08         0.52106E+06         0.00000E+00
    0.52106E+06        -0.49925E+08         0.00000E+00
    0.00000E+00         0.00000E+00        -0.48776E+08
 
   -0.48556E+08         0.53627E+06         0.00000E+00
    0.53627E+06        -0.49920E+08         0.00000E+00
    0.00000E+00         0.00000E+00        -0.48776E+08
 
   -0.48568E+08         0.55139E+06         0.00000E+00
    0.55139E+06        -0.49916E+08         0.00000E+00
    0.00000E+00         0.00000E+00        -0.48776E+08
 
   -0.48579E+08         0.56642E+06         0.00000E+00
    0.56642E+06        -0.49911E+08         0.00000E+00
    0.00000E+00         0.00000E+00        -0.48776E+08
 
   -0.48591E+08         0.58136E+06         0.00000E+00
    0.58136E+06        -0.49906E+08         0.00000E+00
    0.00000E+00         0.00000E+00        -0.48776E+08
 
   -0.48603E+08         0.59621E+06         0.00000E+00
    0.59621E+06        -0.49900E+08         0.00000E+00
    0.00000E+00         0.00000E+00        -0.48776E+08
 
   -0.48615E+08         0.61097E+06         0.00000E+00
    0.61097E+06        -0.49895E+08         0.00000E+00
    0.00000E+00         0.00000E+00        -0.48777E+08
 
   -0.48627E+08         0.62563E+06         0.00000E+00
    0.62563E+06        -0.49889E+08         0.00000E+00
    0.00000E+00         0.00000E+00        -0.48777E+08
 
   -0.48639E+08         0.64020E+06         0.00000E+00
    0.64020E+06        -0.49884E+08         0.00000E+00
    0.00000E+00         0.00000E+00        -0.48777E+08
 
   -0.48652E+08         0.65468E+06         0.00000E+00
    0.65468E+06        -0.49878E+08         0.00000E+00
    0.00000E+00         0.00000E+00        -0.48777E+08
 
   -0.48664E+08         0.66906E+06         0.00000E+00
    0.66906E+06        -0.49872E+08         0.00000E+00
    0.00000E+00         0.00000E+00        -0.48777E+08
 
   -0.48677E+08         0.68334E+06         0.00000E+00
    0.68334E+06        -0.49866E+08         0.00000E+00
    0.00000E+00         0.00000E+00        -0.48777E+08
 
   -0.48690E+08         0.69753E+06         0.00000E+00
    0.69753E+06        -0.49860E+08         0.00000E+00
    0.00000E+00         0.00000E+00        -0.48777E+08
 
   -0.48703E+08         0.71161E+06         0.00000E+00
    0.71161E+06        -0.49854E+08         0.00000E+00
    0.00000E+00         0.00000E+00        -0.48777E+08
 
   -0.48716E+08         0.72560E+06         0.00000E+00
    0.72560E+06        -0.49848E+08         0.00000E+00
    0.00000E+00         0.00000E+00        -0.48777E+08
 
   -0.48730E+08         0.73949E+06         0.00000E+00
    0.73949E+06        -0.49841E+08         0.00000E+00
    0.00000E+00         0.00000E+00        -0.48777E+08
 
   -0.48743E+08         0.75328E+06         0.00000E+00
    0.75328E+06        -0.49835E+08         0.00000E+00
    0.00000E+00         0.00000E+00        -0.48777E+08
 
   -0.48756E+08         0.76696E+06         0.00000E+00
    0.76696E+06        -0.49828E+08         0.00000E+00
    0.00000E+00         0.00000E+00        -0.48777E+08
 
   -0.48770E+08         0.78054E+06         0.00000E+00
    0.78054E+06        -0.49821E+08         0.00000E+00
    0.00000E+00         0.00000E+00        -0.48777E+08
 
   -0.48197E+08         0.93206E+04         0.00000E+00
    0.93206E+04        -0.50000E+08         0.00000E+00
    0.00000E+00         0.00000E+00        -0.48705E+08
 
   -0.48202E+08         0.27768E+05         0.00000E+00
    0.27768E+05        -0.50000E+08         0.00000E+00
    0.00000E+00         0.00000E+00        -0.48705E+08
 
   -0.48208E+08         0.46143E+05         0.00000E+00
    0.46143E+05        -0.49999E+08         0.00000E+00
    0.00000E+00         0.00000E+00        -0.48705E+08
 
   -0.48214E+08         0.64446E+05         0.00000E+00
    0.64446E+05        -0.49999E+08         0.00000E+00
    0.00000E+00         0.00000E+00        -0.48705E+08
 
   -0.48221E+08         0.82676E+05         0.00000E+00
    0.82676E+05        -0.49998E+08         0.00000E+00
    0.00000E+00         0.00000E+00        -0.48705E+08
 
   -0.48227E+08         0.10083E+06         0.00000E+00
    0.10083E+06        -0.49998E+08         0.00000E+00
    0.00000E+00         0.00000E+00        -0.48705E+08
 
   -0.48234E+08         0.11891E+06         0.00000E+00
    0.11891E+06        -0.49997E+08         0.00000E+00
    0.00000E+00         0.00000E+00        -0.48705E+08
 
   -0.48241E+08         0.13692E+06         0.00000E+00
    0.13692E+06        -0.49995E+08         0.00000E+00
    0.00000E+00         0.00000E+00        -0.48705E+08
 
   -0.48248E+08         0.15485E+06         0.00000E+00
    0.15485E+06        -0.49994E+08         0.00000E+00
    0.00000E+00         0.00000E+00        -0.48705E+08
 
   -0.48256E+08         0.17270E+06         0.00000E+00
    0.17270E+06        -0.49993E+08         0.00000E+00
    0.00000E+00         0.00000E+00        -0.48705E+08
 
   -0.48263E+08         0.19048E+06         0.00000E+00
    0.19048E+06        -0.49991E+08         0.00000E+00
    0.00000E+00         0.00000E+00        -0.48705E+08
 
   -0.48271E+08         0.20818E+06         0.00000E+00
    0.20818E+06        -0.49989E+08         0.00000E+00
    0.00000E+00         0.00000E+00        -0.48705E+08
 
   -0.48279E+08         0.22580E+06         0.00000E+00
    0.22580E+06        -0.49988E+08         0.00000E+00
    0.00000E+00         0.00000E+00        -0.48705E+08
 
   -0.48287E+08         0.24333E+06         0.00000E+00
    0.24333E+06        -0.49985E+08         0.00000E+00
    0.00000E+00         0.00000E+00        -0.48705E+08
 
   -0.48296E+08         0.26079E+06         0.00000E+00
    0.26079E+06        -0.49983E+08         0.00000E+00
    0.00000E+00         0.00000E+00        -0.48705E+08
 
   -0.48304E+08         0.27817E+06         0.00000E+00
    0.27817E+06        -0.49981E+08         0.00000E+00
    0.00000E+00         0.00000E+00        -0.48706E+08
 
   -0.48313E+08         0.29547E+06         0.00000E+00
    0.29547E+06        -0.49978E+08         0.00000E+00
    0.00000E+00         0.00000E+00        -0.48706E+08
 
   -0.48322E+08         0.31268E+06         0.00000E+00
    0.31268E+06        -0.49976E+08         0.00000E+00
    0.00000E+00         0.00000E+00        -0.48706E+08
 
   -0.48331E+08         0.32981E+06         0.00000E+00
    0.32981E+06        -0.49973E+08         0.00000E+00
    0.00000E+00         0.00000E+00        -0.48706E+08
 
   -0.48341E+08         0.34686E+06         0.00000E+00
    0.34686E+06        -0.49970E+08         0.00000E+00
    0.00000E+00         0.00000E+00        -0.48706E+08
 
   -0.48350E+08         0.36382E+06         0.00000E+00
    0.36382E+06        -0.49967E+08         0.00000E+00
    0.00000E+00         0.00000E+00        -0.48706E+08
 
   -0.48360E+08         0.38070E+06         0.00000E+00
    0.38070E+06        -0.49964E+08         0.00000E+00
    0.00000E+00         0.00000E+00        -0.48706E+08
 
   -0.48370E+08         0.39749E+06         0.00000E+00
    0.39749E+06        -0.49960E+08         0.00000E+00
    0.00000E+00         0.00000E+00        -0.48706E+08
 
   -0.48380E+08         0.41419E+06         0.00000E+00
    0.41419E+06        -0.49957E+08         0.00000E+00
    0.00000E+00         0.00000E+00        -0.48706E+08
 
   -0.48390E+08         0.43081E+06         0.00000E+00
    0.43081E+06        -0.49953E+08         0.00000E+00
    0.00000E+00         0.00000E+00        -0.48706E+08
 
   -0.48401E+08         0.44734E+06         0.00000E+00
    0.44734E+06        -0.49949E+08         0.00000E+00
    0.00000E+00         0.00000E+00        -0.48707E+08
 
   -0.48411E+08         0.46378E+06         0.00000E+00
    0.46378E+06        -0.49945E+08         0.00000E+00
    0.00000E+00         0.00000E+00        -0.48707E+08
 
   -0.48422E+08         0.48013E+06         0.00000E+00
    0.48013E+06        -0.49941E+08         0.00000E+00
    0.00000E+00         0.00000E+00        -0.48707E+08
 
   -0.48433E+08         0.49639E+06         0.00000E+00
    0.49639E+06        -0.49936E+08         0.00000E+00
    0.00000E+00         0.00000E+00        -0.48707E+08
 
   -0.48444E+08         0.51255E+06         0.00000E+00
    0.51255E+06        -0.49932E+08         0.00000E+00
    0.00000E+00         0.00000E+00        -0.48707E+08
 
   -0.48456E+08         0.52863E+06         0.00000E+00
    0.52863E+06        -0.49927E+08         0.00000E+00
    0.00000E+00         0.00000E+00        -0.48707E+08
 
   -0.48467E+08         0.54461E+06         0.00000E+00
    0.54461E+06        -0.49923E+08         0.00000E+00
    0.00000E+00         0.00000E+00        -0.48707E+08
 
   -0.48479E+08         0.56050E+06         0.00000E+00
    0.56050E+06        -0.49918E+08         0.00000E+00
    0.00000E+00         0.00000E+00        -0.48707E+08
 
   -0.48491E+08         0.57630E+06         0.00000E+00
    0.57630E+06        -0.49913E+08         0.00000E+00
    0.00000E+00         0.00000E+00        -0.48707E+08
 
   -0.48503E+08         0.59200E+06         0.00000E+00
    0.59200E+06        -0.49908E+08         0.00000E+00
    0.00000E+00         0.00000E+00        -0.48707E+08
 
   -0.48515E+08         0.60760E+06         0.00000E+00
    0.60760E+06        -0.49902E+08         0.00000E+00
    0.00000E+00         0.00000E+00        -0.48708E+08
 
   -0.48527E+08         0.62311E+06         0.00000E+00
    0.62311E+06        -0.49897E+08         0.00000E+00
    0.00000E+00         0.00000E+00        -0.48708E+08
 
   -0.48540E+08         0.63852E+06         0.00000E+00
    0.63852E+06        -0.49892E+08         0.00000E+00
    0.00000E+00         0.00000E+00        -0.48708E+08
 
   -0.48552E+08         0.65383E+06         0.00000E+00
    0.65383E+06        -0.49886E+08         0.00000E+00
    0.00000E+00         0.00000E+00        -0.48708E+08
 
   -0.48565E+08         0.66904E+06         0.00000E+00
    0.66904E+06        -0.49880E+08         0.00000E+00
    0.00000E+00         0.00000E+00        -0.48708E+08
 
   -0.48578E+08         0.68415E+06         0.00000E+00
    0.68415E+06        -0.49874E+08         0.00000E+00
    0.00000E+00         0.00000E+00        -0.48708E+08
 
   -0.48591E+08         0.69915E+06         0.00000E+00
    0.69915E+06        -0.49868E+08         0.00000E+00
    0.00000E+00         0.00000E+00        -0.48708E+08
 
   -0.48604E+08         0.71406E+06         0.00000E+00
    0.71406E+06        -0.49862E+08         0.00000E+00
    0.00000E+00         0.00000E+00        -0.48708E+08
 
   -0.48618E+08         0.72886E+06         0.00000E+00
    0.72886E+06        -0.49856E+08         0.00000E+00
    0.00000E+00         0.00000E+00        -0.48708E+08
 
   -0.48631E+08         0.74356E+06         0.00000E+00
    0.74356E+06        -0.49849E+08         0.00000E+00
    0.00000E+00         0.00000E+00        -0.48708E+08
 
   -0.48645E+08         0.75815E+06         0.00000E+00
    0.75815E+06        -0.49842E+08         0.00000E+00
    0.00000E+00         0.00000E+00        -0.48708E+08
 
   -0.48659E+08         0.77264E+06         0.00000E+00
    0.77264E+06        -0.49836E+08         0.00000E+00
    0.00000E+00         0.00000E+00        -0.48708E+08
 
   -0.48673E+08         0.78701E+06         0.00000E+00
    0.78701E+06        -0.49829E+08         0.00000E+00
    0.00000E+00         0.00000E+00        -0.48708E+08
 
   -0.48687E+08         0.80128E+06         0.00000E+00
    0.80128E+06        -0.49822E+08         0.00000E+00
    0.00000E+00         0.00000E+00        -0.48708E+08
 
   -0.48701E+08         0.81544E+06         0.00000E+00
    0.81544E+06        -0.49815E+08         0.00000E+00
    0.00000E+00         0.00000E+00        -0.48708E+08
 
   -0.48102E+08         0.97301E+04         0.00000E+00
    0.97301E+04        -0.50000E+08         0.00000E+00
    0.00000E+00         0.00000E+00        -0.48633E+08
 
   -0.48108E+08         0.28993E+05         0.00000E+00
    0.28993E+05        -0.50000E+08         0.00000E+00
    0.00000E+00         0.00000E+00        -0.48633E+08
 
   -0.48114E+08         0.48182E+05         0.00000E+00
    0.48182E+05        -0.49999E+08         0.00000E+00
    0.00000E+00         0.00000E+00        -0.48633E+08
 
   -0.48121E+08         0.67298E+05         0.00000E+00
    0.67298E+05        -0.49999E+08         0.00000E+00
    0.00000E+00         0.00000E+00        -0.48633E+08
 
   -0.48128E+08         0.86339E+05         0.00000E+00
    0.86339E+05        -0.49998E+08         0.00000E+00
    0.00000E+00         0.00000E+00        -0.48633E+08
 
   -0.48135E+08         0.10530E+06         0.00000E+00
    0.10530E+06        -0.49997E+08         0.00000E+00
    0.00000E+00         0.00000E+00        -0.48633E+08
 
   -0.48142E+08         0.12419E+06         0.00000E+00
    0.12419E+06        -0.49996E+08         0.00000E+00
    0.00000E+00         0.00000E+00        -0.48633E+08
 
   -0.48149E+08         0.14300E+06         0.00000E+00
    0.14300E+06        -0.49995E+08         0.00000E+00
    0.00000E+00         0.00000E+00        -0.48633E+08
 
   -0.48157E+08         0.16173E+06         0.00000E+00
    0.16173E+06        -0.49994E+08         0.00000E+00
    0.00000E+00         0.00000E+00        -0.48633E+08
 
   -0.48165E+08         0.18039E+06         0.00000E+00
    0.18039E+06        -0.49993E+08         0.00000E+00
    0.00000E+00         0.00000E+00        -0.48633E+08
 
   -0.48173E+08         0.19896E+06         0.00000E+00
    0.19896E+06        -0.49991E+08         0.00000E+00
    0.00000E+00         0.00000E+00        -0.48633E+08
 
   -0.48181E+08         0.21745E+06         0.00000E+00
    0.21745E+06        -0.49989E+08         0.00000E+00
    0.00000E+00         0.00000E+00        -0.48633E+08
 
   -0.48189E+08         0.23586E+06         0.00000E+00
    0.23586E+06        -0.49987E+08         0.00000E+00
    0.00000E+00         0.00000E+00        -0.48633E+08
 
   -0.48198E+08         0.25419E+06         0.00000E+00
    0.25419E+06        -0.49985E+08         0.00000E+00
    0.00000E+00         0.00000E+00        -0.48634E+08
 
   -0.48207E+08         0.27243E+06         0.00000E+00
    0.27243E+06        -0.49983E+08         0.00000E+00
    0.00000E+00         0.00000E+00        -0.48634E+08
 
   -0.48216E+08         0.29059E+06         0.00000E+00
    0.29059E+06        -0.49980E+08         0.00000E+00
    0.00000E+00         0.00000E+00        -0.48634E+08
 
   -0.48225E+08         0.30866E+06         0.00000E+00
    0.30866E+06        -0.49978E+08         0.00000E+00
    0.00000E+00         0.00000E+00        -0.48634E+08
 
   -0.48234E+08         0.32665E+06         0.00000E+00
    0.32665E+06        -0.49975E+08         0.00000E+00
    0.00000E+00         0.00000E+00        -0.48634E+08
 
   -0.48244E+08         0.34455E+06         0.00000E+00
    0.34455E+06        -0.49972E+08         0.00000E+00
    0.00000E+00         0.00000E+00        -0.48634E+08
 
   -0.48254E+08         0.36237E+06         0.00000E+00
    0.36237E+06        -0.49969E+08         0.00000E+00
    0.00000E+00         0.00000E+00        -0.48634E+08
 
   -0.48264E+08         0.38009E+06         0.00000E+00
    0.38009E+06        -0.49966E+08         0.00000E+00
    0.00000E+00         0.00000E+00        -0.48634E+08
 
   -0.48274E+08         0.39773E+06         0.00000E+00
    0.39773E+06        -0.49962E+08         0.00000E+00
    0.00000E+00         0.00000E+00        -0.48634E+08
 
   -0.48284E+08         0.41527E+06         0.00000E+00
    0.41527E+06        -0.49959E+08         0.00000E+00
    0.00000E+00         0.00000E+00        -0.48634E+08
 
   -0.48295E+08         0.43273E+06         0.00000E+00
    0.43273E+06        -0.49955E+08         0.00000E+00
    0.00000E+00         0.00000E+00        -0.48635E+08
 
   -0.48305E+08         0.45009E+06         0.00000E+00
    0.45009E+06        -0.49951E+08         0.00000E+00
    0.00000E+00         0.00000E+00        -0.48635E+08
 
   -0.48316E+08         0.46736E+06         0.00000E+00
    0.46736E+06        -0.49947E+08         0.00000E+00
    0.00000E+00         0.00000E+00        -0.48635E+08
 
   -0.48328E+08         0.48454E+06         0.00000E+00
    0.48454E+06        -0.49943E+08         0.00000E+00
    0.00000E+00         0.00000E+00        -0.48635E+08
 
   -0.48339E+08         0.50162E+06         0.00000E+00
    0.50162E+06        -0.49939E+08         0.00000E+00
    0.00000E+00         0.00000E+00        -0.48635E+08
 
   -0.48350E+08         0.51861E+06         0.00000E+00
    0.51861E+06        -0.49934E+08         0.00000E+00
    0.00000E+00         0.00000E+00        -0.48635E+08
 
   -0.48362E+08         0.53550E+06         0.00000E+00
    0.53550E+06        -0.49930E+08         0.00000E+00
    0.00000E+00         0.00000E+00        -0.48635E+08
 
   -0.48374E+08         0.55229E+06         0.00000E+00
    0.55229E+06        -0.49925E+08         0.00000E+00
    0.00000E+00         0.00000E+00        -0.48635E+08
 
   -0.48386E+08         0.56899E+06         0.00000E+00
    0.56899E+06        -0.49920E+08         0.00000E+00
    0.00000E+00         0.00000E+00        -0.48635E+08
 
   -0.48398E+08         0.58559E+06         0.00000E+00
    0.58559E+06        -0.49915E+08         0.00000E+00
    0.00000E+00         0.00000E+00        -0.48635E+08
 
   -0.48410E+08         0.60209E+06         0.00000E+00
    0.60209E+06        -0.49910E+08         0.00000E+00
    0.00000E+00         0.00000E+00        -0.48636E+08
 
   -0.48423E+08         0.61848E+06         0.00000E+00
    0.61848E+06        -0.49905E+08         0.00000E+00
    0.00000E+00         0.00000E+00        -0.48636E+08
 
   -0.48435E+08         0.63478E+06         0.00000E+00
    0.63478E+06        -0.49899E+08         0.00000E+00
    0.00000E+00         0.00000E+00        -0.48636E+08
 
   -0.48448E+08         0.65097E+06         0.00000E+00
    0.65097E+06        -0.49893E+08         0.00000E+00
    0.00000E+00         0.00000E+00        -0.48636E+08
 
   -0.48461E+08         0.66706E+06         0.00000E+00
    0.66706E+06        -0.49888E+08         0.00000E+00
    0.00000E+00         0.00000E+00        -0.48636E+08
 
   -0.48474E+08         0.68305E+06         0.00000E+00
    0.68305E+06        -0.49882E+08         0.00000E+00
    0.00000E+00         0.00000E+00        -0.48636E+08
 
   -0.48488E+08         0.69893E+06         0.00000E+00
    0.69893E+06        -0.49876E+08         0.00000E+00
    0.00000E+00         0.00000E+00        -0.48636E+08
 
   -0.48501E+08         0.71470E+06         0.00000E+00
    0.71470E+06        -0.49870E+08         0.00000E+00
    0.00000E+00         0.00000E+00        -0.48636E+08
 
   -0.48515E+08         0.73037E+06         0.00000E+00
    0.73037E+06        -0.49863E+08         0.00000E+00
    0.00000E+00         0.00000E+00        -0.48636E+08
 
   -0.48529E+08         0.74593E+06         0.00000E+00
    0.74593E+06        -0.49857E+08         0.00000E+00
    0.00000E+00         0.00000E+00        -0.48636E+08
 
   -0.48542E+08         0.76138E+06         0.00000E+00
    0.76138E+06        -0.49850E+08         0.00000E+00
    0.00000E+00         0.00000E+00        -0.48636E+08
 
   -0.48557E+08         0.77671E+06         0.00000E+00
    0.77671E+06        -0.49844E+08         0.00000E+00
    0.00000E+00         0.00000E+00        -0.48636E+08
 
   -0.48571E+08         0.79194E+06         0.00000E+00
    0.79194E+06        -0.49837E+08         0.00000E+00
    0.00000E+00         0.00000E+00        -0.48636E+08
 
   -0.48585E+08         0.80706E+06         0.00000E+00
    0.80706E+06        -0.49830E+08         0.00000E+00
    0.00000E+00         0.00000E+00        -0.48636E+08
 
   -0.48600E+08         0.82206E+06         0.00000E+00
    0.82206E+06        -0.49823E+08         0.00000E+00
    0.00000E+00         0.00000E+00        -0.48636E+08
 
   -0.48614E+08         0.83694E+06         0.00000E+00
    0.83694E+06        -0.49816E+08         0.00000E+00
    0.00000E+00         0.00000E+00        -0.48636E+08
 
   -0.48629E+08         0.85171E+06         0.00000E+00
    0.85171E+06        -0.49808E+08         0.00000E+00
    0.00000E+00         0.00000E+00        -0.48636E+08
 
   -0.48003E+08         0.10154E+05         0.00000E+00
    0.10154E+05        -0.50000E+08         0.00000E+00
    0.00000E+00         0.00000E+00        -0.48558E+08
 
   -0.48010E+08         0.30260E+05         0.00000E+00
    0.30260E+05        -0.50000E+08         0.00000E+00
    0.00000E+00         0.00000E+00        -0.48558E+08
 
   -0.48017E+08         0.50292E+05         0.00000E+00
    0.50292E+05        -0.49999E+08         0.00000E+00
    0.00000E+00         0.00000E+00        -0.48558E+08
 
   -0.48024E+08         0.70247E+05         0.00000E+00
    0.70247E+05        -0.49999E+08         0.00000E+00
    0.00000E+00         0.00000E+00        -0.48558E+08
 
   -0.48031E+08         0.90126E+05         0.00000E+00
    0.90126E+05        -0.49998E+08         0.00000E+00
    0.00000E+00         0.00000E+00        -0.48558E+08
 
   -0.48038E+08         0.10993E+06         0.00000E+00
    0.10993E+06        -0.49997E+08         0.00000E+00
    0.00000E+00         0.00000E+00        -0.48558E+08
 
   -0.48046E+08         0.12965E+06         0.00000E+00
    0.12965E+06        -0.49996E+08         0.00000E+00
    0.00000E+00         0.00000E+00        -0.48558E+08
 
   -0.48053E+08         0.14929E+06         0.00000E+00
    0.14929E+06        -0.49995E+08         0.00000E+00
    0.00000E+00         0.00000E+00        -0.48558E+08
 
   -0.48061E+08         0.16885E+06         0.00000E+00
    0.16885E+06        -0.49994E+08         0.00000E+00
    0.00000E+00         0.00000E+00        -0.48558E+08
 
   -0.48069E+08         0.18833E+06         0.00000E+00
    0.18833E+06        -0.49992E+08         0.00000E+00
    0.00000E+00         0.00000E+00        -0.48558E+08
 
   -0.48078E+08         0.20773E+06         0.00000E+00
    0.20773E+06        -0.49991E+08         0.00000E+00
    0.00000E+00         0.00000E+00        -0.48558E+08
 
   -0.48087E+08         0.22704E+06         0.00000E+00
    0.22704E+06        -0.49989E+08         0.00000E+00
    0.00000E+00         0.00000E+00        -0.48559E+08
 
   -0.48095E+08         0.24627E+06         0.00000E+00
    0.24627E+06        -0.49987E+08         0.00000E+00
    0.00000E+00         0.00000E+00        -0.48559E+08
 
   -0.48104E+08         0.26541E+06         0.00000E+00
    0.26541E+06        -0.49984E+08         0.00000E+00
    0.00000E+00         0.00000E+00        -0.48559E+08
 
   -0.48114E+08         0.28447E+06         0.00000E+00
    0.28447E+06        -0.49982E+08         0.00000E+00
    0.00000E+00         0.00000E+00        -0.48559E+08
 
   -0.48123E+08         0.30343E+06         0.00000E+00
    0.30343E+06        -0.49980E+08         0.00000E+00
    0.00000E+00         0.00000E+00        -0.48559E+08
 
   -0.48133E+08         0.32231E+06         0.00000E+00
    0.32231E+06        -0.49977E+08         0.00000E+00
    0.00000E+00         0.00000E+00        -0.48559E+08
 
   -0.48143E+08         0.34110E+06         0.00000E+00
    0.34110E+06        -0.49974E+08         0.00000E+00
    0.00000E+00         0.00000E+00        -0.48559E+08
 
   -0.48153E+08         0.35980E+06         0.00000E+00
    0.35980E+06        -0.49971E+08         0.00000E+00
    0.00000E+00         0.00000E+00        -0.48559E+08
 
   -0.48163E+08         0.37841E+06         0.00000E+00
    0.37841E+06        -0.49968E+08         0.00000E+00
    0.00000E+00         0.00000E+00        -0.48559E+08
 
   -0.48173E+08         0.39693E+06         0.00000E+00
    0.39693E+06        -0.49964E+08         0.00000E+00
    0.00000E+00         0.00000E+00        -0.48559E+08
 
   -0.48184E+08         0.41535E+06         0.00000E+00
    0.41535E+06        -0.49961E+08         0.00000E+00
    0.00000E+00         0.00000E+00        -0.48559E+08
 
   -0.48195E+08         0.43368E+06         0.00000E+00
    0.43368E+06        -0.49957E+08         0.00000E+00
    0.00000E+00         0.00000E+00        -0.48560E+08
 
   -0.48206E+08         0.45191E+06         0.00000E+00
    0.45191E+06        -0.49953E+08         0.00000E+00
    0.00000E+00         0.00000E+00        -0.48560E+08
 
   -0.48217E+08         0.47005E+06         0.00000E+00
    0.47005E+06        -0.49949E+08         0.00000E+00
    0.00000E+00         0.00000E+00        -0.48560E+08
 
   -0.48228E+08         0.48809E+06         0.00000E+00
    0.48809E+06        -0.49945E+08         0.00000E+00
    0.00000E+00         0.00000E+00        -0.48560E+08
 
   -0.48240E+08         0.50603E+06         0.00000E+00
    0.50603E+06        -0.49941E+08         0.00000E+00
    0.00000E+00         0.00000E+00        -0.48560E+08
 
   -0.48252E+08         0.52388E+06         0.00000E+00
    0.52388E+06        -0.49937E+08         0.00000E+00
    0.00000E+00         0.00000E+00        -0.48560E+08
 
   -0.48264E+08         0.54162E+06         0.00000E+00
    0.54162E+06        -0.49932E+08         0.00000E+00
    0.00000E+00         0.00000E+00        -0.48560E+08
 
   -0.48276E+08         0.55927E+06         0.00000E+00
    0.55927E+06        -0.49927E+08         0.00000E+00
    0.00000E+00         0.00000E+00        -0.48560E+08
 
   -0.48288E+08         0.57681E+06         0.00000E+00
    0.57681E+06        -0.49922E+08         0.00000E+00
    0.00000E+00         0.00000E+00        -0.48560E+08
 
   -0.48301E+08         0.59425E+06         0.00000E+00
    0.59425E+06        -0.49917E+08         0.00000E+00
    0.00000E+00         0.00000E+00        -0.48561E+08
 
   -0.48313E+08         0.61158E+06         0.00000E+00
    0.61158E+06        -0.49912E+08         0.00000E+00
    0.00000E+00         0.00000E+00        -0.48561E+08
 
   -0.48326E+08         0.62881E+06         0.00000E+00
    0.62881E+06        -0.49907E+08         0.00000E+00
    0.00000E+00         0.00000E+00        -0.48561E+08
 
   -0.48339E+08         0.64594E+06         0.00000E+00
    0.64594E+06        -0.49901E+08         0.00000E+00
    0.00000E+00         0.00000E+00        -0.48561E+08
 
   -0.48352E+08         0.66296E+06         0.00000E+00
    0.66296E+06        -0.49895E+08         0.00000E+00
    0.00000E+00         0.00000E+00        -0.48561E+08
 
   -0.48366E+08         0.67987E+06         0.00000E+00
    0.67987E+06        -0.49890E+08         0.00000E+00
    0.00000E+00         0.00000E+00        -0.48561E+08
 
   -0.48379E+08         0.69667E+06         0.00000E+00
    0.69667E+06        -0.49884E+08         0.00000E+00
    0.00000E+00         0.00000E+00        -0.48561E+08
 
   -0.48393E+08         0.71336E+06         0.00000E+00
    0.71336E+06        -0.49878E+08         0.00000E+00
    0.00000E+00         0.00000E+00        -0.48561E+08
 
   -0.48407E+08         0.72994E+06         0.00000E+00
    0.72994E+06        -0.49871E+08         0.00000E+00
    0.00000E+00         0.00000E+00        -0.48561E+08
 
   -0.48421E+08         0.74641E+06         0.00000E+00
    0.74641E+06        -0.49865E+08         0.00000E+00
    0.00000E+00         0.00000E+00        -0.48561E+08
 
   -0.48435E+08         0.76277E+06         0.00000E+00
    0.76277E+06        -0.49858E+08         0.00000E+00
    0.00000E+00         0.00000E+00        -0.48561E+08
 
   -0.48449E+08         0.77901E+06         0.00000E+00
    0.77901E+06        -0.49852E+08         0.00000E+00
    0.00000E+00         0.00000E+00        -0.48561E+08
 
   -0.48464E+08         0.79514E+06         0.00000E+00
    0.79514E+06        -0.49845E+08         0.00000E+00
    0.00000E+00         0.00000E+00        -0.48561E+08
 
   -0.48478E+08         0.81115E+06         0.00000E+00
    0.81115E+06        -0.49838E+08         0.00000E+00
    0.00000E+00         0.00000E+00        -0.48561E+08
 
   -0.48493E+08         0.82705E+06         0.00000E+00
    0.82705E+06        -0.49831E+08         0.00000E+00
    0.00000E+00         0.00000E+00        -0.48562E+08
 
   -0.48508E+08         0.84283E+06         0.00000E+00
    0.84283E+06        -0.49824E+08         0.00000E+00
    0.00000E+00         0.00000E+00        -0.48562E+08
 
   -0.48523E+08         0.85848E+06         0.00000E+00
    0.85848E+06        -0.49816E+08         0.00000E+00
    0.00000E+00         0.00000E+00        -0.48562E+08
 
   -0.48539E+08         0.87402E+06         0.00000E+00
    0.87402E+06        -0.49809E+08         0.00000E+00
    0.00000E+00         0.00000E+00        -0.48562E+08
 
   -0.48554E+08         0.88943E+06         0.00000E+00
    0.88943E+06        -0.49801E+08         0.00000E+00
    0.00000E+00         0.00000E+00        -0.48562E+08
 
   -0.47901E+08         0.10593E+05         0.00000E+00
    0.10593E+05        -0.50000E+08         0.00000E+00
    0.00000E+00         0.00000E+00        -0.48480E+08
 
   -0.47907E+08         0.31573E+05         0.00000E+00
    0.31573E+05        -0.50000E+08         0.00000E+00
    0.00000E+00         0.00000E+00        -0.48480E+08
 
   -0.47914E+08         0.52476E+05         0.00000E+00
    0.52476E+05        -0.49999E+08         0.00000E+00
    0.00000E+00         0.00000E+00        -0.48480E+08
 
   -0.47922E+08         0.73302E+05         0.00000E+00
    0.73302E+05        -0.49999E+08         0.00000E+00
    0.00000E+00         0.00000E+00        -0.48480E+08
 
   -0.47929E+08         0.94049E+05         0.00000E+00
    0.94049E+05        -0.49998E+08         0.00000E+00
    0.00000E+00         0.00000E+00        -0.48480E+08
 
   -0.47937E+08         0.11472E+06         0.00000E+00
    0.11472E+06        -0.49997E+08         0.00000E+00
    0.00000E+00         0.00000E+00        -0.48480E+08
 
   -0.47945E+08         0.13530E+06         0.00000E+00
    0.13530E+06        -0.49996E+08         0.00000E+00
    0.00000E+00         0.00000E+00        -0.48480E+08
 
   -0.47953E+08         0.15580E+06         0.00000E+00
    0.15580E+06        -0.49995E+08         0.00000E+00
    0.00000E+00         0.00000E+00        -0.48480E+08
 
   -0.47962E+08         0.17622E+06         0.00000E+00
    0.17622E+06        -0.49994E+08         0.00000E+00
    0.00000E+00         0.00000E+00        -0.48480E+08
 
   -0.47970E+08         0.19656E+06         0.00000E+00
    0.19656E+06        -0.49992E+08         0.00000E+00
    0.00000E+00         0.00000E+00        -0.48480E+08
 
   -0.47979E+08         0.21681E+06         0.00000E+00
    0.21681E+06        -0.49990E+08         0.00000E+00
    0.00000E+00         0.00000E+00        -0.48480E+08
 
   -0.47988E+08         0.23697E+06         0.00000E+00
    0.23697E+06        -0.49988E+08         0.00000E+00
    0.00000E+00         0.00000E+00        -0.48480E+08
 
   -0.47997E+08         0.25705E+06         0.00000E+00
    0.25705E+06        -0.49986E+08         0.00000E+00
    0.00000E+00         0.00000E+00        -0.48480E+08
 
   -0.48007E+08         0.27703E+06         0.00000E+00
    0.27703E+06        -0.49984E+08         0.00000E+00
    0.00000E+00         0.00000E+00        -0.48481E+08
 
   -0.48016E+08         0.29693E+06         0.00000E+00
    0.29693E+06        -0.49981E+08         0.00000E+00
    0.00000E+00         0.00000E+00        -0.48481E+08
 
   -0.48026E+08         0.31673E+06         0.00000E+00
    0.31673E+06        -0.49979E+08         0.00000E+00
    0.00000E+00         0.00000E+00        -0.48481E+08
 
   -0.48036E+08         0.33645E+06         0.00000E+00
    0.33645E+06        -0.49976E+08         0.00000E+00
    0.00000E+00         0.00000E+00        -0.48481E+08
 
   -0.48047E+08         0.35607E+06         0.00000E+00
    0.35607E+06        -0.49973E+08         0.00000E+00
    0.00000E+00         0.00000E+00        -0.48481E+08
 
   -0.48057E+08         0.37560E+06         0.00000E+00
    0.37560E+06        -0.49970E+08         0.00000E+00
    0.00000E+00         0.00000E+00        -0.48481E+08
 
   -0.48068E+08         0.39503E+06         0.00000E+00
    0.39503E+06        -0.49967E+08         0.00000E+00
    0.00000E+00         0.00000E+00        -0.48481E+08
 
   -0.48079E+08         0.41436E+06         0.00000E+00
    0.41436E+06        -0.49963E+08         0.00000E+00
    0.00000E+00         0.00000E+00        -0.48481E+08
 
   -0.48090E+08         0.43360E+06         0.00000E+00
    0.43360E+06        -0.49960E+08         0.00000E+00
    0.00000E+00         0.00000E+00        -0.48481E+08
 
   -0.48101E+08         0.45275E+06         0.00000E+00
    0.45275E+06        -0.49956E+08         0.00000E+00
    0.00000E+00         0.00000E+00        -0.48481E+08
 
   -0.48113E+08         0.47179E+06         0.00000E+00
    0.47179E+06        -0.49952E+08         0.00000E+00
    0.00000E+00         0.00000E+00        -0.48482E+08
 
   -0.48125E+08         0.49073E+06         0.00000E+00
    0.49073E+06        -0.49948E+08         0.00000E+00
    0.00000E+00         0.00000E+00        -0.48482E+08
 
   -0.48136E+08         0.50957E+06         0.00000E+00
    0.50957E+06        -0.49943E+08         0.00000E+00
    0.00000E+00         0.00000E+00        -0.48482E+08
 
   -0.48149E+08         0.52831E+06         0.00000E+00
    0.52831E+06        -0.49939E+08         0.00000E+00
    0.00000E+00         0.00000E+00        -0.48482E+08
 
   -0.48161E+08         0.54695E+06         0.00000E+00
    0.54695E+06        -0.49934E+08         0.00000E+00
    0.00000E+00         0.00000E+00        -0.48482E+08
 
   -0.48173E+08         0.56548E+06         0.00000E+00
    0.56548E+06        -0.49930E+08         0.00000E+00
    0.00000E+00         0.00000E+00        -0.48482E+08
 
   -0.48186E+08         0.58391E+06         0.00000E+00
    0.58391E+06        -0.49925E+08         0.00000E+00
    0.00000E+00         0.00000E+00        -0.48482E+08
 
   -0.48199E+08         0.60223E+06         0.00000E+00
    0.60223E+06        -0.49919E+08         0.00000E+00
    0.00000E+00         0.00000E+00        -0.48482E+08
 
   -0.48212E+08         0.62044E+06         0.00000E+00
    0.62044E+06        -0.49914E+08         0.00000E+00
    0.00000E+00         0.00000E+00        -0.48482E+08
 
   -0.48225E+08         0.63854E+06         0.00000E+00
    0.63854E+06        -0.49909E+08         0.00000E+00
    0.00000E+00         0.00000E+00        -0.48482E+08
 
   -0.48238E+08         0.65654E+06         0.00000E+00
    0.65654E+06        -0.49903E+08         0.00000E+00
    0.00000E+00         0.00000E+00        -0.48483E+08
 
   -0.48252E+08         0.67442E+06         0.00000E+00
    0.67442E+06        -0.49898E+08         0.00000E+00
    0.00000E+00         0.00000E+00        -0.48483E+08
 
   -0.48266E+08         0.69220E+06         0.00000E+00
    0.69220E+06        -0.49892E+08         0.00000E+00
    0.00000E+00         0.00000E+00        -0.48483E+08
 
   -0.48280E+08         0.70986E+06         0.00000E+00
    0.70986E+06        -0.49886E+08         0.00000E+00
    0.00000E+00         0.00000E+00        -0.48483E+08
 
   -0.48294E+08         0.72740E+06         0.00000E+00
    0.72740E+06        -0.49879E+08         0.00000E+00
    0.00000E+00         0.00000E+00        -0.48483E+08
 
   -0.48308E+08         0.74484E+06         0.00000E+00
    0.74484E+06        -0.49873E+08         0.00000E+00
    0.00000E+00         0.00000E+00        -0.48483E+08
 
   -0.48322E+08         0.76215E+06         0.00000E+00
    0.76215E+06        -0.49867E+08         0.00000E+00
    0.00000E+00         0.00000E+00        -0.48483E+08
 
   -0.48337E+08         0.77935E+06         0.00000E+00
    0.77935E+06        -0.49860E+08         0.00000E+00
    0.00000E+00         0.00000E+00        -0.48483E+08
 
   -0.48352E+08         0.79643E+06         0.00000E+00
    0.79643E+06        -0.49853E+08         0.00000E+00
    0.00000E+00         0.00000E+00        -0.48483E+08
 
   -0.48367E+08         0.81339E+06         0.00000E+00
    0.81339E+06        -0.49846E+08         0.00000E+00
    0.00000E+00         0.00000E+00        -0.48483E+08
 
   -0.48382E+08         0.83023E+06         0.00000E+00
    0.83023E+06        -0.49839E+08         0.00000E+00
    0.00000E+00         0.00000E+00        -0.48483E+08
 
   -0.48397E+08         0.84695E+06         0.00000E+00
    0.84695E+06        -0.49832E+08         0.00000E+00
    0.00000E+00         0.00000E+00        -0.48483E+08
 
   -0.48412E+08         0.86355E+06         0.00000E+00
    0.86355E+06        -0.49825E+08         0.00000E+00
    0.00000E+00         0.00000E+00        -0.48483E+08
 
   -0.48428E+08         0.88002E+06         0.00000E+00
    0.88002E+06        -0.49817E+08         0.00000E+00
    0.00000E+00         0.00000E+00        -0.48483E+08
 
   -0.48444E+08         0.89637E+06         0.00000E+00
    0.89637E+06        -0.49809E+08         0.00000E+00
    0.00000E+00         0.00000E+00        -0.48483E+08
 
   -0.48459E+08         0.91259E+06         0.00000E+00
    0.91259E+06        -0.49802E+08         0.00000E+00
    0.00000E+00         0.00000E+00        -0.48483E+08
 
   -0.48475E+08         0.92868E+06         0.00000E+00
    0.92868E+06        -0.49794E+08         0.00000E+00
    0.00000E+00         0.00000E+00        -0.48483E+08
 
   -0.47793E+08         0.11049E+05         0.00000E+00
    0.11049E+05        -0.50000E+08         0.00000E+00
    0.00000E+00         0.00000E+00        -0.48398E+08
 
   -0.47800E+08         0.32934E+05         0.00000E+00
    0.32934E+05        -0.50000E+08         0.00000E+00
    0.00000E+00         0.00000E+00        -0.48398E+08
 
   -0.47808E+08         0.54741E+05         0.00000E+00
    0.54741E+05        -0.49999E+08         0.00000E+00
    0.00000E+00         0.00000E+00        -0.48398E+08
 
   -0.47816E+08         0.76468E+05         0.00000E+00
    0.76468E+05        -0.49999E+08         0.00000E+00
    0.00000E+00         0.00000E+00        -0.48398E+08
 
   -0.47824E+08         0.98114E+05         0.00000E+00
    0.98114E+05        -0.49998E+08         0.00000E+00
    0.00000E+00         0.00000E+00        -0.48398E+08
 
   -0.47832E+08         0.11968E+06         0.00000E+00
    0.11968E+06        -0.49997E+08         0.00000E+00
    0.00000E+00         0.00000E+00        -0.48398E+08
 
   -0.47840E+08         0.14116E+06         0.00000E+00
    0.14116E+06        -0.49996E+08         0.00000E+00
    0.00000E+00         0.00000E+00        -0.48398E+08
 
   -0.47849E+08         0.16255E+06         0.00000E+00
    0.16255E+06        -0.49995E+08         0.00000E+00
    0.00000E+00         0.00000E+00        -0.48398E+08
 
   -0.47857E+08         0.18386E+06         0.00000E+00
    0.18386E+06        -0.49993E+08         0.00000E+00
    0.00000E+00         0.00000E+00        -0.48399E+08
 
   -0.47867E+08         0.20508E+06         0.00000E+00
    0.20508E+06        -0.49992E+08         0.00000E+00
    0.00000E+00         0.00000E+00        -0.48399E+08
 
   -0.47876E+08         0.22622E+06         0.00000E+00
    0.22622E+06        -0.49990E+08         0.00000E+00
    0.00000E+00         0.00000E+00        -0.48399E+08
 
   -0.47885E+08         0.24726E+06         0.00000E+00
    0.24726E+06        -0.49988E+08         0.00000E+00
    0.00000E+00         0.00000E+00        -0.48399E+08
 
   -0.47895E+08         0.26821E+06         0.00000E+00
    0.26821E+06        -0.49986E+08         0.00000E+00
    0.00000E+00         0.00000E+00        -0.48399E+08
 
   -0.47905E+08         0.28908E+06         0.00000E+00
    0.28908E+06        -0.49983E+08         0.00000E+00
    0.00000E+00         0.00000E+00        -0.48399E+08
 
   -0.47915E+08         0.30984E+06         0.00000E+00
    0.30984E+06        -0.49981E+08         0.00000E+00
    0.00000E+00         0.00000E+00        -0.48399E+08
 
   -0.47925E+08         0.33052E+06         0.00000E+00
    0.33052E+06        -0.49978E+08         0.00000E+00
    0.00000E+00         0.00000E+00        -0.48399E+08
 
   -0.47936E+08         0.35110E+06         0.00000E+00
    0.35110E+06        -0.49975E+08         0.00000E+00
    0.00000E+00         0.00000E+00        -0.48399E+08
 
   -0.47947E+08         0.37158E+06         0.00000E+00
    0.37158E+06        -0.49972E+08         0.00000E+00
    0.00000E+00         0.00000E+00        -0.48399E+08
 
   -0.47958E+08         0.39197E+06         0.00000E+00
    0.39197E+06        -0.49969E+08         0.00000E+00
    0.00000E+00         0.00000E+00        -0.48399E+08
 
   -0.47969E+08         0.41225E+06         0.00000E+00
    0.41225E+06        -0.49965E+08         0.00000E+00
    0.00000E+00         0.00000E+00        -0.48399E+08
 
   -0.47980E+08         0.43244E+06         0.00000E+00
    0.43244E+06        -0.49962E+08         0.00000E+00
    0.00000E+00         0.00000E+00        -0.48400E+08
 
   -0.47992E+08         0.45253E+06         0.00000E+00
    0.45253E+06        -0.49958E+08         0.00000E+00
    0.00000E+00         0.00000E+00        -0.48400E+08
 
   -0.48004E+08         0.47252E+06         0.00000E+00
    0.47252E+06        -0.49954E+08         0.00000E+00
    0.00000E+00         0.00000E+00        -0.48400E+08
 
   -0.48016E+08         0.49240E+06         0.00000E+00
    0.49240E+06        -0.49950E+08         0.00000E+00
    0.00000E+00         0.00000E+00        -0.48400E+08
 
   -0.48028E+08         0.51218E+06         0.00000E+00
    0.51218E+06        -0.49946E+08         0.00000E+00
    0.00000E+00         0.00000E+00        -0.48400E+08
 
   -0.48040E+08         0.53185E+06         0.00000E+00
    0.53185E+06        -0.49941E+08         0.00000E+00
    0.00000E+00         0.00000E+00        -0.48400E+08
 
   -0.48053E+08         0.55142E+06         0.00000E+00
    0.55142E+06        -0.49937E+08         0.00000E+00
    0.00000E+00         0.00000E+00        -0.48400E+08
 
   -0.48066E+08         0.57088E+06         0.00000E+00
    0.57088E+06        -0.49932E+08         0.00000E+00
    0.00000E+00         0.00000E+00        -0.48400E+08
 
   -0.48079E+08         0.59023E+06         0.00000E+00
    0.59023E+06        -0.49927E+08         0.00000E+00
    0.00000E+00         0.00000E+00        -0.48400E+08
 
   -0.48092E+08         0.60947E+06         0.00000E+00
    0.60947E+06        -0.49922E+08         0.00000E+00
    0.00000E+00         0.00000E+00        -0.48401E+08
 
   -0.48105E+08         0.62860E+06         0.00000E+00
    0.62860E+06        -0.49916E+08         0.00000E+00
    0.00000E+00         0.00000E+00        -0.48401E+08
 
   -0.48119E+08         0.64762E+06         0.00000E+00
    0.64762E+06        -0.49911E+08         0.00000E+00
    0.00000E+00         0.00000E+00        -0.48401E+08
 
   -0.48133E+08         0.66653E+06         0.00000E+00
    0.66653E+06        -0.49905E+08         0.00000E+00
    0.00000E+00         0.00000E+00        -0.48401E+08
 
   -0.48147E+08         0.68532E+06         0.00000E+00
    0.68532E+06        -0.49900E+08         0.00000E+00
    0.00000E+00         0.00000E+00        -0.48401E+08
 
   -0.48161E+08         0.70400E+06         0.00000E+00
    0.70400E+06        -0.49894E+08         0.00000E+00
    0.00000E+00         0.00000E+00        -0.48401E+08
 
   -0.48175E+08         0.72256E+06         0.00000E+00
    0.72256E+06        -0.49888E+08         0.00000E+00
    0.00000E+00         0.00000E+00        -0.48401E+08
 
   -0.48190E+08         0.74100E+06         0.00000E+00
    0.74100E+06        -0.49881E+08         0.00000E+00
    0.00000E+00         0.00000E+00        -0.48401E+08
 
   -0.48204E+08         0.75932E+06         0.00000E+00
    0.75932E+06        -0.49875E+08         0.00000E+00
    0.00000E+00         0.00000E+00        -0.48401E+08
 
   -0.48219E+08         0.77753E+06         0.00000E+00
    0.77753E+06        -0.49868E+08         0.00000E+00
    0.00000E+00         0.00000E+00        -0.48401E+08
 
   -0.48234E+08         0.79561E+06         0.00000E+00
    0.79561E+06        -0.49862E+08         0.00000E+00
    0.00000E+00         0.00000E+00        -0.48401E+08
 
   -0.48249E+08         0.81357E+06         0.00000E+00
    0.81357E+06        -0.49855E+08         0.00000E+00
    0.00000E+00         0.00000E+00        -0.48402E+08
 
   -0.48265E+08         0.83141E+06         0.00000E+00
    0.83141E+06        -0.49848E+08         0.00000E+00
    0.00000E+00         0.00000E+00        -0.48402E+08
 
   -0.48280E+08         0.84912E+06         0.00000E+00
    0.84912E+06        -0.49840E+08         0.00000E+00
    0.00000E+00         0.00000E+00        -0.48402E+08
 
   -0.48296E+08         0.86671E+06         0.00000E+00
    0.86671E+06        -0.49833E+08         0.00000E+00
    0.00000E+00         0.00000E+00        -0.48402E+08
 
   -0.48312E+08         0.88417E+06         0.00000E+00
    0.88417E+06        -0.49826E+08         0.00000E+00
    0.00000E+00         0.00000E+00        -0.48402E+08
 
   -0.48328E+08         0.90150E+06         0.00000E+00
    0.90150E+06        -0.49818E+08         0.00000E+00
    0.00000E+00         0.00000E+00        -0.48402E+08
 
   -0.48344E+08         0.91871E+06         0.00000E+00
    0.91871E+06        -0.49810E+08         0.00000E+00
    0.00000E+00         0.00000E+00        -0.48402E+08
 
   -0.48360E+08         0.93578E+06         0.00000E+00
    0.93578E+06        -0.49802E+08         0.00000E+00
    0.00000E+00         0.00000E+00        -0.48402E+08
 
   -0.48377E+08         0.95272E+06         0.00000E+00
    0.95272E+06        -0.49794E+08         0.00000E+00
    0.00000E+00         0.00000E+00        -0.48402E+08
 
   -0.48394E+08         0.96953E+06         0.00000E+00
    0.96953E+06        -0.49786E+08         0.00000E+00
    0.00000E+00         0.00000E+00        -0.48402E+08
 
   -0.47681E+08         0.11521E+05         0.00000E+00
    0.11521E+05        -0.50000E+08         0.00000E+00
    0.00000E+00         0.00000E+00        -0.48313E+08
 
   -0.47689E+08         0.34347E+05         0.00000E+00
    0.34347E+05        -0.50000E+08         0.00000E+00
    0.00000E+00         0.00000E+00        -0.48313E+08
 
   -0.47697E+08         0.57091E+05         0.00000E+00
    0.57091E+05        -0.49999E+08         0.00000E+00
    0.00000E+00         0.00000E+00        -0.48313E+08
 
   -0.47705E+08         0.79753E+05         0.00000E+00
    0.79753E+05        -0.49999E+08         0.00000E+00
    0.00000E+00         0.00000E+00        -0.48313E+08
 
   -0.47713E+08         0.10233E+06         0.00000E+00
    0.10233E+06        -0.49998E+08         0.00000E+00
    0.00000E+00         0.00000E+00        -0.48313E+08
 
   -0.47722E+08         0.12482E+06         0.00000E+00
    0.12482E+06        -0.49997E+08         0.00000E+00
    0.00000E+00         0.00000E+00        -0.48313E+08
 
   -0.47731E+08         0.14723E+06         0.00000E+00
    0.14723E+06        -0.49996E+08         0.00000E+00
    0.00000E+00         0.00000E+00        -0.48313E+08
 
   -0.47740E+08         0.16955E+06         0.00000E+00
    0.16955E+06        -0.49995E+08         0.00000E+00
    0.00000E+00         0.00000E+00        -0.48313E+08
 
   -0.47749E+08         0.19178E+06         0.00000E+00
    0.19178E+06        -0.49993E+08         0.00000E+00
    0.00000E+00         0.00000E+00        -0.48313E+08
 
   -0.47758E+08         0.21392E+06         0.00000E+00
    0.21392E+06        -0.49991E+08         0.00000E+00
    0.00000E+00         0.00000E+00        -0.48313E+08
 
   -0.47768E+08         0.23597E+06         0.00000E+00
    0.23597E+06        -0.49989E+08         0.00000E+00
    0.00000E+00         0.00000E+00        -0.48313E+08
 
   -0.47778E+08         0.25793E+06         0.00000E+00
    0.25793E+06        -0.49987E+08         0.00000E+00
    0.00000E+00         0.00000E+00        -0.48313E+08
 
   -0.47788E+08         0.27980E+06         0.00000E+00
    0.27980E+06        -0.49985E+08         0.00000E+00
    0.00000E+00         0.00000E+00        -0.48314E+08
 
   -0.47799E+08         0.30157E+06         0.00000E+00
    0.30157E+06        -0.49983E+08         0.00000E+00
    0.00000E+00         0.00000E+00        -0.48314E+08
 
   -0.47809E+08         0.32324E+06         0.00000E+00
    0.32324E+06        -0.49980E+08         0.00000E+00
    0.00000E+00         0.00000E+00        -0.48314E+08
 
   -0.47820E+08         0.34482E+06         0.00000E+00
    0.34482E+06        -0.49977E+08         0.00000E+00
    0.00000E+00         0.00000E+00        -0.48314E+08
 
   -0.47831E+08         0.36629E+06         0.00000E+00
    0.36629E+06        -0.49974E+08         0.00000E+00
    0.00000E+00         0.00000E+00        -0.48314E+08
 
   -0.47842E+08         0.38767E+06         0.00000E+00
    0.38767E+06        -0.49971E+08         0.00000E+00
    0.00000E+00         0.00000E+00        -0.48314E+08
 
   -0.47854E+08         0.40895E+06         0.00000E+00
    0.40895E+06        -0.49968E+08         0.00000E+00
    0.00000E+00         0.00000E+00        -0.48314E+08
 
   -0.47866E+08         0.43012E+06         0.00000E+00
    0.43012E+06        -0.49964E+08         0.00000E+00
    0.00000E+00         0.00000E+00        -0.48314E+08
 
   -0.47877E+08         0.45119E+06         0.00000E+00
    0.45119E+06        -0.49960E+08         0.00000E+00
    0.00000E+00         0.00000E+00        -0.48314E+08
 
   -0.47890E+08         0.47216E+06         0.00000E+00
    0.47216E+06        -0.49956E+08         0.00000E+00
    0.00000E+00         0.00000E+00        -0.48314E+08
 
   -0.47902E+08         0.49302E+06         0.00000E+00
    0.49302E+06        -0.49952E+08         0.00000E+00
    0.00000E+00         0.00000E+00        -0.48315E+08
 
   -0.47914E+08         0.51378E+06         0.00000E+00
    0.51378E+06        -0.49948E+08         0.00000E+00
    0.00000E+00         0.00000E+00        -0.48315E+08
 
   -0.47927E+08         0.53443E+06         0.00000E+00
    0.53443E+06        -0.49944E+08         0.00000E+00
    0.00000E+00         0.00000E+00        -0.48315E+08
 
   -0.47940E+08         0.55497E+06         0.00000E+00
    0.55497E+06        -0.49939E+08         0.00000E+00
    0.00000E+00         0.00000E+00        -0.48315E+08
 
   -0.47953E+08         0.57539E+06         0.00000E+00
    0.57539E+06        -0.49934E+08         0.00000E+00
    0.00000E+00         0.00000E+00        -0.48315E+08
 
   -0.47967E+08         0.59571E+06         0.00000E+00
    0.59571E+06        -0.49929E+08         0.00000E+00
    0.00000E+00         0.00000E+00        -0.48315E+08
 
   -0.47980E+08         0.61591E+06         0.00000E+00
    0.61591E+06        -0.49924E+08         0.00000E+00
    0.00000E+00         0.00000E+00        -0.48315E+08
 
   -0.47994E+08         0.63600E+06         0.00000E+00
    0.63600E+06        -0.49919E+08         0.00000E+00
    0.00000E+00         0.00000E+00        -0.48315E+08
 
   -0.48008E+08         0.65598E+06         0.00000E+00
    0.65598E+06        -0.49913E+08         0.00000E+00
    0.00000E+00         0.00000E+00        -0.48315E+08
 
   -0.48022E+08         0.67584E+06         0.00000E+00
    0.67584E+06        -0.49908E+08         0.00000E+00
    0.00000E+00         0.00000E+00        -0.48316E+08
 
   -0.48036E+08         0.69558E+06         0.00000E+00
    0.69558E+06        -0.49902E+08         0.00000E+00
    0.00000E+00         0.00000E+00        -0.48316E+08
 
   -0.48051E+08         0.71520E+06         0.00000E+00
    0.71520E+06        -0.49896E+08         0.00000E+00
    0.00000E+00         0.00000E+00        -0.48316E+08
 
   -0.48066E+08         0.73471E+06         0.00000E+00
    0.73471E+06        -0.49890E+08         0.00000E+00
    0.00000E+00         0.00000E+00        -0.48316E+08
 
   -0.48081E+08         0.75409E+06         0.00000E+00
    0.75409E+06        -0.49883E+08         0.00000E+00
    0.00000E+00         0.00000E+00        -0.48316E+08
 
   -0.48096E+08         0.77335E+06         0.00000E+00
    0.77335E+06        -0.49877E+08         0.00000E+00
    0.00000E+00         0.00000E+00        -0.48316E+08
 
   -0.48111E+08         0.79249E+06         0.00000E+00
    0.79249E+06        -0.49870E+08         0.00000E+00
    0.00000E+00         0.00000E+00        -0.48316E+08
 
   -0.48126E+08         0.81150E+06         0.00000E+00
    0.81150E+06        -0.49863E+08         0.00000E+00
    0.00000E+00         0.00000E+00        -0.48316E+08
 
   -0.48142E+08         0.83039E+06         0.00000E+00
    0.83039E+06        -0.49856E+08         0.00000E+00
    0.00000E+00         0.00000E+00        -0.48316E+08
 
   -0.48158E+08         0.84915E+06         0.00000E+00
    0.84915E+06        -0.49849E+08         0.00000E+00
    0.00000E+00         0.00000E+00        -0.48316E+08
 
   -0.48174E+08         0.86778E+06         0.00000E+00
    0.86778E+06        -0.49842E+08         0.00000E+00
    0.00000E+00         0.00000E+00        -0.48316E+08
 
   -0.48190E+08         0.88628E+06         0.00000E+00
    0.88628E+06        -0.49834E+08         0.00000E+00
    0.00000E+00         0.00000E+00        -0.48316E+08
 
   -0.48206E+08         0.90465E+06         0.00000E+00
    0.90465E+06        -0.49827E+08         0.00000E+00
    0.00000E+00         0.00000E+00        -0.48317E+08
 
   -0.48223E+08         0.92289E+06         0.00000E+00
    0.92289E+06        -0.49819E+08         0.00000E+00
    0.00000E+00         0.00000E+00        -0.48317E+08
 
   -0.48240E+08         0.94099E+06         0.00000E+00
    0.94099E+06        -0.49811E+08         0.00000E+00
    0.00000E+00         0.00000E+00        -0.48317E+08
 
   -0.48256E+08         0.95896E+06         0.00000E+00
    0.95896E+06        -0.49803E+08         0.00000E+00
    0.00000E+00         0.00000E+00        -0.48317E+08
 
   -0.48273E+08         0.97679E+06         0.00000E+00
    0.97679E+06        -0.49794E+08         0.00000E+00
    0.00000E+00         0.00000E+00        -0.48317E+08
 
   -0.48291E+08         0.99449E+06         0.00000E+00
    0.99449E+06        -0.49786E+08         0.00000E+00
    0.00000E+00         0.00000E+00        -0.48317E+08
 
   -0.48308E+08         0.10120E+07         0.00000E+00
    0.10120E+07        -0.49777E+08         0.00000E+00
    0.00000E+00         0.00000E+00        -0.48317E+08
 
   -0.47565E+08         0.12012E+05         0.00000E+00
    0.12012E+05        -0.50000E+08         0.00000E+00
    0.00000E+00         0.00000E+00        -0.48224E+08
 
   -0.47573E+08         0.35812E+05         0.00000E+00
    0.35812E+05        -0.50000E+08         0.00000E+00
    0.00000E+00         0.00000E+00        -0.48224E+08
 
   -0.47581E+08         0.59529E+05         0.00000E+00
    0.59529E+05        -0.49999E+08         0.00000E+00
    0.00000E+00         0.00000E+00        -0.48224E+08
 
   -0.47589E+08         0.83161E+05         0.00000E+00
    0.83161E+05        -0.49999E+08         0.00000E+00
    0.00000E+00         0.00000E+00        -0.48224E+08
 
   -0.47598E+08         0.10671E+06         0.00000E+00
    0.10671E+06        -0.49998E+08         0.00000E+00
    0.00000E+00         0.00000E+00        -0.48224E+08
 
   -0.47607E+08         0.13016E+06         0.00000E+00
    0.13016E+06        -0.49997E+08         0.00000E+00
    0.00000E+00         0.00000E+00        -0.48224E+08
 
   -0.47616E+08         0.15353E+06         0.00000E+00
    0.15353E+06        -0.49996E+08         0.00000E+00
    0.00000E+00         0.00000E+00        -0.48224E+08
 
   -0.47626E+08         0.17681E+06         0.00000E+00
    0.17681E+06        -0.49994E+08         0.00000E+00
    0.00000E+00         0.00000E+00        -0.48224E+08
 
   -0.47636E+08         0.20000E+06         0.00000E+00
    0.20000E+06        -0.49993E+08         0.00000E+00
    0.00000E+00         0.00000E+00        -0.48224E+08
 
   -0.47645E+08         0.22310E+06         0.00000E+00
    0.22310E+06        -0.49991E+08         0.00000E+00
    0.00000E+00         0.00000E+00        -0.48224E+08
 
   -0.47656E+08         0.24610E+06         0.00000E+00
    0.24610E+06        -0.49989E+08         0.00000E+00
    0.00000E+00         0.00000E+00        -0.48224E+08
 
   -0.47666E+08         0.26900E+06         0.00000E+00
    0.26900E+06        -0.49987E+08         0.00000E+00
    0.00000E+00         0.00000E+00        -0.48224E+08
 
   -0.47677E+08         0.29181E+06         0.00000E+00
    0.29181E+06        -0.49985E+08         0.00000E+00
    0.00000E+00         0.00000E+00        -0.48225E+08
 
   -0.47688E+08         0.31452E+06         0.00000E+00
    0.31452E+06        -0.49982E+08         0.00000E+00
    0.00000E+00         0.00000E+00        -0.48225E+08
 
   -0.47699E+08         0.33713E+06         0.00000E+00
    0.33713E+06        -0.49979E+08         0.00000E+00
    0.00000E+00         0.00000E+00        -0.48225E+08
 
   -0.47710E+08         0.35965E+06         0.00000E+00
    0.35965E+06        -0.49976E+08         0.00000E+00
    0.00000E+00         0.00000E+00        -0.48225E+08
 
   -0.47722E+08         0.38206E+06         0.00000E+00
    0.38206E+06        -0.49973E+08         0.00000E+00
    0.00000E+00         0.00000E+00        -0.48225E+08
 
   -0.47733E+08         0.40436E+06         0.00000E+00
    0.40436E+06        -0.49970E+08         0.00000E+00
    0.00000E+00         0.00000E+00        -0.48225E+08
 
   -0.47745E+08         0.42656E+06         0.00000E+00
    0.42656E+06        -0.49966E+08         0.00000E+00
    0.00000E+00         0.00000E+00        -0.48225E+08
 
   -0.47758E+08         0.44866E+06         0.00000E+00
    0.44866E+06        -0.49963E+08         0.00000E+00
    0.00000E+00         0.00000E+00        -0.48225E+08
 
   -0.47770E+08         0.47065E+06         0.00000E+00
    0.47065E+06        -0.49959E+08         0.00000E+00
    0.00000E+00         0.00000E+00        -0.48225E+08
 
   -0.47783E+08         0.49253E+06         0.00000E+00
    0.49253E+06        -0.49955E+08         0.00000E+00
    0.00000E+00         0.00000E+00        -0.48225E+08
 
   -0.47796E+08         0.51431E+06         0.00000E+00
    0.51431E+06        -0.49951E+08         0.00000E+00
    0.00000E+00         0.00000E+00        -0.48226E+08
 
   -0.47809E+08         0.53597E+06         0.00000E+00
    0.53597E+06        -0.49946E+08         0.00000E+00
    0.00000E+00         0.00000E+00        -0.48226E+08
 
   -0.47822E+08         0.55752E+06         0.00000E+00
    0.55752E+06        -0.49942E+08         0.00000E+00
    0.00000E+00         0.00000E+00        -0.48226E+08
 
   -0.47835E+08         0.57896E+06         0.00000E+00
    0.57896E+06        -0.49937E+08         0.00000E+00
    0.00000E+00         0.00000E+00        -0.48226E+08
 
   -0.47849E+08         0.60028E+06         0.00000E+00
    0.60028E+06        -0.49932E+08         0.00000E+00
    0.00000E+00         0.00000E+00        -0.48226E+08
 
   -0.47863E+08         0.62149E+06         0.00000E+00
    0.62149E+06        -0.49927E+08         0.00000E+00
    0.00000E+00         0.00000E+00        -0.48226E+08
 
   -0.47877E+08         0.64258E+06         0.00000E+00
    0.64258E+06        -0.49921E+08         0.00000E+00
    0.00000E+00         0.00000E+00        -0.48226E+08
 
   -0.47892E+08         0.66356E+06         0.00000E+00
    0.66356E+06        -0.49916E+08         0.00000E+00
    0.00000E+00         0.00000E+00        -0.48226E+08
 
   -0.47906E+08         0.68441E+06         0.00000E+00
    0.68441E+06        -0.49910E+08         0.00000E+00
    0.00000E+00         0.00000E+00        -0.48226E+08
 
   -0.47921E+08         0.70515E+06         0.00000E+00
    0.70515E+06        -0.49904E+08         0.00000E+00
    0.00000E+00         0.00000E+00        -0.48227E+08
 
   -0.47936E+08         0.72576E+06         0.00000E+00
    0.72576E+06        -0.49898E+08         0.00000E+00
    0.00000E+00         0.00000E+00        -0.48227E+08
 
   -0.47951E+08         0.74625E+06         0.00000E+00
    0.74625E+06        -0.49892E+08         0.00000E+00
    0.00000E+00         0.00000E+00        -0.48227E+08
 
   -0.47966E+08         0.76661E+06         0.00000E+00
    0.76661E+06        -0.49885E+08         0.00000E+00
    0.00000E+00         0.00000E+00        -0.48227E+08
 
   -0.47982E+08         0.78685E+06         0.00000E+00
    0.78685E+06        -0.49879E+08         0.00000E+00
    0.00000E+00         0.00000E+00        -0.48227E+08
 
   -0.47998E+08         0.80697E+06         0.00000E+00
    0.80697E+06        -0.49872E+08         0.00000E+00
    0.00000E+00         0.00000E+00        -0.48227E+08
 
   -0.48013E+08         0.82695E+06         0.00000E+00
    0.82695E+06        -0.49865E+08         0.00000E+00
    0.00000E+00         0.00000E+00        -0.48227E+08
 
   -0.48030E+08         0.84681E+06         0.00000E+00
    0.84681E+06        -0.49858E+08         0.00000E+00
    0.00000E+00         0.00000E+00        -0.48227E+08
 
   -0.48046E+08         0.86653E+06         0.00000E+00
    0.86653E+06        -0.49851E+08         0.00000E+00
    0.00000E+00         0.00000E+00        -0.48227E+08
 
   -0.48062E+08         0.88613E+06         0.00000E+00
    0.88613E+06        -0.49843E+08         0.00000E+00
    0.00000E+00         0.00000E+00        -0.48227E+08
 
   -0.48079E+08         0.90559E+06         0.00000E+00
    0.90559E+06        -0.49836E+08         0.00000E+00
    0.00000E+00         0.00000E+00        -0.48227E+08
 
   -0.48096E+08         0.92491E+06         0.00000E+00
    0.92491E+06        -0.49828E+08         0.00000E+00
    0.00000E+00         0.00000E+00        -0.48227E+08
 
   -0.48113E+08         0.94410E+06         0.00000E+00
    0.94410E+06        -0.49820E+08         0.00000E+00
    0.00000E+00         0.00000E+00        -0.48227E+08
 
   -0.48130E+08         0.96315E+06         0.00000E+00
    0.96315E+06        -0.49812E+08         0.00000E+00
    0.00000E+00         0.00000E+00        -0.48228E+08
 
   -0.48147E+08         0.98207E+06         0.00000E+00
    0.98207E+06        -0.49804E+08         0.00000E+00
    0.00000E+00         0.00000E+00        -0.48228E+08
 
   -0.48165E+08         0.10008E+07         0.00000E+00
    0.10008E+07        -0.49795E+08         0.00000E+00
    0.00000E+00         0.00000E+00        -0.48228E+08
 
   -0.48183E+08         0.10195E+07         0.00000E+00
    0.10195E+07        -0.49786E+08         0.00000E+00
    0.00000E+00         0.00000E+00        -0.48228E+08
 
   -0.48201E+08         0.10380E+07         0.00000E+00
    0.10380E+07        -0.49778E+08         0.00000E+00
    0.00000E+00         0.00000E+00        -0.48228E+08
 
   -0.48219E+08         0.10563E+07         0.00000E+00
    0.10563E+07        -0.49769E+08         0.00000E+00
    0.00000E+00         0.00000E+00        -0.48228E+08
 
   -0.47443E+08         0.12521E+05         0.00000E+00
    0.12521E+05        -0.50000E+08         0.00000E+00
    0.00000E+00         0.00000E+00        -0.48131E+08
 
   -0.47451E+08         0.37333E+05         0.00000E+00
    0.37333E+05        -0.50000E+08         0.00000E+00
    0.00000E+00         0.00000E+00        -0.48131E+08
 
   -0.47460E+08         0.62059E+05         0.00000E+00
    0.62059E+05        -0.49999E+08         0.00000E+00
    0.00000E+00         0.00000E+00        -0.48131E+08
 
   -0.47469E+08         0.86697E+05         0.00000E+00
    0.86697E+05        -0.49999E+08         0.00000E+00
    0.00000E+00         0.00000E+00        -0.48131E+08
 
   -0.47478E+08         0.11125E+06         0.00000E+00
    0.11125E+06        -0.49998E+08         0.00000E+00
    0.00000E+00         0.00000E+00        -0.48131E+08
 
   -0.47488E+08         0.13571E+06         0.00000E+00
    0.13571E+06        -0.49997E+08         0.00000E+00
    0.00000E+00         0.00000E+00        -0.48131E+08
 
   -0.47497E+08         0.16007E+06         0.00000E+00
    0.16007E+06        -0.49996E+08         0.00000E+00
    0.00000E+00         0.00000E+00        -0.48131E+08
 
   -0.47507E+08         0.18435E+06         0.00000E+00
    0.18435E+06        -0.49994E+08         0.00000E+00
    0.00000E+00         0.00000E+00        -0.48131E+08
 
   -0.47517E+08         0.20853E+06         0.00000E+00
    0.20853E+06        -0.49993E+08         0.00000E+00
    0.00000E+00         0.00000E+00        -0.48131E+08
 
   -0.47528E+08         0.23261E+06         0.00000E+00
    0.23261E+06        -0.49991E+08         0.00000E+00
    0.00000E+00         0.00000E+00        -0.48131E+08
 
   -0.47538E+08         0.25660E+06         0.00000E+00
    0.25660E+06        -0.49989E+08         0.00000E+00
    0.00000E+00         0.00000E+00        -0.48131E+08
 
   -0.47549E+08         0.28049E+06         0.00000E+00
    0.28049E+06        -0.49986E+08         0.00000E+00
    0.00000E+00         0.00000E+00        -0.48131E+08
 
   -0.47560E+08         0.30428E+06         0.00000E+00
    0.30428E+06        -0.49984E+08         0.00000E+00
    0.00000E+00         0.00000E+00        -0.48131E+08
 
   -0.47572E+08         0.32797E+06         0.00000E+00
    0.32797E+06        -0.49981E+08         0.00000E+00
    0.00000E+00         0.00000E+00        -0.48132E+08
 
   -0.47583E+08         0.35155E+06         0.00000E+00
    0.35155E+06        -0.49979E+08         0.00000E+00
    0.00000E+00         0.00000E+00        -0.48132E+08
 
   -0.47595E+08         0.37503E+06         0.00000E+00
    0.37503E+06        -0.49975E+08         0.00000E+00
    0.00000E+00         0.00000E+00        -0.48132E+08
 
   -0.47607E+08         0.39841E+06         0.00000E+00
    0.39841E+06        -0.49972E+08         0.00000E+00
    0.00000E+00         0.00000E+00        -0.48132E+08
 
   -0.47620E+08         0.42168E+06         0.00000E+00
    0.42168E+06        -0.49969E+08         0.00000E+00
    0.00000E+00         0.00000E+00        -0.48132E+08
 
   -0.47632E+08         0.44485E+06         0.00000E+00
    0.44485E+06        -0.49965E+08         0.00000E+00
    0.00000E+00         0.00000E+00        -0.48132E+08
 
   -0.47645E+08         0.46790E+06         0.00000E+00
    0.46790E+06        -0.49961E+08         0.00000E+00
    0.00000E+00         0.00000E+00        -0.48132E+08
 
   -0.47658E+08         0.49084E+06         0.00000E+00
    0.49084E+06        -0.49957E+08         0.00000E+00
    0.00000E+00         0.00000E+00        -0.48132E+08
 
   -0.47671E+08         0.51368E+06         0.00000E+00
    0.51368E+06        -0.49953E+08         0.00000E+00
    0.00000E+00         0.00000E+00        -0.48132E+08
 
   -0.47685E+08         0.53640E+06         0.00000E+00
    0.53640E+06        -0.49949E+08         0.00000E+00
    0.00000E+00         0.00000E+00        -0.48133E+08
 
   -0.47698E+08         0.55900E+06         0.00000E+00
    0.55900E+06        -0.49944E+08         0.00000E+00
    0.00000E+00         0.00000E+00        -0.48133E+08
 
   -0.47712E+08         0.58149E+06         0.00000E+00
    0.58149E+06        -0.49939E+08         0.00000E+00
    0.00000E+00         0.00000E+00        -0.48133E+08
 
   -0.47726E+08         0.60386E+06         0.00000E+00
    0.60386E+06        -0.49934E+08         0.00000E+00
    0.00000E+00         0.00000E+00        -0.48133E+08
 
   -0.47741E+08         0.62612E+06         0.00000E+00
    0.62612E+06        -0.49929E+08         0.00000E+00
    0.00000E+00         0.00000E+00        -0.48133E+08
 
   -0.47755E+08         0.64826E+06         0.00000E+00
    0.64826E+06        -0.49924E+08         0.00000E+00
    0.00000E+00         0.00000E+00        -0.48133E+08
 
   -0.47770E+08         0.67027E+06         0.00000E+00
    0.67027E+06        -0.49918E+08         0.00000E+00
    0.00000E+00         0.00000E+00        -0.48133E+08
 
   -0.47785E+08         0.69217E+06         0.00000E+00
    0.69217E+06        -0.49913E+08         0.00000E+00
    0.00000E+00         0.00000E+00        -0.48133E+08
 
   -0.47800E+08         0.71394E+06         0.00000E+00
    0.71394E+06        -0.49907E+08         0.00000E+00
    0.00000E+00         0.00000E+00        -0.48133E+08
 
   -0.47815E+08         0.73558E+06         0.00000E+00
    0.73558E+06        -0.49901E+08         0.00000E+00
    0.00000E+00         0.00000E+00        -0.48133E+08
 
   -0.47831E+08         0.75710E+06         0.00000E+00
    0.75710E+06        -0.49894E+08         0.00000E+00
    0.00000E+00         0.00000E+00        -0.48134E+08
 
   -0.47847E+08         0.77849E+06         0.00000E+00
    0.77849E+06        -0.49888E+08         0.00000E+00
    0.00000E+00         0.00000E+00        -0.48134E+08
 
   -0.47863E+08         0.79976E+06         0.00000E+00
    0.79976E+06        -0.49881E+08         0.00000E+00
    0.00000E+00         0.00000E+00        -0.48134E+08
 
   -0.47879E+08         0.82089E+06         0.00000E+00
    0.82089E+06        -0.49874E+08         0.00000E+00
    0.00000E+00         0.00000E+00        -0.48134E+08
 
   -0.47895E+08         0.84190E+06         0.00000E+00
    0.84190E+06        -0.49867E+08         0.00000E+00
    0.00000E+00         0.00000E+00        -0.48134E+08
 
   -0.47912E+08         0.86277E+06         0.00000E+00
    0.86277E+06        -0.49860E+08         0.00000E+00
    0.00000E+00         0.00000E+00        -0.48134E+08
 
   -0.47928E+08         0.88350E+06         0.00000E+00
    0.88350E+06        -0.49853E+08         0.00000E+00
    0.00000E+00         0.00000E+00        -0.48134E+08
 
   -0.47945E+08         0.90411E+06         0.00000E+00
    0.90411E+06        -0.49845E+08         0.00000E+00
    0.00000E+00         0.00000E+00        -0.48134E+08
 
   -0.47963E+08         0.92457E+06         0.00000E+00
    0.92457E+06        -0.49837E+08         0.00000E+00
    0.00000E+00         0.00000E+00        -0.48134E+08
 
   -0.47980E+08         0.94490E+06         0.00000E+00
    0.94490E+06        -0.49829E+08         0.00000E+00
    0.00000E+00         0.00000E+00        -0.48134E+08
 
   -0.47997E+08         0.96508E+06         0.00000E+00
    0.96508E+06        -0.49821E+08         0.00000E+00
    0.00000E+00         0.00000E+00        -0.48134E+08
 
   -0.48015E+08         0.98513E+06         0.00000E+00
    0.98513E+06        -0.49813E+08         0.00000E+00
    0.00000E+00         0.00000E+00        -0.48134E+08
 
   -0.48033E+08         0.10050E+07         0.00000E+00
    0.10050E+07        -0.49805E+08         0.00000E+00
    0.00000E+00         0.00000E+00        -0.48134E+08
 
   -0.48051E+08         0.10248E+07         0.00000E+00
    0.10248E+07        -0.49796E+08         0.00000E+00
    0.00000E+00         0.00000E+00        -0.48135E+08
 
   -0.48069E+08         0.10444E+07         0.00000E+00
    0.10444E+07        -0.49787E+08         0.00000E+00
    0.00000E+00         0.00000E+00        -0.48135E+08
 
   -0.48088E+08         0.10639E+07         0.00000E+00
    0.10639E+07        -0.49778E+08         0.00000E+00
    0.00000E+00         0.00000E+00        -0.48135E+08
 
   -0.48106E+08         0.10832E+07         0.00000E+00
    0.10832E+07        -0.49769E+08         0.00000E+00
    0.00000E+00         0.00000E+00        -0.48135E+08
 
   -0.48125E+08         0.11024E+07         0.00000E+00
    0.11024E+07        -0.49760E+08         0.00000E+00
    0.00000E+00         0.00000E+00        -0.48135E+08
 
   -0.47316E+08         0.13050E+05         0.00000E+00
    0.13050E+05        -0.50000E+08         0.00000E+00
    0.00000E+00         0.00000E+00        -0.48034E+08
 
   -0.47325E+08         0.38911E+05         0.00000E+00
    0.38911E+05        -0.50000E+08         0.00000E+00
    0.00000E+00         0.00000E+00        -0.48034E+08
 
   -0.47334E+08         0.64684E+05         0.00000E+00
    0.64684E+05        -0.49999E+08         0.00000E+00
    0.00000E+00         0.00000E+00        -0.48034E+08
 
   -0.47343E+08         0.90367E+05         0.00000E+00
    0.90367E+05        -0.49999E+08         0.00000E+00
    0.00000E+00         0.00000E+00        -0.48034E+08
 
   -0.47353E+08         0.11596E+06         0.00000E+00
    0.11596E+06        -0.49998E+08         0.00000E+00
    0.00000E+00         0.00000E+00        -0.48034E+08
 
   -0.47363E+08         0.14146E+06         0.00000E+00
    0.14146E+06        -0.49997E+08         0.00000E+00
    0.00000E+00         0.00000E+00        -0.48034E+08
 
   -0.47373E+08         0.16686E+06         0.00000E+00
    0.16686E+06        -0.49995E+08         0.00000E+00
    0.00000E+00         0.00000E+00        -0.48034E+08
 
   -0.47383E+08         0.19217E+06         0.00000E+00
    0.19217E+06        -0.49994E+08         0.00000E+00
    0.00000E+00         0.00000E+00        -0.48034E+08
 
   -0.47394E+08         0.21738E+06         0.00000E+00
    0.21738E+06        -0.49992E+08         0.00000E+00
    0.00000E+00         0.00000E+00        -0.48034E+08
 
   -0.47405E+08         0.24249E+06         0.00000E+00
    0.24249E+06        -0.49990E+08         0.00000E+00
    0.00000E+00         0.00000E+00        -0.48034E+08
 
   -0.47416E+08         0.26750E+06         0.00000E+00
    0.26750E+06        -0.49988E+08         0.00000E+00
    0.00000E+00         0.00000E+00        -0.48034E+08
 
   -0.47428E+08         0.29241E+06         0.00000E+00
    0.29241E+06        -0.49986E+08         0.00000E+00
    0.00000E+00         0.00000E+00        -0.48034E+08
 
   -0.47439E+08         0.31721E+06         0.00000E+00
    0.31721E+06        -0.49983E+08         0.00000E+00
    0.00000E+00         0.00000E+00        -0.48034E+08
 
   -0.47451E+08         0.34192E+06         0.00000E+00
    0.34192E+06        -0.49981E+08         0.00000E+00
    0.00000E+00         0.00000E+00        -0.48034E+08
 
   -0.47463E+08         0.36651E+06         0.00000E+00
    0.36651E+06        -0.49978E+08         0.00000E+00
    0.00000E+00         0.00000E+00        -0.48034E+08
 
   -0.47476E+08         0.39100E+06         0.00000E+00
    0.39100E+06        -0.49975E+08         0.00000E+00
    0.00000E+00         0.00000E+00        -0.48035E+08
 
   -0.47488E+08         0.41538E+06         0.00000E+00
    0.41538E+06        -0.49971E+08         0.00000E+00
    0.00000E+00         0.00000E+00        -0.48035E+08
 
   -0.47501E+08         0.43965E+06         0.00000E+00
    0.43965E+06        -0.49968E+08         0.00000E+00
    0.00000E+00         0.00000E+00        -0.48035E+08
 
   -0.47514E+08         0.46382E+06         0.00000E+00
    0.46382E+06        -0.49964E+08         0.00000E+00
    0.00000E+00         0.00000E+00        -0.48035E+08
 
   -0.47528E+08         0.48786E+06         0.00000E+00
    0.48786E+06        -0.49960E+08         0.00000E+00
    0.00000E+00         0.00000E+00        -0.48035E+08
 
   -0.47541E+08         0.51180E+06         0.00000E+00
    0.51180E+06        -0.49956E+08         0.00000E+00
    0.00000E+00         0.00000E+00        -0.48035E+08
 
   -0.47555E+08         0.53562E+06         0.00000E+00
    0.53562E+06        -0.49951E+08         0.00000E+00
    0.00000E+00         0.00000E+00        -0.48035E+08
 
   -0.47569E+08         0.55932E+06         0.00000E+00
    0.55932E+06        -0.49947E+08         0.00000E+00
    0.00000E+00         0.00000E+00        -0.48035E+08
 
   -0.47583E+08         0.58291E+06         0.00000E+00
    0.58291E+06        -0.49942E+08         0.00000E+00
    0.00000E+00         0.00000E+00        -0.48035E+08
 
   -0.47598E+08         0.60637E+06         0.00000E+00
    0.60637E+06        -0.49937E+08         0.00000E+00
    0.00000E+00         0.00000E+00        -0.48035E+08
 
   -0.47612E+08         0.62972E+06         0.00000E+00
    0.62972E+06        -0.49932E+08         0.00000E+00
    0.00000E+00         0.00000E+00        -0.48036E+08
 
   -0.47627E+08         0.65294E+06         0.00000E+00
    0.65294E+06        -0.49927E+08         0.00000E+00
    0.00000E+00         0.00000E+00        -0.48036E+08
 
   -0.47642E+08         0.67604E+06         0.00000E+00
    0.67604E+06        -0.49921E+08         0.00000E+00
    0.00000E+00         0.00000E+00        -0.48036E+08
 
   -0.47658E+08         0.69902E+06         0.00000E+00
    0.69902E+06        -0.49915E+08         0.00000E+00
    0.00000E+00         0.00000E+00        -0.48036E+08
 
   -0.47673E+08         0.72187E+06         0.00000E+00
    0.72187E+06        -0.49909E+08         0.00000E+00
    0.00000E+00         0.00000E+00        -0.48036E+08
 
   -0.47689E+08         0.74459E+06         0.00000E+00
    0.74459E+06        -0.49903E+08         0.00000E+00
    0.00000E+00         0.00000E+00        -0.48036E+08
 
   -0.47705E+08         0.76719E+06         0.00000E+00
    0.76719E+06        -0.49897E+08         0.00000E+00
    0.00000E+00         0.00000E+00        -0.48036E+08
 
   -0.47721E+08         0.78965E+06         0.00000E+00
    0.78965E+06        -0.49890E+08         0.00000E+00
    0.00000E+00         0.00000E+00        -0.48036E+08
 
   -0.47738E+08         0.81199E+06         0.00000E+00
    0.81199E+06        -0.49884E+08         0.00000E+00
    0.00000E+00         0.00000E+00        -0.48036E+08
 
   -0.47754E+08         0.83419E+06         0.00000E+00
    0.83419E+06        -0.49877E+08         0.00000E+00
    0.00000E+00         0.00000E+00        -0.48037E+08
 
   -0.47771E+08         0.85626E+06         0.00000E+00
    0.85626E+06        -0.49869E+08         0.00000E+00
    0.00000E+00         0.00000E+00        -0.48037E+08
 
   -0.47788E+08         0.87819E+06         0.00000E+00
    0.87819E+06        -0.49862E+08         0.00000E+00
    0.00000E+00         0.00000E+00        -0.48037E+08
 
   -0.47805E+08         0.89998E+06         0.00000E+00
    0.89998E+06        -0.49855E+08         0.00000E+00
    0.00000E+00         0.00000E+00        -0.48037E+08
 
   -0.47823E+08         0.92164E+06         0.00000E+00
    0.92164E+06        -0.49847E+08         0.00000E+00
    0.00000E+00         0.00000E+00        -0.48037E+08
 
   -0.47840E+08         0.94316E+06         0.00000E+00
    0.94316E+06        -0.49839E+08         0.00000E+00
    0.00000E+00         0.00000E+00        -0.48037E+08
 
   -0.47858E+08         0.96453E+06         0.00000E+00
    0.96453E+06        -0.49831E+08         0.00000E+00
    0.00000E+00         0.00000E+00        -0.48037E+08
 
   -0.47876E+08         0.98576E+06         0.00000E+00
    0.98576E+06        -0.49823E+08         0.00000E+00
    0.00000E+00         0.00000E+00        -0.48037E+08
 
   -0.47895E+08         0.10069E+07         0.00000E+00
    0.10069E+07        -0.49814E+08         0.00000E+00
    0.00000E+00         0.00000E+00        -0.48037E+08
 
   -0.47913E+08         0.10278E+07         0.00000E+00
    0.10278E+07        -0.49806E+08         0.00000E+00
    0.00000E+00         0.00000E+00        -0.48037E+08
 
   -0.47932E+08         0.10486E+07         0.00000E+00
    0.10486E+07        -0.49797E+08         0.00000E+00
    0.00000E+00         0.00000E+00        -0.48037E+08
 
   -0.47950E+08         0.10692E+07         0.00000E+00
    0.10692E+07        -0.49788E+08         0.00000E+00
    0.00000E+00         0.00000E+00        -0.48037E+08
 
   -0.47969E+08         0.10897E+07         0.00000E+00
    0.10897E+07        -0.49779E+08         0.00000E+00
    0.00000E+00         0.00000E+00        -0.48037E+08
 
   -0.47989E+08         0.11101E+07         0.00000E+00
    0.11101E+07        -0.49770E+08         0.00000E+00
    0.00000E+00         0.00000E+00        -0.48037E+08
 
   -0.48008E+08         0.11303E+07         0.00000E+00
    0.11303E+07        -0.49760E+08         0.00000E+00
    0.00000E+00         0.00000E+00        -0.48037E+08
 
   -0.48028E+08         0.11503E+07         0.00000E+00
    0.11503E+07        -0.49750E+08         0.00000E+00
    0.00000E+00         0.00000E+00        -0.48037E+08
 
   -0.47184E+08         0.13599E+05         0.00000E+00
    0.13599E+05        -0.50000E+08         0.00000E+00
    0.00000E+00         0.00000E+00        -0.47932E+08
 
   -0.47193E+08         0.40549E+05         0.00000E+00
    0.40549E+05        -0.50000E+08         0.00000E+00
    0.00000E+00         0.00000E+00        -0.47932E+08
 
   -0.47203E+08         0.67408E+05         0.00000E+00
    0.67408E+05        -0.49999E+08         0.00000E+00
    0.00000E+00         0.00000E+00        -0.47932E+08
 
   -0.47212E+08         0.94173E+05         0.00000E+00
    0.94173E+05        -0.49999E+08         0.00000E+00
    0.00000E+00         0.00000E+00        -0.47932E+08
 
   -0.47223E+08         0.12084E+06         0.00000E+00
    0.12084E+06        -0.49998E+08         0.00000E+00
    0.00000E+00         0.00000E+00        -0.47932E+08
 
   -0.47233E+08         0.14742E+06         0.00000E+00
    0.14742E+06        -0.49997E+08         0.00000E+00
    0.00000E+00         0.00000E+00        -0.47932E+08
 
   -0.47244E+08         0.17390E+06         0.00000E+00
    0.17390E+06        -0.49995E+08         0.00000E+00
    0.00000E+00         0.00000E+00        -0.47932E+08
 
   -0.47254E+08         0.20027E+06         0.00000E+00
    0.20027E+06        -0.49994E+08         0.00000E+00
    0.00000E+00         0.00000E+00        -0.47932E+08
 
   -0.47266E+08         0.22655E+06         0.00000E+00
    0.22655E+06        -0.49992E+08         0.00000E+00
    0.00000E+00         0.00000E+00        -0.47932E+08
 
   -0.47277E+08         0.25273E+06         0.00000E+00
    0.25273E+06        -0.49990E+08         0.00000E+00
    0.00000E+00         0.00000E+00        -0.47932E+08
 
   -0.47289E+08         0.27880E+06         0.00000E+00
    0.27880E+06        -0.49988E+08         0.00000E+00
    0.00000E+00         0.00000E+00        -0.47932E+08
 
   -0.47301E+08         0.30477E+06         0.00000E+00
    0.30477E+06        -0.49985E+08         0.00000E+00
    0.00000E+00         0.00000E+00        -0.47933E+08
 
   -0.47313E+08         0.33063E+06         0.00000E+00
    0.33063E+06        -0.49983E+08         0.00000E+00
    0.00000E+00         0.00000E+00        -0.47933E+08
 
   -0.47325E+08         0.35638E+06         0.00000E+00
    0.35638E+06        -0.49980E+08         0.00000E+00
    0.00000E+00         0.00000E+00        -0.47933E+08
 
   -0.47338E+08         0.38203E+06         0.00000E+00
    0.38203E+06        -0.49977E+08         0.00000E+00
    0.00000E+00         0.00000E+00        -0.47933E+08
 
   -0.47351E+08         0.40757E+06         0.00000E+00
    0.40757E+06        -0.49974E+08         0.00000E+00
    0.00000E+00         0.00000E+00        -0.47933E+08
 
   -0.47364E+08         0.43299E+06         0.00000E+00
    0.43299E+06        -0.49970E+08         0.00000E+00
    0.00000E+00         0.00000E+00        -0.47933E+08
 
   -0.47377E+08         0.45830E+06         0.00000E+00
    0.45830E+06        -0.49966E+08         0.00000E+00
    0.00000E+00         0.00000E+00        -0.47933E+08
 
   -0.47391E+08         0.48350E+06         0.00000E+00
    0.48350E+06        -0.49963E+08         0.00000E+00
    0.00000E+00         0.00000E+00        -0.47933E+08
 
   -0.47405E+08         0.50858E+06         0.00000E+00
    0.50858E+06        -0.49958E+08         0.00000E+00
    0.00000E+00         0.00000E+00        -0.47933E+08
 
   -0.47419E+08         0.53354E+06         0.00000E+00
    0.53354E+06        -0.49954E+08         0.00000E+00
    0.00000E+00         0.00000E+00        -0.47933E+08
 
   -0.47434E+08         0.55838E+06         0.00000E+00
    0.55838E+06        -0.49950E+08         0.00000E+00
    0.00000E+00         0.00000E+00        -0.47934E+08
 
   -0.47448E+08         0.58311E+06         0.00000E+00
    0.58311E+06        -0.49945E+08         0.00000E+00
    0.00000E+00         0.00000E+00        -0.47934E+08
 
   -0.47463E+08         0.60771E+06         0.00000E+00
    0.60771E+06        -0.49940E+08         0.00000E+00
    0.00000E+00         0.00000E+00        -0.47934E+08
 
   -0.47478E+08         0.63219E+06         0.00000E+00
    0.63219E+06        -0.49935E+08         0.00000E+00
    0.00000E+00         0.00000E+00        -0.47934E+08
 
   -0.47493E+08         0.65655E+06         0.00000E+00
    0.65655E+06        -0.49929E+08         0.00000E+00
    0.00000E+00         0.00000E+00        -0.47934E+08
 
   -0.47509E+08         0.68078E+06         0.00000E+00
    0.68078E+06        -0.49924E+08         0.00000E+00
    0.00000E+00         0.00000E+00        -0.47934E+08
 
   -0.47525E+08         0.70489E+06         0.00000E+00
    0.70489E+06        -0.49918E+08         0.00000E+00
    0.00000E+00         0.00000E+00        -0.47934E+08
 
   -0.47541E+08         0.72886E+06         0.00000E+00
    0.72886E+06        -0.49912E+08         0.00000E+00
    0.00000E+00         0.00000E+00        -0.47934E+08
 
   -0.47557E+08         0.75271E+06         0.00000E+00
    0.75271E+06        -0.49906E+08         0.00000E+00
    0.00000E+00         0.00000E+00        -0.47934E+08
 
   -0.47573E+08         0.77643E+06         0.00000E+00
    0.77643E+06        -0.49899E+08         0.00000E+00
    0.00000E+00         0.00000E+00        -0.47934E+08
 
   -0.47590E+08         0.80001E+06         0.00000E+00
    0.80001E+06        -0.49893E+08         0.00000E+00
    0.00000E+00         0.00000E+00        -0.47935E+08
 
   -0.47607E+08         0.82346E+06         0.00000E+00
    0.82346E+06        -0.49886E+08         0.00000E+00
    0.00000E+00         0.00000E+00        -0.47935E+08
 
   -0.47624E+08         0.84677E+06         0.00000E+00
    0.84677E+06        -0.49879E+08         0.00000E+00
    0.00000E+00         0.00000E+00        -0.47935E+08
 
   -0.47641E+08         0.86995E+06         0.00000E+00
    0.86995E+06        -0.49872E+08         0.00000E+00
    0.00000E+00         0.00000E+00        -0.47935E+08
 
   -0.47659E+08         0.89299E+06         0.00000E+00
    0.89299E+06        -0.49865E+08         0.00000E+00
    0.00000E+00         0.00000E+00        -0.47935E+08
 
   -0.47676E+08         0.91589E+06         0.00000E+00
    0.91589E+06        -0.49857E+08         0.00000E+00
    0.00000E+00         0.00000E+00        -0.47935E+08
 
   -0.47694E+08         0.93865E+06         0.00000E+00
    0.93865E+06        -0.49849E+08         0.00000E+00
    0.00000E+00         0.00000E+00        -0.47935E+08
 
   -0.47712E+08         0.96126E+06         0.00000E+00
    0.96126E+06        -0.49841E+08         0.00000E+00
    0.00000E+00         0.00000E+00        -0.47935E+08
 
   -0.47731E+08         0.98374E+06         0.00000E+00
    0.98374E+06        -0.49833E+08         0.00000E+00
    0.00000E+00         0.00000E+00        -0.47935E+08
 
   -0.47749E+08         0.10061E+07         0.00000E+00
    0.10061E+07        -0.49825E+08         0.00000E+00
    0.00000E+00         0.00000E+00        -0.47935E+08
 
   -0.47768E+08         0.10282E+07         0.00000E+00
    0.10282E+07        -0.49816E+08         0.00000E+00
    0.00000E+00         0.00000E+00        -0.47935E+08
 
   -0.47787E+08         0.10503E+07         0.00000E+00
    0.10503E+07        -0.49807E+08         0.00000E+00
    0.00000E+00         0.00000E+00        -0.47935E+08
 
   -0.47806E+08         0.10722E+07         0.00000E+00
    0.10722E+07        -0.49798E+08         0.00000E+00
    0.00000E+00         0.00000E+00        -0.47936E+08
 
   -0.47826E+08         0.10939E+07         0.00000E+00
    0.10939E+07        -0.49789E+08         0.00000E+00
    0.00000E+00         0.00000E+00        -0.47936E+08
 
   -0.47845E+08         0.11155E+07         0.00000E+00
    0.11155E+07        -0.49780E+08         0.00000E+00
    0.00000E+00         0.00000E+00        -0.47936E+08
 
   -0.47865E+08         0.11369E+07         0.00000E+00
    0.11369E+07        -0.49770E+08         0.00000E+00
    0.00000E+00         0.00000E+00        -0.47936E+08
 
   -0.47885E+08         0.11581E+07         0.00000E+00
    0.11581E+07        -0.49761E+08         0.00000E+00
    0.00000E+00         0.00000E+00        -0.47936E+08
 
   -0.47905E+08         0.11793E+07         0.00000E+00
    0.11793E+07        -0.49751E+08         0.00000E+00
    0.00000E+00         0.00000E+00        -0.47936E+08
 
   -0.47925E+08         0.12002E+07         0.00000E+00
    0.12002E+07        -0.49741E+08         0.00000E+00
    0.00000E+00         0.00000E+00        -0.47936E+08
 
   -0.47046E+08         0.14167E+05         0.00000E+00
    0.14167E+05        -0.50000E+08         0.00000E+00
    0.00000E+00         0.00000E+00        -0.47826E+08
 
   -0.47056E+08         0.42247E+05         0.00000E+00
    0.42247E+05        -0.50000E+08         0.00000E+00
    0.00000E+00         0.00000E+00        -0.47826E+08
 
   -0.47066E+08         0.70232E+05         0.00000E+00
    0.70232E+05        -0.49999E+08         0.00000E+00
    0.00000E+00         0.00000E+00        -0.47826E+08
 
   -0.47076E+08         0.98120E+05         0.00000E+00
    0.98120E+05        -0.49999E+08         0.00000E+00
    0.00000E+00         0.00000E+00        -0.47826E+08
 
   -0.47087E+08         0.12591E+06         0.00000E+00
    0.12591E+06        -0.49998E+08         0.00000E+00
    0.00000E+00         0.00000E+00        -0.47826E+08
 
   -0.47098E+08         0.15360E+06         0.00000E+00
    0.15360E+06        -0.49997E+08         0.00000E+00
    0.00000E+00         0.00000E+00        -0.47826E+08
 
   -0.47109E+08         0.18119E+06         0.00000E+00
    0.18119E+06        -0.49995E+08         0.00000E+00
    0.00000E+00         0.00000E+00        -0.47826E+08
 
   -0.47120E+08         0.20868E+06         0.00000E+00
    0.20868E+06        -0.49994E+08         0.00000E+00
    0.00000E+00         0.00000E+00        -0.47826E+08
 
   -0.47132E+08         0.23607E+06         0.00000E+00
    0.23607E+06        -0.49992E+08         0.00000E+00
    0.00000E+00         0.00000E+00        -0.47826E+08
 
   -0.47144E+08         0.26335E+06         0.00000E+00
    0.26335E+06        -0.49990E+08         0.00000E+00
    0.00000E+00         0.00000E+00        -0.47826E+08
 
   -0.47156E+08         0.29052E+06         0.00000E+00
    0.29052E+06        -0.49987E+08         0.00000E+00
    0.00000E+00         0.00000E+00        -0.47826E+08
 
   -0.47168E+08         0.31759E+06         0.00000E+00
    0.31759E+06        -0.49985E+08         0.00000E+00
    0.00000E+00         0.00000E+00        -0.47826E+08
 
   -0.47181E+08         0.34454E+06         0.00000E+00
    0.34454E+06        -0.49982E+08         0.00000E+00
    0.00000E+00         0.00000E+00        -0.47826E+08
 
   -0.47194E+08         0.37139E+06         0.00000E+00
    0.37139E+06        -0.49979E+08         0.00000E+00
    0.00000E+00         0.00000E+00        -0.47826E+08
 
   -0.47207E+08         0.39812E+06         0.00000E+00
    0.39812E+06        -0.49976E+08         0.00000E+00
    0.00000E+00         0.00000E+00        -0.47827E+08
 
   -0.47221E+08         0.42474E+06         0.00000E+00
    0.42474E+06        -0.49973E+08         0.00000E+00
    0.00000E+00         0.00000E+00        -0.47827E+08
 
   -0.47235E+08         0.45125E+06         0.00000E+00
    0.45125E+06        -0.49969E+08         0.00000E+00
    0.00000E+00         0.00000E+00        -0.47827E+08
 
   -0.47249E+08         0.47764E+06         0.00000E+00
    0.47764E+06        -0.49965E+08         0.00000E+00
    0.00000E+00         0.00000E+00        -0.47827E+08
 
   -0.47263E+08         0.50391E+06         0.00000E+00
    0.50391E+06        -0.49961E+08         0.00000E+00
    0.00000E+00         0.00000E+00        -0.47827E+08
 
   -0.47277E+08         0.53006E+06         0.00000E+00
    0.53006E+06        -0.49957E+08         0.00000E+00
    0.00000E+00         0.00000E+00        -0.47827E+08
 
   -0.47292E+08         0.55609E+06         0.00000E+00
    0.55609E+06        -0.49952E+08         0.00000E+00
    0.00000E+00         0.00000E+00        -0.47827E+08
 
   -0.47307E+08         0.58200E+06         0.00000E+00
    0.58200E+06        -0.49948E+08         0.00000E+00
    0.00000E+00         0.00000E+00        -0.47827E+08
 
   -0.47322E+08         0.60779E+06         0.00000E+00
    0.60779E+06        -0.49943E+08         0.00000E+00
    0.00000E+00         0.00000E+00        -0.47827E+08
 
   -0.47338E+08         0.63345E+06         0.00000E+00
    0.63345E+06        -0.49938E+08         0.00000E+00
    0.00000E+00         0.00000E+00        -0.47827E+08
 
   -0.47353E+08         0.65898E+06         0.00000E+00
    0.65898E+06        -0.49932E+08         0.00000E+00
    0.00000E+00         0.00000E+00        -0.47828E+08
 
   -0.47369E+08         0.68439E+06         0.00000E+00
    0.68439E+06        -0.49927E+08         0.00000E+00
    0.00000E+00         0.00000E+00        -0.47828E+08
 
   -0.47385E+08         0.70967E+06         0.00000E+00
    0.70967E+06        -0.49921E+08         0.00000E+00
    0.00000E+00         0.00000E+00        -0.47828E+08
 
   -0.47402E+08         0.73482E+06         0.00000E+00
    0.73482E+06        -0.49915E+08         0.00000E+00
    0.00000E+00         0.00000E+00        -0.47828E+08
 
   -0.47418E+08         0.75983E+06         0.00000E+00
    0.75983E+06        -0.49909E+08         0.00000E+00
    0.00000E+00         0.00000E+00        -0.47828E+08
 
   -0.47435E+08         0.78472E+06         0.00000E+00
    0.78472E+06        -0.49902E+08         0.00000E+00
    0.00000E+00         0.00000E+00        -0.47828E+08
 
   -0.47452E+08         0.80946E+06         0.00000E+00
    0.80946E+06        -0.49896E+08         0.00000E+00
    0.00000E+00         0.00000E+00        -0.47828E+08
 
   -0.47470E+08         0.83408E+06         0.00000E+00
    0.83408E+06        -0.49889E+08         0.00000E+00
    0.00000E+00         0.00000E+00        -0.47828E+08
 
   -0.47487E+08         0.85855E+06         0.00000E+00
    0.85855E+06        -0.49882E+08         0.00000E+00
    0.00000E+00         0.00000E+00        -0.47828E+08
 
   -0.47505E+08         0.88288E+06         0.00000E+00
    0.88288E+06        -0.49875E+08         0.00000E+00
    0.00000E+00         0.00000E+00        -0.47828E+08
 
   -0.47523E+08         0.90708E+06         0.00000E+00
    0.90708E+06        -0.49867E+08         0.00000E+00
    0.00000E+00         0.00000E+00        -0.47829E+08
 
   -0.47541E+08         0.93113E+06         0.00000E+00
    0.93113E+06        -0.49859E+08         0.00000E+00
    0.00000E+00         0.00000E+00        -0.47829E+08
 
   -0.47560E+08         0.95504E+06         0.00000E+00
    0.95504E+06        -0.49852E+08         0.00000E+00
    0.00000E+00         0.00000E+00        -0.47829E+08
 
   -0.47578E+08         0.97880E+06         0.00000E+00
    0.97880E+06        -0.49844E+08         0.00000E+00
    0.00000E+00         0.00000E+00        -0.47829E+08
 
   -0.47597E+08         0.10024E+07         0.00000E+00
    0.10024E+07        -0.49835E+08         0.00000E+00
    0.00000E+00         0.00000E+00        -0.47829E+08
 
   -0.47616E+08         0.10259E+07         0.00000E+00
    0.10259E+07        -0.49827E+08         0.00000E+00
    0.00000E+00         0.00000E+00        -0.47829E+08
 
   -0.47636E+08         0.10492E+07         0.00000E+00
    0.10492E+07        -0.49818E+08         0.00000E+00
    0.00000E+00         0.00000E+00        -0.47829E+08
 
   -0.47655E+08         0.10724E+07         0.00000E+00
    0.10724E+07        -0.49809E+08         0.00000E+00
    0.00000E+00         0.00000E+00        -0.47829E+08
 
   -0.47675E+08         0.10954E+07         0.00000E+00
    0.10954E+07        -0.49800E+08         0.00000E+00
    0.00000E+00         0.00000E+00        -0.47829E+08
 
   -0.47695E+08         0.11183E+07         0.00000E+00
    0.11183E+07        -0.49791E+08         0.00000E+00
    0.00000E+00         0.00000E+00        -0.47829E+08
 
   -0.47715E+08         0.11410E+07         0.00000E+00
    0.11410E+07        -0.49781E+08         0.00000E+00
    0.00000E+00         0.00000E+00        -0.47829E+08
 
   -0.47735E+08         0.11635E+07         0.00000E+00
    0.11635E+07        -0.49772E+08         0.00000E+00
    0.00000E+00         0.00000E+00        -0.47829E+08
 
   -0.47756E+08         0.11859E+07         0.00000E+00
    0.11859E+07        -0.49762E+08         0.00000E+00
    0.00000E+00         0.00000E+00        -0.47829E+08
 
   -0.47777E+08         0.12081E+07         0.00000E+00
    0.12081E+07        -0.49752E+08         0.00000E+00
    0.00000E+00         0.00000E+00        -0.47829E+08
 
   -0.47798E+08         0.12302E+07         0.00000E+00
    0.12302E+07        -0.49741E+08         0.00000E+00
    0.00000E+00         0.00000E+00        -0.47829E+08
 
   -0.47819E+08         0.12521E+07         0.00000E+00
    0.12521E+07        -0.49731E+08         0.00000E+00
    0.00000E+00         0.00000E+00        -0.47829E+08
 
   -0.46902E+08         0.14757E+05         0.00000E+00
    0.14757E+05        -0.50000E+08         0.00000E+00
    0.00000E+00         0.00000E+00        -0.47715E+08
 
   -0.46913E+08         0.44007E+05         0.00000E+00
    0.44007E+05        -0.50000E+08         0.00000E+00
    0.00000E+00         0.00000E+00        -0.47715E+08
 
   -0.46923E+08         0.73159E+05         0.00000E+00
    0.73159E+05        -0.49999E+08         0.00000E+00
    0.00000E+00         0.00000E+00        -0.47715E+08
 
   -0.46934E+08         0.10221E+06         0.00000E+00
    0.10221E+06        -0.49999E+08         0.00000E+00
    0.00000E+00         0.00000E+00        -0.47715E+08
 
   -0.46945E+08         0.13116E+06         0.00000E+00
    0.13116E+06        -0.49998E+08         0.00000E+00
    0.00000E+00         0.00000E+00        -0.47715E+08
 
   -0.46956E+08         0.16001E+06         0.00000E+00
    0.16001E+06        -0.49996E+08         0.00000E+00
    0.00000E+00         0.00000E+00        -0.47715E+08
 
   -0.46968E+08         0.18876E+06         0.00000E+00
    0.18876E+06        -0.49995E+08         0.00000E+00
    0.00000E+00         0.00000E+00        -0.47715E+08
 
   -0.46980E+08         0.21740E+06         0.00000E+00
    0.21740E+06        -0.49993E+08         0.00000E+00
    0.00000E+00         0.00000E+00        -0.47715E+08
 
   -0.46992E+08         0.24593E+06         0.00000E+00
    0.24593E+06        -0.49991E+08         0.00000E+00
    0.00000E+00         0.00000E+00        -0.47715E+08
 
   -0.47005E+08         0.27435E+06         0.00000E+00
    0.27435E+06        -0.49989E+08         0.00000E+00
    0.00000E+00         0.00000E+00        -0.47715E+08
 
   -0.47017E+08         0.30267E+06         0.00000E+00
    0.30267E+06        -0.49987E+08         0.00000E+00
    0.00000E+00         0.00000E+00        -0.47715E+08
 
   -0.47030E+08         0.33087E+06         0.00000E+00
    0.33087E+06        -0.49984E+08         0.00000E+00
    0.00000E+00         0.00000E+00        -0.47715E+08
 
   -0.47044E+08         0.35896E+06         0.00000E+00
    0.35896E+06        -0.49982E+08         0.00000E+00
    0.00000E+00         0.00000E+00        -0.47715E+08
 
   -0.47057E+08         0.38694E+06         0.00000E+00
    0.38694E+06        -0.49978E+08         0.00000E+00
    0.00000E+00         0.00000E+00        -0.47715E+08
 
   -0.47071E+08         0.41480E+06         0.00000E+00
    0.41480E+06        -0.49975E+08         0.00000E+00
    0.00000E+00         0.00000E+00        -0.47715E+08
 
   -0.47085E+08         0.44255E+06         0.00000E+00
    0.44255E+06        -0.49972E+08         0.00000E+00
    0.00000E+00         0.00000E+00        -0.47716E+08
 
   -0.47099E+08         0.47018E+06         0.00000E+00
    0.47018E+06        -0.49968E+08         0.00000E+00
    0.00000E+00         0.00000E+00        -0.47716E+08
 
   -0.47114E+08         0.49768E+06         0.00000E+00
    0.49768E+06        -0.49964E+08         0.00000E+00
    0.00000E+00         0.00000E+00        -0.47716E+08
 
   -0.47129E+08         0.52507E+06         0.00000E+00
    0.52507E+06        -0.49960E+08         0.00000E+00
    0.00000E+00         0.00000E+00        -0.47716E+08
 
   -0.47144E+08         0.55233E+06         0.00000E+00
    0.55233E+06        -0.49955E+08         0.00000E+00
    0.00000E+00         0.00000E+00        -0.47716E+08
 
   -0.47159E+08         0.57947E+06         0.00000E+00
    0.57947E+06        -0.49951E+08         0.00000E+00
    0.00000E+00         0.00000E+00        -0.47716E+08
 
   -0.47175E+08         0.60649E+06         0.00000E+00
    0.60649E+06        -0.49946E+08         0.00000E+00
    0.00000E+00         0.00000E+00        -0.47716E+08
 
   -0.47191E+08         0.63338E+06         0.00000E+00
    0.63338E+06        -0.49941E+08         0.00000E+00
    0.00000E+00         0.00000E+00        -0.47716E+08
 
   -0.47207E+08         0.66014E+06         0.00000E+00
    0.66014E+06        -0.49935E+08         0.00000E+00
    0.00000E+00         0.00000E+00        -0.47716E+08
 
   -0.47223E+08         0.68677E+06         0.00000E+00
    0.68677E+06        -0.49930E+08         0.00000E+00
    0.00000E+00         0.00000E+00        -0.47716E+08
 
   -0.47240E+08         0.71326E+06         0.00000E+00
    0.71326E+06        -0.49924E+08         0.00000E+00
    0.00000E+00         0.00000E+00        -0.47717E+08
 
   -0.47257E+08         0.73963E+06         0.00000E+00
    0.73963E+06        -0.49918E+08         0.00000E+00
    0.00000E+00         0.00000E+00        -0.47717E+08
 
   -0.47274E+08         0.76586E+06         0.00000E+00
    0.76586E+06        -0.49912E+08         0.00000E+00
    0.00000E+00         0.00000E+00        -0.47717E+08
 
   -0.47291E+08         0.79196E+06         0.00000E+00
    0.79196E+06        -0.49905E+08         0.00000E+00
    0.00000E+00         0.00000E+00        -0.47717E+08
 
   -0.47309E+08         0.81792E+06         0.00000E+00
    0.81792E+06        -0.49899E+08         0.00000E+00
    0.00000E+00         0.00000E+00        -0.47717E+08
 
   -0.47326E+08         0.84374E+06         0.00000E+00
    0.84374E+06        -0.49892E+08         0.00000E+00
    0.00000E+00         0.00000E+00        -0.47717E+08
 
   -0.47344E+08         0.86942E+06         0.00000E+00
    0.86942E+06        -0.49885E+08         0.00000E+00
    0.00000E+00         0.00000E+00        -0.47717E+08
 
   -0.47363E+08         0.89497E+06         0.00000E+00
    0.89497E+06        -0.49878E+08         0.00000E+00
    0.00000E+00         0.00000E+00        -0.47717E+08
 
   -0.47381E+08         0.92036E+06         0.00000E+00
    0.92036E+06        -0.49870E+08         0.00000E+00
    0.00000E+00         0.00000E+00        -0.47717E+08
 
   -0.47400E+08         0.94562E+06         0.00000E+00
    0.94562E+06        -0.49862E+08         0.00000E+00
    0.00000E+00         0.00000E+00        -0.47717E+08
 
   -0.47419E+08         0.97072E+06         0.00000E+00
    0.97072E+06        -0.49854E+08         0.00000E+00
    0.00000E+00         0.00000E+00        -0.47718E+08
 
   -0.47438E+08         0.99568E+06         0.00000E+00
    0.99568E+06        -0.49846E+08         0.00000E+00
    0.00000E+00         0.00000E+00        -0.47718E+08
 
   -0.47457E+08         0.10205E+07         0.00000E+00
    0.10205E+07        -0.49838E+08         0.00000E+00
    0.00000E+00         0.00000E+00        -0.47718E+08
 
   -0.47477E+08         0.10452E+07         0.00000E+00
    0.10452E+07        -0.49829E+08         0.00000E+00
    0.00000E+00         0.00000E+00        -0.47718E+08
 
   -0.47497E+08         0.10697E+07         0.00000E+00
    0.10697E+07        -0.49820E+08         0.00000E+00
    0.00000E+00         0.00000E+00        -0.47718E+08
 
   -0.47517E+08         0.10940E+07         0.00000E+00
    0.10940E+07        -0.49811E+08         0.00000E+00
    0.00000E+00         0.00000E+00        -0.47718E+08
 
   -0.47537E+08         0.11182E+07         0.00000E+00
    0.11182E+07        -0.49802E+08         0.00000E+00
    0.00000E+00         0.00000E+00        -0.47718E+08
 
   -0.47558E+08         0.11423E+07         0.00000E+00
    0.11423E+07        -0.49793E+08         0.00000E+00
    0.00000E+00         0.00000E+00        -0.47718E+08
 
   -0.47578E+08         0.11661E+07         0.00000E+00
    0.11661E+07        -0.49783E+08         0.00000E+00
    0.00000E+00         0.00000E+00        -0.47718E+08
 
   -0.47599E+08         0.11899E+07         0.00000E+00
    0.11899E+07        -0.49773E+08         0.00000E+00
    0.00000E+00         0.00000E+00        -0.47718E+08
 
   -0.47620E+08         0.12134E+07         0.00000E+00
    0.12134E+07        -0.49763E+08         0.00000E+00
    0.00000E+00         0.00000E+00        -0.47718E+08
 
   -0.47642E+08         0.12368E+07         0.00000E+00
    0.12368E+07        -0.49753E+08         0.00000E+00
    0.00000E+00         0.00000E+00        -0.47718E+08
 
   -0.47663E+08         0.12601E+07         0.00000E+00
    0.12601E+07        -0.49742E+08         0.00000E+00
    0.00000E+00         0.00000E+00        -0.47718E+08
 
   -0.47685E+08         0.12831E+07         0.00000E+00
    0.12831E+07        -0.49732E+08         0.00000E+00
    0.00000E+00         0.00000E+00        -0.47718E+08
 
   -0.47707E+08         0.13060E+07         0.00000E+00
    0.13060E+07        -0.49721E+08         0.00000E+00
    0.00000E+00         0.00000E+00        -0.47718E+08
 
   -0.46753E+08         0.15368E+05         0.00000E+00
    0.15368E+05        -0.50000E+08         0.00000E+00
    0.00000E+00         0.00000E+00        -0.47598E+08
 
   -0.46764E+08         0.45830E+05         0.00000E+00
    0.45830E+05        -0.50000E+08         0.00000E+00
    0.00000E+00         0.00000E+00        -0.47598E+08
 
   -0.46775E+08         0.76191E+05         0.00000E+00
    0.76191E+05        -0.49999E+08         0.00000E+00
    0.00000E+00         0.00000E+00        -0.47599E+08
 
   -0.46786E+08         0.10645E+06         0.00000E+00
    0.10645E+06        -0.49998E+08         0.00000E+00
    0.00000E+00         0.00000E+00        -0.47599E+08
 
   -0.46798E+08         0.13660E+06         0.00000E+00
    0.13660E+06        -0.49997E+08         0.00000E+00
    0.00000E+00         0.00000E+00        -0.47599E+08
 
   -0.46809E+08         0.16665E+06         0.00000E+00
    0.16665E+06        -0.49996E+08         0.00000E+00
    0.00000E+00         0.00000E+00        -0.47599E+08
 
   -0.46822E+08         0.19659E+06         0.00000E+00
    0.19659E+06        -0.49995E+08         0.00000E+00
    0.00000E+00         0.00000E+00        -0.47599E+08
 
   -0.46834E+08         0.22642E+06         0.00000E+00
    0.22642E+06        -0.49993E+08         0.00000E+00
    0.00000E+00         0.00000E+00        -0.47599E+08
 
   -0.46847E+08         0.25615E+06         0.00000E+00
    0.25615E+06        -0.49991E+08         0.00000E+00
    0.00000E+00         0.00000E+00        -0.47599E+08
 
   -0.46860E+08         0.28576E+06         0.00000E+00
    0.28576E+06        -0.49989E+08         0.00000E+00
    0.00000E+00         0.00000E+00        -0.47599E+08
 
   -0.46873E+08         0.31525E+06         0.00000E+00
    0.31525E+06        -0.49986E+08         0.00000E+00
    0.00000E+00         0.00000E+00        -0.47599E+08
 
   -0.46887E+08         0.34464E+06         0.00000E+00
    0.34464E+06        -0.49984E+08         0.00000E+00
    0.00000E+00         0.00000E+00        -0.47599E+08
 
   -0.46901E+08         0.37391E+06         0.00000E+00
    0.37391E+06        -0.49981E+08         0.00000E+00
    0.00000E+00         0.00000E+00        -0.47599E+08
 
   -0.46915E+08         0.40306E+06         0.00000E+00
    0.40306E+06        -0.49978E+08         0.00000E+00
    0.00000E+00         0.00000E+00        -0.47599E+08
 
   -0.46929E+08         0.43209E+06         0.00000E+00
    0.43209E+06        -0.49974E+08         0.00000E+00
    0.00000E+00         0.00000E+00        -0.47599E+08
 
   -0.46944E+08         0.46100E+06         0.00000E+00
    0.46100E+06        -0.49971E+08         0.00000E+00
    0.00000E+00         0.00000E+00        -0.47599E+08
 
   -0.46959E+08         0.48979E+06         0.00000E+00
    0.48979E+06        -0.49967E+08         0.00000E+00
    0.00000E+00         0.00000E+00        -0.47599E+08
 
   -0.46974E+08         0.51846E+06         0.00000E+00
    0.51846E+06        -0.49963E+08         0.00000E+00
    0.00000E+00         0.00000E+00        -0.47600E+08
 
   -0.46989E+08         0.54700E+06         0.00000E+00
    0.54700E+06        -0.49958E+08         0.00000E+00
    0.00000E+00         0.00000E+00        -0.47600E+08
 
   -0.47005E+08         0.57542E+06         0.00000E+00
    0.57542E+06        -0.49954E+08         0.00000E+00
    0.00000E+00         0.00000E+00        -0.47600E+08
 
   -0.47021E+08         0.60371E+06         0.00000E+00
    0.60371E+06        -0.49949E+08         0.00000E+00
    0.00000E+00         0.00000E+00        -0.47600E+08
 
   -0.47037E+08         0.63187E+06         0.00000E+00
    0.63187E+06        -0.49944E+08         0.00000E+00
    0.00000E+00         0.00000E+00        -0.47600E+08
 
   -0.47054E+08         0.65990E+06         0.00000E+00
    0.65990E+06        -0.49939E+08         0.00000E+00
    0.00000E+00         0.00000E+00        -0.47600E+08
 
   -0.47071E+08         0.68780E+06         0.00000E+00
    0.68780E+06        -0.49933E+08         0.00000E+00
    0.00000E+00         0.00000E+00        -0.47600E+08
 
   -0.47088E+08         0.71557E+06         0.00000E+00
    0.71557E+06        -0.49927E+08         0.00000E+00
    0.00000E+00         0.00000E+00        -0.47600E+08
 
   -0.47105E+08         0.74320E+06         0.00000E+00
    0.74320E+06        -0.49921E+08         0.00000E+00
    0.00000E+00         0.00000E+00        -0.47600E+08
 
   -0.47122E+08         0.77069E+06         0.00000E+00
    0.77069E+06        -0.49915E+08         0.00000E+00
    0.00000E+00         0.00000E+00        -0.47600E+08
 
   -0.47140E+08         0.79805E+06         0.00000E+00
    0.79805E+06        -0.49909E+08         0.00000E+00
    0.00000E+00         0.00000E+00        -0.47601E+08
 
   -0.47158E+08         0.82527E+06         0.00000E+00
    0.82527E+06        -0.49902E+08         0.00000E+00
    0.00000E+00         0.00000E+00        -0.47601E+08
 
   -0.47176E+08         0.85235E+06         0.00000E+00
    0.85235E+06        -0.49895E+08         0.00000E+00
    0.00000E+00         0.00000E+00        -0.47601E+08
 
   -0.47195E+08         0.87929E+06         0.00000E+00
    0.87929E+06        -0.49888E+08         0.00000E+00
    0.00000E+00         0.00000E+00        -0.47601E+08
 
   -0.47214E+08         0.90609E+06         0.00000E+00
    0.90609E+06        -0.49881E+08         0.00000E+00
    0.00000E+00         0.00000E+00        -0.47601E+08
 
   -0.47232E+08         0.93274E+06         0.00000E+00
    0.93274E+06        -0.49873E+08         0.00000E+00
    0.00000E+00         0.00000E+00        -0.47601E+08
 
   -0.47252E+08         0.95924E+06         0.00000E+00
    0.95924E+06        -0.49865E+08         0.00000E+00
    0.00000E+00         0.00000E+00        -0.47601E+08
 
   -0.47271E+08         0.98560E+06         0.00000E+00
    0.98560E+06        -0.49857E+08         0.00000E+00
    0.00000E+00         0.00000E+00        -0.47601E+08
 
   -0.47291E+08         0.10118E+07         0.00000E+00
    0.10118E+07        -0.49849E+08         0.00000E+00
    0.00000E+00         0.00000E+00        -0.47601E+08
 
   -0.47311E+08         0.10379E+07         0.00000E+00
    0.10379E+07        -0.49841E+08         0.00000E+00
    0.00000E+00         0.00000E+00        -0.47601E+08
 
   -0.47331E+08         0.10638E+07         0.00000E+00
    0.10638E+07        -0.49832E+08         0.00000E+00
    0.00000E+00         0.00000E+00        -0.47601E+08
 
   -0.47351E+08         0.10895E+07         0.00000E+00
    0.10895E+07        -0.49823E+08         0.00000E+00
    0.00000E+00         0.00000E+00        -0.47602E+08
 
   -0.47372E+08         0.11151E+07         0.00000E+00
    0.11151E+07        -0.49814E+08         0.00000E+00
    0.00000E+00         0.00000E+00        -0.47602E+08
 
   -0.47393E+08         0.11405E+07         0.00000E+00
    0.11405E+07        -0.49804E+08         0.00000E+00
    0.00000E+00         0.00000E+00        -0.47602E+08
 
   -0.47414E+08         0.11658E+07         0.00000E+00
    0.11658E+07        -0.49795E+08         0.00000E+00
    0.00000E+00         0.00000E+00        -0.47602E+08
 
   -0.47435E+08         0.11909E+07         0.00000E+00
    0.11909E+07        -0.49785E+08         0.00000E+00
    0.00000E+00         0.00000E+00        -0.47602E+08
 
   -0.47457E+08         0.12159E+07         0.00000E+00
    0.12159E+07        -0.49775E+08         0.00000E+00
    0.00000E+00         0.00000E+00        -0.47602E+08
 
   -0.47478E+08         0.12407E+07         0.00000E+00
    0.12407E+07        -0.49765E+08         0.00000E+00
    0.00000E+00         0.00000E+00        -0.47602E+08
 
   -0.47500E+08         0.12653E+07         0.00000E+00
    0.12653E+07        -0.49754E+08         0.00000E+00
    0.00000E+00         0.00000E+00        -0.47602E+08
 
   -0.47523E+08         0.12897E+07         0.00000E+00
    0.12897E+07        -0.49744E+08         0.00000E+00
    0.00000E+00         0.00000E+00        -0.47602E+08
 
   -0.47545E+08         0.13140E+07         0.00000E+00
    0.13140E+07        -0.49733E+08         0.00000E+00
    0.00000E+00         0.00000E+00        -0.47602E+08
 
   -0.47568E+08         0.13381E+07         0.00000E+00
    0.13381E+07        -0.49722E+08         0.00000E+00
    0.00000E+00         0.00000E+00        -0.47602E+08
 
   -0.47591E+08         0.13621E+07         0.00000E+00
    0.13621E+07        -0.49710E+08         0.00000E+00
    0.00000E+00         0.00000E+00        -0.47602E+08
 
   -0.46597E+08         0.16000E+05         0.00000E+00
    0.16000E+05        -0.50000E+08         0.00000E+00
    0.00000E+00         0.00000E+00        -0.47477E+08
 
   -0.46608E+08         0.47718E+05         0.00000E+00
    0.47718E+05        -0.50000E+08         0.00000E+00
    0.00000E+00         0.00000E+00        -0.47477E+08
 
   -0.46620E+08         0.79331E+05         0.00000E+00
    0.79331E+05        -0.49999E+08         0.00000E+00
    0.00000E+00         0.00000E+00        -0.47477E+08
 
   -0.46632E+08         0.11084E+06         0.00000E+00
    0.11084E+06        -0.49998E+08         0.00000E+00
    0.00000E+00         0.00000E+00        -0.47477E+08
 
   -0.46644E+08         0.14224E+06         0.00000E+00
    0.14224E+06        -0.49997E+08         0.00000E+00
    0.00000E+00         0.00000E+00        -0.47477E+08
 
   -0.46656E+08         0.17352E+06         0.00000E+00
    0.17352E+06        -0.49996E+08         0.00000E+00
    0.00000E+00         0.00000E+00        -0.47477E+08
 
   -0.46669E+08         0.20470E+06         0.00000E+00
    0.20470E+06        -0.49995E+08         0.00000E+00
    0.00000E+00         0.00000E+00        -0.47477E+08
 
   -0.46682E+08         0.23577E+06         0.00000E+00
    0.23577E+06        -0.49993E+08         0.00000E+00
    0.00000E+00         0.00000E+00        -0.47477E+08
 
   -0.46695E+08         0.26672E+06         0.00000E+00
    0.26672E+06        -0.49991E+08         0.00000E+00
    0.00000E+00         0.00000E+00        -0.47477E+08
 
   -0.46709E+08         0.29756E+06         0.00000E+00
    0.29756E+06        -0.49989E+08         0.00000E+00
    0.00000E+00         0.00000E+00        -0.47477E+08
 
   -0.46723E+08         0.32828E+06         0.00000E+00
    0.32828E+06        -0.49986E+08         0.00000E+00
    0.00000E+00         0.00000E+00        -0.47477E+08
 
   -0.46737E+08         0.35889E+06         0.00000E+00
    0.35889E+06        -0.49983E+08         0.00000E+00
    0.00000E+00         0.00000E+00        -0.47478E+08
 
   -0.46752E+08         0.38938E+06         0.00000E+00
    0.38938E+06        -0.49980E+08         0.00000E+00
    0.00000E+00         0.00000E+00        -0.47478E+08
 
   -0.46766E+08         0.41974E+06         0.00000E+00
    0.41974E+06        -0.49977E+08         0.00000E+00
    0.00000E+00         0.00000E+00        -0.47478E+08
 
   -0.46781E+08         0.44998E+06         0.00000E+00
    0.44998E+06        -0.49973E+08         0.00000E+00
    0.00000E+00         0.00000E+00        -0.47478E+08
 
   -0.46797E+08         0.48010E+06         0.00000E+00
    0.48010E+06        -0.49970E+08         0.00000E+00
    0.00000E+00         0.00000E+00        -0.47478E+08
 
   -0.46812E+08         0.51010E+06         0.00000E+00
    0.51010E+06        -0.49966E+08         0.00000E+00
    0.00000E+00         0.00000E+00        -0.47478E+08
 
   -0.46828E+08         0.53997E+06         0.00000E+00
    0.53997E+06        -0.49961E+08         0.00000E+00
    0.00000E+00         0.00000E+00        -0.47478E+08
 
   -0.46844E+08         0.56971E+06         0.00000E+00
    0.56971E+06        -0.49957E+08         0.00000E+00
    0.00000E+00         0.00000E+00        -0.47478E+08
 
   -0.46860E+08         0.59932E+06         0.00000E+00
    0.59932E+06        -0.49952E+08         0.00000E+00
    0.00000E+00         0.00000E+00        -0.47478E+08
 
   -0.46877E+08         0.62881E+06         0.00000E+00
    0.62881E+06        -0.49947E+08         0.00000E+00
    0.00000E+00         0.00000E+00        -0.47478E+08
 
   -0.46894E+08         0.65816E+06         0.00000E+00
    0.65816E+06        -0.49942E+08         0.00000E+00
    0.00000E+00         0.00000E+00        -0.47478E+08
 
   -0.46911E+08         0.68737E+06         0.00000E+00
    0.68737E+06        -0.49936E+08         0.00000E+00
    0.00000E+00         0.00000E+00        -0.47479E+08
 
   -0.46928E+08         0.71646E+06         0.00000E+00
    0.71646E+06        -0.49931E+08         0.00000E+00
    0.00000E+00         0.00000E+00        -0.47479E+08
 
   -0.46946E+08         0.74540E+06         0.00000E+00
    0.74540E+06        -0.49925E+08         0.00000E+00
    0.00000E+00         0.00000E+00        -0.47479E+08
 
   -0.46964E+08         0.77421E+06         0.00000E+00
    0.77421E+06        -0.49919E+08         0.00000E+00
    0.00000E+00         0.00000E+00        -0.47479E+08
 
   -0.46982E+08         0.80288E+06         0.00000E+00
    0.80288E+06        -0.49912E+08         0.00000E+00
    0.00000E+00         0.00000E+00        -0.47479E+08
 
   -0.47001E+08         0.83141E+06         0.00000E+00
    0.83141E+06        -0.49905E+08         0.00000E+00
    0.00000E+00         0.00000E+00        -0.47479E+08
 
   -0.47019E+08         0.85980E+06         0.00000E+00
    0.85980E+06        -0.49899E+08         0.00000E+00
    0.00000E+00         0.00000E+00        -0.47479E+08
 
   -0.47038E+08         0.88804E+06         0.00000E+00
    0.88804E+06        -0.49891E+08         0.00000E+00
    0.00000E+00         0.00000E+00        -0.47479E+08
 
   -0.47058E+08         0.91614E+06         0.00000E+00
    0.91614E+06        -0.49884E+08         0.00000E+00
    0.00000E+00         0.00000E+00        -0.47479E+08
 
   -0.47077E+08         0.94409E+06         0.00000E+00
    0.94409E+06        -0.49876E+08         0.00000E+00
    0.00000E+00         0.00000E+00        -0.47479E+08
 
   -0.47097E+08         0.97190E+06         0.00000E+00
    0.97190E+06        -0.49869E+08         0.00000E+00
    0.00000E+00         0.00000E+00        -0.47480E+08
 
   -0.47117E+08         0.99955E+06         0.00000E+00
    0.99955E+06        -0.49860E+08         0.00000E+00
    0.00000E+00         0.00000E+00        -0.47480E+08
 
   -0.47137E+08         0.10271E+07         0.00000E+00
    0.10271E+07        -0.49852E+08         0.00000E+00
    0.00000E+00         0.00000E+00        -0.47480E+08
 
   -0.47157E+08         0.10544E+07         0.00000E+00
    0.10544E+07        -0.49844E+08         0.00000E+00
    0.00000E+00         0.00000E+00        -0.47480E+08
 
   -0.47178E+08         0.10816E+07         0.00000E+00
    0.10816E+07        -0.49835E+08         0.00000E+00
    0.00000E+00         0.00000E+00        -0.47480E+08
 
   -0.47199E+08         0.11086E+07         0.00000E+00
    0.11086E+07        -0.49826E+08         0.00000E+00
    0.00000E+00         0.00000E+00        -0.47480E+08
 
   -0.47220E+08         0.11355E+07         0.00000E+00
    0.11355E+07        -0.49817E+08         0.00000E+00
    0.00000E+00         0.00000E+00        -0.47480E+08
 
   -0.47242E+08         0.11622E+07         0.00000E+00
    0.11622E+07        -0.49807E+08         0.00000E+00
    0.00000E+00         0.00000E+00        -0.47480E+08
 
   -0.47263E+08         0.11888E+07         0.00000E+00
    0.11888E+07        -0.49797E+08         0.00000E+00
    0.00000E+00         0.00000E+00        -0.47480E+08
 
   -0.47285E+08         0.12152E+07         0.00000E+00
    0.12152E+07        -0.49787E+08         0.00000E+00
    0.00000E+00         0.00000E+00        -0.47480E+08
 
   -0.47307E+08         0.12414E+07         0.00000E+00
    0.12414E+07        -0.49777E+08         0.00000E+00
    0.00000E+00         0.00000E+00        -0.47480E+08
 
   -0.47330E+08         0.12675E+07         0.00000E+00
    0.12675E+07        -0.49767E+08         0.00000E+00
    0.00000E+00         0.00000E+00        -0.47480E+08
 
   -0.47352E+08         0.12934E+07         0.00000E+00
    0.12934E+07        -0.49756E+08         0.00000E+00
    0.00000E+00         0.00000E+00        -0.47480E+08
 
   -0.47375E+08         0.13191E+07         0.00000E+00
    0.13191E+07        -0.49745E+08         0.00000E+00
    0.00000E+00         0.00000E+00        -0.47480E+08
 
   -0.47398E+08         0.13447E+07         0.00000E+00
    0.13447E+07        -0.49734E+08         0.00000E+00
    0.00000E+00         0.00000E+00        -0.47480E+08
 
   -0.47421E+08         0.13701E+07         0.00000E+00
    0.13701E+07        -0.49723E+08         0.00000E+00
    0.00000E+00         0.00000E+00        -0.47480E+08
 
   -0.47445E+08         0.13953E+07         0.00000E+00
    0.13953E+07        -0.49711E+08         0.00000E+00
    0.00000E+00         0.00000E+00        -0.47480E+08
 
   -0.47469E+08         0.14203E+07         0.00000E+00
    0.14203E+07        -0.49700E+08         0.00000E+00
    0.00000E+00         0.00000E+00        -0.47480E+08
 
   -0.46435E+08         0.16655E+05         0.00000E+00
    0.16655E+05        -0.50000E+08         0.00000E+00
    0.00000E+00         0.00000E+00        -0.47350E+08
 
   -0.46447E+08         0.49670E+05         0.00000E+00
    0.49670E+05        -0.50000E+08         0.00000E+00
    0.00000E+00         0.00000E+00        -0.47350E+08
 
   -0.46459E+08         0.82578E+05         0.00000E+00
    0.82578E+05        -0.49999E+08         0.00000E+00
    0.00000E+00         0.00000E+00        -0.47350E+08
 
   -0.46471E+08         0.11538E+06         0.00000E+00
    0.11538E+06        -0.49998E+08         0.00000E+00
    0.00000E+00         0.00000E+00        -0.47350E+08
 
   -0.46484E+08         0.14806E+06         0.00000E+00
    0.14806E+06        -0.49997E+08         0.00000E+00
    0.00000E+00         0.00000E+00        -0.47350E+08
 
   -0.46497E+08         0.18064E+06         0.00000E+00
    0.18064E+06        -0.49996E+08         0.00000E+00
    0.00000E+00         0.00000E+00        -0.47350E+08
 
   -0.46510E+08         0.21309E+06         0.00000E+00
    0.21309E+06        -0.49994E+08         0.00000E+00
    0.00000E+00         0.00000E+00        -0.47350E+08
 
   -0.46524E+08         0.24544E+06         0.00000E+00
    0.24544E+06        -0.49993E+08         0.00000E+00
    0.00000E+00         0.00000E+00        -0.47350E+08
 
   -0.46538E+08         0.27767E+06         0.00000E+00
    0.27767E+06        -0.49990E+08         0.00000E+00
    0.00000E+00         0.00000E+00        -0.47350E+08
 
   -0.46552E+08         0.30978E+06         0.00000E+00
    0.30978E+06        -0.49988E+08         0.00000E+00
    0.00000E+00         0.00000E+00        -0.47350E+08
 
   -0.46566E+08         0.34177E+06         0.00000E+00
    0.34177E+06        -0.49986E+08         0.00000E+00
    0.00000E+00         0.00000E+00        -0.47350E+08
 
   -0.46581E+08         0.37363E+06         0.00000E+00
    0.37363E+06        -0.49983E+08         0.00000E+00
    0.00000E+00         0.00000E+00        -0.47351E+08
 
   -0.46596E+08         0.40538E+06         0.00000E+00
    0.40538E+06        -0.49980E+08         0.00000E+00
    0.00000E+00         0.00000E+00        -0.47351E+08
 
   -0.46612E+08         0.43700E+06         0.00000E+00
    0.43700E+06        -0.49976E+08         0.00000E+00
    0.00000E+00         0.00000E+00        -0.47351E+08
 
   -0.46627E+08         0.46850E+06         0.00000E+00
    0.46850E+06        -0.49972E+08         0.00000E+00
    0.00000E+00         0.00000E+00        -0.47351E+08
 
   -0.46643E+08         0.49987E+06         0.00000E+00
    0.49987E+06        -0.49969E+08         0.00000E+00
    0.00000E+00         0.00000E+00        -0.47351E+08
 
   -0.46659E+08         0.53112E+06         0.00000E+00
    0.53112E+06        -0.49964E+08         0.00000E+00
    0.00000E+00         0.00000E+00        -0.47351E+08
 
   -0.46676E+08         0.56223E+06         0.00000E+00
    0.56223E+06        -0.49960E+08         0.00000E+00
    0.00000E+00         0.00000E+00        -0.47351E+08
 
   -0.46693E+08         0.59322E+06         0.00000E+00
    0.59322E+06        -0.49955E+08         0.00000E+00
    0.00000E+00         0.00000E+00        -0.47351E+08
 
   -0.46710E+08         0.62407E+06         0.00000E+00
    0.62407E+06        -0.49950E+08         0.00000E+00
    0.00000E+00         0.00000E+00        -0.47351E+08
 
   -0.46727E+08         0.65479E+06         0.00000E+00
    0.65479E+06        -0.49945E+08         0.00000E+00
    0.00000E+00         0.00000E+00        -0.47351E+08
 
   -0.46744E+08         0.68537E+06         0.00000E+00
    0.68537E+06        -0.49940E+08         0.00000E+00
    0.00000E+00         0.00000E+00        -0.47351E+08
 
   -0.46762E+08         0.71582E+06         0.00000E+00
    0.71582E+06        -0.49934E+08         0.00000E+00
    0.00000E+00         0.00000E+00        -0.47352E+08
 
   -0.46780E+08         0.74613E+06         0.00000E+00
    0.74613E+06        -0.49928E+08         0.00000E+00
    0.00000E+00         0.00000E+00        -0.47352E+08
 
   -0.46799E+08         0.77630E+06         0.00000E+00
    0.77630E+06        -0.49922E+08         0.00000E+00
    0.00000E+00         0.00000E+00        -0.47352E+08
 
   -0.46817E+08         0.80633E+06         0.00000E+00
    0.80633E+06        -0.49916E+08         0.00000E+00
    0.00000E+00         0.00000E+00        -0.47352E+08
 
   -0.46836E+08         0.83621E+06         0.00000E+00
    0.83621E+06        -0.49909E+08         0.00000E+00
    0.00000E+00         0.00000E+00        -0.47352E+08
 
   -0.46855E+08         0.86596E+06         0.00000E+00
    0.86596E+06        -0.49902E+08         0.00000E+00
    0.00000E+00         0.00000E+00        -0.47352E+08
 
   -0.46875E+08         0.89556E+06         0.00000E+00
    0.89556E+06        -0.49895E+08         0.00000E+00
    0.00000E+00         0.00000E+00        -0.47352E+08
 
   -0.46894E+08         0.92501E+06         0.00000E+00
    0.92501E+06        -0.49888E+08         0.00000E+00
    0.00000E+00         0.00000E+00        -0.47352E+08
 
   -0.46914E+08         0.95431E+06         0.00000E+00
    0.95431E+06        -0.49880E+08         0.00000E+00
    0.00000E+00         0.00000E+00        -0.47352E+08
 
   -0.46935E+08         0.98347E+06         0.00000E+00
    0.98347E+06        -0.49872E+08         0.00000E+00
    0.00000E+00         0.00000E+00        -0.47352E+08
 
   -0.46955E+08         0.10125E+07         0.00000E+00
    0.10125E+07        -0.49864E+08         0.00000E+00
    0.00000E+00         0.00000E+00        -0.47352E+08
 
   -0.46976E+08         0.10413E+07         0.00000E+00
    0.10413E+07        -0.49856E+08         0.00000E+00
    0.00000E+00         0.00000E+00        -0.47353E+08
 
   -0.46997E+08         0.10700E+07         0.00000E+00
    0.10700E+07        -0.49847E+08         0.00000E+00
    0.00000E+00         0.00000E+00        -0.47353E+08
 
   -0.47018E+08         0.10986E+07         0.00000E+00
    0.10986E+07        -0.49838E+08         0.00000E+00
    0.00000E+00         0.00000E+00        -0.47353E+08
 
   -0.47039E+08         0.11269E+07         0.00000E+00
    0.11269E+07        -0.49829E+08         0.00000E+00
    0.00000E+00         0.00000E+00        -0.47353E+08
 
   -0.47061E+08         0.11552E+07         0.00000E+00
    0.11552E+07        -0.49820E+08         0.00000E+00
    0.00000E+00         0.00000E+00        -0.47353E+08
 
   -0.47083E+08         0.11832E+07         0.00000E+00
    0.11832E+07        -0.49810E+08         0.00000E+00
    0.00000E+00         0.00000E+00        -0.47353E+08
 
   -0.47105E+08         0.12111E+07         0.00000E+00
    0.12111E+07        -0.49800E+08         0.00000E+00
    0.00000E+00         0.00000E+00        -0.47353E+08
 
   -0.47128E+08         0.12388E+07         0.00000E+00
    0.12388E+07        -0.49790E+08         0.00000E+00
    0.00000E+00         0.00000E+00        -0.47353E+08
 
   -0.47151E+08         0.12664E+07         0.00000E+00
    0.12664E+07        -0.49780E+08         0.00000E+00
    0.00000E+00         0.00000E+00        -0.47353E+08
 
   -0.47174E+08         0.12938E+07         0.00000E+00
    0.12938E+07        -0.49769E+08         0.00000E+00
    0.00000E+00         0.00000E+00        -0.47353E+08
 
   -0.47197E+08         0.13210E+07         0.00000E+00
    0.13210E+07        -0.49759E+08         0.00000E+00
    0.00000E+00         0.00000E+00        -0.47353E+08
 
   -0.47220E+08         0.13481E+07         0.00000E+00
    0.13481E+07        -0.49748E+08         0.00000E+00
    0.00000E+00         0.00000E+00        -0.47353E+08
 
   -0.47244E+08         0.13750E+07         0.00000E+00
    0.13750E+07        -0.49736E+08         0.00000E+00
    0.00000E+00         0.00000E+00        -0.47353E+08
 
   -0.47268E+08         0.14017E+07         0.00000E+00
    0.14017E+07        -0.49725E+08         0.00000E+00
    0.00000E+00         0.00000E+00        -0.47353E+08
 
   -0.47292E+08         0.14282E+07         0.00000E+00
    0.14282E+07        -0.49713E+08         0.00000E+00
    0.00000E+00         0.00000E+00        -0.47353E+08
 
   -0.47316E+08         0.14546E+07         0.00000E+00
    0.14546E+07        -0.49701E+08         0.00000E+00
    0.00000E+00         0.00000E+00        -0.47353E+08
 
   -0.47341E+08         0.14808E+07         0.00000E+00
    0.14808E+07        -0.49689E+08         0.00000E+00
    0.00000E+00         0.00000E+00        -0.47353E+08
 
   -0.46266E+08         0.17331E+05         0.00000E+00
    0.17331E+05        -0.50000E+08         0.00000E+00
    0.00000E+00         0.00000E+00        -0.47217E+08
 
   -0.46279E+08         0.51688E+05         0.00000E+00
    0.51688E+05        -0.50000E+08         0.00000E+00
    0.00000E+00         0.00000E+00        -0.47217E+08
 
   -0.46291E+08         0.85934E+05         0.00000E+00
    0.85934E+05        -0.49999E+08         0.00000E+00
    0.00000E+00         0.00000E+00        -0.47217E+08
 
   -0.46304E+08         0.12007E+06         0.00000E+00
    0.12007E+06        -0.49998E+08         0.00000E+00
    0.00000E+00         0.00000E+00        -0.47217E+08
 
   -0.46318E+08         0.15408E+06         0.00000E+00
    0.15408E+06        -0.49997E+08         0.00000E+00
    0.00000E+00         0.00000E+00        -0.47217E+08
 
   -0.46331E+08         0.18798E+06         0.00000E+00
    0.18798E+06        -0.49996E+08         0.00000E+00
    0.00000E+00         0.00000E+00        -0.47217E+08
 
   -0.46345E+08         0.22177E+06         0.00000E+00
    0.22177E+06        -0.49994E+08         0.00000E+00
    0.00000E+00         0.00000E+00        -0.47217E+08
 
   -0.46359E+08         0.25543E+06         0.00000E+00
    0.25543E+06        -0.49992E+08         0.00000E+00
    0.00000E+00         0.00000E+00        -0.47218E+08
 
   -0.46374E+08         0.28898E+06         0.00000E+00
    0.28898E+06        -0.49990E+08         0.00000E+00
    0.00000E+00         0.00000E+00        -0.47218E+08
 
   -0.46388E+08         0.32240E+06         0.00000E+00
    0.32240E+06        -0.49988E+08         0.00000E+00
    0.00000E+00         0.00000E+00        -0.47218E+08
 
   -0.46404E+08         0.35570E+06         0.00000E+00
    0.35570E+06        -0.49985E+08         0.00000E+00
    0.00000E+00         0.00000E+00        -0.47218E+08
 
   -0.46419E+08         0.38888E+06         0.00000E+00
    0.38888E+06        -0.49982E+08         0.00000E+00
    0.00000E+00         0.00000E+00        -0.47218E+08
 
   -0.46435E+08         0.42193E+06         0.00000E+00
    0.42193E+06        -0.49979E+08         0.00000E+00
    0.00000E+00         0.00000E+00        -0.47218E+08
 
   -0.46451E+08         0.45485E+06         0.00000E+00
    0.45485E+06        -0.49975E+08         0.00000E+00
    0.00000E+00         0.00000E+00        -0.47218E+08
 
   -0.46467E+08         0.48765E+06         0.00000E+00
    0.48765E+06        -0.49972E+08         0.00000E+00
    0.00000E+00         0.00000E+00        -0.47218E+08
 
   -0.46483E+08         0.52032E+06         0.00000E+00
    0.52032E+06        -0.49968E+08         0.00000E+00
    0.00000E+00         0.00000E+00        -0.47218E+08
 
   -0.46500E+08         0.55285E+06         0.00000E+00
    0.55285E+06        -0.49963E+08         0.00000E+00
    0.00000E+00         0.00000E+00        -0.47218E+08
 
   -0.46517E+08         0.58526E+06         0.00000E+00
    0.58526E+06        -0.49959E+08         0.00000E+00
    0.00000E+00         0.00000E+00        -0.47218E+08
 
   -0.46535E+08         0.61753E+06         0.00000E+00
    0.61753E+06        -0.49954E+08         0.00000E+00
    0.00000E+00         0.00000E+00        -0.47218E+08
 
   -0.46552E+08         0.64966E+06         0.00000E+00
    0.64966E+06        -0.49949E+08         0.00000E+00
    0.00000E+00         0.00000E+00        -0.47218E+08
 
   -0.46570E+08         0.68166E+06         0.00000E+00
    0.68166E+06        -0.49943E+08         0.00000E+00
    0.00000E+00         0.00000E+00        -0.47219E+08
 
   -0.46589E+08         0.71352E+06         0.00000E+00
    0.71352E+06        -0.49938E+08         0.00000E+00
    0.00000E+00         0.00000E+00        -0.47219E+08
 
   -0.46607E+08         0.74524E+06         0.00000E+00
    0.74524E+06        -0.49932E+08         0.00000E+00
    0.00000E+00         0.00000E+00        -0.47219E+08
 
   -0.46626E+08         0.77682E+06         0.00000E+00
    0.77682E+06        -0.49926E+08         0.00000E+00
    0.00000E+00         0.00000E+00        -0.47219E+08
 
   -0.46645E+08         0.80826E+06         0.00000E+00
    0.80826E+06        -0.49920E+08         0.00000E+00
    0.00000E+00         0.00000E+00        -0.47219E+08
 
   -0.46664E+08         0.83956E+06         0.00000E+00
    0.83956E+06        -0.49913E+08         0.00000E+00
    0.00000E+00         0.00000E+00        -0.47219E+08
 
   -0.46684E+08         0.87071E+06         0.00000E+00
    0.87071E+06        -0.49906E+08         0.00000E+00
    0.00000E+00         0.00000E+00        -0.47219E+08
 
   -0.46704E+08         0.90171E+06         0.00000E+00
    0.90171E+06        -0.49899E+08         0.00000E+00
    0.00000E+00         0.00000E+00        -0.47219E+08
 
   -0.46724E+08         0.93257E+06         0.00000E+00
    0.93257E+06        -0.49891E+08         0.00000E+00
    0.00000E+00         0.00000E+00        -0.47219E+08
 
   -0.46744E+08         0.96327E+06         0.00000E+00
    0.96327E+06        -0.49884E+08         0.00000E+00
    0.00000E+00         0.00000E+00        -0.47219E+08
 
   -0.46765E+08         0.99383E+06         0.00000E+00
    0.99383E+06        -0.49876E+08         0.00000E+00
    0.00000E+00         0.00000E+00        -0.47219E+08
 
   -0.46786E+08         0.10242E+07         0.00000E+00
    0.10242E+07        -0.49868E+08         0.00000E+00
    0.00000E+00         0.00000E+00        -0.47220E+08
 
   -0.46807E+08         0.10545E+07         0.00000E+00
    0.10545E+07        -0.49859E+08         0.00000E+00
    0.00000E+00         0.00000E+00        -0.47220E+08
 
   -0.46829E+08         0.10846E+07         0.00000E+00
    0.10846E+07        -0.49851E+08         0.00000E+00
    0.00000E+00         0.00000E+00        -0.47220E+08
 
   -0.46851E+08         0.11145E+07         0.00000E+00
    0.11145E+07        -0.49842E+08         0.00000E+00
    0.00000E+00         0.00000E+00        -0.47220E+08
 
   -0.46873E+08         0.11443E+07         0.00000E+00
    0.11443E+07        -0.49833E+08         0.00000E+00
    0.00000E+00         0.00000E+00        -0.47220E+08
 
   -0.46895E+08         0.11739E+07         0.00000E+00
    0.11739E+07        -0.49823E+08         0.00000E+00
    0.00000E+00         0.00000E+00        -0.47220E+08
 
   -0.46917E+08         0.12033E+07         0.00000E+00
    0.12033E+07        -0.49813E+08         0.00000E+00
    0.00000E+00         0.00000E+00        -0.47220E+08
 
   -0.46940E+08         0.12326E+07         0.00000E+00
    0.12326E+07        -0.49804E+08         0.00000E+00
    0.00000E+00         0.00000E+00        -0.47220E+08
 
   -0.46963E+08         0.12618E+07         0.00000E+00
    0.12618E+07        -0.49793E+08         0.00000E+00
    0.00000E+00         0.00000E+00        -0.47220E+08
 
   -0.46987E+08         0.12907E+07         0.00000E+00
    0.12907E+07        -0.49783E+08         0.00000E+00
    0.00000E+00         0.00000E+00        -0.47220E+08
 
   -0.47010E+08         0.13195E+07         0.00000E+00
    0.13195E+07        -0.49772E+08         0.00000E+00
    0.00000E+00         0.00000E+00        -0.47220E+08
 
   -0.47034E+08         0.13481E+07         0.00000E+00
    0.13481E+07        -0.49761E+08         0.00000E+00
    0.00000E+00         0.00000E+00        -0.47220E+08
 
   -0.47058E+08         0.13766E+07         0.00000E+00
    0.13766E+07        -0.49750E+08         0.00000E+00
    0.00000E+00         0.00000E+00        -0.47220E+08
 
   -0.47082E+08         0.14048E+07         0.00000E+00
    0.14048E+07        -0.49739E+08         0.00000E+00
    0.00000E+00         0.00000E+00        -0.47220E+08
 
   -0.47107E+08         0.14329E+07         0.00000E+00
    0.14329E+07        -0.49727E+08         0.00000E+00
    0.00000E+00         0.00000E+00        -0.47220E+08
 
   -0.47132E+08         0.14608E+07         0.00000E+00
    0.14608E+07        -0.49715E+08         0.00000E+00
    0.00000E+00         0.00000E+00        -0.47220E+08
 
   -0.47157E+08         0.14886E+07         0.00000E+00
    0.14886E+07        -0.49703E+08         0.00000E+00
    0.00000E+00         0.00000E+00        -0.47220E+08
 
   -0.47182E+08         0.15161E+07         0.00000E+00
    0.15161E+07        -0.49691E+08         0.00000E+00
    0.00000E+00         0.00000E+00        -0.47220E+08
 
   -0.47208E+08         0.15435E+07         0.00000E+00
    0.15435E+07        -0.49678E+08         0.00000E+00
    0.00000E+00         0.00000E+00        -0.47220E+08
 
   -0.46091E+08         0.18029E+05         0.00000E+00
    0.18029E+05        -0.50000E+08         0.00000E+00
    0.00000E+00         0.00000E+00        -0.47079E+08
 
   -0.46104E+08         0.53772E+05         0.00000E+00
    0.53772E+05        -0.50000E+08         0.00000E+00
    0.00000E+00         0.00000E+00        -0.47079E+08
 
   -0.46117E+08         0.89400E+05         0.00000E+00
    0.89400E+05        -0.49999E+08         0.00000E+00
    0.00000E+00         0.00000E+00        -0.47079E+08
 
   -0.46130E+08         0.12491E+06         0.00000E+00
    0.12491E+06        -0.49998E+08         0.00000E+00
    0.00000E+00         0.00000E+00        -0.47079E+08
 
   -0.46144E+08         0.16030E+06         0.00000E+00
    0.16030E+06        -0.49997E+08         0.00000E+00
    0.00000E+00         0.00000E+00        -0.47079E+08
 
   -0.46159E+08         0.19558E+06         0.00000E+00
    0.19558E+06        -0.49996E+08         0.00000E+00
    0.00000E+00         0.00000E+00        -0.47079E+08
 
   -0.46173E+08         0.23073E+06         0.00000E+00
    0.23073E+06        -0.49994E+08         0.00000E+00
    0.00000E+00         0.00000E+00        -0.47079E+08
 
   -0.46188E+08         0.26576E+06         0.00000E+00
    0.26576E+06        -0.49992E+08         0.00000E+00
    0.00000E+00         0.00000E+00        -0.47079E+08
 
   -0.46203E+08         0.30066E+06         0.00000E+00
    0.30066E+06        -0.49990E+08         0.00000E+00
    0.00000E+00         0.00000E+00        -0.47079E+08
 
   -0.46218E+08         0.33544E+06         0.00000E+00
    0.33544E+06        -0.49987E+08         0.00000E+00
    0.00000E+00         0.00000E+00        -0.47079E+08
 
   -0.46234E+08         0.37010E+06         0.00000E+00
    0.37010E+06        -0.49985E+08         0.00000E+00
    0.00000E+00         0.00000E+00        -0.47079E+08
 
   -0.46250E+08         0.40463E+06         0.00000E+00
    0.40463E+06        -0.49981E+08         0.00000E+00
    0.00000E+00         0.00000E+00        -0.47079E+08
 
   -0.46266E+08         0.43903E+06         0.00000E+00
    0.43903E+06        -0.49978E+08         0.00000E+00
    0.00000E+00         0.00000E+00        -0.47079E+08
 
   -0.46283E+08         0.47330E+06         0.00000E+00
    0.47330E+06        -0.49975E+08         0.00000E+00
    0.00000E+00         0.00000E+00        -0.47079E+08
 
   -0.46300E+08         0.50743E+06         0.00000E+00
    0.50743E+06        -0.49971E+08         0.00000E+00
    0.00000E+00         0.00000E+00        -0.47079E+08
 
   -0.46317E+08         0.54144E+06         0.00000E+00
    0.54144E+06        -0.49966E+08         0.00000E+00
    0.00000E+00         0.00000E+00        -0.47079E+08
 
   -0.46335E+08         0.57531E+06         0.00000E+00
    0.57531E+06        -0.49962E+08         0.00000E+00
    0.00000E+00         0.00000E+00        -0.47079E+08
 
   -0.46352E+08         0.60905E+06         0.00000E+00
    0.60905E+06        -0.49957E+08         0.00000E+00
    0.00000E+00         0.00000E+00        -0.47079E+08
 
   -0.46370E+08         0.64265E+06         0.00000E+00
    0.64265E+06        -0.49952E+08         0.00000E+00
    0.00000E+00         0.00000E+00        -0.47080E+08
 
   -0.46389E+08         0.67611E+06         0.00000E+00
    0.67611E+06        -0.49947E+08         0.00000E+00
    0.00000E+00         0.00000E+00        -0.47080E+08
 
   -0.46407E+08         0.70944E+06         0.00000E+00
    0.70944E+06        -0.49942E+08         0.00000E+00
    0.00000E+00         0.00000E+00        -0.47080E+08
 
   -0.46426E+08         0.74262E+06         0.00000E+00
    0.74262E+06        -0.49936E+08         0.00000E+00
    0.00000E+00         0.00000E+00        -0.47080E+08
 
   -0.46446E+08         0.77566E+06         0.00000E+00
    0.77566E+06        -0.49930E+08         0.00000E+00
    0.00000E+00         0.00000E+00        -0.47080E+08
 
   -0.46465E+08         0.80856E+06         0.00000E+00
    0.80856E+06        -0.49923E+08         0.00000E+00
    0.00000E+00         0.00000E+00        -0.47080E+08
 
   -0.46485E+08         0.84131E+06         0.00000E+00
    0.84131E+06        -0.49917E+08         0.00000E+00
    0.00000E+00         0.00000E+00        -0.47080E+08
 
   -0.46505E+08         0.87392E+06         0.00000E+00
    0.87392E+06        -0.49910E+08         0.00000E+00
    0.00000E+00         0.00000E+00        -0.47080E+08
 
   -0.46525E+08         0.90638E+06         0.00000E+00
    0.90638E+06        -0.49903E+08         0.00000E+00
    0.00000E+00         0.00000E+00        -0.47080E+08
 
   -0.46546E+08         0.93869E+06         0.00000E+00
    0.93869E+06        -0.49896E+08         0.00000E+00
    0.00000E+00         0.00000E+00        -0.47080E+08
 
   -0.46567E+08         0.97085E+06         0.00000E+00
    0.97085E+06        -0.49888E+08         0.00000E+00
    0.00000E+00         0.00000E+00        -0.47080E+08
 
   -0.46588E+08         0.10029E+07         0.00000E+00
    0.10029E+07        -0.49880E+08         0.00000E+00
    0.00000E+00         0.00000E+00        -0.47080E+08
 
   -0.46610E+08         0.10347E+07         0.00000E+00
    0.10347E+07        -0.49872E+08         0.00000E+00
    0.00000E+00         0.00000E+00        -0.47081E+08
 
   -0.46631E+08         0.10664E+07         0.00000E+00
    0.10664E+07        -0.49863E+08         0.00000E+00
    0.00000E+00         0.00000E+00        -0.47081E+08
 
   -0.46653E+08         0.10979E+07         0.00000E+00
    0.10979E+07        -0.49855E+08         0.00000E+00
    0.00000E+00         0.00000E+00        -0.47081E+08
 
   -0.46676E+08         0.11293E+07         0.00000E+00
    0.11293E+07        -0.49846E+08         0.00000E+00
    0.00000E+00         0.00000E+00        -0.47081E+08
 
   -0.46698E+08         0.11606E+07         0.00000E+00
    0.11606E+07        -0.49836E+08         0.00000E+00
    0.00000E+00         0.00000E+00        -0.47081E+08
 
   -0.46721E+08         0.11916E+07         0.00000E+00
    0.11916E+07        -0.49827E+08         0.00000E+00
    0.00000E+00         0.00000E+00        -0.47081E+08
 
   -0.46744E+08         0.12225E+07         0.00000E+00
    0.12225E+07        -0.49817E+08         0.00000E+00
    0.00000E+00         0.00000E+00        -0.47081E+08
 
   -0.46767E+08         0.12532E+07         0.00000E+00
    0.12532E+07        -0.49807E+08         0.00000E+00
    0.00000E+00         0.00000E+00        -0.47081E+08
 
   -0.46791E+08         0.12838E+07         0.00000E+00
    0.12838E+07        -0.49797E+08         0.00000E+00
    0.00000E+00         0.00000E+00        -0.47081E+08
 
   -0.46815E+08         0.13142E+07         0.00000E+00
    0.13142E+07        -0.49786E+08         0.00000E+00
    0.00000E+00         0.00000E+00        -0.47081E+08
 
   -0.46839E+08         0.13444E+07         0.00000E+00
    0.13444E+07        -0.49776E+08         0.00000E+00
    0.00000E+00         0.00000E+00        -0.47081E+08
 
   -0.46863E+08         0.13745E+07         0.00000E+00
    0.13745E+07        -0.49764E+08         0.00000E+00
    0.00000E+00         0.00000E+00        -0.47081E+08
 
   -0.46888E+08         0.14044E+07         0.00000E+00
    0.14044E+07        -0.49753E+08         0.00000E+00
    0.00000E+00         0.00000E+00        -0.47081E+08
 
   -0.46913E+08         0.14341E+07         0.00000E+00
    0.14341E+07        -0.49742E+08         0.00000E+00
    0.00000E+00         0.00000E+00        -0.47081E+08
 
   -0.46938E+08         0.14636E+07         0.00000E+00
    0.14636E+07        -0.49730E+08         0.00000E+00
    0.00000E+00         0.00000E+00        -0.47081E+08
 
   -0.46964E+08         0.14929E+07         0.00000E+00
    0.14929E+07        -0.49718E+08         0.00000E+00
    0.00000E+00         0.00000E+00        -0.47081E+08
 
   -0.46989E+08         0.15221E+07         0.00000E+00
    0.15221E+07        -0.49705E+08         0.00000E+00
    0.00000E+00         0.00000E+00        -0.47081E+08
 
   -0.47015E+08         0.15511E+07         0.00000E+00
    0.15511E+07        -0.49693E+08         0.00000E+00
    0.00000E+00         0.00000E+00        -0.47081E+08
 
   -0.47042E+08         0.15799E+07         0.00000E+00
    0.15799E+07        -0.49680E+08         0.00000E+00
    0.00000E+00         0.00000E+00        -0.47081E+08
 
   -0.47068E+08         0.16085E+07         0.00000E+00
    0.16085E+07        -0.49667E+08         0.00000E+00
    0.00000E+00         0.00000E+00        -0.47081E+08
 
   -0.45908E+08         0.18749E+05         0.00000E+00
    0.18749E+05        -0.50000E+08         0.00000E+00
    0.00000E+00         0.00000E+00        -0.46933E+08
 
   -0.45922E+08         0.55922E+05         0.00000E+00
    0.55922E+05        -0.50000E+08         0.00000E+00
    0.00000E+00         0.00000E+00        -0.46933E+08
 
   -0.45936E+08         0.92976E+05         0.00000E+00
    0.92976E+05        -0.49999E+08         0.00000E+00
    0.00000E+00         0.00000E+00        -0.46933E+08
 
   -0.45950E+08         0.12991E+06         0.00000E+00
    0.12991E+06        -0.49998E+08         0.00000E+00
    0.00000E+00         0.00000E+00        -0.46933E+08
 
   -0.45964E+08         0.16672E+06         0.00000E+00
    0.16672E+06        -0.49997E+08         0.00000E+00
    0.00000E+00         0.00000E+00        -0.46933E+08
 
   -0.45979E+08         0.20341E+06         0.00000E+00
    0.20341E+06        -0.49996E+08         0.00000E+00
    0.00000E+00         0.00000E+00        -0.46934E+08
 
   -0.45994E+08         0.23997E+06         0.00000E+00
    0.23997E+06        -0.49994E+08         0.00000E+00
    0.00000E+00         0.00000E+00        -0.46934E+08
 
   -0.46009E+08         0.27641E+06         0.00000E+00
    0.27641E+06        -0.49992E+08         0.00000E+00
    0.00000E+00         0.00000E+00        -0.46934E+08
 
   -0.46025E+08         0.31272E+06         0.00000E+00
    0.31272E+06        -0.49990E+08         0.00000E+00
    0.00000E+00         0.00000E+00        -0.46934E+08
 
   -0.46041E+08         0.34890E+06         0.00000E+00
    0.34890E+06        -0.49987E+08         0.00000E+00
    0.00000E+00         0.00000E+00        -0.46934E+08
 
   -0.46058E+08         0.38496E+06         0.00000E+00
    0.38496E+06        -0.49984E+08         0.00000E+00
    0.00000E+00         0.00000E+00        -0.46934E+08
 
   -0.46074E+08         0.42088E+06         0.00000E+00
    0.42088E+06        -0.49981E+08         0.00000E+00
    0.00000E+00         0.00000E+00        -0.46934E+08
 
   -0.46091E+08         0.45667E+06         0.00000E+00
    0.45667E+06        -0.49977E+08         0.00000E+00
    0.00000E+00         0.00000E+00        -0.46934E+08
 
   -0.46108E+08         0.49233E+06         0.00000E+00
    0.49233E+06        -0.49974E+08         0.00000E+00
    0.00000E+00         0.00000E+00        -0.46934E+08
 
   -0.46126E+08         0.52786E+06         0.00000E+00
    0.52786E+06        -0.49970E+08         0.00000E+00
    0.00000E+00         0.00000E+00        -0.46934E+08
 
   -0.46144E+08         0.56325E+06         0.00000E+00
    0.56325E+06        -0.49965E+08         0.00000E+00
    0.00000E+00         0.00000E+00        -0.46934E+08
 
   -0.46162E+08         0.59850E+06         0.00000E+00
    0.59850E+06        -0.49961E+08         0.00000E+00
    0.00000E+00         0.00000E+00        -0.46934E+08
 
   -0.46181E+08         0.63361E+06         0.00000E+00
    0.63361E+06        -0.49956E+08         0.00000E+00
    0.00000E+00         0.00000E+00        -0.46934E+08
 
   -0.46199E+08         0.66859E+06         0.00000E+00
    0.66859E+06        -0.49951E+08         0.00000E+00
    0.00000E+00         0.00000E+00        -0.46934E+08
 
   -0.46218E+08         0.70343E+06         0.00000E+00
    0.70343E+06        -0.49945E+08         0.00000E+00
    0.00000E+00         0.00000E+00        -0.46934E+08
 
   -0.46238E+08         0.73812E+06         0.00000E+00
    0.73812E+06        -0.49940E+08         0.00000E+00
    0.00000E+00         0.00000E+00        -0.46934E+08
 
   -0.46257E+08         0.77267E+06         0.00000E+00
    0.77267E+06        -0.49934E+08         0.00000E+00
    0.00000E+00         0.00000E+00        -0.46935E+08
 
   -0.46277E+08         0.80708E+06         0.00000E+00
    0.80708E+06        -0.49928E+08         0.00000E+00
    0.00000E+00         0.00000E+00        -0.46935E+08
 
   -0.46298E+08         0.84134E+06         0.00000E+00
    0.84134E+06        -0.49921E+08         0.00000E+00
    0.00000E+00         0.00000E+00        -0.46935E+08
 
   -0.46318E+08         0.87545E+06         0.00000E+00
    0.87545E+06        -0.49914E+08         0.00000E+00
    0.00000E+00         0.00000E+00        -0.46935E+08
 
   -0.46339E+08         0.90942E+06         0.00000E+00
    0.90942E+06        -0.49907E+08         0.00000E+00
    0.00000E+00         0.00000E+00        -0.46935E+08
 
   -0.46360E+08         0.94323E+06         0.00000E+00
    0.94323E+06        -0.49900E+08         0.00000E+00
    0.00000E+00         0.00000E+00        -0.46935E+08
 
   -0.46381E+08         0.97690E+06         0.00000E+00
    0.97690E+06        -0.49892E+08         0.00000E+00
    0.00000E+00         0.00000E+00        -0.46935E+08
 
   -0.46403E+08         0.10104E+07         0.00000E+00
    0.10104E+07        -0.49884E+08         0.00000E+00
    0.00000E+00         0.00000E+00        -0.46935E+08
 
   -0.46425E+08         0.10438E+07         0.00000E+00
    0.10438E+07        -0.49876E+08         0.00000E+00
    0.00000E+00         0.00000E+00        -0.46935E+08
 
   -0.46447E+08         0.10770E+07         0.00000E+00
    0.10770E+07        -0.49868E+08         0.00000E+00
    0.00000E+00         0.00000E+00        -0.46935E+08
 
   -0.46470E+08         0.11100E+07         0.00000E+00
    0.11100E+07        -0.49859E+08         0.00000E+00
    0.00000E+00         0.00000E+00        -0.46935E+08
 
   -0.46493E+08         0.11429E+07         0.00000E+00
    0.11429E+07        -0.49850E+08         0.00000E+00
    0.00000E+00         0.00000E+00        -0.46935E+08
 
   -0.46516E+08         0.11756E+07         0.00000E+00
    0.11756E+07        -0.49841E+08         0.00000E+00
    0.00000E+00         0.00000E+00        -0.46935E+08
 
   -0.46539E+08         0.12082E+07         0.00000E+00
    0.12082E+07        -0.49831E+08         0.00000E+00
    0.00000E+00         0.00000E+00        -0.46936E+08
 
   -0.46563E+08         0.12406E+07         0.00000E+00
    0.12406E+07        -0.49821E+08         0.00000E+00
    0.00000E+00         0.00000E+00        -0.46936E+08
 
   -0.46587E+08         0.12728E+07         0.00000E+00
    0.12728E+07        -0.49811E+08         0.00000E+00
    0.00000E+00         0.00000E+00        -0.46936E+08
 
   -0.46611E+08         0.13049E+07         0.00000E+00
    0.13049E+07        -0.49801E+08         0.00000E+00
    0.00000E+00         0.00000E+00        -0.46936E+08
 
   -0.46635E+08         0.13367E+07         0.00000E+00
    0.13367E+07        -0.49790E+08         0.00000E+00
    0.00000E+00         0.00000E+00        -0.46936E+08
 
   -0.46660E+08         0.13685E+07         0.00000E+00
    0.13685E+07        -0.49779E+08         0.00000E+00
    0.00000E+00         0.00000E+00        -0.46936E+08
 
   -0.46685E+08         0.14000E+07         0.00000E+00
    0.14000E+07        -0.49768E+08         0.00000E+00
    0.00000E+00         0.00000E+00        -0.46936E+08
 
   -0.46710E+08         0.14314E+07         0.00000E+00
    0.14314E+07        -0.49757E+08         0.00000E+00
    0.00000E+00         0.00000E+00        -0.46936E+08
 
   -0.46736E+08         0.14626E+07         0.00000E+00
    0.14626E+07        -0.49745E+08         0.00000E+00
    0.00000E+00         0.00000E+00        -0.46936E+08
 
   -0.46762E+08         0.14936E+07         0.00000E+00
    0.14936E+07        -0.49733E+08         0.00000E+00
    0.00000E+00         0.00000E+00        -0.46936E+08
 
   -0.46788E+08         0.15245E+07         0.00000E+00
    0.15245E+07        -0.49721E+08         0.00000E+00
    0.00000E+00         0.00000E+00        -0.46936E+08
 
   -0.46814E+08         0.15551E+07         0.00000E+00
    0.15551E+07        -0.49708E+08         0.00000E+00
    0.00000E+00         0.00000E+00        -0.46936E+08
 
   -0.46841E+08         0.15856E+07         0.00000E+00
    0.15856E+07        -0.49695E+08         0.00000E+00
    0.00000E+00         0.00000E+00        -0.46936E+08
 
   -0.46868E+08         0.16159E+07         0.00000E+00
    0.16159E+07        -0.49682E+08         0.00000E+00
    0.00000E+00         0.00000E+00        -0.46936E+08
 
   -0.46895E+08         0.16460E+07         0.00000E+00
    0.16460E+07        -0.49669E+08         0.00000E+00
    0.00000E+00         0.00000E+00        -0.46936E+08
 
   -0.46922E+08         0.16759E+07         0.00000E+00
    0.16759E+07        -0.49656E+08         0.00000E+00
    0.00000E+00         0.00000E+00        -0.46936E+08
 
   -0.45718E+08         0.19491E+05         0.00000E+00
    0.19491E+05        -0.50000E+08         0.00000E+00
    0.00000E+00         0.00000E+00        -0.46782E+08
 
   -0.45732E+08         0.58138E+05         0.00000E+00
    0.58138E+05        -0.50000E+08         0.00000E+00
    0.00000E+00         0.00000E+00        -0.46782E+08
 
   -0.45747E+08         0.96662E+05         0.00000E+00
    0.96662E+05        -0.49999E+08         0.00000E+00
    0.00000E+00         0.00000E+00        -0.46782E+08
 
   -0.45762E+08         0.13506E+06         0.00000E+00
    0.13506E+06        -0.49998E+08         0.00000E+00
    0.00000E+00         0.00000E+00        -0.46782E+08
 
   -0.45777E+08         0.17333E+06         0.00000E+00
    0.17333E+06        -0.49997E+08         0.00000E+00
    0.00000E+00         0.00000E+00        -0.46782E+08
 
   -0.45792E+08         0.21148E+06         0.00000E+00
    0.21148E+06        -0.49995E+08         0.00000E+00
    0.00000E+00         0.00000E+00        -0.46782E+08
 
   -0.45808E+08         0.24950E+06         0.00000E+00
    0.24950E+06        -0.49994E+08         0.00000E+00
    0.00000E+00         0.00000E+00        -0.46782E+08
 
   -0.45824E+08         0.28739E+06         0.00000E+00
    0.28739E+06        -0.49992E+08         0.00000E+00
    0.00000E+00         0.00000E+00        -0.46782E+08
 
   -0.45840E+08         0.32515E+06         0.00000E+00
    0.32515E+06        -0.49989E+08         0.00000E+00
    0.00000E+00         0.00000E+00        -0.46782E+08
 
   -0.45857E+08         0.36278E+06         0.00000E+00
    0.36278E+06        -0.49987E+08         0.00000E+00
    0.00000E+00         0.00000E+00        -0.46782E+08
 
   -0.45874E+08         0.40028E+06         0.00000E+00
    0.40028E+06        -0.49984E+08         0.00000E+00
    0.00000E+00         0.00000E+00        -0.46782E+08
 
   -0.45891E+08         0.43764E+06         0.00000E+00
    0.43764E+06        -0.49980E+08         0.00000E+00
    0.00000E+00         0.00000E+00        -0.46782E+08
 
   -0.45909E+08         0.47487E+06         0.00000E+00
    0.47487E+06        -0.49977E+08         0.00000E+00
    0.00000E+00         0.00000E+00        -0.46782E+08
 
   -0.45927E+08         0.51196E+06         0.00000E+00
    0.51196E+06        -0.49973E+08         0.00000E+00
    0.00000E+00         0.00000E+00        -0.46782E+08
 
   -0.45945E+08         0.54892E+06         0.00000E+00
    0.54892E+06        -0.49969E+08         0.00000E+00
    0.00000E+00         0.00000E+00        -0.46782E+08
 
   -0.45964E+08         0.58574E+06         0.00000E+00
    0.58574E+06        -0.49964E+08         0.00000E+00
    0.00000E+00         0.00000E+00        -0.46782E+08
 
   -0.45983E+08         0.62242E+06         0.00000E+00
    0.62242E+06        -0.49960E+08         0.00000E+00
    0.00000E+00         0.00000E+00        -0.46782E+08
 
   -0.46002E+08         0.65896E+06         0.00000E+00
    0.65896E+06        -0.49955E+08         0.00000E+00
    0.00000E+00         0.00000E+00        -0.46782E+08
 
   -0.46021E+08         0.69535E+06         0.00000E+00
    0.69535E+06        -0.49949E+08         0.00000E+00
    0.00000E+00         0.00000E+00        -0.46783E+08
 
   -0.46041E+08         0.73161E+06         0.00000E+00
    0.73161E+06        -0.49944E+08         0.00000E+00
    0.00000E+00         0.00000E+00        -0.46783E+08
 
   -0.46061E+08         0.76772E+06         0.00000E+00
    0.76772E+06        -0.49938E+08         0.00000E+00
    0.00000E+00         0.00000E+00        -0.46783E+08
 
   -0.46081E+08         0.80368E+06         0.00000E+00
    0.80368E+06        -0.49932E+08         0.00000E+00
    0.00000E+00         0.00000E+00        -0.46783E+08
 
   -0.46102E+08         0.83950E+06         0.00000E+00
    0.83950E+06        -0.49925E+08         0.00000E+00
    0.00000E+00         0.00000E+00        -0.46783E+08
 
   -0.46123E+08         0.87517E+06         0.00000E+00
    0.87517E+06        -0.49919E+08         0.00000E+00
    0.00000E+00         0.00000E+00        -0.46783E+08
 
   -0.46144E+08         0.91069E+06         0.00000E+00
    0.91069E+06        -0.49912E+08         0.00000E+00
    0.00000E+00         0.00000E+00        -0.46783E+08
 
   -0.46166E+08         0.94606E+06         0.00000E+00
    0.94606E+06        -0.49904E+08         0.00000E+00
    0.00000E+00         0.00000E+00        -0.46783E+08
 
   -0.46188E+08         0.98128E+06         0.00000E+00
    0.98128E+06        -0.49897E+08         0.00000E+00
    0.00000E+00         0.00000E+00        -0.46783E+08
 
   -0.46210E+08         0.10163E+07         0.00000E+00
    0.10163E+07        -0.49889E+08         0.00000E+00
    0.00000E+00         0.00000E+00        -0.46783E+08
 
   -0.46232E+08         0.10513E+07         0.00000E+00
    0.10513E+07        -0.49881E+08         0.00000E+00
    0.00000E+00         0.00000E+00        -0.46783E+08
 
   -0.46255E+08         0.10860E+07         0.00000E+00
    0.10860E+07        -0.49872E+08         0.00000E+00
    0.00000E+00         0.00000E+00        -0.46783E+08
 
   -0.46278E+08         0.11206E+07         0.00000E+00
    0.11206E+07        -0.49864E+08         0.00000E+00
    0.00000E+00         0.00000E+00        -0.46783E+08
 
   -0.46302E+08         0.11550E+07         0.00000E+00
    0.11550E+07        -0.49854E+08         0.00000E+00
    0.00000E+00         0.00000E+00        -0.46783E+08
 
   -0.46325E+08         0.11893E+07         0.00000E+00
    0.11893E+07        -0.49845E+08         0.00000E+00
    0.00000E+00         0.00000E+00        -0.46784E+08
 
   -0.46349E+08         0.12234E+07         0.00000E+00
    0.12234E+07        -0.49836E+08         0.00000E+00
    0.00000E+00         0.00000E+00        -0.46784E+08
 
   -0.46373E+08         0.12574E+07         0.00000E+00
    0.12574E+07        -0.49826E+08         0.00000E+00
    0.00000E+00         0.00000E+00        -0.46784E+08
 
   -0.46398E+08         0.12912E+07         0.00000E+00
    0.12912E+07        -0.49816E+08         0.00000E+00
    0.00000E+00         0.00000E+00        -0.46784E+08
 
   -0.46422E+08         0.13248E+07         0.00000E+00
    0.13248E+07        -0.49805E+08         0.00000E+00
    0.00000E+00         0.00000E+00        -0.46784E+08
 
   -0.46448E+08         0.13582E+07         0.00000E+00
    0.13582E+07        -0.49794E+08         0.00000E+00
    0.00000E+00         0.00000E+00        -0.46784E+08
 
   -0.46473E+08         0.13915E+07         0.00000E+00
    0.13915E+07        -0.49784E+08         0.00000E+00
    0.00000E+00         0.00000E+00        -0.46784E+08
 
   -0.46498E+08         0.14246E+07         0.00000E+00
    0.14246E+07        -0.49772E+08         0.00000E+00
    0.00000E+00         0.00000E+00        -0.46784E+08
 
   -0.46524E+08         0.14575E+07         0.00000E+00
    0.14575E+07        -0.49761E+08         0.00000E+00
    0.00000E+00         0.00000E+00        -0.46784E+08
 
   -0.46551E+08         0.14903E+07         0.00000E+00
    0.14903E+07        -0.49749E+08         0.00000E+00
    0.00000E+00         0.00000E+00        -0.46784E+08
 
   -0.46577E+08         0.15228E+07         0.00000E+00
    0.15228E+07        -0.49737E+08         0.00000E+00
    0.00000E+00         0.00000E+00        -0.46784E+08
 
   -0.46604E+08         0.15552E+07         0.00000E+00
    0.15552E+07        -0.49724E+08         0.00000E+00
    0.00000E+00         0.00000E+00        -0.46784E+08
 
   -0.46631E+08         0.15874E+07         0.00000E+00
    0.15874E+07        -0.49712E+08         0.00000E+00
    0.00000E+00         0.00000E+00        -0.46784E+08
 
   -0.46658E+08         0.16194E+07         0.00000E+00
    0.16194E+07        -0.49699E+08         0.00000E+00
    0.00000E+00         0.00000E+00        -0.46784E+08
 
   -0.46686E+08         0.16513E+07         0.00000E+00
    0.16513E+07        -0.49686E+08         0.00000E+00
    0.00000E+00         0.00000E+00        -0.46784E+08
 
   -0.46713E+08         0.16829E+07         0.00000E+00
    0.16829E+07        -0.49672E+08         0.00000E+00
    0.00000E+00         0.00000E+00        -0.46784E+08
 
   -0.46741E+08         0.17144E+07         0.00000E+00
    0.17144E+07        -0.49658E+08         0.00000E+00
    0.00000E+00         0.00000E+00        -0.46784E+08
 
   -0.46770E+08         0.17457E+07         0.00000E+00
    0.17457E+07        -0.49644E+08         0.00000E+00
    0.00000E+00         0.00000E+00        -0.46784E+08
 
   -0.45521E+08         0.20255E+05         0.00000E+00
    0.20255E+05        -0.50000E+08         0.00000E+00
    0.00000E+00         0.00000E+00        -0.46623E+08
 
   -0.45536E+08         0.60420E+05         0.00000E+00
    0.60420E+05        -0.50000E+08         0.00000E+00
    0.00000E+00         0.00000E+00        -0.46623E+08
 
   -0.45551E+08         0.10046E+06         0.00000E+00
    0.10046E+06        -0.49999E+08         0.00000E+00
    0.00000E+00         0.00000E+00        -0.46623E+08
 
   -0.45566E+08         0.14037E+06         0.00000E+00
    0.14037E+06        -0.49998E+08         0.00000E+00
    0.00000E+00         0.00000E+00        -0.46623E+08
 
   -0.45582E+08         0.18014E+06         0.00000E+00
    0.18014E+06        -0.49997E+08         0.00000E+00
    0.00000E+00         0.00000E+00        -0.46623E+08
 
   -0.45598E+08         0.21979E+06         0.00000E+00
    0.21979E+06        -0.49995E+08         0.00000E+00
    0.00000E+00         0.00000E+00        -0.46623E+08
 
   -0.45614E+08         0.25931E+06         0.00000E+00
    0.25931E+06        -0.49993E+08         0.00000E+00
    0.00000E+00         0.00000E+00        -0.46623E+08
 
   -0.45631E+08         0.29870E+06         0.00000E+00
    0.29870E+06        -0.49991E+08         0.00000E+00
    0.00000E+00         0.00000E+00        -0.46623E+08
 
   -0.45648E+08         0.33795E+06         0.00000E+00
    0.33795E+06        -0.49989E+08         0.00000E+00
    0.00000E+00         0.00000E+00        -0.46623E+08
 
   -0.45665E+08         0.37707E+06         0.00000E+00
    0.37707E+06        -0.49986E+08         0.00000E+00
    0.00000E+00         0.00000E+00        -0.46623E+08
 
   -0.45683E+08         0.41606E+06         0.00000E+00
    0.41606E+06        -0.49983E+08         0.00000E+00
    0.00000E+00         0.00000E+00        -0.46623E+08
 
   -0.45701E+08         0.45490E+06         0.00000E+00
    0.45490E+06        -0.49980E+08         0.00000E+00
    0.00000E+00         0.00000E+00        -0.46623E+08
 
   -0.45719E+08         0.49361E+06         0.00000E+00
    0.49361E+06        -0.49976E+08         0.00000E+00
    0.00000E+00         0.00000E+00        -0.46624E+08
 
   -0.45738E+08         0.53219E+06         0.00000E+00
    0.53219E+06        -0.49972E+08         0.00000E+00
    0.00000E+00         0.00000E+00        -0.46624E+08
 
   -0.45757E+08         0.57062E+06         0.00000E+00
    0.57062E+06        -0.49968E+08         0.00000E+00
    0.00000E+00         0.00000E+00        -0.46624E+08
 
   -0.45776E+08         0.60891E+06         0.00000E+00
    0.60891E+06        -0.49963E+08         0.00000E+00
    0.00000E+00         0.00000E+00        -0.46624E+08
 
   -0.45796E+08         0.64706E+06         0.00000E+00
    0.64706E+06        -0.49958E+08         0.00000E+00
    0.00000E+00         0.00000E+00        -0.46624E+08
 
   -0.45816E+08         0.68507E+06         0.00000E+00
    0.68507E+06        -0.49953E+08         0.00000E+00
    0.00000E+00         0.00000E+00        -0.46624E+08
 
   -0.45836E+08         0.72294E+06         0.00000E+00
    0.72294E+06        -0.49948E+08         0.00000E+00
    0.00000E+00         0.00000E+00        -0.46624E+08
 
   -0.45856E+08         0.76066E+06         0.00000E+00
    0.76066E+06        -0.49942E+08         0.00000E+00
    0.00000E+00         0.00000E+00        -0.46624E+08
 
   -0.45877E+08         0.79823E+06         0.00000E+00
    0.79823E+06        -0.49936E+08         0.00000E+00
    0.00000E+00         0.00000E+00        -0.46624E+08
 
   -0.45898E+08         0.83566E+06         0.00000E+00
    0.83566E+06        -0.49930E+08         0.00000E+00
    0.00000E+00         0.00000E+00        -0.46624E+08
 
   -0.45920E+08         0.87293E+06         0.00000E+00
    0.87293E+06        -0.49923E+08         0.00000E+00
    0.00000E+00         0.00000E+00        -0.46624E+08
 
   -0.45942E+08         0.91006E+06         0.00000E+00
    0.91006E+06        -0.49916E+08         0.00000E+00
    0.00000E+00         0.00000E+00        -0.46624E+08
 
   -0.45964E+08         0.94704E+06         0.00000E+00
    0.94704E+06        -0.49909E+08         0.00000E+00
    0.00000E+00         0.00000E+00        -0.46624E+08
 
   -0.45986E+08         0.98386E+06         0.00000E+00
    0.98386E+06        -0.49901E+08         0.00000E+00
    0.00000E+00         0.00000E+00        -0.46624E+08
 
   -0.46009E+08         0.10205E+07         0.00000E+00
    0.10205E+07        -0.49894E+08         0.00000E+00
    0.00000E+00         0.00000E+00        -0.46624E+08
 
   -0.46031E+08         0.10570E+07         0.00000E+00
    0.10570E+07        -0.49885E+08         0.00000E+00
    0.00000E+00         0.00000E+00        -0.46624E+08
 
   -0.46055E+08         0.10934E+07         0.00000E+00
    0.10934E+07        -0.49877E+08         0.00000E+00
    0.00000E+00         0.00000E+00        -0.46625E+08
 
   -0.46078E+08         0.11296E+07         0.00000E+00
    0.11296E+07        -0.49868E+08         0.00000E+00
    0.00000E+00         0.00000E+00        -0.46625E+08
 
   -0.46102E+08         0.11656E+07         0.00000E+00
    0.11656E+07        -0.49859E+08         0.00000E+00
    0.00000E+00         0.00000E+00        -0.46625E+08
 
   -0.46126E+08         0.12015E+07         0.00000E+00
    0.12015E+07        -0.49850E+08         0.00000E+00
    0.00000E+00         0.00000E+00        -0.46625E+08
 
   -0.46151E+08         0.12372E+07         0.00000E+00
    0.12372E+07        -0.49840E+08         0.00000E+00
    0.00000E+00         0.00000E+00        -0.46625E+08
 
   -0.46175E+08         0.12728E+07         0.00000E+00
    0.12728E+07        -0.49831E+08         0.00000E+00
    0.00000E+00         0.00000E+00        -0.46625E+08
 
   -0.46200E+08         0.13082E+07         0.00000E+00
    0.13082E+07        -0.49820E+08         0.00000E+00
    0.00000E+00         0.00000E+00        -0.46625E+08
 
   -0.46226E+08         0.13434E+07         0.00000E+00
    0.13434E+07        -0.49810E+08         0.00000E+00
    0.00000E+00         0.00000E+00        -0.46625E+08
 
   -0.46251E+08         0.13784E+07         0.00000E+00
    0.13784E+07        -0.49799E+08         0.00000E+00
    0.00000E+00         0.00000E+00        -0.46625E+08
 
   -0.46277E+08         0.14133E+07         0.00000E+00
    0.14133E+07        -0.49788E+08         0.00000E+00
    0.00000E+00         0.00000E+00        -0.46625E+08
 
   -0.46303E+08         0.14480E+07         0.00000E+00
    0.14480E+07        -0.49777E+08         0.00000E+00
    0.00000E+00         0.00000E+00        -0.46625E+08
 
   -0.46330E+08         0.14825E+07         0.00000E+00
    0.14825E+07        -0.49765E+08         0.00000E+00
    0.00000E+00         0.00000E+00        -0.46625E+08
 
   -0.46357E+08         0.15169E+07         0.00000E+00
    0.15169E+07        -0.49753E+08         0.00000E+00
    0.00000E+00         0.00000E+00        -0.46625E+08
 
   -0.46384E+08         0.15511E+07         0.00000E+00
    0.15511E+07        -0.49741E+08         0.00000E+00
    0.00000E+00         0.00000E+00        -0.46625E+08
 
   -0.46411E+08         0.15851E+07         0.00000E+00
    0.15851E+07        -0.49729E+08         0.00000E+00
    0.00000E+00         0.00000E+00        -0.46625E+08
 
   -0.46439E+08         0.16189E+07         0.00000E+00
    0.16189E+07        -0.49716E+08         0.00000E+00
    0.00000E+00         0.00000E+00        -0.46625E+08
 
   -0.46467E+08         0.16525E+07         0.00000E+00
    0.16525E+07        -0.49703E+08         0.00000E+00
    0.00000E+00         0.00000E+00        -0.46625E+08
 
   -0.46495E+08         0.16860E+07         0.00000E+00
    0.16860E+07        -0.49689E+08         0.00000E+00
    0.00000E+00         0.00000E+00        -0.46625E+08
 
   -0.46523E+08         0.17192E+07         0.00000E+00
    0.17192E+07        -0.49676E+08         0.00000E+00
    0.00000E+00         0.00000E+00        -0.46625E+08
 
   -0.46552E+08         0.17523E+07         0.00000E+00
    0.17523E+07        -0.49662E+08         0.00000E+00
    0.00000E+00         0.00000E+00        -0.46625E+08
 
   -0.46581E+08         0.17852E+07         0.00000E+00
    0.17852E+07        -0.49647E+08         0.00000E+00
    0.00000E+00         0.00000E+00        -0.46625E+08
 
   -0.46611E+08         0.18178E+07         0.00000E+00
    0.18178E+07        -0.49633E+08         0.00000E+00
    0.00000E+00         0.00000E+00        -0.46625E+08
 
   -0.45316E+08         0.21041E+05         0.00000E+00
    0.21041E+05        -0.50000E+08         0.00000E+00
    0.00000E+00         0.00000E+00        -0.46457E+08
 
   -0.45331E+08         0.62766E+05         0.00000E+00
    0.62766E+05        -0.50000E+08         0.00000E+00
    0.00000E+00         0.00000E+00        -0.46457E+08
 
   -0.45347E+08         0.10436E+06         0.00000E+00
    0.10436E+06        -0.49999E+08         0.00000E+00
    0.00000E+00         0.00000E+00        -0.46457E+08
 
   -0.45363E+08         0.14582E+06         0.00000E+00
    0.14582E+06        -0.49998E+08         0.00000E+00
    0.00000E+00         0.00000E+00        -0.46457E+08
 
   -0.45379E+08         0.18715E+06         0.00000E+00
    0.18715E+06        -0.49997E+08         0.00000E+00
    0.00000E+00         0.00000E+00        -0.46457E+08
 
   -0.45396E+08         0.22835E+06         0.00000E+00
    0.22835E+06        -0.49995E+08         0.00000E+00
    0.00000E+00         0.00000E+00        -0.46457E+08
 
   -0.45413E+08         0.26941E+06         0.00000E+00
    0.26941E+06        -0.49993E+08         0.00000E+00
    0.00000E+00         0.00000E+00        -0.46457E+08
 
   -0.45431E+08         0.31033E+06         0.00000E+00
    0.31033E+06        -0.49991E+08         0.00000E+00
    0.00000E+00         0.00000E+00        -0.46458E+08
 
   -0.45448E+08         0.35112E+06         0.00000E+00
    0.35112E+06        -0.49989E+08         0.00000E+00
    0.00000E+00         0.00000E+00        -0.46458E+08
 
   -0.45466E+08         0.39178E+06         0.00000E+00
    0.39178E+06        -0.49986E+08         0.00000E+00
    0.00000E+00         0.00000E+00        -0.46458E+08
 
   -0.45485E+08         0.43229E+06         0.00000E+00
    0.43229E+06        -0.49983E+08         0.00000E+00
    0.00000E+00         0.00000E+00        -0.46458E+08
 
   -0.45503E+08         0.47267E+06         0.00000E+00
    0.47267E+06        -0.49979E+08         0.00000E+00
    0.00000E+00         0.00000E+00        -0.46458E+08
 
   -0.45522E+08         0.51291E+06         0.00000E+00
    0.51291E+06        -0.49975E+08         0.00000E+00
    0.00000E+00         0.00000E+00        -0.46458E+08
 
   -0.45542E+08         0.55300E+06         0.00000E+00
    0.55300E+06        -0.49971E+08         0.00000E+00
    0.00000E+00         0.00000E+00        -0.46458E+08
 
   -0.45561E+08         0.59296E+06         0.00000E+00
    0.59296E+06        -0.49967E+08         0.00000E+00
    0.00000E+00         0.00000E+00        -0.46458E+08
 
   -0.45581E+08         0.63277E+06         0.00000E+00
    0.63277E+06        -0.49962E+08         0.00000E+00
    0.00000E+00         0.00000E+00        -0.46458E+08
 
   -0.45602E+08         0.67244E+06         0.00000E+00
    0.67244E+06        -0.49957E+08         0.00000E+00
    0.00000E+00         0.00000E+00        -0.46458E+08
 
   -0.45622E+08         0.71196E+06         0.00000E+00
    0.71196E+06        -0.49952E+08         0.00000E+00
    0.00000E+00         0.00000E+00        -0.46458E+08
 
   -0.45643E+08         0.75134E+06         0.00000E+00
    0.75134E+06        -0.49946E+08         0.00000E+00
    0.00000E+00         0.00000E+00        -0.46458E+08
 
   -0.45664E+08         0.79057E+06         0.00000E+00
    0.79057E+06        -0.49940E+08         0.00000E+00
    0.00000E+00         0.00000E+00        -0.46458E+08
 
   -0.45686E+08         0.82965E+06         0.00000E+00
    0.82965E+06        -0.49934E+08         0.00000E+00
    0.00000E+00         0.00000E+00        -0.46458E+08
 
   -0.45708E+08         0.86859E+06         0.00000E+00
    0.86859E+06        -0.49928E+08         0.00000E+00
    0.00000E+00         0.00000E+00        -0.46458E+08
 
   -0.45730E+08         0.90737E+06         0.00000E+00
    0.90737E+06        -0.49921E+08         0.00000E+00
    0.00000E+00         0.00000E+00        -0.46458E+08
 
   -0.45753E+08         0.94600E+06         0.00000E+00
    0.94600E+06        -0.49914E+08         0.00000E+00
    0.00000E+00         0.00000E+00        -0.46458E+08
 
   -0.45775E+08         0.98448E+06         0.00000E+00
    0.98448E+06        -0.49906E+08         0.00000E+00
    0.00000E+00         0.00000E+00        -0.46458E+08
 
   -0.45798E+08         0.10228E+07         0.00000E+00
    0.10228E+07        -0.49899E+08         0.00000E+00
    0.00000E+00         0.00000E+00        -0.46458E+08
 
   -0.45822E+08         0.10610E+07         0.00000E+00
    0.10610E+07        -0.49890E+08         0.00000E+00
    0.00000E+00         0.00000E+00        -0.46458E+08
 
   -0.45846E+08         0.10990E+07         0.00000E+00
    0.10990E+07        -0.49882E+08         0.00000E+00
    0.00000E+00         0.00000E+00        -0.46459E+08
 
   -0.45870E+08         0.11368E+07         0.00000E+00
    0.11368E+07        -0.49873E+08         0.00000E+00
    0.00000E+00         0.00000E+00        -0.46459E+08
 
   -0.45894E+08         0.11745E+07         0.00000E+00
    0.11745E+07        -0.49865E+08         0.00000E+00
    0.00000E+00         0.00000E+00        -0.46459E+08
 
   -0.45919E+08         0.12121E+07         0.00000E+00
    0.12121E+07        -0.49855E+08         0.00000E+00
    0.00000E+00         0.00000E+00        -0.46459E+08
 
   -0.45943E+08         0.12494E+07         0.00000E+00
    0.12494E+07        -0.49846E+08         0.00000E+00
    0.00000E+00         0.00000E+00        -0.46459E+08
 
   -0.45969E+08         0.12867E+07         0.00000E+00
    0.12867E+07        -0.49836E+08         0.00000E+00
    0.00000E+00         0.00000E+00        -0.46459E+08
 
   -0.45994E+08         0.13237E+07         0.00000E+00
    0.13237E+07        -0.49826E+08         0.00000E+00
    0.00000E+00         0.00000E+00        -0.46459E+08
 
   -0.46020E+08         0.13606E+07         0.00000E+00
    0.13606E+07        -0.49815E+08         0.00000E+00
    0.00000E+00         0.00000E+00        -0.46459E+08
 
   -0.46046E+08         0.13973E+07         0.00000E+00
    0.13973E+07        -0.49804E+08         0.00000E+00
    0.00000E+00         0.00000E+00        -0.46459E+08
 
   -0.46073E+08         0.14338E+07         0.00000E+00
    0.14338E+07        -0.49793E+08         0.00000E+00
    0.00000E+00         0.00000E+00        -0.46459E+08
 
   -0.46099E+08         0.14702E+07         0.00000E+00
    0.14702E+07        -0.49782E+08         0.00000E+00
    0.00000E+00         0.00000E+00        -0.46459E+08
 
   -0.46127E+08         0.15064E+07         0.00000E+00
    0.15064E+07        -0.49770E+08         0.00000E+00
    0.00000E+00         0.00000E+00        -0.46459E+08
 
   -0.46154E+08         0.15424E+07         0.00000E+00
    0.15424E+07        -0.49758E+08         0.00000E+00
    0.00000E+00         0.00000E+00        -0.46459E+08
 
   -0.46182E+08         0.15782E+07         0.00000E+00
    0.15782E+07        -0.49746E+08         0.00000E+00
    0.00000E+00         0.00000E+00        -0.46459E+08
 
   -0.46210E+08         0.16139E+07         0.00000E+00
    0.16139E+07        -0.49733E+08         0.00000E+00
    0.00000E+00         0.00000E+00        -0.46459E+08
 
   -0.46238E+08         0.16494E+07         0.00000E+00
    0.16494E+07        -0.49720E+08         0.00000E+00
    0.00000E+00         0.00000E+00        -0.46459E+08
 
   -0.46266E+08         0.16846E+07         0.00000E+00
    0.16846E+07        -0.49707E+08         0.00000E+00
    0.00000E+00         0.00000E+00        -0.46459E+08
 
   -0.46295E+08         0.17198E+07         0.00000E+00
    0.17198E+07        -0.49694E+08         0.00000E+00
    0.00000E+00         0.00000E+00        -0.46459E+08
 
   -0.46324E+08         0.17547E+07         0.00000E+00
    0.17547E+07        -0.49680E+08         0.00000E+00
    0.00000E+00         0.00000E+00        -0.46459E+08
 
   -0.46354E+08         0.17894E+07         0.00000E+00
    0.17894E+07        -0.49666E+08         0.00000E+00
    0.00000E+00         0.00000E+00        -0.46459E+08
 
   -0.46384E+08         0.18240E+07         0.00000E+00
    0.18240E+07        -0.49651E+08         0.00000E+00
    0.00000E+00         0.00000E+00        -0.46459E+08
 
   -0.46414E+08         0.18583E+07         0.00000E+00
    0.18583E+07        -0.49637E+08         0.00000E+00
    0.00000E+00         0.00000E+00        -0.46459E+08
 
   -0.46444E+08         0.18925E+07         0.00000E+00
    0.18925E+07        -0.49621E+08         0.00000E+00
    0.00000E+00         0.00000E+00        -0.46459E+08
 
   -0.45103E+08         0.21848E+05         0.00000E+00
    0.21848E+05        -0.50000E+08         0.00000E+00
    0.00000E+00         0.00000E+00        -0.46284E+08
 
   -0.45119E+08         0.65175E+05         0.00000E+00
    0.65175E+05        -0.50000E+08         0.00000E+00
    0.00000E+00         0.00000E+00        -0.46284E+08
 
   -0.45135E+08         0.10837E+06         0.00000E+00
    0.10837E+06        -0.49999E+08         0.00000E+00
    0.00000E+00         0.00000E+00        -0.46284E+08
 
   -0.45152E+08         0.15143E+06         0.00000E+00
    0.15143E+06        -0.49998E+08         0.00000E+00
    0.00000E+00         0.00000E+00        -0.46284E+08
 
   -0.45169E+08         0.19435E+06         0.00000E+00
    0.19435E+06        -0.49997E+08         0.00000E+00
    0.00000E+00         0.00000E+00        -0.46284E+08
 
   -0.45187E+08         0.23713E+06         0.00000E+00
    0.23713E+06        -0.49995E+08         0.00000E+00
    0.00000E+00         0.00000E+00        -0.46284E+08
 
   -0.45204E+08         0.27978E+06         0.00000E+00
    0.27978E+06        -0.49993E+08         0.00000E+00
    0.00000E+00         0.00000E+00        -0.46284E+08
 
   -0.45222E+08         0.32229E+06         0.00000E+00
    0.32229E+06        -0.49991E+08         0.00000E+00
    0.00000E+00         0.00000E+00        -0.46284E+08
 
   -0.45241E+08         0.36466E+06         0.00000E+00
    0.36466E+06        -0.49988E+08         0.00000E+00
    0.00000E+00         0.00000E+00        -0.46284E+08
 
   -0.45260E+08         0.40689E+06         0.00000E+00
    0.40689E+06        -0.49985E+08         0.00000E+00
    0.00000E+00         0.00000E+00        -0.46284E+08
 
   -0.45279E+08         0.44898E+06         0.00000E+00
    0.44898E+06        -0.49982E+08         0.00000E+00
    0.00000E+00         0.00000E+00        -0.46284E+08
 
   -0.45298E+08         0.49093E+06         0.00000E+00
    0.49093E+06        -0.49979E+08         0.00000E+00
    0.00000E+00         0.00000E+00        -0.46284E+08
 
   -0.45318E+08         0.53274E+06         0.00000E+00
    0.53274E+06        -0.49975E+08         0.00000E+00
    0.00000E+00         0.00000E+00        -0.46284E+08
 
   -0.45338E+08         0.57440E+06         0.00000E+00
    0.57440E+06        -0.49971E+08         0.00000E+00
    0.00000E+00         0.00000E+00        -0.46284E+08
 
   -0.45358E+08         0.61592E+06         0.00000E+00
    0.61592E+06        -0.49966E+08         0.00000E+00
    0.00000E+00         0.00000E+00        -0.46285E+08
 
   -0.45379E+08         0.65730E+06         0.00000E+00
    0.65730E+06        -0.49961E+08         0.00000E+00
    0.00000E+00         0.00000E+00        -0.46285E+08
 
   -0.45400E+08         0.69853E+06         0.00000E+00
    0.69853E+06        -0.49956E+08         0.00000E+00
    0.00000E+00         0.00000E+00        -0.46285E+08
 
   -0.45421E+08         0.73961E+06         0.00000E+00
    0.73961E+06        -0.49951E+08         0.00000E+00
    0.00000E+00         0.00000E+00        -0.46285E+08
 
   -0.45443E+08         0.78055E+06         0.00000E+00
    0.78055E+06        -0.49945E+08         0.00000E+00
    0.00000E+00         0.00000E+00        -0.46285E+08
 
   -0.45465E+08         0.82134E+06         0.00000E+00
    0.82134E+06        -0.49939E+08         0.00000E+00
    0.00000E+00         0.00000E+00        -0.46285E+08
 
   -0.45487E+08         0.86198E+06         0.00000E+00
    0.86198E+06        -0.49932E+08         0.00000E+00
    0.00000E+00         0.00000E+00        -0.46285E+08
 
   -0.45510E+08         0.90246E+06         0.00000E+00
    0.90246E+06        -0.49926E+08         0.00000E+00
    0.00000E+00         0.00000E+00        -0.46285E+08
 
   -0.45533E+08         0.94280E+06         0.00000E+00
    0.94280E+06        -0.49919E+08         0.00000E+00
    0.00000E+00         0.00000E+00        -0.46285E+08
 
   -0.45556E+08         0.98298E+06         0.00000E+00
    0.98298E+06        -0.49911E+08         0.00000E+00
    0.00000E+00         0.00000E+00        -0.46285E+08
 
   -0.45579E+08         0.10230E+07         0.00000E+00
    0.10230E+07        -0.49904E+08         0.00000E+00
    0.00000E+00         0.00000E+00        -0.46285E+08
 
   -0.45603E+08         0.10629E+07         0.00000E+00
    0.10629E+07        -0.49896E+08         0.00000E+00
    0.00000E+00         0.00000E+00        -0.46285E+08
 
   -0.45628E+08         0.11026E+07         0.00000E+00
    0.11026E+07        -0.49887E+08         0.00000E+00
    0.00000E+00         0.00000E+00        -0.46285E+08
 
   -0.45652E+08         0.11422E+07         0.00000E+00
    0.11422E+07        -0.49879E+08         0.00000E+00
    0.00000E+00         0.00000E+00        -0.46285E+08
 
   -0.45677E+08         0.11816E+07         0.00000E+00
    0.11816E+07        -0.49870E+08         0.00000E+00
    0.00000E+00         0.00000E+00        -0.46285E+08
 
   -0.45702E+08         0.12208E+07         0.00000E+00
    0.12208E+07        -0.49861E+08         0.00000E+00
    0.00000E+00         0.00000E+00        -0.46285E+08
 
   -0.45727E+08         0.12599E+07         0.00000E+00
    0.12599E+07        -0.49851E+08         0.00000E+00
    0.00000E+00         0.00000E+00        -0.46285E+08
 
   -0.45753E+08         0.12988E+07         0.00000E+00
    0.12988E+07        -0.49841E+08         0.00000E+00
    0.00000E+00         0.00000E+00        -0.46285E+08
 
   -0.45779E+08         0.13376E+07         0.00000E+00
    0.13376E+07        -0.49831E+08         0.00000E+00
    0.00000E+00         0.00000E+00        -0.46285E+08
 
   -0.45806E+08         0.13761E+07         0.00000E+00
    0.13761E+07        -0.49821E+08         0.00000E+00
    0.00000E+00         0.00000E+00        -0.46285E+08
 
   -0.45832E+08         0.14146E+07         0.00000E+00
    0.14146E+07        -0.49810E+08         0.00000E+00
    0.00000E+00         0.00000E+00        -0.46285E+08
 
   -0.45859E+08         0.14528E+07         0.00000E+00
    0.14528E+07        -0.49799E+08         0.00000E+00
    0.00000E+00         0.00000E+00        -0.46285E+08
 
   -0.45887E+08         0.14909E+07         0.00000E+00
    0.14909E+07        -0.49787E+08         0.00000E+00
    0.00000E+00         0.00000E+00        -0.46285E+08
 
   -0.45914E+08         0.15288E+07         0.00000E+00
    0.15288E+07        -0.49776E+08         0.00000E+00
    0.00000E+00         0.00000E+00        -0.46285E+08
 
   -0.45942E+08         0.15665E+07         0.00000E+00
    0.15665E+07        -0.49763E+08         0.00000E+00
    0.00000E+00         0.00000E+00        -0.46285E+08
 
   -0.45970E+08         0.16041E+07         0.00000E+00
    0.16041E+07        -0.49751E+08         0.00000E+00
    0.00000E+00         0.00000E+00        -0.46285E+08
 
   -0.45999E+08         0.16415E+07         0.00000E+00
    0.16415E+07        -0.49738E+08         0.00000E+00
    0.00000E+00         0.00000E+00        -0.46285E+08
 
   -0.46028E+08         0.16787E+07         0.00000E+00
    0.16787E+07        -0.49725E+08         0.00000E+00
    0.00000E+00         0.00000E+00        -0.46286E+08
 
   -0.46057E+08         0.17157E+07         0.00000E+00
    0.17157E+07        -0.49712E+08         0.00000E+00
    0.00000E+00         0.00000E+00        -0.46286E+08
 
   -0.46086E+08         0.17525E+07         0.00000E+00
    0.17525E+07        -0.49698E+08         0.00000E+00
    0.00000E+00         0.00000E+00        -0.46286E+08
 
   -0.46116E+08         0.17892E+07         0.00000E+00
    0.17892E+07        -0.49685E+08         0.00000E+00
    0.00000E+00         0.00000E+00        -0.46286E+08
 
   -0.46146E+08         0.18256E+07         0.00000E+00
    0.18256E+07        -0.49670E+08         0.00000E+00
    0.00000E+00         0.00000E+00        -0.46286E+08
 
   -0.46177E+08         0.18619E+07         0.00000E+00
    0.18619E+07        -0.49656E+08         0.00000E+00
    0.00000E+00         0.00000E+00        -0.46286E+08
 
   -0.46207E+08         0.18980E+07         0.00000E+00
    0.18980E+07        -0.49641E+08         0.00000E+00
    0.00000E+00         0.00000E+00        -0.46286E+08
 
   -0.46239E+08         0.19338E+07         0.00000E+00
    0.19338E+07        -0.49626E+08         0.00000E+00
    0.00000E+00         0.00000E+00        -0.46286E+08
 
   -0.46270E+08         0.19695E+07         0.00000E+00
    0.19695E+07        -0.49610E+08         0.00000E+00
    0.00000E+00         0.00000E+00        -0.46286E+08
 
   -0.44882E+08         0.22675E+05         0.00000E+00
    0.22675E+05        -0.50000E+08         0.00000E+00
    0.00000E+00         0.00000E+00        -0.46103E+08
 
   -0.44899E+08         0.67647E+05         0.00000E+00
    0.67647E+05        -0.50000E+08         0.00000E+00
    0.00000E+00         0.00000E+00        -0.46103E+08
 
   -0.44916E+08         0.11248E+06         0.00000E+00
    0.11248E+06        -0.49999E+08         0.00000E+00
    0.00000E+00         0.00000E+00        -0.46103E+08
 
   -0.44933E+08         0.15718E+06         0.00000E+00
    0.15718E+06        -0.49998E+08         0.00000E+00
    0.00000E+00         0.00000E+00        -0.46103E+08
 
   -0.44951E+08         0.20173E+06         0.00000E+00
    0.20173E+06        -0.49997E+08         0.00000E+00
    0.00000E+00         0.00000E+00        -0.46103E+08
 
   -0.44969E+08         0.24615E+06         0.00000E+00
    0.24615E+06        -0.49995E+08         0.00000E+00
    0.00000E+00         0.00000E+00        -0.46103E+08
 
   -0.44987E+08         0.29042E+06         0.00000E+00
    0.29042E+06        -0.49993E+08         0.00000E+00
    0.00000E+00         0.00000E+00        -0.46103E+08
 
   -0.45006E+08         0.33456E+06         0.00000E+00
    0.33456E+06        -0.49991E+08         0.00000E+00
    0.00000E+00         0.00000E+00        -0.46103E+08
 
   -0.45025E+08         0.37855E+06         0.00000E+00
    0.37855E+06        -0.49988E+08         0.00000E+00
    0.00000E+00         0.00000E+00        -0.46103E+08
 
   -0.45045E+08         0.42240E+06         0.00000E+00
    0.42240E+06        -0.49985E+08         0.00000E+00
    0.00000E+00         0.00000E+00        -0.46103E+08
 
   -0.45064E+08         0.46611E+06         0.00000E+00
    0.46611E+06        -0.49982E+08         0.00000E+00
    0.00000E+00         0.00000E+00        -0.46103E+08
 
   -0.45085E+08         0.50968E+06         0.00000E+00
    0.50968E+06        -0.49978E+08         0.00000E+00
    0.00000E+00         0.00000E+00        -0.46103E+08
 
   -0.45105E+08         0.55310E+06         0.00000E+00
    0.55310E+06        -0.49974E+08         0.00000E+00
    0.00000E+00         0.00000E+00        -0.46103E+08
 
   -0.45126E+08         0.59637E+06         0.00000E+00
    0.59637E+06        -0.49970E+08         0.00000E+00
    0.00000E+00         0.00000E+00        -0.46103E+08
 
   -0.45147E+08         0.63950E+06         0.00000E+00
    0.63950E+06        -0.49965E+08         0.00000E+00
    0.00000E+00         0.00000E+00        -0.46103E+08
 
   -0.45168E+08         0.68249E+06         0.00000E+00
    0.68249E+06        -0.49960E+08         0.00000E+00
    0.00000E+00         0.00000E+00        -0.46103E+08
 
   -0.45190E+08         0.72533E+06         0.00000E+00
    0.72533E+06        -0.49955E+08         0.00000E+00
    0.00000E+00         0.00000E+00        -0.46104E+08
 
   -0.45212E+08         0.76802E+06         0.00000E+00
    0.76802E+06        -0.49949E+08         0.00000E+00
    0.00000E+00         0.00000E+00        -0.46104E+08
 
   -0.45234E+08         0.81056E+06         0.00000E+00
    0.81056E+06        -0.49943E+08         0.00000E+00
    0.00000E+00         0.00000E+00        -0.46104E+08
 
   -0.45257E+08         0.85295E+06         0.00000E+00
    0.85295E+06        -0.49937E+08         0.00000E+00
    0.00000E+00         0.00000E+00        -0.46104E+08
 
   -0.45280E+08         0.89519E+06         0.00000E+00
    0.89519E+06        -0.49931E+08         0.00000E+00
    0.00000E+00         0.00000E+00        -0.46104E+08
 
   -0.45304E+08         0.93728E+06         0.00000E+00
    0.93728E+06        -0.49924E+08         0.00000E+00
    0.00000E+00         0.00000E+00        -0.46104E+08
 
   -0.45327E+08         0.97922E+06         0.00000E+00
    0.97922E+06        -0.49917E+08         0.00000E+00
    0.00000E+00         0.00000E+00        -0.46104E+08
 
   -0.45351E+08         0.10210E+07         0.00000E+00
    0.10210E+07        -0.49909E+08         0.00000E+00
    0.00000E+00         0.00000E+00        -0.46104E+08
 
   -0.45376E+08         0.10626E+07         0.00000E+00
    0.10626E+07        -0.49901E+08         0.00000E+00
    0.00000E+00         0.00000E+00        -0.46104E+08
 
   -0.45400E+08         0.11041E+07         0.00000E+00
    0.11041E+07        -0.49893E+08         0.00000E+00
    0.00000E+00         0.00000E+00        -0.46104E+08
 
   -0.45425E+08         0.11454E+07         0.00000E+00
    0.11454E+07        -0.49884E+08         0.00000E+00
    0.00000E+00         0.00000E+00        -0.46104E+08
 
   -0.45451E+08         0.11866E+07         0.00000E+00
    0.11866E+07        -0.49876E+08         0.00000E+00
    0.00000E+00         0.00000E+00        -0.46104E+08
 
   -0.45476E+08         0.12276E+07         0.00000E+00
    0.12276E+07        -0.49866E+08         0.00000E+00
    0.00000E+00         0.00000E+00        -0.46104E+08
 
   -0.45502E+08         0.12684E+07         0.00000E+00
    0.12684E+07        -0.49857E+08         0.00000E+00
    0.00000E+00         0.00000E+00        -0.46104E+08
 
   -0.45528E+08         0.13091E+07         0.00000E+00
    0.13091E+07        -0.49847E+08         0.00000E+00
    0.00000E+00         0.00000E+00        -0.46104E+08
 
   -0.45555E+08         0.13496E+07         0.00000E+00
    0.13496E+07        -0.49837E+08         0.00000E+00
    0.00000E+00         0.00000E+00        -0.46104E+08
 
   -0.45582E+08         0.13900E+07         0.00000E+00
    0.13900E+07        -0.49827E+08         0.00000E+00
    0.00000E+00         0.00000E+00        -0.46104E+08
 
   -0.45609E+08         0.14301E+07         0.00000E+00
    0.14301E+07        -0.49816E+08         0.00000E+00
    0.00000E+00         0.00000E+00        -0.46104E+08
 
   -0.45637E+08         0.14702E+07         0.00000E+00
    0.14702E+07        -0.49805E+08         0.00000E+00
    0.00000E+00         0.00000E+00        -0.46104E+08
 
   -0.45665E+08         0.15100E+07         0.00000E+00
    0.15100E+07        -0.49793E+08         0.00000E+00
    0.00000E+00         0.00000E+00        -0.46104E+08
 
   -0.45693E+08         0.15497E+07         0.00000E+00
    0.15497E+07        -0.49781E+08         0.00000E+00
    0.00000E+00         0.00000E+00        -0.46104E+08
 
   -0.45721E+08         0.15892E+07         0.00000E+00
    0.15892E+07        -0.49769E+08         0.00000E+00
    0.00000E+00         0.00000E+00        -0.46104E+08
 
   -0.45750E+08         0.16285E+07         0.00000E+00
    0.16285E+07        -0.49757E+08         0.00000E+00
    0.00000E+00         0.00000E+00        -0.46104E+08
 
   -0.45779E+08         0.16677E+07         0.00000E+00
    0.16677E+07        -0.49744E+08         0.00000E+00
    0.00000E+00         0.00000E+00        -0.46104E+08
 
   -0.45809E+08         0.17066E+07         0.00000E+00
    0.17066E+07        -0.49731E+08         0.00000E+00
    0.00000E+00         0.00000E+00        -0.46104E+08
 
   -0.45838E+08         0.17454E+07         0.00000E+00
    0.17454E+07        -0.49718E+08         0.00000E+00
    0.00000E+00         0.00000E+00        -0.46104E+08
 
   -0.45868E+08         0.17840E+07         0.00000E+00
    0.17840E+07        -0.49704E+08         0.00000E+00
    0.00000E+00         0.00000E+00        -0.46104E+08
 
   -0.45899E+08         0.18225E+07         0.00000E+00
    0.18225E+07        -0.49690E+08         0.00000E+00
    0.00000E+00         0.00000E+00        -0.46104E+08
 
   -0.45930E+08         0.18607E+07         0.00000E+00
    0.18607E+07        -0.49676E+08         0.00000E+00
    0.00000E+00         0.00000E+00        -0.46104E+08
 
   -0.45961E+08         0.18988E+07         0.00000E+00
    0.18988E+07        -0.49661E+08         0.00000E+00
    0.00000E+00         0.00000E+00        -0.46104E+08
 
   -0.45992E+08         0.19366E+07         0.00000E+00
    0.19366E+07        -0.49646E+08         0.00000E+00
    0.00000E+00         0.00000E+00        -0.46104E+08
 
   -0.46024E+08         0.19743E+07         0.00000E+00
    0.19743E+07        -0.49631E+08         0.00000E+00
    0.00000E+00         0.00000E+00        -0.46104E+08
 
   -0.46056E+08         0.20118E+07         0.00000E+00
    0.20118E+07        -0.49615E+08         0.00000E+00
    0.00000E+00         0.00000E+00        -0.46104E+08
 
   -0.46088E+08         0.20491E+07         0.00000E+00
    0.20491E+07        -0.49599E+08         0.00000E+00
    0.00000E+00         0.00000E+00        -0.46104E+08
 
   -0.44652E+08         0.23523E+05         0.00000E+00
    0.23523E+05        -0.50000E+08         0.00000E+00
    0.00000E+00         0.00000E+00        -0.45914E+08
 
   -0.44670E+08         0.70180E+05         0.00000E+00
    0.70180E+05        -0.50000E+08         0.00000E+00
    0.00000E+00         0.00000E+00        -0.45914E+08
 
   -0.44688E+08         0.11670E+06         0.00000E+00
    0.11670E+06        -0.49999E+08         0.00000E+00
    0.00000E+00         0.00000E+00        -0.45914E+08
 
   -0.44706E+08         0.16307E+06         0.00000E+00
    0.16307E+06        -0.49998E+08         0.00000E+00
    0.00000E+00         0.00000E+00        -0.45914E+08
 
   -0.44724E+08         0.20930E+06         0.00000E+00
    0.20930E+06        -0.49997E+08         0.00000E+00
    0.00000E+00         0.00000E+00        -0.45914E+08
 
   -0.44743E+08         0.25539E+06         0.00000E+00
    0.25539E+06        -0.49995E+08         0.00000E+00
    0.00000E+00         0.00000E+00        -0.45914E+08
 
   -0.44762E+08         0.30133E+06         0.00000E+00
    0.30133E+06        -0.49993E+08         0.00000E+00
    0.00000E+00         0.00000E+00        -0.45914E+08
 
   -0.44782E+08         0.34713E+06         0.00000E+00
    0.34713E+06        -0.49990E+08         0.00000E+00
    0.00000E+00         0.00000E+00        -0.45914E+08
 
   -0.44801E+08         0.39279E+06         0.00000E+00
    0.39279E+06        -0.49988E+08         0.00000E+00
    0.00000E+00         0.00000E+00        -0.45914E+08
 
   -0.44822E+08         0.43831E+06         0.00000E+00
    0.43831E+06        -0.49985E+08         0.00000E+00
    0.00000E+00         0.00000E+00        -0.45914E+08
 
   -0.44842E+08         0.48368E+06         0.00000E+00
    0.48368E+06        -0.49981E+08         0.00000E+00
    0.00000E+00         0.00000E+00        -0.45914E+08
 
   -0.44863E+08         0.52890E+06         0.00000E+00
    0.52890E+06        -0.49978E+08         0.00000E+00
    0.00000E+00         0.00000E+00        -0.45914E+08
 
   -0.44884E+08         0.57398E+06         0.00000E+00
    0.57398E+06        -0.49973E+08         0.00000E+00
    0.00000E+00         0.00000E+00        -0.45914E+08
 
   -0.44906E+08         0.61891E+06         0.00000E+00
    0.61891E+06        -0.49969E+08         0.00000E+00
    0.00000E+00         0.00000E+00        -0.45914E+08
 
   -0.44927E+08         0.66369E+06         0.00000E+00
    0.66369E+06        -0.49964E+08         0.00000E+00
    0.00000E+00         0.00000E+00        -0.45914E+08
 
   -0.44950E+08         0.70833E+06         0.00000E+00
    0.70833E+06        -0.49959E+08         0.00000E+00
    0.00000E+00         0.00000E+00        -0.45914E+08
 
   -0.44972E+08         0.75282E+06         0.00000E+00
    0.75282E+06        -0.49954E+08         0.00000E+00
    0.00000E+00         0.00000E+00        -0.45914E+08
 
   -0.44995E+08         0.79716E+06         0.00000E+00
    0.79716E+06        -0.49948E+08         0.00000E+00
    0.00000E+00         0.00000E+00        -0.45914E+08
 
   -0.45018E+08         0.84135E+06         0.00000E+00
    0.84135E+06        -0.49942E+08         0.00000E+00
    0.00000E+00         0.00000E+00        -0.45914E+08
 
   -0.45042E+08         0.88539E+06         0.00000E+00
    0.88539E+06        -0.49936E+08         0.00000E+00
    0.00000E+00         0.00000E+00        -0.45914E+08
 
   -0.45065E+08         0.92928E+06         0.00000E+00
    0.92928E+06        -0.49929E+08         0.00000E+00
    0.00000E+00         0.00000E+00        -0.45914E+08
 
   -0.45089E+08         0.97302E+06         0.00000E+00
    0.97302E+06        -0.49922E+08         0.00000E+00
    0.00000E+00         0.00000E+00        -0.45914E+08
 
   -0.45114E+08         0.10166E+07         0.00000E+00
    0.10166E+07        -0.49914E+08         0.00000E+00
    0.00000E+00         0.00000E+00        -0.45914E+08
 
   -0.45139E+08         0.10600E+07         0.00000E+00
    0.10600E+07        -0.49907E+08         0.00000E+00
    0.00000E+00         0.00000E+00        -0.45914E+08
 
   -0.45164E+08         0.11033E+07         0.00000E+00
    0.11033E+07        -0.49899E+08         0.00000E+00
    0.00000E+00         0.00000E+00        -0.45914E+08
 
   -0.45189E+08         0.11464E+07         0.00000E+00
    0.11464E+07        -0.49890E+08         0.00000E+00
    0.00000E+00         0.00000E+00        -0.45914E+08
 
   -0.45215E+08         0.11894E+07         0.00000E+00
    0.11894E+07        -0.49881E+08         0.00000E+00
    0.00000E+00         0.00000E+00        -0.45914E+08
 
   -0.45241E+08         0.12322E+07         0.00000E+00
    0.12322E+07        -0.49872E+08         0.00000E+00
    0.00000E+00         0.00000E+00        -0.45914E+08
 
   -0.45268E+08         0.12748E+07         0.00000E+00
    0.12748E+07        -0.49863E+08         0.00000E+00
    0.00000E+00         0.00000E+00        -0.45914E+08
 
   -0.45294E+08         0.13173E+07         0.00000E+00
    0.13173E+07        -0.49853E+08         0.00000E+00
    0.00000E+00         0.00000E+00        -0.45914E+08
 
   -0.45321E+08         0.13597E+07         0.00000E+00
    0.13597E+07        -0.49843E+08         0.00000E+00
    0.00000E+00         0.00000E+00        -0.45915E+08
 
   -0.45349E+08         0.14018E+07         0.00000E+00
    0.14018E+07        -0.49833E+08         0.00000E+00
    0.00000E+00         0.00000E+00        -0.45915E+08
 
   -0.45376E+08         0.14438E+07         0.00000E+00
    0.14438E+07        -0.49822E+08         0.00000E+00
    0.00000E+00         0.00000E+00        -0.45915E+08
 
   -0.45405E+08         0.14857E+07         0.00000E+00
    0.14857E+07        -0.49811E+08         0.00000E+00
    0.00000E+00         0.00000E+00        -0.45915E+08
 
   -0.45433E+08         0.15273E+07         0.00000E+00
    0.15273E+07        -0.49799E+08         0.00000E+00
    0.00000E+00         0.00000E+00        -0.45915E+08
 
   -0.45462E+08         0.15688E+07         0.00000E+00
    0.15688E+07        -0.49788E+08         0.00000E+00
    0.00000E+00         0.00000E+00        -0.45915E+08
 
   -0.45491E+08         0.16101E+07         0.00000E+00
    0.16101E+07        -0.49776E+08         0.00000E+00
    0.00000E+00         0.00000E+00        -0.45915E+08
 
   -0.45520E+08         0.16513E+07         0.00000E+00
    0.16513E+07        -0.49763E+08         0.00000E+00
    0.00000E+00         0.00000E+00        -0.45915E+08
 
   -0.45550E+08         0.16923E+07         0.00000E+00
    0.16923E+07        -0.49750E+08         0.00000E+00
    0.00000E+00         0.00000E+00        -0.45915E+08
 
   -0.45580E+08         0.17331E+07         0.00000E+00
    0.17331E+07        -0.49737E+08         0.00000E+00
    0.00000E+00         0.00000E+00        -0.45915E+08
 
   -0.45610E+08         0.17737E+07         0.00000E+00
    0.17737E+07        -0.49724E+08         0.00000E+00
    0.00000E+00         0.00000E+00        -0.45915E+08
 
   -0.45641E+08         0.18142E+07         0.00000E+00
    0.18142E+07        -0.49710E+08         0.00000E+00
    0.00000E+00         0.00000E+00        -0.45915E+08
 
   -0.45672E+08         0.18544E+07         0.00000E+00
    0.18544E+07        -0.49696E+08         0.00000E+00
    0.00000E+00         0.00000E+00        -0.45915E+08
 
   -0.45703E+08         0.18945E+07         0.00000E+00
    0.18945E+07        -0.49682E+08         0.00000E+00
    0.00000E+00         0.00000E+00        -0.45915E+08
 
   -0.45735E+08         0.19344E+07         0.00000E+00
    0.19344E+07        -0.49667E+08         0.00000E+00
    0.00000E+00         0.00000E+00        -0.45915E+08
 
   -0.45767E+08         0.19741E+07         0.00000E+00
    0.19741E+07        -0.49652E+08         0.00000E+00
    0.00000E+00         0.00000E+00        -0.45915E+08
 
   -0.45799E+08         0.20137E+07         0.00000E+00
    0.20137E+07        -0.49636E+08         0.00000E+00
    0.00000E+00         0.00000E+00        -0.45915E+08
 
   -0.45832E+08         0.20530E+07         0.00000E+00
    0.20530E+07        -0.49620E+08         0.00000E+00
    0.00000E+00         0.00000E+00        -0.45915E+08
 
   -0.45865E+08         0.20921E+07         0.00000E+00
    0.20921E+07        -0.49604E+08         0.00000E+00
    0.00000E+00         0.00000E+00        -0.45915E+08
 
   -0.45898E+08         0.21311E+07         0.00000E+00
    0.21311E+07        -0.49588E+08         0.00000E+00
    0.00000E+00         0.00000E+00        -0.45915E+08
 
   -0.44415E+08         0.24390E+05         0.00000E+00
    0.24390E+05        -0.50000E+08         0.00000E+00
    0.00000E+00         0.00000E+00        -0.45717E+08
 
   -0.44433E+08         0.72771E+05         0.00000E+00
    0.72771E+05        -0.50000E+08         0.00000E+00
    0.00000E+00         0.00000E+00        -0.45717E+08
 
   -0.44451E+08         0.12101E+06         0.00000E+00
    0.12101E+06        -0.49999E+08         0.00000E+00
    0.00000E+00         0.00000E+00        -0.45717E+08
 
   -0.44470E+08         0.16910E+06         0.00000E+00
    0.16910E+06        -0.49998E+08         0.00000E+00
    0.00000E+00         0.00000E+00        -0.45717E+08
 
   -0.44489E+08         0.21704E+06         0.00000E+00
    0.21704E+06        -0.49996E+08         0.00000E+00
    0.00000E+00         0.00000E+00        -0.45717E+08
 
   -0.44509E+08         0.26484E+06         0.00000E+00
    0.26484E+06        -0.49995E+08         0.00000E+00
    0.00000E+00         0.00000E+00        -0.45717E+08
 
   -0.44529E+08         0.31250E+06         0.00000E+00
    0.31250E+06        -0.49993E+08         0.00000E+00
    0.00000E+00         0.00000E+00        -0.45717E+08
 
   -0.44549E+08         0.36001E+06         0.00000E+00
    0.36001E+06        -0.49990E+08         0.00000E+00
    0.00000E+00         0.00000E+00        -0.45717E+08
 
   -0.44569E+08         0.40737E+06         0.00000E+00
    0.40737E+06        -0.49987E+08         0.00000E+00
    0.00000E+00         0.00000E+00        -0.45717E+08
 
   -0.44590E+08         0.45459E+06         0.00000E+00
    0.45459E+06        -0.49984E+08         0.00000E+00
    0.00000E+00         0.00000E+00        -0.45717E+08
 
   -0.44611E+08         0.50166E+06         0.00000E+00
    0.50166E+06        -0.49981E+08         0.00000E+00
    0.00000E+00         0.00000E+00        -0.45717E+08
 
   -0.44633E+08         0.54859E+06         0.00000E+00
    0.54859E+06        -0.49977E+08         0.00000E+00
    0.00000E+00         0.00000E+00        -0.45717E+08
 
   -0.44655E+08         0.59536E+06         0.00000E+00
    0.59536E+06        -0.49973E+08         0.00000E+00
    0.00000E+00         0.00000E+00        -0.45717E+08
 
   -0.44677E+08         0.64199E+06         0.00000E+00
    0.64199E+06        -0.49968E+08         0.00000E+00
    0.00000E+00         0.00000E+00        -0.45717E+08
 
   -0.44700E+08         0.68848E+06         0.00000E+00
    0.68848E+06        -0.49964E+08         0.00000E+00
    0.00000E+00         0.00000E+00        -0.45717E+08
 
   -0.44723E+08         0.73481E+06         0.00000E+00
    0.73481E+06        -0.49958E+08         0.00000E+00
    0.00000E+00         0.00000E+00        -0.45717E+08
 
   -0.44746E+08         0.78099E+06         0.00000E+00
    0.78099E+06        -0.49953E+08         0.00000E+00
    0.00000E+00         0.00000E+00        -0.45717E+08
 
   -0.44769E+08         0.82703E+06         0.00000E+00
    0.82703E+06        -0.49947E+08         0.00000E+00
    0.00000E+00         0.00000E+00        -0.45717E+08
 
   -0.44793E+08         0.87291E+06         0.00000E+00
    0.87291E+06        -0.49941E+08         0.00000E+00
    0.00000E+00         0.00000E+00        -0.45717E+08
 
   -0.44817E+08         0.91865E+06         0.00000E+00
    0.91865E+06        -0.49934E+08         0.00000E+00
    0.00000E+00         0.00000E+00        -0.45717E+08
 
   -0.44842E+08         0.96423E+06         0.00000E+00
    0.96423E+06        -0.49927E+08         0.00000E+00
    0.00000E+00         0.00000E+00        -0.45717E+08
 
   -0.44867E+08         0.10097E+07         0.00000E+00
    0.10097E+07        -0.49920E+08         0.00000E+00
    0.00000E+00         0.00000E+00        -0.45717E+08
 
   -0.44892E+08         0.10549E+07         0.00000E+00
    0.10549E+07        -0.49912E+08         0.00000E+00
    0.00000E+00         0.00000E+00        -0.45717E+08
 
   -0.44918E+08         0.11001E+07         0.00000E+00
    0.11001E+07        -0.49904E+08         0.00000E+00
    0.00000E+00         0.00000E+00        -0.45717E+08
 
   -0.44944E+08         0.11450E+07         0.00000E+00
    0.11450E+07        -0.49896E+08         0.00000E+00
    0.00000E+00         0.00000E+00        -0.45717E+08
 
   -0.44970E+08         0.11899E+07         0.00000E+00
    0.11899E+07        -0.49888E+08         0.00000E+00
    0.00000E+00         0.00000E+00        -0.45717E+08
 
   -0.44996E+08         0.12345E+07         0.00000E+00
    0.12345E+07        -0.49879E+08         0.00000E+00
    0.00000E+00         0.00000E+00        -0.45717E+08
 
   -0.45023E+08         0.12790E+07         0.00000E+00
    0.12790E+07        -0.49869E+08         0.00000E+00
    0.00000E+00         0.00000E+00        -0.45717E+08
 
   -0.45050E+08         0.13234E+07         0.00000E+00
    0.13234E+07        -0.49860E+08         0.00000E+00
    0.00000E+00         0.00000E+00        -0.45717E+08
 
   -0.45078E+08         0.13675E+07         0.00000E+00
    0.13675E+07        -0.49850E+08         0.00000E+00
    0.00000E+00         0.00000E+00        -0.45717E+08
 
   -0.45106E+08         0.14116E+07         0.00000E+00
    0.14116E+07        -0.49839E+08         0.00000E+00
    0.00000E+00         0.00000E+00        -0.45717E+08
 
   -0.45134E+08         0.14554E+07         0.00000E+00
    0.14554E+07        -0.49829E+08         0.00000E+00
    0.00000E+00         0.00000E+00        -0.45717E+08
 
   -0.45163E+08         0.14991E+07         0.00000E+00
    0.14991E+07        -0.49818E+08         0.00000E+00
    0.00000E+00         0.00000E+00        -0.45717E+08
 
   -0.45192E+08         0.15427E+07         0.00000E+00
    0.15427E+07        -0.49806E+08         0.00000E+00
    0.00000E+00         0.00000E+00        -0.45717E+08
 
   -0.45221E+08         0.15860E+07         0.00000E+00
    0.15860E+07        -0.49795E+08         0.00000E+00
    0.00000E+00         0.00000E+00        -0.45717E+08
 
   -0.45250E+08         0.16292E+07         0.00000E+00
    0.16292E+07        -0.49782E+08         0.00000E+00
    0.00000E+00         0.00000E+00        -0.45717E+08
 
   -0.45280E+08         0.16723E+07         0.00000E+00
    0.16723E+07        -0.49770E+08         0.00000E+00
    0.00000E+00         0.00000E+00        -0.45717E+08
 
   -0.45310E+08         0.17151E+07         0.00000E+00
    0.17151E+07        -0.49757E+08         0.00000E+00
    0.00000E+00         0.00000E+00        -0.45717E+08
 
   -0.45341E+08         0.17578E+07         0.00000E+00
    0.17578E+07        -0.49744E+08         0.00000E+00
    0.00000E+00         0.00000E+00        -0.45717E+08
 
   -0.45372E+08         0.18003E+07         0.00000E+00
    0.18003E+07        -0.49731E+08         0.00000E+00
    0.00000E+00         0.00000E+00        -0.45717E+08
 
   -0.45403E+08         0.18427E+07         0.00000E+00
    0.18427E+07        -0.49717E+08         0.00000E+00
    0.00000E+00         0.00000E+00        -0.45717E+08
 
   -0.45435E+08         0.18848E+07         0.00000E+00
    0.18848E+07        -0.49703E+08         0.00000E+00
    0.00000E+00         0.00000E+00        -0.45717E+08
 
   -0.45466E+08         0.19268E+07         0.00000E+00
    0.19268E+07        -0.49688E+08         0.00000E+00
    0.00000E+00         0.00000E+00        -0.45717E+08
 
   -0.45499E+08         0.19686E+07         0.00000E+00
    0.19686E+07        -0.49673E+08         0.00000E+00
    0.00000E+00         0.00000E+00        -0.45717E+08
 
   -0.45531E+08         0.20102E+07         0.00000E+00
    0.20102E+07        -0.49658E+08         0.00000E+00
    0.00000E+00         0.00000E+00        -0.45717E+08
 
   -0.45564E+08         0.20517E+07         0.00000E+00
    0.20517E+07        -0.49643E+08         0.00000E+00
    0.00000E+00         0.00000E+00        -0.45717E+08
 
   -0.45597E+08         0.20929E+07         0.00000E+00
    0.20929E+07        -0.49627E+08         0.00000E+00
    0.00000E+00         0.00000E+00        -0.45717E+08
 
   -0.45631E+08         0.21340E+07         0.00000E+00
    0.21340E+07        -0.49610E+08         0.00000E+00
    0.00000E+00         0.00000E+00        -0.45717E+08
 
   -0.45665E+08         0.21749E+07         0.00000E+00
    0.21749E+07        -0.49594E+08         0.00000E+00
    0.00000E+00         0.00000E+00        -0.45717E+08
 
   -0.45699E+08         0.22155E+07         0.00000E+00
    0.22155E+07        -0.49577E+08         0.00000E+00
    0.00000E+00         0.00000E+00        -0.45717E+08
 
   -0.44168E+08         0.25275E+05         0.00000E+00
    0.25275E+05        -0.50000E+08         0.00000E+00
    0.00000E+00         0.00000E+00        -0.45510E+08
 
   -0.44187E+08         0.75418E+05         0.00000E+00
    0.75418E+05        -0.50000E+08         0.00000E+00
    0.00000E+00         0.00000E+00        -0.45510E+08
 
   -0.44206E+08         0.12541E+06         0.00000E+00
    0.12541E+06        -0.49999E+08         0.00000E+00
    0.00000E+00         0.00000E+00        -0.45510E+08
 
   -0.44226E+08         0.17526E+06         0.00000E+00
    0.17526E+06        -0.49998E+08         0.00000E+00
    0.00000E+00         0.00000E+00        -0.45510E+08
 
   -0.44245E+08         0.22496E+06         0.00000E+00
    0.22496E+06        -0.49996E+08         0.00000E+00
    0.00000E+00         0.00000E+00        -0.45510E+08
 
   -0.44266E+08         0.27451E+06         0.00000E+00
    0.27451E+06        -0.49995E+08         0.00000E+00
    0.00000E+00         0.00000E+00        -0.45510E+08
 
   -0.44286E+08         0.32391E+06         0.00000E+00
    0.32391E+06        -0.49992E+08         0.00000E+00
    0.00000E+00         0.00000E+00        -0.45510E+08
 
   -0.44307E+08         0.37317E+06         0.00000E+00
    0.37317E+06        -0.49990E+08         0.00000E+00
    0.00000E+00         0.00000E+00        -0.45510E+08
 
   -0.44328E+08         0.42228E+06         0.00000E+00
    0.42228E+06        -0.49987E+08         0.00000E+00
    0.00000E+00         0.00000E+00        -0.45510E+08
 
   -0.44350E+08         0.47124E+06         0.00000E+00
    0.47124E+06        -0.49984E+08         0.00000E+00
    0.00000E+00         0.00000E+00        -0.45510E+08
 
   -0.44372E+08         0.52005E+06         0.00000E+00
    0.52005E+06        -0.49980E+08         0.00000E+00
    0.00000E+00         0.00000E+00        -0.45510E+08
 
   -0.44394E+08         0.56872E+06         0.00000E+00
    0.56872E+06        -0.49977E+08         0.00000E+00
    0.00000E+00         0.00000E+00        -0.45510E+08
 
   -0.44417E+08         0.61724E+06         0.00000E+00
    0.61724E+06        -0.49972E+08         0.00000E+00
    0.00000E+00         0.00000E+00        -0.45510E+08
 
   -0.44440E+08         0.66561E+06         0.00000E+00
    0.66561E+06        -0.49968E+08         0.00000E+00
    0.00000E+00         0.00000E+00        -0.45510E+08
 
   -0.44463E+08         0.71383E+06         0.00000E+00
    0.71383E+06        -0.49963E+08         0.00000E+00
    0.00000E+00         0.00000E+00        -0.45510E+08
 
   -0.44487E+08         0.76190E+06         0.00000E+00
    0.76190E+06        -0.49957E+08         0.00000E+00
    0.00000E+00         0.00000E+00        -0.45510E+08
 
   -0.44511E+08         0.80982E+06         0.00000E+00
    0.80982E+06        -0.49952E+08         0.00000E+00
    0.00000E+00         0.00000E+00        -0.45510E+08
 
   -0.44535E+08         0.85759E+06         0.00000E+00
    0.85759E+06        -0.49946E+08         0.00000E+00
    0.00000E+00         0.00000E+00        -0.45510E+08
 
   -0.44560E+08         0.90522E+06         0.00000E+00
    0.90522E+06        -0.49939E+08         0.00000E+00
    0.00000E+00         0.00000E+00        -0.45510E+08
 
   -0.44585E+08         0.95269E+06         0.00000E+00
    0.95269E+06        -0.49933E+08         0.00000E+00
    0.00000E+00         0.00000E+00        -0.45510E+08
 
   -0.44610E+08         0.10000E+07         0.00000E+00
    0.10000E+07        -0.49926E+08         0.00000E+00
    0.00000E+00         0.00000E+00        -0.45510E+08
 
   -0.44636E+08         0.10472E+07         0.00000E+00
    0.10472E+07        -0.49918E+08         0.00000E+00
    0.00000E+00         0.00000E+00        -0.45510E+08
 
   -0.44662E+08         0.10942E+07         0.00000E+00
    0.10942E+07        -0.49910E+08         0.00000E+00
    0.00000E+00         0.00000E+00        -0.45510E+08
 
   -0.44688E+08         0.11411E+07         0.00000E+00
    0.11411E+07        -0.49902E+08         0.00000E+00
    0.00000E+00         0.00000E+00        -0.45510E+08
 
   -0.44715E+08         0.11878E+07         0.00000E+00
    0.11878E+07        -0.49894E+08         0.00000E+00
    0.00000E+00         0.00000E+00        -0.45510E+08
 
   -0.44742E+08         0.12343E+07         0.00000E+00
    0.12343E+07        -0.49885E+08         0.00000E+00
    0.00000E+00         0.00000E+00        -0.45510E+08
 
   -0.44769E+08         0.12807E+07         0.00000E+00
    0.12807E+07        -0.49876E+08         0.00000E+00
    0.00000E+00         0.00000E+00        -0.45510E+08
 
   -0.44797E+08         0.13270E+07         0.00000E+00
    0.13270E+07        -0.49866E+08         0.00000E+00
    0.00000E+00         0.00000E+00        -0.45510E+08
 
   -0.44825E+08         0.13731E+07         0.00000E+00
    0.13731E+07        -0.49856E+08         0.00000E+00
    0.00000E+00         0.00000E+00        -0.45510E+08
 
   -0.44853E+08         0.14190E+07         0.00000E+00
    0.14190E+07        -0.49846E+08         0.00000E+00
    0.00000E+00         0.00000E+00        -0.45510E+08
 
   -0.44882E+08         0.14648E+07         0.00000E+00
    0.14648E+07        -0.49836E+08         0.00000E+00
    0.00000E+00         0.00000E+00        -0.45510E+08
 
   -0.44911E+08         0.15104E+07         0.00000E+00
    0.15104E+07        -0.49825E+08         0.00000E+00
    0.00000E+00         0.00000E+00        -0.45510E+08
 
   -0.44940E+08         0.15559E+07         0.00000E+00
    0.15559E+07        -0.49813E+08         0.00000E+00
    0.00000E+00         0.00000E+00        -0.45510E+08
 
   -0.44970E+08         0.16011E+07         0.00000E+00
    0.16011E+07        -0.49802E+08         0.00000E+00
    0.00000E+00         0.00000E+00        -0.45510E+08
 
   -0.45000E+08         0.16463E+07         0.00000E+00
    0.16463E+07        -0.49790E+08         0.00000E+00
    0.00000E+00         0.00000E+00        -0.45510E+08
 
   -0.45030E+08         0.16912E+07         0.00000E+00
    0.16912E+07        -0.49777E+08         0.00000E+00
    0.00000E+00         0.00000E+00        -0.45510E+08
 
   -0.45061E+08         0.17360E+07         0.00000E+00
    0.17360E+07        -0.49765E+08         0.00000E+00
    0.00000E+00         0.00000E+00        -0.45510E+08
 
   -0.45092E+08         0.17806E+07         0.00000E+00
    0.17806E+07        -0.49751E+08         0.00000E+00
    0.00000E+00         0.00000E+00        -0.45510E+08
 
   -0.45123E+08         0.18251E+07         0.00000E+00
    0.18251E+07        -0.49738E+08         0.00000E+00
    0.00000E+00         0.00000E+00        -0.45510E+08
 
   -0.45155E+08         0.18694E+07         0.00000E+00
    0.18694E+07        -0.49724E+08         0.00000E+00
    0.00000E+00         0.00000E+00        -0.45510E+08
 
   -0.45187E+08         0.19135E+07         0.00000E+00
    0.19135E+07        -0.49710E+08         0.00000E+00
    0.00000E+00         0.00000E+00        -0.45510E+08
 
   -0.45220E+08         0.19574E+07         0.00000E+00
    0.19574E+07        -0.49696E+08         0.00000E+00
    0.00000E+00         0.00000E+00        -0.45510E+08
 
   -0.45253E+08         0.20012E+07         0.00000E+00
    0.20012E+07        -0.49681E+08         0.00000E+00
    0.00000E+00         0.00000E+00        -0.45510E+08
 
   -0.45286E+08         0.20448E+07         0.00000E+00
    0.20448E+07        -0.49665E+08         0.00000E+00
    0.00000E+00         0.00000E+00        -0.45510E+08
 
   -0.45319E+08         0.20882E+07         0.00000E+00
    0.20882E+07        -0.49650E+08         0.00000E+00
    0.00000E+00         0.00000E+00        -0.45510E+08
 
   -0.45353E+08         0.21314E+07         0.00000E+00
    0.21314E+07        -0.49634E+08         0.00000E+00
    0.00000E+00         0.00000E+00        -0.45510E+08
 
   -0.45387E+08         0.21744E+07         0.00000E+00
    0.21744E+07        -0.49617E+08         0.00000E+00
    0.00000E+00         0.00000E+00        -0.45510E+08
 
   -0.45422E+08         0.22173E+07         0.00000E+00
    0.22173E+07        -0.49601E+08         0.00000E+00
    0.00000E+00         0.00000E+00        -0.45510E+08
 
   -0.45457E+08         0.22600E+07         0.00000E+00
    0.22600E+07        -0.49584E+08         0.00000E+00
    0.00000E+00         0.00000E+00        -0.45510E+08
 
   -0.45492E+08         0.23024E+07         0.00000E+00
    0.23024E+07        -0.49566E+08         0.00000E+00
    0.00000E+00         0.00000E+00        -0.45510E+08
 
   -0.43912E+08         0.26178E+05         0.00000E+00
    0.26178E+05        -0.50000E+08         0.00000E+00
    0.00000E+00         0.00000E+00        -0.45295E+08
 
   -0.43932E+08         0.78119E+05         0.00000E+00
    0.78119E+05        -0.50000E+08         0.00000E+00
    0.00000E+00         0.00000E+00        -0.45295E+08
 
   -0.43952E+08         0.12991E+06         0.00000E+00
    0.12991E+06        -0.49999E+08         0.00000E+00
    0.00000E+00         0.00000E+00        -0.45295E+08
 
   -0.43972E+08         0.18155E+06         0.00000E+00
    0.18155E+06        -0.49998E+08         0.00000E+00
    0.00000E+00         0.00000E+00        -0.45295E+08
 
   -0.43993E+08         0.23304E+06         0.00000E+00
    0.23304E+06        -0.49996E+08         0.00000E+00
    0.00000E+00         0.00000E+00        -0.45295E+08
 
   -0.44014E+08         0.28438E+06         0.00000E+00
    0.28438E+06        -0.49994E+08         0.00000E+00
    0.00000E+00         0.00000E+00        -0.45295E+08
 
   -0.44035E+08         0.33557E+06         0.00000E+00
    0.33557E+06        -0.49992E+08         0.00000E+00
    0.00000E+00         0.00000E+00        -0.45295E+08
 
   -0.44057E+08         0.38661E+06         0.00000E+00
    0.38661E+06        -0.49990E+08         0.00000E+00
    0.00000E+00         0.00000E+00        -0.45295E+08
 
   -0.44079E+08         0.43750E+06         0.00000E+00
    0.43750E+06        -0.49987E+08         0.00000E+00
    0.00000E+00         0.00000E+00        -0.45295E+08
 
   -0.44101E+08         0.48824E+06         0.00000E+00
    0.48824E+06        -0.49984E+08         0.00000E+00
    0.00000E+00         0.00000E+00        -0.45295E+08
 
   -0.44124E+08         0.53883E+06         0.00000E+00
    0.53883E+06        -0.49980E+08         0.00000E+00
    0.00000E+00         0.00000E+00        -0.45295E+08
 
   -0.44147E+08         0.58928E+06         0.00000E+00
    0.58928E+06        -0.49976E+08         0.00000E+00
    0.00000E+00         0.00000E+00        -0.45295E+08
 
   -0.44170E+08         0.63958E+06         0.00000E+00
    0.63958E+06        -0.49972E+08         0.00000E+00
    0.00000E+00         0.00000E+00        -0.45295E+08
 
   -0.44194E+08         0.68973E+06         0.00000E+00
    0.68973E+06        -0.49967E+08         0.00000E+00
    0.00000E+00         0.00000E+00        -0.45295E+08
 
   -0.44218E+08         0.73973E+06         0.00000E+00
    0.73973E+06        -0.49962E+08         0.00000E+00
    0.00000E+00         0.00000E+00        -0.45295E+08
 
   -0.44242E+08         0.78958E+06         0.00000E+00
    0.78958E+06        -0.49957E+08         0.00000E+00
    0.00000E+00         0.00000E+00        -0.45295E+08
 
   -0.44267E+08         0.83928E+06         0.00000E+00
    0.83928E+06        -0.49951E+08         0.00000E+00
    0.00000E+00         0.00000E+00        -0.45295E+08
 
   -0.44292E+08         0.88883E+06         0.00000E+00
    0.88883E+06        -0.49945E+08         0.00000E+00
    0.00000E+00         0.00000E+00        -0.45295E+08
 
   -0.44318E+08         0.93824E+06         0.00000E+00
    0.93824E+06        -0.49938E+08         0.00000E+00
    0.00000E+00         0.00000E+00        -0.45295E+08
 
   -0.44343E+08         0.98749E+06         0.00000E+00
    0.98749E+06        -0.49931E+08         0.00000E+00
    0.00000E+00         0.00000E+00        -0.45295E+08
 
   -0.44369E+08         0.10366E+07         0.00000E+00
    0.10366E+07        -0.49924E+08         0.00000E+00
    0.00000E+00         0.00000E+00        -0.45294E+08
 
   -0.44396E+08         0.10855E+07         0.00000E+00
    0.10855E+07        -0.49917E+08         0.00000E+00
    0.00000E+00         0.00000E+00        -0.45294E+08
 
   -0.44423E+08         0.11344E+07         0.00000E+00
    0.11344E+07        -0.49909E+08         0.00000E+00
    0.00000E+00         0.00000E+00        -0.45294E+08
 
   -0.44450E+08         0.11830E+07         0.00000E+00
    0.11830E+07        -0.49900E+08         0.00000E+00
    0.00000E+00         0.00000E+00        -0.45294E+08
 
   -0.44477E+08         0.12315E+07         0.00000E+00
    0.12315E+07        -0.49892E+08         0.00000E+00
    0.00000E+00         0.00000E+00        -0.45294E+08
 
   -0.44505E+08         0.12799E+07         0.00000E+00
    0.12799E+07        -0.49883E+08         0.00000E+00
    0.00000E+00         0.00000E+00        -0.45294E+08
 
   -0.44533E+08         0.13280E+07         0.00000E+00
    0.13280E+07        -0.49873E+08         0.00000E+00
    0.00000E+00         0.00000E+00        -0.45294E+08
 
   -0.44561E+08         0.13761E+07         0.00000E+00
    0.13761E+07        -0.49863E+08         0.00000E+00
    0.00000E+00         0.00000E+00        -0.45294E+08
 
   -0.44590E+08         0.14240E+07         0.00000E+00
    0.14240E+07        -0.49853E+08         0.00000E+00
    0.00000E+00         0.00000E+00        -0.45294E+08
 
   -0.44619E+08         0.14717E+07         0.00000E+00
    0.14717E+07        -0.49843E+08         0.00000E+00
    0.00000E+00         0.00000E+00        -0.45294E+08
 
   -0.44649E+08         0.15193E+07         0.00000E+00
    0.15193E+07        -0.49832E+08         0.00000E+00
    0.00000E+00         0.00000E+00        -0.45294E+08
 
   -0.44679E+08         0.15667E+07         0.00000E+00
    0.15667E+07        -0.49821E+08         0.00000E+00
    0.00000E+00         0.00000E+00        -0.45294E+08
 
   -0.44709E+08         0.16139E+07         0.00000E+00
    0.16139E+07        -0.49809E+08         0.00000E+00
    0.00000E+00         0.00000E+00        -0.45294E+08
 
   -0.44739E+08         0.16610E+07         0.00000E+00
    0.16610E+07        -0.49797E+08         0.00000E+00
    0.00000E+00         0.00000E+00        -0.45294E+08
 
   -0.44770E+08         0.17080E+07         0.00000E+00
    0.17080E+07        -0.49785E+08         0.00000E+00
    0.00000E+00         0.00000E+00        -0.45294E+08
 
   -0.44801E+08         0.17548E+07         0.00000E+00
    0.17548E+07        -0.49772E+08         0.00000E+00
    0.00000E+00         0.00000E+00        -0.45294E+08
 
   -0.44833E+08         0.18014E+07         0.00000E+00
    0.18014E+07        -0.49759E+08         0.00000E+00
    0.00000E+00         0.00000E+00        -0.45294E+08
 
   -0.44865E+08         0.18478E+07         0.00000E+00
    0.18478E+07        -0.49746E+08         0.00000E+00
    0.00000E+00         0.00000E+00        -0.45294E+08
 
   -0.44897E+08         0.18941E+07         0.00000E+00
    0.18941E+07        -0.49732E+08         0.00000E+00
    0.00000E+00         0.00000E+00        -0.45294E+08
 
   -0.44930E+08         0.19402E+07         0.00000E+00
    0.19402E+07        -0.49718E+08         0.00000E+00
    0.00000E+00         0.00000E+00        -0.45294E+08
 
   -0.44963E+08         0.19862E+07         0.00000E+00
    0.19862E+07        -0.49703E+08         0.00000E+00
    0.00000E+00         0.00000E+00        -0.45294E+08
 
   -0.44996E+08         0.20319E+07         0.00000E+00
    0.20319E+07        -0.49689E+08         0.00000E+00
    0.00000E+00         0.00000E+00        -0.45294E+08
 
   -0.45030E+08         0.20775E+07         0.00000E+00
    0.20775E+07        -0.49673E+08         0.00000E+00
    0.00000E+00         0.00000E+00        -0.45294E+08
 
   -0.45064E+08         0.21230E+07         0.00000E+00
    0.21230E+07        -0.49658E+08         0.00000E+00
    0.00000E+00         0.00000E+00        -0.45294E+08
 
   -0.45098E+08         0.21682E+07         0.00000E+00
    0.21682E+07        -0.49642E+08         0.00000E+00
    0.00000E+00         0.00000E+00        -0.45294E+08
 
   -0.45133E+08         0.22133E+07         0.00000E+00
    0.22133E+07        -0.49625E+08         0.00000E+00
    0.00000E+00         0.00000E+00        -0.45294E+08
 
   -0.45168E+08         0.22582E+07         0.00000E+00
    0.22582E+07        -0.49608E+08         0.00000E+00
    0.00000E+00         0.00000E+00        -0.45294E+08
 
   -0.45203E+08         0.23029E+07         0.00000E+00
    0.23029E+07        -0.49591E+08         0.00000E+00
    0.00000E+00         0.00000E+00        -0.45294E+08
 
   -0.45239E+08         0.23474E+07         0.00000E+00
    0.23474E+07        -0.49574E+08         0.00000E+00
    0.00000E+00         0.00000E+00        -0.45294E+08
 
   -0.45275E+08         0.23917E+07         0.00000E+00
    0.23917E+07        -0.49556E+08         0.00000E+00
    0.00000E+00         0.00000E+00        -0.45294E+08
 
   -0.43648E+08         0.27098E+05         0.00000E+00
    0.27098E+05        -0.50000E+08         0.00000E+00
    0.00000E+00         0.00000E+00        -0.45070E+08
 
   -0.43668E+08         0.80869E+05         0.00000E+00
    0.80869E+05        -0.50000E+08         0.00000E+00
    0.00000E+00         0.00000E+00        -0.45070E+08
 
   -0.43689E+08         0.13449E+06         0.00000E+00
    0.13449E+06        -0.49999E+08         0.00000E+00
    0.00000E+00         0.00000E+00        -0.45070E+08
 
   -0.43710E+08         0.18795E+06         0.00000E+00
    0.18795E+06        -0.49998E+08         0.00000E+00
    0.00000E+00         0.00000E+00        -0.45070E+08
 
   -0.43731E+08         0.24127E+06         0.00000E+00
    0.24127E+06        -0.49996E+08         0.00000E+00
    0.00000E+00         0.00000E+00        -0.45070E+08
 
   -0.43753E+08         0.29443E+06         0.00000E+00
    0.29443E+06        -0.49994E+08         0.00000E+00
    0.00000E+00         0.00000E+00        -0.45070E+08
 
   -0.43775E+08         0.34744E+06         0.00000E+00
    0.34744E+06        -0.49992E+08         0.00000E+00
    0.00000E+00         0.00000E+00        -0.45070E+08
 
   -0.43797E+08         0.40030E+06         0.00000E+00
    0.40030E+06        -0.49990E+08         0.00000E+00
    0.00000E+00         0.00000E+00        -0.45070E+08
 
   -0.43820E+08         0.45301E+06         0.00000E+00
    0.45301E+06        -0.49987E+08         0.00000E+00
    0.00000E+00         0.00000E+00        -0.45070E+08
 
   -0.43843E+08         0.50557E+06         0.00000E+00
    0.50557E+06        -0.49983E+08         0.00000E+00
    0.00000E+00         0.00000E+00        -0.45070E+08
 
   -0.43867E+08         0.55798E+06         0.00000E+00
    0.55798E+06        -0.49980E+08         0.00000E+00
    0.00000E+00         0.00000E+00        -0.45070E+08
 
   -0.43891E+08         0.61025E+06         0.00000E+00
    0.61025E+06        -0.49976E+08         0.00000E+00
    0.00000E+00         0.00000E+00        -0.45070E+08
 
   -0.43915E+08         0.66236E+06         0.00000E+00
    0.66236E+06        -0.49971E+08         0.00000E+00
    0.00000E+00         0.00000E+00        -0.45070E+08
 
   -0.43939E+08         0.71433E+06         0.00000E+00
    0.71433E+06        -0.49966E+08         0.00000E+00
    0.00000E+00         0.00000E+00        -0.45070E+08
 
   -0.43964E+08         0.76614E+06         0.00000E+00
    0.76614E+06        -0.49961E+08         0.00000E+00
    0.00000E+00         0.00000E+00        -0.45070E+08
 
   -0.43989E+08         0.81781E+06         0.00000E+00
    0.81781E+06        -0.49956E+08         0.00000E+00
    0.00000E+00         0.00000E+00        -0.45070E+08
 
   -0.44015E+08         0.86934E+06         0.00000E+00
    0.86934E+06        -0.49950E+08         0.00000E+00
    0.00000E+00         0.00000E+00        -0.45070E+08
 
   -0.44040E+08         0.92071E+06         0.00000E+00
    0.92071E+06        -0.49944E+08         0.00000E+00
    0.00000E+00         0.00000E+00        -0.45070E+08
 
   -0.44066E+08         0.97193E+06         0.00000E+00
    0.97193E+06        -0.49937E+08         0.00000E+00
    0.00000E+00         0.00000E+00        -0.45069E+08
 
   -0.44093E+08         0.10230E+07         0.00000E+00
    0.10230E+07        -0.49930E+08         0.00000E+00
    0.00000E+00         0.00000E+00        -0.45069E+08
 
   -0.44120E+08         0.10739E+07         0.00000E+00
    0.10739E+07        -0.49923E+08         0.00000E+00
    0.00000E+00         0.00000E+00        -0.45069E+08
 
   -0.44147E+08         0.11247E+07         0.00000E+00
    0.11247E+07        -0.49915E+08         0.00000E+00
    0.00000E+00         0.00000E+00        -0.45069E+08
 
   -0.44174E+08         0.11754E+07         0.00000E+00
    0.11754E+07        -0.49907E+08         0.00000E+00
    0.00000E+00         0.00000E+00        -0.45069E+08
 
   -0.44202E+08         0.12258E+07         0.00000E+00
    0.12258E+07        -0.49898E+08         0.00000E+00
    0.00000E+00         0.00000E+00        -0.45069E+08
 
   -0.44230E+08         0.12762E+07         0.00000E+00
    0.12762E+07        -0.49889E+08         0.00000E+00
    0.00000E+00         0.00000E+00        -0.45069E+08
 
   -0.44259E+08         0.13263E+07         0.00000E+00
    0.13263E+07        -0.49880E+08         0.00000E+00
    0.00000E+00         0.00000E+00        -0.45069E+08
 
   -0.44288E+08         0.13764E+07         0.00000E+00
    0.13764E+07        -0.49871E+08         0.00000E+00
    0.00000E+00         0.00000E+00        -0.45069E+08
 
   -0.44317E+08         0.14263E+07         0.00000E+00
    0.14263E+07        -0.49861E+08         0.00000E+00
    0.00000E+00         0.00000E+00        -0.45069E+08
 
   -0.44347E+08         0.14760E+07         0.00000E+00
    0.14760E+07        -0.49850E+08         0.00000E+00
    0.00000E+00         0.00000E+00        -0.45069E+08
 
   -0.44376E+08         0.15256E+07         0.00000E+00
    0.15256E+07        -0.49840E+08         0.00000E+00
    0.00000E+00         0.00000E+00        -0.45069E+08
 
   -0.44407E+08         0.15750E+07         0.00000E+00
    0.15750E+07        -0.49829E+08         0.00000E+00
    0.00000E+00         0.00000E+00        -0.45069E+08
 
   -0.44437E+08         0.16243E+07         0.00000E+00
    0.16243E+07        -0.49817E+08         0.00000E+00
    0.00000E+00         0.00000E+00        -0.45069E+08
 
   -0.44468E+08         0.16734E+07         0.00000E+00
    0.16734E+07        -0.49805E+08         0.00000E+00
    0.00000E+00         0.00000E+00        -0.45069E+08
 
   -0.44500E+08         0.17223E+07         0.00000E+00
    0.17223E+07        -0.49793E+08         0.00000E+00
    0.00000E+00         0.00000E+00        -0.45069E+08
 
   -0.44531E+08         0.17711E+07         0.00000E+00
    0.17711E+07        -0.49781E+08         0.00000E+00
    0.00000E+00         0.00000E+00        -0.45069E+08
 
   -0.44563E+08         0.18198E+07         0.00000E+00
    0.18198E+07        -0.49768E+08         0.00000E+00
    0.00000E+00         0.00000E+00        -0.45069E+08
 
   -0.44596E+08         0.18683E+07         0.00000E+00
    0.18683E+07        -0.49754E+08         0.00000E+00
    0.00000E+00         0.00000E+00        -0.45068E+08
 
   -0.44628E+08         0.19166E+07         0.00000E+00
    0.19166E+07        -0.49741E+08         0.00000E+00
    0.00000E+00         0.00000E+00        -0.45068E+08
 
   -0.44661E+08         0.19647E+07         0.00000E+00
    0.19647E+07        -0.49726E+08         0.00000E+00
    0.00000E+00         0.00000E+00        -0.45068E+08
 
   -0.44695E+08         0.20127E+07         0.00000E+00
    0.20127E+07        -0.49712E+08         0.00000E+00
    0.00000E+00         0.00000E+00        -0.45068E+08
 
   -0.44729E+08         0.20606E+07         0.00000E+00
    0.20606E+07        -0.49697E+08         0.00000E+00
    0.00000E+00         0.00000E+00        -0.45068E+08
 
   -0.44763E+08         0.21082E+07         0.00000E+00
    0.21082E+07        -0.49682E+08         0.00000E+00
    0.00000E+00         0.00000E+00        -0.45068E+08
 
   -0.44797E+08         0.21557E+07         0.00000E+00
    0.21557E+07        -0.49666E+08         0.00000E+00
    0.00000E+00         0.00000E+00        -0.45068E+08
 
   -0.44832E+08         0.22031E+07         0.00000E+00
    0.22031E+07        -0.49650E+08         0.00000E+00
    0.00000E+00         0.00000E+00        -0.45068E+08
 
   -0.44867E+08         0.22502E+07         0.00000E+00
    0.22502E+07        -0.49634E+08         0.00000E+00
    0.00000E+00         0.00000E+00        -0.45068E+08
 
   -0.44903E+08         0.22972E+07         0.00000E+00
    0.22972E+07        -0.49617E+08         0.00000E+00
    0.00000E+00         0.00000E+00        -0.45068E+08
 
   -0.44939E+08         0.23440E+07         0.00000E+00
    0.23440E+07        -0.49600E+08         0.00000E+00
    0.00000E+00         0.00000E+00        -0.45068E+08
 
   -0.44976E+08         0.23906E+07         0.00000E+00
    0.23906E+07        -0.49582E+08         0.00000E+00
    0.00000E+00         0.00000E+00        -0.45068E+08
 
   -0.45012E+08         0.24371E+07         0.00000E+00
    0.24371E+07        -0.49564E+08         0.00000E+00
    0.00000E+00         0.00000E+00        -0.45068E+08
 
   -0.45049E+08         0.24834E+07         0.00000E+00
    0.24834E+07        -0.49546E+08         0.00000E+00
    0.00000E+00         0.00000E+00        -0.45068E+08
 
   -0.43374E+08         0.28032E+05         0.00000E+00
    0.28032E+05        -0.50000E+08         0.00000E+00
    0.00000E+00         0.00000E+00        -0.44835E+08
 
   -0.43395E+08         0.83666E+05         0.00000E+00
    0.83666E+05        -0.50000E+08         0.00000E+00
    0.00000E+00         0.00000E+00        -0.44835E+08
 
   -0.43416E+08         0.13914E+06         0.00000E+00
    0.13914E+06        -0.49999E+08         0.00000E+00
    0.00000E+00         0.00000E+00        -0.44835E+08
 
   -0.43438E+08         0.19447E+06         0.00000E+00
    0.19447E+06        -0.49998E+08         0.00000E+00
    0.00000E+00         0.00000E+00        -0.44835E+08
 
   -0.43460E+08         0.24964E+06         0.00000E+00
    0.24964E+06        -0.49996E+08         0.00000E+00
    0.00000E+00         0.00000E+00        -0.44835E+08
 
   -0.43483E+08         0.30466E+06         0.00000E+00
    0.30466E+06        -0.49994E+08         0.00000E+00
    0.00000E+00         0.00000E+00        -0.44835E+08
 
   -0.43506E+08         0.35952E+06         0.00000E+00
    0.35952E+06        -0.49992E+08         0.00000E+00
    0.00000E+00         0.00000E+00        -0.44835E+08
 
   -0.43529E+08         0.41424E+06         0.00000E+00
    0.41424E+06        -0.49989E+08         0.00000E+00
    0.00000E+00         0.00000E+00        -0.44835E+08
 
   -0.43552E+08         0.46880E+06         0.00000E+00
    0.46880E+06        -0.49986E+08         0.00000E+00
    0.00000E+00         0.00000E+00        -0.44835E+08
 
   -0.43576E+08         0.52321E+06         0.00000E+00
    0.52321E+06        -0.49983E+08         0.00000E+00
    0.00000E+00         0.00000E+00        -0.44835E+08
 
   -0.43600E+08         0.57748E+06         0.00000E+00
    0.57748E+06        -0.49979E+08         0.00000E+00
    0.00000E+00         0.00000E+00        -0.44835E+08
 
   -0.43625E+08         0.63160E+06         0.00000E+00
    0.63160E+06        -0.49975E+08         0.00000E+00
    0.00000E+00         0.00000E+00        -0.44835E+08
 
   -0.43650E+08         0.68556E+06         0.00000E+00
    0.68556E+06        -0.49971E+08         0.00000E+00
    0.00000E+00         0.00000E+00        -0.44835E+08
 
   -0.43675E+08         0.73938E+06         0.00000E+00
    0.73938E+06        -0.49966E+08         0.00000E+00
    0.00000E+00         0.00000E+00        -0.44835E+08
 
   -0.43701E+08         0.79305E+06         0.00000E+00
    0.79305E+06        -0.49961E+08         0.00000E+00
    0.00000E+00         0.00000E+00        -0.44835E+08
 
   -0.43726E+08         0.84658E+06         0.00000E+00
    0.84658E+06        -0.49955E+08         0.00000E+00
    0.00000E+00         0.00000E+00        -0.44835E+08
 
   -0.43753E+08         0.89996E+06         0.00000E+00
    0.89996E+06        -0.49949E+08         0.00000E+00
    0.00000E+00         0.00000E+00        -0.44835E+08
 
   -0.43779E+08         0.95319E+06         0.00000E+00
    0.95319E+06        -0.49943E+08         0.00000E+00
    0.00000E+00         0.00000E+00        -0.44835E+08
 
   -0.43806E+08         0.10063E+07         0.00000E+00
    0.10063E+07        -0.49936E+08         0.00000E+00
    0.00000E+00         0.00000E+00        -0.44835E+08
 
   -0.43833E+08         0.10592E+07         0.00000E+00
    0.10592E+07        -0.49929E+08         0.00000E+00
    0.00000E+00         0.00000E+00        -0.44834E+08
 
   -0.43861E+08         0.11120E+07         0.00000E+00
    0.11120E+07        -0.49921E+08         0.00000E+00
    0.00000E+00         0.00000E+00        -0.44834E+08
 
   -0.43889E+08         0.11647E+07         0.00000E+00
    0.11647E+07        -0.49913E+08         0.00000E+00
    0.00000E+00         0.00000E+00        -0.44834E+08
 
   -0.43917E+08         0.12172E+07         0.00000E+00
    0.12172E+07        -0.49905E+08         0.00000E+00
    0.00000E+00         0.00000E+00        -0.44834E+08
 
   -0.43946E+08         0.12695E+07         0.00000E+00
    0.12695E+07        -0.49897E+08         0.00000E+00
    0.00000E+00         0.00000E+00        -0.44834E+08
 
   -0.43974E+08         0.13217E+07         0.00000E+00
    0.13217E+07        -0.49888E+08         0.00000E+00
    0.00000E+00         0.00000E+00        -0.44834E+08
 
   -0.44004E+08         0.13738E+07         0.00000E+00
    0.13738E+07        -0.49878E+08         0.00000E+00
    0.00000E+00         0.00000E+00        -0.44834E+08
 
   -0.44033E+08         0.14257E+07         0.00000E+00
    0.14257E+07        -0.49868E+08         0.00000E+00
    0.00000E+00         0.00000E+00        -0.44834E+08
 
   -0.44063E+08         0.14775E+07         0.00000E+00
    0.14775E+07        -0.49858E+08         0.00000E+00
    0.00000E+00         0.00000E+00        -0.44834E+08
 
   -0.44094E+08         0.15291E+07         0.00000E+00
    0.15291E+07        -0.49848E+08         0.00000E+00
    0.00000E+00         0.00000E+00        -0.44834E+08
 
   -0.44124E+08         0.15805E+07         0.00000E+00
    0.15805E+07        -0.49837E+08         0.00000E+00
    0.00000E+00         0.00000E+00        -0.44834E+08
 
   -0.44155E+08         0.16319E+07         0.00000E+00
    0.16319E+07        -0.49825E+08         0.00000E+00
    0.00000E+00         0.00000E+00        -0.44834E+08
 
   -0.44187E+08         0.16830E+07         0.00000E+00
    0.16830E+07        -0.49814E+08         0.00000E+00
    0.00000E+00         0.00000E+00        -0.44834E+08
 
   -0.44218E+08         0.17341E+07         0.00000E+00
    0.17341E+07        -0.49802E+08         0.00000E+00
    0.00000E+00         0.00000E+00        -0.44833E+08
 
   -0.44250E+08         0.17849E+07         0.00000E+00
    0.17849E+07        -0.49789E+08         0.00000E+00
    0.00000E+00         0.00000E+00        -0.44833E+08
 
   -0.44283E+08         0.18356E+07         0.00000E+00
    0.18356E+07        -0.49776E+08         0.00000E+00
    0.00000E+00         0.00000E+00        -0.44833E+08
 
   -0.44316E+08         0.18862E+07         0.00000E+00
    0.18862E+07        -0.49763E+08         0.00000E+00
    0.00000E+00         0.00000E+00        -0.44833E+08
 
   -0.44349E+08         0.19366E+07         0.00000E+00
    0.19366E+07        -0.49750E+08         0.00000E+00
    0.00000E+00         0.00000E+00        -0.44833E+08
 
   -0.44382E+08         0.19869E+07         0.00000E+00
    0.19869E+07        -0.49736E+08         0.00000E+00
    0.00000E+00         0.00000E+00        -0.44833E+08
 
   -0.44416E+08         0.20370E+07         0.00000E+00
    0.20370E+07        -0.49721E+08         0.00000E+00
    0.00000E+00         0.00000E+00        -0.44833E+08
 
   -0.44450E+08         0.20869E+07         0.00000E+00
    0.20869E+07        -0.49706E+08         0.00000E+00
    0.00000E+00         0.00000E+00        -0.44833E+08
 
   -0.44485E+08         0.21367E+07         0.00000E+00
    0.21367E+07        -0.49691E+08         0.00000E+00
    0.00000E+00         0.00000E+00        -0.44833E+08
 
   -0.44520E+08         0.21863E+07         0.00000E+00
    0.21863E+07        -0.49676E+08         0.00000E+00
    0.00000E+00         0.00000E+00        -0.44833E+08
 
   -0.44555E+08         0.22358E+07         0.00000E+00
    0.22358E+07        -0.49660E+08         0.00000E+00
    0.00000E+00         0.00000E+00        -0.44833E+08
 
   -0.44591E+08         0.22851E+07         0.00000E+00
    0.22851E+07        -0.49643E+08         0.00000E+00
    0.00000E+00         0.00000E+00        -0.44833E+08
 
   -0.44627E+08         0.23342E+07         0.00000E+00
    0.23342E+07        -0.49626E+08         0.00000E+00
    0.00000E+00         0.00000E+00        -0.44833E+08
 
   -0.44664E+08         0.23832E+07         0.00000E+00
    0.23832E+07        -0.49609E+08         0.00000E+00
    0.00000E+00         0.00000E+00        -0.44833E+08
 
   -0.44701E+08         0.24320E+07         0.00000E+00
    0.24320E+07        -0.49592E+08         0.00000E+00
    0.00000E+00         0.00000E+00        -0.44833E+08
 
   -0.44738E+08         0.24806E+07         0.00000E+00
    0.24806E+07        -0.49574E+08         0.00000E+00
    0.00000E+00         0.00000E+00        -0.44833E+08
 
   -0.44775E+08         0.25290E+07         0.00000E+00
    0.25290E+07        -0.49555E+08         0.00000E+00
    0.00000E+00         0.00000E+00        -0.44833E+08
 
   -0.44814E+08         0.25773E+07         0.00000E+00
    0.25773E+07        -0.49536E+08         0.00000E+00
    0.00000E+00         0.00000E+00        -0.44833E+08
 
   -0.43090E+08         0.28981E+05         0.00000E+00
    0.28981E+05        -0.50000E+08         0.00000E+00
    0.00000E+00         0.00000E+00        -0.44590E+08
 
   -0.43112E+08         0.86506E+05         0.00000E+00
    0.86506E+05        -0.50000E+08         0.00000E+00
    0.00000E+00         0.00000E+00        -0.44590E+08
 
   -0.43135E+08         0.14387E+06         0.00000E+00
    0.14387E+06        -0.49999E+08         0.00000E+00
    0.00000E+00         0.00000E+00        -0.44590E+08
 
   -0.43157E+08         0.20109E+06         0.00000E+00
    0.20109E+06        -0.49998E+08         0.00000E+00
    0.00000E+00         0.00000E+00        -0.44590E+08
 
   -0.43180E+08         0.25814E+06         0.00000E+00
    0.25814E+06        -0.49996E+08         0.00000E+00
    0.00000E+00         0.00000E+00        -0.44590E+08
 
   -0.43203E+08         0.31505E+06         0.00000E+00
    0.31505E+06        -0.49994E+08         0.00000E+00
    0.00000E+00         0.00000E+00        -0.44590E+08
 
   -0.43227E+08         0.37180E+06         0.00000E+00
    0.37180E+06        -0.49992E+08         0.00000E+00
    0.00000E+00         0.00000E+00        -0.44590E+08
 
   -0.43251E+08         0.42840E+06         0.00000E+00
    0.42840E+06        -0.49989E+08         0.00000E+00
    0.00000E+00         0.00000E+00        -0.44590E+08
 
   -0.43275E+08         0.48485E+06         0.00000E+00
    0.48485E+06        -0.49986E+08         0.00000E+00
    0.00000E+00         0.00000E+00        -0.44590E+08
 
   -0.43300E+08         0.54115E+06         0.00000E+00
    0.54115E+06        -0.49983E+08         0.00000E+00
    0.00000E+00         0.00000E+00        -0.44590E+08
 
   -0.43325E+08         0.59730E+06         0.00000E+00
    0.59730E+06        -0.49979E+08         0.00000E+00
    0.00000E+00         0.00000E+00        -0.44590E+08
 
   -0.43350E+08         0.65330E+06         0.00000E+00
    0.65330E+06        -0.49975E+08         0.00000E+00
    0.00000E+00         0.00000E+00        -0.44590E+08
 
   -0.43376E+08         0.70915E+06         0.00000E+00
    0.70915E+06        -0.49970E+08         0.00000E+00
    0.00000E+00         0.00000E+00        -0.44590E+08
 
   -0.43402E+08         0.76486E+06         0.00000E+00
    0.76486E+06        -0.49965E+08         0.00000E+00
    0.00000E+00         0.00000E+00        -0.44590E+08
 
   -0.43428E+08         0.82042E+06         0.00000E+00
    0.82042E+06        -0.49960E+08         0.00000E+00
    0.00000E+00         0.00000E+00        -0.44590E+08
 
   -0.43454E+08         0.87584E+06         0.00000E+00
    0.87584E+06        -0.49954E+08         0.00000E+00
    0.00000E+00         0.00000E+00        -0.44590E+08
 
   -0.43481E+08         0.93111E+06         0.00000E+00
    0.93111E+06        -0.49948E+08         0.00000E+00
    0.00000E+00         0.00000E+00        -0.44590E+08
 
   -0.43509E+08         0.98623E+06         0.00000E+00
    0.98623E+06        -0.49942E+08         0.00000E+00
    0.00000E+00         0.00000E+00        -0.44590E+08
 
   -0.43536E+08         0.10412E+07         0.00000E+00
    0.10412E+07        -0.49935E+08         0.00000E+00
    0.00000E+00         0.00000E+00        -0.44589E+08
 
   -0.43564E+08         0.10961E+07         0.00000E+00
    0.10961E+07        -0.49928E+08         0.00000E+00
    0.00000E+00         0.00000E+00        -0.44589E+08
 
   -0.43592E+08         0.11508E+07         0.00000E+00
    0.11508E+07        -0.49920E+08         0.00000E+00
    0.00000E+00         0.00000E+00        -0.44589E+08
 
   -0.43621E+08         0.12053E+07         0.00000E+00
    0.12053E+07        -0.49912E+08         0.00000E+00
    0.00000E+00         0.00000E+00        -0.44589E+08
 
   -0.43650E+08         0.12597E+07         0.00000E+00
    0.12597E+07        -0.49904E+08         0.00000E+00
    0.00000E+00         0.00000E+00        -0.44589E+08
 
   -0.43679E+08         0.13140E+07         0.00000E+00
    0.13140E+07        -0.49895E+08         0.00000E+00
    0.00000E+00         0.00000E+00        -0.44589E+08
 
   -0.43709E+08         0.13681E+07         0.00000E+00
    0.13681E+07        -0.49886E+08         0.00000E+00
    0.00000E+00         0.00000E+00        -0.44589E+08
 
   -0.43739E+08         0.14221E+07         0.00000E+00
    0.14221E+07        -0.49876E+08         0.00000E+00
    0.00000E+00         0.00000E+00        -0.44589E+08
 
   -0.43769E+08         0.14759E+07         0.00000E+00
    0.14759E+07        -0.49866E+08         0.00000E+00
    0.00000E+00         0.00000E+00        -0.44589E+08
 
   -0.43800E+08         0.15296E+07         0.00000E+00
    0.15296E+07        -0.49856E+08         0.00000E+00
    0.00000E+00         0.00000E+00        -0.44589E+08
 
   -0.43831E+08         0.15832E+07         0.00000E+00
    0.15832E+07        -0.49845E+08         0.00000E+00
    0.00000E+00         0.00000E+00        -0.44588E+08
 
   -0.43862E+08         0.16366E+07         0.00000E+00
    0.16366E+07        -0.49834E+08         0.00000E+00
    0.00000E+00         0.00000E+00        -0.44588E+08
 
   -0.43894E+08         0.16898E+07         0.00000E+00
    0.16898E+07        -0.49823E+08         0.00000E+00
    0.00000E+00         0.00000E+00        -0.44588E+08
 
   -0.43926E+08         0.17430E+07         0.00000E+00
    0.17430E+07        -0.49811E+08         0.00000E+00
    0.00000E+00         0.00000E+00        -0.44588E+08
 
   -0.43959E+08         0.17959E+07         0.00000E+00
    0.17959E+07        -0.49798E+08         0.00000E+00
    0.00000E+00         0.00000E+00        -0.44588E+08
 
   -0.43992E+08         0.18488E+07         0.00000E+00
    0.18488E+07        -0.49786E+08         0.00000E+00
    0.00000E+00         0.00000E+00        -0.44588E+08
 
   -0.44025E+08         0.19015E+07         0.00000E+00
    0.19015E+07        -0.49773E+08         0.00000E+00
    0.00000E+00         0.00000E+00        -0.44588E+08
 
   -0.44058E+08         0.19540E+07         0.00000E+00
    0.19540E+07        -0.49759E+08         0.00000E+00
    0.00000E+00         0.00000E+00        -0.44588E+08
 
   -0.44092E+08         0.20064E+07         0.00000E+00
    0.20064E+07        -0.49745E+08         0.00000E+00
    0.00000E+00         0.00000E+00        -0.44588E+08
 
   -0.44126E+08         0.20586E+07         0.00000E+00
    0.20586E+07        -0.49731E+08         0.00000E+00
    0.00000E+00         0.00000E+00        -0.44588E+08
 
   -0.44161E+08         0.21107E+07         0.00000E+00
    0.21107E+07        -0.49716E+08         0.00000E+00
    0.00000E+00         0.00000E+00        -0.44587E+08
 
   -0.44196E+08         0.21627E+07         0.00000E+00
    0.21627E+07        -0.49701E+08         0.00000E+00
    0.00000E+00         0.00000E+00        -0.44587E+08
 
   -0.44231E+08         0.22145E+07         0.00000E+00
    0.22145E+07        -0.49686E+08         0.00000E+00
    0.00000E+00         0.00000E+00        -0.44587E+08
 
   -0.44267E+08         0.22661E+07         0.00000E+00
    0.22661E+07        -0.49670E+08         0.00000E+00
    0.00000E+00         0.00000E+00        -0.44587E+08
 
   -0.44303E+08         0.23176E+07         0.00000E+00
    0.23176E+07        -0.49653E+08         0.00000E+00
    0.00000E+00         0.00000E+00        -0.44587E+08
 
   -0.44340E+08         0.23689E+07         0.00000E+00
    0.23689E+07        -0.49637E+08         0.00000E+00
    0.00000E+00         0.00000E+00        -0.44587E+08
 
   -0.44377E+08         0.24201E+07         0.00000E+00
    0.24201E+07        -0.49619E+08         0.00000E+00
    0.00000E+00         0.00000E+00        -0.44587E+08
 
   -0.44414E+08         0.24711E+07         0.00000E+00
    0.24711E+07        -0.49602E+08         0.00000E+00
    0.00000E+00         0.00000E+00        -0.44587E+08
 
   -0.44452E+08         0.25219E+07         0.00000E+00
    0.25219E+07        -0.49584E+08         0.00000E+00
    0.00000E+00         0.00000E+00        -0.44587E+08
 
   -0.44490E+08         0.25726E+07         0.00000E+00
    0.25726E+07        -0.49566E+08         0.00000E+00
    0.00000E+00         0.00000E+00        -0.44587E+08
 
   -0.44529E+08         0.26231E+07         0.00000E+00
    0.26231E+07        -0.49547E+08         0.00000E+00
    0.00000E+00         0.00000E+00        -0.44587E+08
 
   -0.44567E+08         0.26734E+07         0.00000E+00
    0.26734E+07        -0.49528E+08         0.00000E+00
    0.00000E+00         0.00000E+00        -0.44587E+08
 
   -0.42798E+08         0.29942E+05         0.00000E+00
    0.29942E+05        -0.50000E+08         0.00000E+00
    0.00000E+00         0.00000E+00        -0.44335E+08
 
   -0.42820E+08         0.89385E+05         0.00000E+00
    0.89385E+05        -0.50000E+08         0.00000E+00
    0.00000E+00         0.00000E+00        -0.44335E+08
 
   -0.42843E+08         0.14867E+06         0.00000E+00
    0.14867E+06        -0.49999E+08         0.00000E+00
    0.00000E+00         0.00000E+00        -0.44335E+08
 
   -0.42867E+08         0.20780E+06         0.00000E+00
    0.20780E+06        -0.49998E+08         0.00000E+00
    0.00000E+00         0.00000E+00        -0.44335E+08
 
   -0.42890E+08         0.26677E+06         0.00000E+00
    0.26677E+06        -0.49996E+08         0.00000E+00
    0.00000E+00         0.00000E+00        -0.44335E+08
 
   -0.42915E+08         0.32559E+06         0.00000E+00
    0.32559E+06        -0.49994E+08         0.00000E+00
    0.00000E+00         0.00000E+00        -0.44335E+08
 
   -0.42939E+08         0.38425E+06         0.00000E+00
    0.38425E+06        -0.49992E+08         0.00000E+00
    0.00000E+00         0.00000E+00        -0.44335E+08
 
   -0.42964E+08         0.44276E+06         0.00000E+00
    0.44276E+06        -0.49989E+08         0.00000E+00
    0.00000E+00         0.00000E+00        -0.44335E+08
 
   -0.42989E+08         0.50113E+06         0.00000E+00
    0.50113E+06        -0.49986E+08         0.00000E+00
    0.00000E+00         0.00000E+00        -0.44335E+08
 
   -0.43014E+08         0.55934E+06         0.00000E+00
    0.55934E+06        -0.49983E+08         0.00000E+00
    0.00000E+00         0.00000E+00        -0.44335E+08
 
   -0.43040E+08         0.61741E+06         0.00000E+00
    0.61741E+06        -0.49979E+08         0.00000E+00
    0.00000E+00         0.00000E+00        -0.44335E+08
 
   -0.43066E+08         0.67532E+06         0.00000E+00
    0.67532E+06        -0.49974E+08         0.00000E+00
    0.00000E+00         0.00000E+00        -0.44334E+08
 
   -0.43092E+08         0.73309E+06         0.00000E+00
    0.73309E+06        -0.49970E+08         0.00000E+00
    0.00000E+00         0.00000E+00        -0.44334E+08
 
   -0.43119E+08         0.79072E+06         0.00000E+00
    0.79072E+06        -0.49965E+08         0.00000E+00
    0.00000E+00         0.00000E+00        -0.44334E+08
 
   -0.43146E+08         0.84820E+06         0.00000E+00
    0.84820E+06        -0.49959E+08         0.00000E+00
    0.00000E+00         0.00000E+00        -0.44334E+08
 
   -0.43173E+08         0.90554E+06         0.00000E+00
    0.90554E+06        -0.49954E+08         0.00000E+00
    0.00000E+00         0.00000E+00        -0.44334E+08
 
   -0.43201E+08         0.96274E+06         0.00000E+00
    0.96274E+06        -0.49947E+08         0.00000E+00
    0.00000E+00         0.00000E+00        -0.44334E+08
 
   -0.43229E+08         0.10198E+07         0.00000E+00
    0.10198E+07        -0.49941E+08         0.00000E+00
    0.00000E+00         0.00000E+00        -0.44334E+08
 
   -0.43257E+08         0.10767E+07         0.00000E+00
    0.10767E+07        -0.49934E+08         0.00000E+00
    0.00000E+00         0.00000E+00        -0.44334E+08
 
   -0.43285E+08         0.11335E+07         0.00000E+00
    0.11335E+07        -0.49927E+08         0.00000E+00
    0.00000E+00         0.00000E+00        -0.44334E+08
 
   -0.43314E+08         0.11901E+07         0.00000E+00
    0.11901E+07        -0.49919E+08         0.00000E+00
    0.00000E+00         0.00000E+00        -0.44333E+08
 
   -0.43344E+08         0.12466E+07         0.00000E+00
    0.12466E+07        -0.49911E+08         0.00000E+00
    0.00000E+00         0.00000E+00        -0.44333E+08
 
   -0.43373E+08         0.13030E+07         0.00000E+00
    0.13030E+07        -0.49902E+08         0.00000E+00
    0.00000E+00         0.00000E+00        -0.44333E+08
 
   -0.43403E+08         0.13592E+07         0.00000E+00
    0.13592E+07        -0.49893E+08         0.00000E+00
    0.00000E+00         0.00000E+00        -0.44333E+08
 
   -0.43434E+08         0.14153E+07         0.00000E+00
    0.14153E+07        -0.49884E+08         0.00000E+00
    0.00000E+00         0.00000E+00        -0.44333E+08
 
   -0.43465E+08         0.14712E+07         0.00000E+00
    0.14712E+07        -0.49874E+08         0.00000E+00
    0.00000E+00         0.00000E+00        -0.44333E+08
 
   -0.43496E+08         0.15270E+07         0.00000E+00
    0.15270E+07        -0.49864E+08         0.00000E+00
    0.00000E+00         0.00000E+00        -0.44333E+08
 
   -0.43527E+08         0.15827E+07         0.00000E+00
    0.15827E+07        -0.49854E+08         0.00000E+00
    0.00000E+00         0.00000E+00        -0.44333E+08
 
   -0.43559E+08         0.16382E+07         0.00000E+00
    0.16382E+07        -0.49843E+08         0.00000E+00
    0.00000E+00         0.00000E+00        -0.44332E+08
 
   -0.43591E+08         0.16936E+07         0.00000E+00
    0.16936E+07        -0.49832E+08         0.00000E+00
    0.00000E+00         0.00000E+00        -0.44332E+08
 
   -0.43623E+08         0.17488E+07         0.00000E+00
    0.17488E+07        -0.49820E+08         0.00000E+00
    0.00000E+00         0.00000E+00        -0.44332E+08
 
   -0.43656E+08         0.18040E+07         0.00000E+00
    0.18040E+07        -0.49808E+08         0.00000E+00
    0.00000E+00         0.00000E+00        -0.44332E+08
 
   -0.43689E+08         0.18589E+07         0.00000E+00
    0.18589E+07        -0.49795E+08         0.00000E+00
    0.00000E+00         0.00000E+00        -0.44332E+08
 
   -0.43723E+08         0.19138E+07         0.00000E+00
    0.19138E+07        -0.49782E+08         0.00000E+00
    0.00000E+00         0.00000E+00        -0.44332E+08
 
   -0.43757E+08         0.19685E+07         0.00000E+00
    0.19685E+07        -0.49769E+08         0.00000E+00
    0.00000E+00         0.00000E+00        -0.44332E+08
 
   -0.43791E+08         0.20230E+07         0.00000E+00
    0.20230E+07        -0.49755E+08         0.00000E+00
    0.00000E+00         0.00000E+00        -0.44332E+08
 
   -0.43825E+08         0.20775E+07         0.00000E+00
    0.20775E+07        -0.49741E+08         0.00000E+00
    0.00000E+00         0.00000E+00        -0.44332E+08
 
   -0.43860E+08         0.21317E+07         0.00000E+00
    0.21317E+07        -0.49727E+08         0.00000E+00
    0.00000E+00         0.00000E+00        -0.44331E+08
 
   -0.43896E+08         0.21859E+07         0.00000E+00
    0.21859E+07        -0.49712E+08         0.00000E+00
    0.00000E+00         0.00000E+00        -0.44331E+08
 
   -0.43932E+08         0.22399E+07         0.00000E+00
    0.22399E+07        -0.49696E+08         0.00000E+00
    0.00000E+00         0.00000E+00        -0.44331E+08
 
   -0.43968E+08         0.22937E+07         0.00000E+00
    0.22937E+07        -0.49680E+08         0.00000E+00
    0.00000E+00         0.00000E+00        -0.44331E+08
 
   -0.44004E+08         0.23474E+07         0.00000E+00
    0.23474E+07        -0.49664E+08         0.00000E+00
    0.00000E+00         0.00000E+00        -0.44331E+08
 
   -0.44041E+08         0.24010E+07         0.00000E+00
    0.24010E+07        -0.49648E+08         0.00000E+00
    0.00000E+00         0.00000E+00        -0.44331E+08
 
   -0.44079E+08         0.24544E+07         0.00000E+00
    0.24544E+07        -0.49631E+08         0.00000E+00
    0.00000E+00         0.00000E+00        -0.44331E+08
 
   -0.44116E+08         0.25077E+07         0.00000E+00
    0.25077E+07        -0.49613E+08         0.00000E+00
    0.00000E+00         0.00000E+00        -0.44331E+08
 
   -0.44154E+08         0.25608E+07         0.00000E+00
    0.25608E+07        -0.49595E+08         0.00000E+00
    0.00000E+00         0.00000E+00        -0.44331E+08
 
   -0.44193E+08         0.26138E+07         0.00000E+00
    0.26138E+07        -0.49577E+08         0.00000E+00
    0.00000E+00         0.00000E+00        -0.44331E+08
 
   -0.44232E+08         0.26666E+07         0.00000E+00
    0.26666E+07        -0.49558E+08         0.00000E+00
    0.00000E+00         0.00000E+00        -0.44331E+08
 
   -0.44271E+08         0.27192E+07         0.00000E+00
    0.27192E+07        -0.49539E+08         0.00000E+00
    0.00000E+00         0.00000E+00        -0.44331E+08
 
   -0.44311E+08         0.27717E+07         0.00000E+00
    0.27717E+07        -0.49519E+08         0.00000E+00
    0.00000E+00         0.00000E+00        -0.44331E+08
 
   -0.42495E+08         0.30915E+05         0.00000E+00
    0.30915E+05        -0.50000E+08         0.00000E+00
    0.00000E+00         0.00000E+00        -0.44069E+08
 
   -0.42519E+08         0.92299E+05         0.00000E+00
    0.92299E+05        -0.50000E+08         0.00000E+00
    0.00000E+00         0.00000E+00        -0.44069E+08
 
   -0.42543E+08         0.15352E+06         0.00000E+00
    0.15352E+06        -0.49999E+08         0.00000E+00
    0.00000E+00         0.00000E+00        -0.44069E+08
 
   -0.42567E+08         0.21459E+06         0.00000E+00
    0.21459E+06        -0.49998E+08         0.00000E+00
    0.00000E+00         0.00000E+00        -0.44069E+08
 
   -0.42591E+08         0.27550E+06         0.00000E+00
    0.27550E+06        -0.49996E+08         0.00000E+00
    0.00000E+00         0.00000E+00        -0.44069E+08
 
   -0.42616E+08         0.33626E+06         0.00000E+00
    0.33626E+06        -0.49994E+08         0.00000E+00
    0.00000E+00         0.00000E+00        -0.44068E+08
 
   -0.42641E+08         0.39686E+06         0.00000E+00
    0.39686E+06        -0.49992E+08         0.00000E+00
    0.00000E+00         0.00000E+00        -0.44068E+08
 
   -0.42667E+08         0.45731E+06         0.00000E+00
    0.45731E+06        -0.49989E+08         0.00000E+00
    0.00000E+00         0.00000E+00        -0.44068E+08
 
   -0.42692E+08         0.51762E+06         0.00000E+00
    0.51762E+06        -0.49986E+08         0.00000E+00
    0.00000E+00         0.00000E+00        -0.44068E+08
 
   -0.42718E+08         0.57777E+06         0.00000E+00
    0.57777E+06        -0.49982E+08         0.00000E+00
    0.00000E+00         0.00000E+00        -0.44068E+08
 
   -0.42745E+08         0.63778E+06         0.00000E+00
    0.63778E+06        -0.49978E+08         0.00000E+00
    0.00000E+00         0.00000E+00        -0.44068E+08
 
   -0.42772E+08         0.69764E+06         0.00000E+00
    0.69764E+06        -0.49974E+08         0.00000E+00
    0.00000E+00         0.00000E+00        -0.44068E+08
 
   -0.42799E+08         0.75736E+06         0.00000E+00
    0.75736E+06        -0.49969E+08         0.00000E+00
    0.00000E+00         0.00000E+00        -0.44068E+08
 
   -0.42826E+08         0.81693E+06         0.00000E+00
    0.81693E+06        -0.49964E+08         0.00000E+00
    0.00000E+00         0.00000E+00        -0.44068E+08
 
   -0.42854E+08         0.87636E+06         0.00000E+00
    0.87636E+06        -0.49959E+08         0.00000E+00
    0.00000E+00         0.00000E+00        -0.44068E+08
 
   -0.42882E+08         0.93565E+06         0.00000E+00
    0.93565E+06        -0.49953E+08         0.00000E+00
    0.00000E+00         0.00000E+00        -0.44068E+08
 
   -0.42910E+08         0.99480E+06         0.00000E+00
    0.99480E+06        -0.49947E+08         0.00000E+00
    0.00000E+00         0.00000E+00        -0.44067E+08
 
   -0.42939E+08         0.10538E+07         0.00000E+00
    0.10538E+07        -0.49940E+08         0.00000E+00
    0.00000E+00         0.00000E+00        -0.44067E+08
 
   -0.42968E+08         0.11127E+07         0.00000E+00
    0.11127E+07        -0.49933E+08         0.00000E+00
    0.00000E+00         0.00000E+00        -0.44067E+08
 
   -0.42997E+08         0.11714E+07         0.00000E+00
    0.11714E+07        -0.49926E+08         0.00000E+00
    0.00000E+00         0.00000E+00        -0.44067E+08
 
   -0.43027E+08         0.12300E+07         0.00000E+00
    0.12300E+07        -0.49918E+08         0.00000E+00
    0.00000E+00         0.00000E+00        -0.44067E+08
 
   -0.43057E+08         0.12885E+07         0.00000E+00
    0.12885E+07        -0.49910E+08         0.00000E+00
    0.00000E+00         0.00000E+00        -0.44067E+08
 
   -0.43087E+08         0.13468E+07         0.00000E+00
    0.13468E+07        -0.49901E+08         0.00000E+00
    0.00000E+00         0.00000E+00        -0.44067E+08
 
   -0.43118E+08         0.14050E+07         0.00000E+00
    0.14050E+07        -0.49892E+08         0.00000E+00
    0.00000E+00         0.00000E+00        -0.44066E+08
 
   -0.43149E+08         0.14631E+07         0.00000E+00
    0.14631E+07        -0.49883E+08         0.00000E+00
    0.00000E+00         0.00000E+00        -0.44066E+08
 
   -0.43180E+08         0.15210E+07         0.00000E+00
    0.15210E+07        -0.49873E+08         0.00000E+00
    0.00000E+00         0.00000E+00        -0.44066E+08
 
   -0.43212E+08         0.15789E+07         0.00000E+00
    0.15789E+07        -0.49862E+08         0.00000E+00
    0.00000E+00         0.00000E+00        -0.44066E+08
 
   -0.43244E+08         0.16365E+07         0.00000E+00
    0.16365E+07        -0.49852E+08         0.00000E+00
    0.00000E+00         0.00000E+00        -0.44066E+08
 
   -0.43276E+08         0.16941E+07         0.00000E+00
    0.16941E+07        -0.49841E+08         0.00000E+00
    0.00000E+00         0.00000E+00        -0.44066E+08
 
   -0.43309E+08         0.17515E+07         0.00000E+00
    0.17515E+07        -0.49829E+08         0.00000E+00
    0.00000E+00         0.00000E+00        -0.44065E+08
 
   -0.43342E+08         0.18088E+07         0.00000E+00
    0.18088E+07        -0.49817E+08         0.00000E+00
    0.00000E+00         0.00000E+00        -0.44065E+08
 
   -0.43376E+08         0.18659E+07         0.00000E+00
    0.18659E+07        -0.49805E+08         0.00000E+00
    0.00000E+00         0.00000E+00        -0.44065E+08
 
   -0.43410E+08         0.19229E+07         0.00000E+00
    0.19229E+07        -0.49792E+08         0.00000E+00
    0.00000E+00         0.00000E+00        -0.44065E+08
 
   -0.43444E+08         0.19798E+07         0.00000E+00
    0.19798E+07        -0.49779E+08         0.00000E+00
    0.00000E+00         0.00000E+00        -0.44065E+08
 
   -0.43478E+08         0.20366E+07         0.00000E+00
    0.20366E+07        -0.49766E+08         0.00000E+00
    0.00000E+00         0.00000E+00        -0.44065E+08
 
   -0.43513E+08         0.20932E+07         0.00000E+00
    0.20932E+07        -0.49752E+08         0.00000E+00
    0.00000E+00         0.00000E+00        -0.44065E+08
 
   -0.43549E+08         0.21497E+07         0.00000E+00
    0.21497E+07        -0.49738E+08         0.00000E+00
    0.00000E+00         0.00000E+00        -0.44064E+08
 
   -0.43584E+08         0.22061E+07         0.00000E+00
    0.22061E+07        -0.49723E+08         0.00000E+00
    0.00000E+00         0.00000E+00        -0.44064E+08
 
   -0.43620E+08         0.22623E+07         0.00000E+00
    0.22623E+07        -0.49708E+08         0.00000E+00
    0.00000E+00         0.00000E+00        -0.44064E+08
 
   -0.43657E+08         0.23184E+07         0.00000E+00
    0.23184E+07        -0.49692E+08         0.00000E+00
    0.00000E+00         0.00000E+00        -0.44064E+08
 
   -0.43694E+08         0.23744E+07         0.00000E+00
    0.23744E+07        -0.49676E+08         0.00000E+00
    0.00000E+00         0.00000E+00        -0.44064E+08
 
   -0.43731E+08         0.24303E+07         0.00000E+00
    0.24303E+07        -0.49659E+08         0.00000E+00
    0.00000E+00         0.00000E+00        -0.44064E+08
 
   -0.43768E+08         0.24860E+07         0.00000E+00
    0.24860E+07        -0.49642E+08         0.00000E+00
    0.00000E+00         0.00000E+00        -0.44064E+08
 
   -0.43806E+08         0.25415E+07         0.00000E+00
    0.25415E+07        -0.49625E+08         0.00000E+00
    0.00000E+00         0.00000E+00        -0.44064E+08
 
   -0.43845E+08         0.25969E+07         0.00000E+00
    0.25969E+07        -0.49607E+08         0.00000E+00
    0.00000E+00         0.00000E+00        -0.44064E+08
 
   -0.43884E+08         0.26522E+07         0.00000E+00
    0.26522E+07        -0.49589E+08         0.00000E+00
    0.00000E+00         0.00000E+00        -0.44064E+08
 
   -0.43923E+08         0.27074E+07         0.00000E+00
    0.27074E+07        -0.49570E+08         0.00000E+00
    0.00000E+00         0.00000E+00        -0.44064E+08
 
   -0.43963E+08         0.27624E+07         0.00000E+00
    0.27624E+07        -0.49551E+08         0.00000E+00
    0.00000E+00         0.00000E+00        -0.44064E+08
 
   -0.44003E+08         0.28172E+07         0.00000E+00
    0.28172E+07        -0.49532E+08         0.00000E+00
    0.00000E+00         0.00000E+00        -0.44064E+08
 
   -0.44043E+08         0.28719E+07         0.00000E+00
    0.28719E+07        -0.49512E+08         0.00000E+00
    0.00000E+00         0.00000E+00        -0.44064E+08
 
   -0.42183E+08         0.31897E+05         0.00000E+00
    0.31897E+05        -0.50000E+08         0.00000E+00
    0.00000E+00         0.00000E+00        -0.43791E+08
 
   -0.42207E+08         0.95244E+05         0.00000E+00
    0.95244E+05        -0.50000E+08         0.00000E+00
    0.00000E+00         0.00000E+00        -0.43791E+08
 
   -0.42232E+08         0.15843E+06         0.00000E+00
    0.15843E+06        -0.49999E+08         0.00000E+00
    0.00000E+00         0.00000E+00        -0.43791E+08
 
   -0.42257E+08         0.22146E+06         0.00000E+00
    0.22146E+06        -0.49998E+08         0.00000E+00
    0.00000E+00         0.00000E+00        -0.43791E+08
 
   -0.42282E+08         0.28433E+06         0.00000E+00
    0.28433E+06        -0.49996E+08         0.00000E+00
    0.00000E+00         0.00000E+00        -0.43791E+08
 
   -0.42308E+08         0.34705E+06         0.00000E+00
    0.34705E+06        -0.49994E+08         0.00000E+00
    0.00000E+00         0.00000E+00        -0.43791E+08
 
   -0.42334E+08         0.40961E+06         0.00000E+00
    0.40961E+06        -0.49992E+08         0.00000E+00
    0.00000E+00         0.00000E+00        -0.43791E+08
 
   -0.42360E+08         0.47203E+06         0.00000E+00
    0.47203E+06        -0.49989E+08         0.00000E+00
    0.00000E+00         0.00000E+00        -0.43791E+08
 
   -0.42386E+08         0.53429E+06         0.00000E+00
    0.53429E+06        -0.49986E+08         0.00000E+00
    0.00000E+00         0.00000E+00        -0.43791E+08
 
   -0.42413E+08         0.59641E+06         0.00000E+00
    0.59641E+06        -0.49982E+08         0.00000E+00
    0.00000E+00         0.00000E+00        -0.43790E+08
 
   -0.42440E+08         0.65838E+06         0.00000E+00
    0.65838E+06        -0.49978E+08         0.00000E+00
    0.00000E+00         0.00000E+00        -0.43790E+08
 
   -0.42468E+08         0.72021E+06         0.00000E+00
    0.72021E+06        -0.49974E+08         0.00000E+00
    0.00000E+00         0.00000E+00        -0.43790E+08
 
   -0.42495E+08         0.78190E+06         0.00000E+00
    0.78190E+06        -0.49969E+08         0.00000E+00
    0.00000E+00         0.00000E+00        -0.43790E+08
 
   -0.42523E+08         0.84344E+06         0.00000E+00
    0.84344E+06        -0.49964E+08         0.00000E+00
    0.00000E+00         0.00000E+00        -0.43790E+08
 
   -0.42552E+08         0.90485E+06         0.00000E+00
    0.90485E+06        -0.49959E+08         0.00000E+00
    0.00000E+00         0.00000E+00        -0.43790E+08
 
   -0.42581E+08         0.96612E+06         0.00000E+00
    0.96612E+06        -0.49953E+08         0.00000E+00
    0.00000E+00         0.00000E+00        -0.43790E+08
 
   -0.42610E+08         0.10272E+07         0.00000E+00
    0.10272E+07        -0.49946E+08         0.00000E+00
    0.00000E+00         0.00000E+00        -0.43790E+08
 
   -0.42639E+08         0.10882E+07         0.00000E+00
    0.10882E+07        -0.49940E+08         0.00000E+00
    0.00000E+00         0.00000E+00        -0.43789E+08
 
   -0.42669E+08         0.11491E+07         0.00000E+00
    0.11491E+07        -0.49932E+08         0.00000E+00
    0.00000E+00         0.00000E+00        -0.43789E+08
 
   -0.42699E+08         0.12098E+07         0.00000E+00
    0.12098E+07        -0.49925E+08         0.00000E+00
    0.00000E+00         0.00000E+00        -0.43789E+08
 
   -0.42729E+08         0.12704E+07         0.00000E+00
    0.12704E+07        -0.49917E+08         0.00000E+00
    0.00000E+00         0.00000E+00        -0.43789E+08
 
   -0.42760E+08         0.13309E+07         0.00000E+00
    0.13309E+07        -0.49909E+08         0.00000E+00
    0.00000E+00         0.00000E+00        -0.43789E+08
 
   -0.42791E+08         0.13913E+07         0.00000E+00
    0.13913E+07        -0.49900E+08         0.00000E+00
    0.00000E+00         0.00000E+00        -0.43789E+08
 
   -0.42822E+08         0.14515E+07         0.00000E+00
    0.14515E+07        -0.49891E+08         0.00000E+00
    0.00000E+00         0.00000E+00        -0.43788E+08
 
   -0.42854E+08         0.15116E+07         0.00000E+00
    0.15116E+07        -0.49881E+08         0.00000E+00
    0.00000E+00         0.00000E+00        -0.43788E+08
 
   -0.42886E+08         0.15715E+07         0.00000E+00
    0.15715E+07        -0.49871E+08         0.00000E+00
    0.00000E+00         0.00000E+00        -0.43788E+08
 
   -0.42918E+08         0.16314E+07         0.00000E+00
    0.16314E+07        -0.49861E+08         0.00000E+00
    0.00000E+00         0.00000E+00        -0.43788E+08
 
   -0.42951E+08         0.16911E+07         0.00000E+00
    0.16911E+07        -0.49850E+08         0.00000E+00
    0.00000E+00         0.00000E+00        -0.43788E+08
 
   -0.42984E+08         0.17507E+07         0.00000E+00
    0.17507E+07        -0.49839E+08         0.00000E+00
    0.00000E+00         0.00000E+00        -0.43787E+08
 
   -0.43017E+08         0.18102E+07         0.00000E+00
    0.18102E+07        -0.49827E+08         0.00000E+00
    0.00000E+00         0.00000E+00        -0.43787E+08
 
   -0.43051E+08         0.18695E+07         0.00000E+00
    0.18695E+07        -0.49815E+08         0.00000E+00
    0.00000E+00         0.00000E+00        -0.43787E+08
 
   -0.43085E+08         0.19287E+07         0.00000E+00
    0.19287E+07        -0.49803E+08         0.00000E+00
    0.00000E+00         0.00000E+00        -0.43787E+08
 
   -0.43119E+08         0.19879E+07         0.00000E+00
    0.19879E+07        -0.49790E+08         0.00000E+00
    0.00000E+00         0.00000E+00        -0.43787E+08
 
   -0.43154E+08         0.20468E+07         0.00000E+00
    0.20468E+07        -0.49777E+08         0.00000E+00
    0.00000E+00         0.00000E+00        -0.43787E+08
 
   -0.43190E+08         0.21057E+07         0.00000E+00
    0.21057E+07        -0.49763E+08         0.00000E+00
    0.00000E+00         0.00000E+00        -0.43786E+08
 
   -0.43225E+08         0.21645E+07         0.00000E+00
    0.21645E+07        -0.49749E+08         0.00000E+00
    0.00000E+00         0.00000E+00        -0.43786E+08
 
   -0.43261E+08         0.22231E+07         0.00000E+00
    0.22231E+07        -0.49734E+08         0.00000E+00
    0.00000E+00         0.00000E+00        -0.43786E+08
 
   -0.43297E+08         0.22816E+07         0.00000E+00
    0.22816E+07        -0.49719E+08         0.00000E+00
    0.00000E+00         0.00000E+00        -0.43786E+08
 
   -0.43334E+08         0.23400E+07         0.00000E+00
    0.23400E+07        -0.49704E+08         0.00000E+00
    0.00000E+00         0.00000E+00        -0.43786E+08
 
   -0.43371E+08         0.23982E+07         0.00000E+00
    0.23982E+07        -0.49688E+08         0.00000E+00
    0.00000E+00         0.00000E+00        -0.43786E+08
 
   -0.43409E+08         0.24564E+07         0.00000E+00
    0.24564E+07        -0.49672E+08         0.00000E+00
    0.00000E+00         0.00000E+00        -0.43786E+08
 
   -0.43446E+08         0.25144E+07         0.00000E+00
    0.25144E+07        -0.49655E+08         0.00000E+00
    0.00000E+00         0.00000E+00        -0.43785E+08
 
   -0.43485E+08         0.25723E+07         0.00000E+00
    0.25723E+07        -0.49638E+08         0.00000E+00
    0.00000E+00         0.00000E+00        -0.43785E+08
 
   -0.43523E+08         0.26301E+07         0.00000E+00
    0.26301E+07        -0.49620E+08         0.00000E+00
    0.00000E+00         0.00000E+00        -0.43785E+08
 
   -0.43563E+08         0.26877E+07         0.00000E+00
    0.26877E+07        -0.49602E+08         0.00000E+00
    0.00000E+00         0.00000E+00        -0.43785E+08
 
   -0.43602E+08         0.27452E+07         0.00000E+00
    0.27452E+07        -0.49584E+08         0.00000E+00
    0.00000E+00         0.00000E+00        -0.43785E+08
 
   -0.43642E+08         0.28026E+07         0.00000E+00
    0.28026E+07        -0.49565E+08         0.00000E+00
    0.00000E+00         0.00000E+00        -0.43785E+08
 
   -0.43682E+08         0.28599E+07         0.00000E+00
    0.28599E+07        -0.49545E+08         0.00000E+00
    0.00000E+00         0.00000E+00        -0.43785E+08
 
   -0.43723E+08         0.29170E+07         0.00000E+00
    0.29170E+07        -0.49525E+08         0.00000E+00
    0.00000E+00         0.00000E+00        -0.43785E+08
 
   -0.43764E+08         0.29740E+07         0.00000E+00
    0.29740E+07        -0.49505E+08         0.00000E+00
    0.00000E+00         0.00000E+00        -0.43785E+08
 
   -0.41861E+08         0.32888E+05         0.00000E+00
    0.32888E+05        -0.50000E+08         0.00000E+00
    0.00000E+00         0.00000E+00        -0.43502E+08
 
   -0.41886E+08         0.98215E+05         0.00000E+00
    0.98215E+05        -0.50000E+08         0.00000E+00
    0.00000E+00         0.00000E+00        -0.43502E+08
 
   -0.41911E+08         0.16338E+06         0.00000E+00
    0.16338E+06        -0.49999E+08         0.00000E+00
    0.00000E+00         0.00000E+00        -0.43502E+08
 
   -0.41937E+08         0.22839E+06         0.00000E+00
    0.22839E+06        -0.49998E+08         0.00000E+00
    0.00000E+00         0.00000E+00        -0.43502E+08
 
   -0.41963E+08         0.29324E+06         0.00000E+00
    0.29324E+06        -0.49996E+08         0.00000E+00
    0.00000E+00         0.00000E+00        -0.43502E+08
 
   -0.41989E+08         0.35794E+06         0.00000E+00
    0.35794E+06        -0.49994E+08         0.00000E+00
    0.00000E+00         0.00000E+00        -0.43501E+08
 
   -0.42016E+08         0.42248E+06         0.00000E+00
    0.42248E+06        -0.49992E+08         0.00000E+00
    0.00000E+00         0.00000E+00        -0.43501E+08
 
   -0.42043E+08         0.48688E+06         0.00000E+00
    0.48688E+06        -0.49989E+08         0.00000E+00
    0.00000E+00         0.00000E+00        -0.43501E+08
 
   -0.42070E+08         0.55112E+06         0.00000E+00
    0.55112E+06        -0.49986E+08         0.00000E+00
    0.00000E+00         0.00000E+00        -0.43501E+08
 
   -0.42098E+08         0.61522E+06         0.00000E+00
    0.61522E+06        -0.49982E+08         0.00000E+00
    0.00000E+00         0.00000E+00        -0.43501E+08
 
   -0.42126E+08         0.67918E+06         0.00000E+00
    0.67918E+06        -0.49978E+08         0.00000E+00
    0.00000E+00         0.00000E+00        -0.43501E+08
 
   -0.42154E+08         0.74300E+06         0.00000E+00
    0.74300E+06        -0.49974E+08         0.00000E+00
    0.00000E+00         0.00000E+00        -0.43501E+08
 
   -0.42182E+08         0.80667E+06         0.00000E+00
    0.80667E+06        -0.49969E+08         0.00000E+00
    0.00000E+00         0.00000E+00        -0.43501E+08
 
   -0.42211E+08         0.87021E+06         0.00000E+00
    0.87021E+06        -0.49964E+08         0.00000E+00
    0.00000E+00         0.00000E+00        -0.43500E+08
 
   -0.42240E+08         0.93361E+06         0.00000E+00
    0.93361E+06        -0.49958E+08         0.00000E+00
    0.00000E+00         0.00000E+00        -0.43500E+08
 
   -0.42270E+08         0.99688E+06         0.00000E+00
    0.99688E+06        -0.49952E+08         0.00000E+00
    0.00000E+00         0.00000E+00        -0.43500E+08
 
   -0.42299E+08         0.10600E+07         0.00000E+00
    0.10600E+07        -0.49946E+08         0.00000E+00
    0.00000E+00         0.00000E+00        -0.43500E+08
 
   -0.42329E+08         0.11230E+07         0.00000E+00
    0.11230E+07        -0.49939E+08         0.00000E+00
    0.00000E+00         0.00000E+00        -0.43500E+08
 
   -0.42360E+08         0.11859E+07         0.00000E+00
    0.11859E+07        -0.49932E+08         0.00000E+00
    0.00000E+00         0.00000E+00        -0.43500E+08
 
   -0.42390E+08         0.12486E+07         0.00000E+00
    0.12486E+07        -0.49924E+08         0.00000E+00
    0.00000E+00         0.00000E+00        -0.43499E+08
 
   -0.42421E+08         0.13113E+07         0.00000E+00
    0.13113E+07        -0.49916E+08         0.00000E+00
    0.00000E+00         0.00000E+00        -0.43499E+08
 
   -0.42453E+08         0.13738E+07         0.00000E+00
    0.13738E+07        -0.49908E+08         0.00000E+00
    0.00000E+00         0.00000E+00        -0.43499E+08
 
   -0.42484E+08         0.14362E+07         0.00000E+00
    0.14362E+07        -0.49899E+08         0.00000E+00
    0.00000E+00         0.00000E+00        -0.43499E+08
 
   -0.42516E+08         0.14984E+07         0.00000E+00
    0.14984E+07        -0.49890E+08         0.00000E+00
    0.00000E+00         0.00000E+00        -0.43499E+08
 
   -0.42548E+08         0.15605E+07         0.00000E+00
    0.15605E+07        -0.49880E+08         0.00000E+00
    0.00000E+00         0.00000E+00        -0.43498E+08
 
   -0.42581E+08         0.16226E+07         0.00000E+00
    0.16226E+07        -0.49870E+08         0.00000E+00
    0.00000E+00         0.00000E+00        -0.43498E+08
 
   -0.42614E+08         0.16845E+07         0.00000E+00
    0.16845E+07        -0.49860E+08         0.00000E+00
    0.00000E+00         0.00000E+00        -0.43498E+08
 
   -0.42647E+08         0.17463E+07         0.00000E+00
    0.17463E+07        -0.49849E+08         0.00000E+00
    0.00000E+00         0.00000E+00        -0.43498E+08
 
   -0.42681E+08         0.18079E+07         0.00000E+00
    0.18079E+07        -0.49837E+08         0.00000E+00
    0.00000E+00         0.00000E+00        -0.43498E+08
 
   -0.42715E+08         0.18695E+07         0.00000E+00
    0.18695E+07        -0.49826E+08         0.00000E+00
    0.00000E+00         0.00000E+00        -0.43497E+08
 
   -0.42749E+08         0.19310E+07         0.00000E+00
    0.19310E+07        -0.49814E+08         0.00000E+00
    0.00000E+00         0.00000E+00        -0.43497E+08
 
   -0.42784E+08         0.19923E+07         0.00000E+00
    0.19923E+07        -0.49801E+08         0.00000E+00
    0.00000E+00         0.00000E+00        -0.43497E+08
 
   -0.42819E+08         0.20535E+07         0.00000E+00
    0.20535E+07        -0.49788E+08         0.00000E+00
    0.00000E+00         0.00000E+00        -0.43497E+08
 
   -0.42854E+08         0.21146E+07         0.00000E+00
    0.21146E+07        -0.49775E+08         0.00000E+00
    0.00000E+00         0.00000E+00        -0.43497E+08
 
   -0.42890E+08         0.21757E+07         0.00000E+00
    0.21757E+07        -0.49761E+08         0.00000E+00
    0.00000E+00         0.00000E+00        -0.43496E+08
 
   -0.42926E+08         0.22366E+07         0.00000E+00
    0.22366E+07        -0.49747E+08         0.00000E+00
    0.00000E+00         0.00000E+00        -0.43496E+08
 
   -0.42963E+08         0.22974E+07         0.00000E+00
    0.22974E+07        -0.49732E+08         0.00000E+00
    0.00000E+00         0.00000E+00        -0.43496E+08
 
   -0.43000E+08         0.23580E+07         0.00000E+00
    0.23580E+07        -0.49717E+08         0.00000E+00
    0.00000E+00         0.00000E+00        -0.43496E+08
 
   -0.43037E+08         0.24186E+07         0.00000E+00
    0.24186E+07        -0.49701E+08         0.00000E+00
    0.00000E+00         0.00000E+00        -0.43496E+08
 
   -0.43075E+08         0.24791E+07         0.00000E+00
    0.24791E+07        -0.49685E+08         0.00000E+00
    0.00000E+00         0.00000E+00        -0.43496E+08
 
   -0.43113E+08         0.25395E+07         0.00000E+00
    0.25395E+07        -0.49669E+08         0.00000E+00
    0.00000E+00         0.00000E+00        -0.43495E+08
 
   -0.43151E+08         0.25997E+07         0.00000E+00
    0.25997E+07        -0.49652E+08         0.00000E+00
    0.00000E+00         0.00000E+00        -0.43495E+08
 
   -0.43190E+08         0.26599E+07         0.00000E+00
    0.26599E+07        -0.49634E+08         0.00000E+00
    0.00000E+00         0.00000E+00        -0.43495E+08
 
   -0.43229E+08         0.27199E+07         0.00000E+00
    0.27199E+07        -0.49616E+08         0.00000E+00
    0.00000E+00         0.00000E+00        -0.43495E+08
 
   -0.43269E+08         0.27798E+07         0.00000E+00
    0.27798E+07        -0.49598E+08         0.00000E+00
    0.00000E+00         0.00000E+00        -0.43495E+08
 
   -0.43309E+08         0.28396E+07         0.00000E+00
    0.28396E+07        -0.49579E+08         0.00000E+00
    0.00000E+00         0.00000E+00        -0.43495E+08
 
   -0.43350E+08         0.28993E+07         0.00000E+00
    0.28993E+07        -0.49560E+08         0.00000E+00
    0.00000E+00         0.00000E+00        -0.43495E+08
 
   -0.43390E+08         0.29589E+07         0.00000E+00
    0.29589E+07        -0.49540E+08         0.00000E+00
    0.00000E+00         0.00000E+00        -0.43495E+08
 
   -0.43432E+08         0.30184E+07         0.00000E+00
    0.30184E+07        -0.49520E+08         0.00000E+00
    0.00000E+00         0.00000E+00        -0.43495E+08
 
   -0.43474E+08         0.30778E+07         0.00000E+00
    0.30778E+07        -0.49499E+08         0.00000E+00
    0.00000E+00         0.00000E+00        -0.43495E+08
 
   -0.41529E+08         0.33887E+05         0.00000E+00
    0.33887E+05        -0.50000E+08         0.00000E+00
    0.00000E+00         0.00000E+00        -0.43200E+08
 
   -0.41555E+08         0.10121E+06         0.00000E+00
    0.10121E+06        -0.50000E+08         0.00000E+00
    0.00000E+00         0.00000E+00        -0.43200E+08
 
   -0.41581E+08         0.16837E+06         0.00000E+00
    0.16837E+06        -0.49999E+08         0.00000E+00
    0.00000E+00         0.00000E+00        -0.43200E+08
 
   -0.41607E+08         0.23537E+06         0.00000E+00
    0.23537E+06        -0.49998E+08         0.00000E+00
    0.00000E+00         0.00000E+00        -0.43200E+08
 
   -0.41634E+08         0.30222E+06         0.00000E+00
    0.30222E+06        -0.49996E+08         0.00000E+00
    0.00000E+00         0.00000E+00        -0.43200E+08
 
   -0.41661E+08         0.36891E+06         0.00000E+00
    0.36891E+06        -0.49994E+08         0.00000E+00
    0.00000E+00         0.00000E+00        -0.43200E+08
 
   -0.41689E+08         0.43545E+06         0.00000E+00
    0.43545E+06        -0.49992E+08         0.00000E+00
    0.00000E+00         0.00000E+00        -0.43200E+08
 
   -0.41716E+08         0.50184E+06         0.00000E+00
    0.50184E+06        -0.49989E+08         0.00000E+00
    0.00000E+00         0.00000E+00        -0.43200E+08
 
   -0.41744E+08         0.56808E+06         0.00000E+00
    0.56808E+06        -0.49986E+08         0.00000E+00
    0.00000E+00         0.00000E+00        -0.43200E+08
 
   -0.41773E+08         0.63418E+06         0.00000E+00
    0.63418E+06        -0.49982E+08         0.00000E+00
    0.00000E+00         0.00000E+00        -0.43200E+08
 
   -0.41801E+08         0.70014E+06         0.00000E+00
    0.70014E+06        -0.49978E+08         0.00000E+00
    0.00000E+00         0.00000E+00        -0.43199E+08
 
   -0.41830E+08         0.76596E+06         0.00000E+00
    0.76596E+06        -0.49973E+08         0.00000E+00
    0.00000E+00         0.00000E+00        -0.43199E+08
 
   -0.41859E+08         0.83164E+06         0.00000E+00
    0.83164E+06        -0.49969E+08         0.00000E+00
    0.00000E+00         0.00000E+00        -0.43199E+08
 
   -0.41889E+08         0.89719E+06         0.00000E+00
    0.89719E+06        -0.49963E+08         0.00000E+00
    0.00000E+00         0.00000E+00        -0.43199E+08
 
   -0.41918E+08         0.96260E+06         0.00000E+00
    0.96260E+06        -0.49958E+08         0.00000E+00
    0.00000E+00         0.00000E+00        -0.43199E+08
 
   -0.41949E+08         0.10279E+07         0.00000E+00
    0.10279E+07        -0.49952E+08         0.00000E+00
    0.00000E+00         0.00000E+00        -0.43199E+08
 
   -0.41979E+08         0.10930E+07         0.00000E+00
    0.10930E+07        -0.49945E+08         0.00000E+00
    0.00000E+00         0.00000E+00        -0.43198E+08
 
   -0.42010E+08         0.11581E+07         0.00000E+00
    0.11581E+07        -0.49939E+08         0.00000E+00
    0.00000E+00         0.00000E+00        -0.43198E+08
 
   -0.42041E+08         0.12230E+07         0.00000E+00
    0.12230E+07        -0.49931E+08         0.00000E+00
    0.00000E+00         0.00000E+00        -0.43198E+08
 
   -0.42072E+08         0.12878E+07         0.00000E+00
    0.12878E+07        -0.49924E+08         0.00000E+00
    0.00000E+00         0.00000E+00        -0.43198E+08
 
   -0.42103E+08         0.13524E+07         0.00000E+00
    0.13524E+07        -0.49916E+08         0.00000E+00
    0.00000E+00         0.00000E+00        -0.43198E+08
 
   -0.42135E+08         0.14170E+07         0.00000E+00
    0.14170E+07        -0.49907E+08         0.00000E+00
    0.00000E+00         0.00000E+00        -0.43197E+08
 
   -0.42167E+08         0.14814E+07         0.00000E+00
    0.14814E+07        -0.49898E+08         0.00000E+00
    0.00000E+00         0.00000E+00        -0.43197E+08
 
   -0.42200E+08         0.15457E+07         0.00000E+00
    0.15457E+07        -0.49889E+08         0.00000E+00
    0.00000E+00         0.00000E+00        -0.43197E+08
 
   -0.42233E+08         0.16099E+07         0.00000E+00
    0.16099E+07        -0.49879E+08         0.00000E+00
    0.00000E+00         0.00000E+00        -0.43197E+08
 
   -0.42266E+08         0.16740E+07         0.00000E+00
    0.16740E+07        -0.49869E+08         0.00000E+00
    0.00000E+00         0.00000E+00        -0.43196E+08
 
   -0.42300E+08         0.17380E+07         0.00000E+00
    0.17380E+07        -0.49859E+08         0.00000E+00
    0.00000E+00         0.00000E+00        -0.43196E+08
 
   -0.42333E+08         0.18019E+07         0.00000E+00
    0.18019E+07        -0.49848E+08         0.00000E+00
    0.00000E+00         0.00000E+00        -0.43196E+08
 
   -0.42368E+08         0.18657E+07         0.00000E+00
    0.18657E+07        -0.49836E+08         0.00000E+00
    0.00000E+00         0.00000E+00        -0.43196E+08
 
   -0.42402E+08         0.19294E+07         0.00000E+00
    0.19294E+07        -0.49825E+08         0.00000E+00
    0.00000E+00         0.00000E+00        -0.43195E+08
 
   -0.42437E+08         0.19929E+07         0.00000E+00
    0.19929E+07        -0.49812E+08         0.00000E+00
    0.00000E+00         0.00000E+00        -0.43195E+08
 
   -0.42472E+08         0.20564E+07         0.00000E+00
    0.20564E+07        -0.49800E+08         0.00000E+00
    0.00000E+00         0.00000E+00        -0.43195E+08
 
   -0.42508E+08         0.21198E+07         0.00000E+00
    0.21198E+07        -0.49787E+08         0.00000E+00
    0.00000E+00         0.00000E+00        -0.43195E+08
 
   -0.42544E+08         0.21831E+07         0.00000E+00
    0.21831E+07        -0.49773E+08         0.00000E+00
    0.00000E+00         0.00000E+00        -0.43194E+08
 
   -0.42580E+08         0.22463E+07         0.00000E+00
    0.22463E+07        -0.49759E+08         0.00000E+00
    0.00000E+00         0.00000E+00        -0.43194E+08
 
   -0.42616E+08         0.23094E+07         0.00000E+00
    0.23094E+07        -0.49745E+08         0.00000E+00
    0.00000E+00         0.00000E+00        -0.43194E+08
 
   -0.42653E+08         0.23724E+07         0.00000E+00
    0.23724E+07        -0.49730E+08         0.00000E+00
    0.00000E+00         0.00000E+00        -0.43194E+08
 
   -0.42691E+08         0.24353E+07         0.00000E+00
    0.24353E+07        -0.49715E+08         0.00000E+00
    0.00000E+00         0.00000E+00        -0.43194E+08
 
   -0.42729E+08         0.24981E+07         0.00000E+00
    0.24981E+07        -0.49699E+08         0.00000E+00
    0.00000E+00         0.00000E+00        -0.43194E+08
 
   -0.42767E+08         0.25608E+07         0.00000E+00
    0.25608E+07        -0.49683E+08         0.00000E+00
    0.00000E+00         0.00000E+00        -0.43193E+08
 
   -0.42805E+08         0.26235E+07         0.00000E+00
    0.26235E+07        -0.49666E+08         0.00000E+00
    0.00000E+00         0.00000E+00        -0.43193E+08
 
   -0.42844E+08         0.26860E+07         0.00000E+00
    0.26860E+07        -0.49649E+08         0.00000E+00
    0.00000E+00         0.00000E+00        -0.43193E+08
 
   -0.42884E+08         0.27484E+07         0.00000E+00
    0.27484E+07        -0.49631E+08         0.00000E+00
    0.00000E+00         0.00000E+00        -0.43193E+08
 
   -0.42923E+08         0.28108E+07         0.00000E+00
    0.28108E+07        -0.49613E+08         0.00000E+00
    0.00000E+00         0.00000E+00        -0.43193E+08
 
   -0.42964E+08         0.28731E+07         0.00000E+00
    0.28731E+07        -0.49595E+08         0.00000E+00
    0.00000E+00         0.00000E+00        -0.43193E+08
 
   -0.43004E+08         0.29352E+07         0.00000E+00
    0.29352E+07        -0.49576E+08         0.00000E+00
    0.00000E+00         0.00000E+00        -0.43193E+08
 
   -0.43045E+08         0.29973E+07         0.00000E+00
    0.29973E+07        -0.49556E+08         0.00000E+00
    0.00000E+00         0.00000E+00        -0.43193E+08
 
   -0.43087E+08         0.30593E+07         0.00000E+00
    0.30593E+07        -0.49536E+08         0.00000E+00
    0.00000E+00         0.00000E+00        -0.43192E+08
 
   -0.43129E+08         0.31212E+07         0.00000E+00
    0.31212E+07        -0.49516E+08         0.00000E+00
    0.00000E+00         0.00000E+00        -0.43192E+08
 
   -0.43171E+08         0.31830E+07         0.00000E+00
    0.31830E+07        -0.49495E+08         0.00000E+00
    0.00000E+00         0.00000E+00        -0.43192E+08
 
   -0.41187E+08         0.34892E+05         0.00000E+00
    0.34892E+05        -0.50000E+08         0.00000E+00
    0.00000E+00         0.00000E+00        -0.42887E+08
 
   -0.41213E+08         0.10422E+06         0.00000E+00
    0.10422E+06        -0.50000E+08         0.00000E+00
    0.00000E+00         0.00000E+00        -0.42887E+08
 
   -0.41241E+08         0.17339E+06         0.00000E+00
    0.17339E+06        -0.49999E+08         0.00000E+00
    0.00000E+00         0.00000E+00        -0.42887E+08
 
   -0.41268E+08         0.24240E+06         0.00000E+00
    0.24240E+06        -0.49998E+08         0.00000E+00
    0.00000E+00         0.00000E+00        -0.42887E+08
 
   -0.41295E+08         0.31125E+06         0.00000E+00
    0.31125E+06        -0.49996E+08         0.00000E+00
    0.00000E+00         0.00000E+00        -0.42886E+08
 
   -0.41323E+08         0.37995E+06         0.00000E+00
    0.37995E+06        -0.49994E+08         0.00000E+00
    0.00000E+00         0.00000E+00        -0.42886E+08
 
   -0.41351E+08         0.44849E+06         0.00000E+00
    0.44849E+06        -0.49991E+08         0.00000E+00
    0.00000E+00         0.00000E+00        -0.42886E+08
 
   -0.41380E+08         0.51689E+06         0.00000E+00
    0.51689E+06        -0.49989E+08         0.00000E+00
    0.00000E+00         0.00000E+00        -0.42886E+08
 
   -0.41409E+08         0.58514E+06         0.00000E+00
    0.58514E+06        -0.49985E+08         0.00000E+00
    0.00000E+00         0.00000E+00        -0.42886E+08
 
   -0.41438E+08         0.65325E+06         0.00000E+00
    0.65325E+06        -0.49982E+08         0.00000E+00
    0.00000E+00         0.00000E+00        -0.42886E+08
 
   -0.41467E+08         0.72122E+06         0.00000E+00
    0.72122E+06        -0.49978E+08         0.00000E+00
    0.00000E+00         0.00000E+00        -0.42886E+08
 
   -0.41496E+08         0.78905E+06         0.00000E+00
    0.78905E+06        -0.49973E+08         0.00000E+00
    0.00000E+00         0.00000E+00        -0.42885E+08
 
   -0.41526E+08         0.85675E+06         0.00000E+00
    0.85675E+06        -0.49969E+08         0.00000E+00
    0.00000E+00         0.00000E+00        -0.42885E+08
 
   -0.41556E+08         0.92432E+06         0.00000E+00
    0.92432E+06        -0.49963E+08         0.00000E+00
    0.00000E+00         0.00000E+00        -0.42885E+08
 
   -0.41587E+08         0.99175E+06         0.00000E+00
    0.99175E+06        -0.49958E+08         0.00000E+00
    0.00000E+00         0.00000E+00        -0.42885E+08
 
   -0.41617E+08         0.10591E+07         0.00000E+00
    0.10591E+07        -0.49952E+08         0.00000E+00
    0.00000E+00         0.00000E+00        -0.42885E+08
 
   -0.41648E+08         0.11262E+07         0.00000E+00
    0.11262E+07        -0.49945E+08         0.00000E+00
    0.00000E+00         0.00000E+00        -0.42884E+08
 
   -0.41680E+08         0.11933E+07         0.00000E+00
    0.11933E+07        -0.49938E+08         0.00000E+00
    0.00000E+00         0.00000E+00        -0.42884E+08
 
   -0.41711E+08         0.12603E+07         0.00000E+00
    0.12603E+07        -0.49931E+08         0.00000E+00
    0.00000E+00         0.00000E+00        -0.42884E+08
 
   -0.41743E+08         0.13271E+07         0.00000E+00
    0.13271E+07        -0.49923E+08         0.00000E+00
    0.00000E+00         0.00000E+00        -0.42884E+08
 
   -0.41775E+08         0.13938E+07         0.00000E+00
    0.13938E+07        -0.49915E+08         0.00000E+00
    0.00000E+00         0.00000E+00        -0.42883E+08
 
   -0.41808E+08         0.14604E+07         0.00000E+00
    0.14604E+07        -0.49907E+08         0.00000E+00
    0.00000E+00         0.00000E+00        -0.42883E+08
 
   -0.41840E+08         0.15269E+07         0.00000E+00
    0.15269E+07        -0.49898E+08         0.00000E+00
    0.00000E+00         0.00000E+00        -0.42883E+08
 
   -0.41873E+08         0.15933E+07         0.00000E+00
    0.15933E+07        -0.49889E+08         0.00000E+00
    0.00000E+00         0.00000E+00        -0.42883E+08
 
   -0.41907E+08         0.16596E+07         0.00000E+00
    0.16596E+07        -0.49879E+08         0.00000E+00
    0.00000E+00         0.00000E+00        -0.42882E+08
 
   -0.41941E+08         0.17258E+07         0.00000E+00
    0.17258E+07        -0.49869E+08         0.00000E+00
    0.00000E+00         0.00000E+00        -0.42882E+08
 
   -0.41975E+08         0.17919E+07         0.00000E+00
    0.17919E+07        -0.49858E+08         0.00000E+00
    0.00000E+00         0.00000E+00        -0.42882E+08
 
   -0.42009E+08         0.18579E+07         0.00000E+00
    0.18579E+07        -0.49847E+08         0.00000E+00
    0.00000E+00         0.00000E+00        -0.42882E+08
 
   -0.42044E+08         0.19238E+07         0.00000E+00
    0.19238E+07        -0.49836E+08         0.00000E+00
    0.00000E+00         0.00000E+00        -0.42881E+08
 
   -0.42079E+08         0.19896E+07         0.00000E+00
    0.19896E+07        -0.49824E+08         0.00000E+00
    0.00000E+00         0.00000E+00        -0.42881E+08
 
   -0.42114E+08         0.20553E+07         0.00000E+00
    0.20553E+07        -0.49811E+08         0.00000E+00
    0.00000E+00         0.00000E+00        -0.42881E+08
 
   -0.42150E+08         0.21210E+07         0.00000E+00
    0.21210E+07        -0.49799E+08         0.00000E+00
    0.00000E+00         0.00000E+00        -0.42880E+08
 
   -0.42186E+08         0.21865E+07         0.00000E+00
    0.21865E+07        -0.49786E+08         0.00000E+00
    0.00000E+00         0.00000E+00        -0.42880E+08
 
   -0.42222E+08         0.22520E+07         0.00000E+00
    0.22520E+07        -0.49772E+08         0.00000E+00
    0.00000E+00         0.00000E+00        -0.42880E+08
 
   -0.42259E+08         0.23174E+07         0.00000E+00
    0.23174E+07        -0.49758E+08         0.00000E+00
    0.00000E+00         0.00000E+00        -0.42880E+08
 
   -0.42296E+08         0.23827E+07         0.00000E+00
    0.23827E+07        -0.49743E+08         0.00000E+00
    0.00000E+00         0.00000E+00        -0.42880E+08
 
   -0.42333E+08         0.24480E+07         0.00000E+00
    0.24480E+07        -0.49729E+08         0.00000E+00
    0.00000E+00         0.00000E+00        -0.42879E+08
 
   -0.42371E+08         0.25131E+07         0.00000E+00
    0.25131E+07        -0.49713E+08         0.00000E+00
    0.00000E+00         0.00000E+00        -0.42879E+08
 
   -0.42409E+08         0.25782E+07         0.00000E+00
    0.25782E+07        -0.49697E+08         0.00000E+00
    0.00000E+00         0.00000E+00        -0.42879E+08
 
   -0.42448E+08         0.26432E+07         0.00000E+00
    0.26432E+07        -0.49681E+08         0.00000E+00
    0.00000E+00         0.00000E+00        -0.42879E+08
 
   -0.42487E+08         0.27082E+07         0.00000E+00
    0.27082E+07        -0.49664E+08         0.00000E+00
    0.00000E+00         0.00000E+00        -0.42879E+08
 
   -0.42526E+08         0.27730E+07         0.00000E+00
    0.27730E+07        -0.49647E+08         0.00000E+00
    0.00000E+00         0.00000E+00        -0.42878E+08
 
   -0.42566E+08         0.28378E+07         0.00000E+00
    0.28378E+07        -0.49629E+08         0.00000E+00
    0.00000E+00         0.00000E+00        -0.42878E+08
 
   -0.42606E+08         0.29025E+07         0.00000E+00
    0.29025E+07        -0.49611E+08         0.00000E+00
    0.00000E+00         0.00000E+00        -0.42878E+08
 
   -0.42647E+08         0.29672E+07         0.00000E+00
    0.29672E+07        -0.49592E+08         0.00000E+00
    0.00000E+00         0.00000E+00        -0.42878E+08
 
   -0.42688E+08         0.30318E+07         0.00000E+00
    0.30318E+07        -0.49573E+08         0.00000E+00
    0.00000E+00         0.00000E+00        -0.42878E+08
 
   -0.42729E+08         0.30963E+07         0.00000E+00
    0.30963E+07        -0.49554E+08         0.00000E+00
    0.00000E+00         0.00000E+00        -0.42878E+08
 
   -0.42771E+08         0.31607E+07         0.00000E+00
    0.31607E+07        -0.49534E+08         0.00000E+00
    0.00000E+00         0.00000E+00        -0.42878E+08
 
   -0.42813E+08         0.32251E+07         0.00000E+00
    0.32251E+07        -0.49513E+08         0.00000E+00
    0.00000E+00         0.00000E+00        -0.42878E+08
 
   -0.42856E+08         0.32894E+07         0.00000E+00
    0.32894E+07        -0.49492E+08         0.00000E+00
    0.00000E+00         0.00000E+00        -0.42878E+08
 
   -0.40835E+08         0.35902E+05         0.00000E+00
    0.35902E+05        -0.50000E+08         0.00000E+00
    0.00000E+00         0.00000E+00        -0.42560E+08
 
   -0.40862E+08         0.10725E+06         0.00000E+00
    0.10725E+06        -0.50000E+08         0.00000E+00
    0.00000E+00         0.00000E+00        -0.42560E+08
 
   -0.40890E+08         0.17843E+06         0.00000E+00
    0.17843E+06        -0.49999E+08         0.00000E+00
    0.00000E+00         0.00000E+00        -0.42560E+08
 
   -0.40918E+08         0.24946E+06         0.00000E+00
    0.24946E+06        -0.49997E+08         0.00000E+00
    0.00000E+00         0.00000E+00        -0.42560E+08
 
   -0.40947E+08         0.32032E+06         0.00000E+00
    0.32032E+06        -0.49996E+08         0.00000E+00
    0.00000E+00         0.00000E+00        -0.42560E+08
 
   -0.40975E+08         0.39103E+06         0.00000E+00
    0.39103E+06        -0.49994E+08         0.00000E+00
    0.00000E+00         0.00000E+00        -0.42560E+08
 
   -0.41004E+08         0.46160E+06         0.00000E+00
    0.46160E+06        -0.49991E+08         0.00000E+00
    0.00000E+00         0.00000E+00        -0.42560E+08
 
   -0.41033E+08         0.53201E+06         0.00000E+00
    0.53201E+06        -0.49989E+08         0.00000E+00
    0.00000E+00         0.00000E+00        -0.42560E+08
 
   -0.41063E+08         0.60228E+06         0.00000E+00
    0.60228E+06        -0.49985E+08         0.00000E+00
    0.00000E+00         0.00000E+00        -0.42559E+08
 
   -0.41092E+08         0.67240E+06         0.00000E+00
    0.67240E+06        -0.49982E+08         0.00000E+00
    0.00000E+00         0.00000E+00        -0.42559E+08
 
   -0.41122E+08         0.74239E+06         0.00000E+00
    0.74239E+06        -0.49978E+08         0.00000E+00
    0.00000E+00         0.00000E+00        -0.42559E+08
 
   -0.41152E+08         0.81224E+06         0.00000E+00
    0.81224E+06        -0.49973E+08         0.00000E+00
    0.00000E+00         0.00000E+00        -0.42559E+08
 
   -0.41183E+08         0.88195E+06         0.00000E+00
    0.88195E+06        -0.49968E+08         0.00000E+00
    0.00000E+00         0.00000E+00        -0.42559E+08
 
   -0.41214E+08         0.95154E+06         0.00000E+00
    0.95154E+06        -0.49963E+08         0.00000E+00
    0.00000E+00         0.00000E+00        -0.42558E+08
 
   -0.41245E+08         0.10210E+07         0.00000E+00
    0.10210E+07        -0.49958E+08         0.00000E+00
    0.00000E+00         0.00000E+00        -0.42558E+08
 
   -0.41276E+08         0.10903E+07         0.00000E+00
    0.10903E+07        -0.49951E+08         0.00000E+00
    0.00000E+00         0.00000E+00        -0.42558E+08
 
   -0.41308E+08         0.11596E+07         0.00000E+00
    0.11596E+07        -0.49945E+08         0.00000E+00
    0.00000E+00         0.00000E+00        -0.42558E+08
 
   -0.41339E+08         0.12287E+07         0.00000E+00
    0.12287E+07        -0.49938E+08         0.00000E+00
    0.00000E+00         0.00000E+00        -0.42557E+08
 
   -0.41372E+08         0.12977E+07         0.00000E+00
    0.12977E+07        -0.49931E+08         0.00000E+00
    0.00000E+00         0.00000E+00        -0.42557E+08
 
   -0.41404E+08         0.13665E+07         0.00000E+00
    0.13665E+07        -0.49923E+08         0.00000E+00
    0.00000E+00         0.00000E+00        -0.42557E+08
 
   -0.41437E+08         0.14353E+07         0.00000E+00
    0.14353E+07        -0.49915E+08         0.00000E+00
    0.00000E+00         0.00000E+00        -0.42557E+08
 
   -0.41470E+08         0.15040E+07         0.00000E+00
    0.15040E+07        -0.49907E+08         0.00000E+00
    0.00000E+00         0.00000E+00        -0.42556E+08
 
   -0.41503E+08         0.15726E+07         0.00000E+00
    0.15726E+07        -0.49898E+08         0.00000E+00
    0.00000E+00         0.00000E+00        -0.42556E+08
 
   -0.41537E+08         0.16410E+07         0.00000E+00
    0.16410E+07        -0.49888E+08         0.00000E+00
    0.00000E+00         0.00000E+00        -0.42556E+08
 
   -0.41570E+08         0.17094E+07         0.00000E+00
    0.17094E+07        -0.49879E+08         0.00000E+00
    0.00000E+00         0.00000E+00        -0.42555E+08
 
   -0.41605E+08         0.17777E+07         0.00000E+00
    0.17777E+07        -0.49868E+08         0.00000E+00
    0.00000E+00         0.00000E+00        -0.42555E+08
 
   -0.41639E+08         0.18459E+07         0.00000E+00
    0.18459E+07        -0.49858E+08         0.00000E+00
    0.00000E+00         0.00000E+00        -0.42555E+08
 
   -0.41674E+08         0.19140E+07         0.00000E+00
    0.19140E+07        -0.49847E+08         0.00000E+00
    0.00000E+00         0.00000E+00        -0.42554E+08
 
   -0.41709E+08         0.19821E+07         0.00000E+00
    0.19821E+07        -0.49835E+08         0.00000E+00
    0.00000E+00         0.00000E+00        -0.42554E+08
 
   -0.41744E+08         0.20500E+07         0.00000E+00
    0.20500E+07        -0.49823E+08         0.00000E+00
    0.00000E+00         0.00000E+00        -0.42554E+08
 
   -0.41780E+08         0.21179E+07         0.00000E+00
    0.21179E+07        -0.49811E+08         0.00000E+00
    0.00000E+00         0.00000E+00        -0.42554E+08
 
   -0.41816E+08         0.21858E+07         0.00000E+00
    0.21858E+07        -0.49798E+08         0.00000E+00
    0.00000E+00         0.00000E+00        -0.42553E+08
 
   -0.41852E+08         0.22535E+07         0.00000E+00
    0.22535E+07        -0.49785E+08         0.00000E+00
    0.00000E+00         0.00000E+00        -0.42553E+08
 
   -0.41889E+08         0.23212E+07         0.00000E+00
    0.23212E+07        -0.49772E+08         0.00000E+00
    0.00000E+00         0.00000E+00        -0.42553E+08
 
   -0.41926E+08         0.23888E+07         0.00000E+00
    0.23888E+07        -0.49757E+08         0.00000E+00
    0.00000E+00         0.00000E+00        -0.42552E+08
 
   -0.41964E+08         0.24564E+07         0.00000E+00
    0.24564E+07        -0.49743E+08         0.00000E+00
    0.00000E+00         0.00000E+00        -0.42552E+08
 
   -0.42001E+08         0.25239E+07         0.00000E+00
    0.25239E+07        -0.49728E+08         0.00000E+00
    0.00000E+00         0.00000E+00        -0.42552E+08
 
   -0.42040E+08         0.25913E+07         0.00000E+00
    0.25913E+07        -0.49713E+08         0.00000E+00
    0.00000E+00         0.00000E+00        -0.42552E+08
 
   -0.42078E+08         0.26587E+07         0.00000E+00
    0.26587E+07        -0.49697E+08         0.00000E+00
    0.00000E+00         0.00000E+00        -0.42552E+08
 
   -0.42117E+08         0.27260E+07         0.00000E+00
    0.27260E+07        -0.49680E+08         0.00000E+00
    0.00000E+00         0.00000E+00        -0.42551E+08
 
   -0.42156E+08         0.27933E+07         0.00000E+00
    0.27933E+07        -0.49663E+08         0.00000E+00
    0.00000E+00         0.00000E+00        -0.42551E+08
 
   -0.42196E+08         0.28606E+07         0.00000E+00
    0.28606E+07        -0.49646E+08         0.00000E+00
    0.00000E+00         0.00000E+00        -0.42551E+08
 
   -0.42236E+08         0.29277E+07         0.00000E+00
    0.29277E+07        -0.49628E+08         0.00000E+00
    0.00000E+00         0.00000E+00        -0.42551E+08
 
   -0.42276E+08         0.29949E+07         0.00000E+00
    0.29949E+07        -0.49610E+08         0.00000E+00
    0.00000E+00         0.00000E+00        -0.42551E+08
 
   -0.42317E+08         0.30620E+07         0.00000E+00
    0.30620E+07        -0.49591E+08         0.00000E+00
    0.00000E+00         0.00000E+00        -0.42551E+08
 
   -0.42359E+08         0.31290E+07         0.00000E+00
    0.31290E+07        -0.49572E+08         0.00000E+00
    0.00000E+00         0.00000E+00        -0.42550E+08
 
   -0.42400E+08         0.31960E+07         0.00000E+00
    0.31960E+07        -0.49552E+08         0.00000E+00
    0.00000E+00         0.00000E+00        -0.42550E+08
 
   -0.42443E+08         0.32629E+07         0.00000E+00
    0.32629E+07        -0.49532E+08         0.00000E+00
    0.00000E+00         0.00000E+00        -0.42550E+08
 
   -0.42485E+08         0.33298E+07         0.00000E+00
    0.33298E+07        -0.49511E+08         0.00000E+00
    0.00000E+00         0.00000E+00        -0.42550E+08
 
   -0.42528E+08         0.33967E+07         0.00000E+00
    0.33967E+07        -0.49490E+08         0.00000E+00
    0.00000E+00         0.00000E+00        -0.42550E+08
 
   -0.40472E+08         0.36917E+05         0.00000E+00
    0.36917E+05        -0.50000E+08         0.00000E+00
    0.00000E+00         0.00000E+00        -0.42221E+08
 
   -0.40501E+08         0.11029E+06         0.00000E+00
    0.11029E+06        -0.50000E+08         0.00000E+00
    0.00000E+00         0.00000E+00        -0.42221E+08
 
   -0.40529E+08         0.18349E+06         0.00000E+00
    0.18349E+06        -0.49999E+08         0.00000E+00
    0.00000E+00         0.00000E+00        -0.42220E+08
 
   -0.40558E+08         0.25654E+06         0.00000E+00
    0.25654E+06        -0.49997E+08         0.00000E+00
    0.00000E+00         0.00000E+00        -0.42220E+08
 
   -0.40588E+08         0.32943E+06         0.00000E+00
    0.32943E+06        -0.49996E+08         0.00000E+00
    0.00000E+00         0.00000E+00        -0.42220E+08
 
   -0.40617E+08         0.40216E+06         0.00000E+00
    0.40216E+06        -0.49994E+08         0.00000E+00
    0.00000E+00         0.00000E+00        -0.42220E+08
 
   -0.40647E+08         0.47473E+06         0.00000E+00
    0.47473E+06        -0.49991E+08         0.00000E+00
    0.00000E+00         0.00000E+00        -0.42220E+08
 
   -0.40676E+08         0.54716E+06         0.00000E+00
    0.54716E+06        -0.49989E+08         0.00000E+00
    0.00000E+00         0.00000E+00        -0.42220E+08
 
   -0.40707E+08         0.61945E+06         0.00000E+00
    0.61945E+06        -0.49985E+08         0.00000E+00
    0.00000E+00         0.00000E+00        -0.42220E+08
 
   -0.40737E+08         0.69159E+06         0.00000E+00
    0.69159E+06        -0.49982E+08         0.00000E+00
    0.00000E+00         0.00000E+00        -0.42219E+08
 
   -0.40768E+08         0.76359E+06         0.00000E+00
    0.76359E+06        -0.49978E+08         0.00000E+00
    0.00000E+00         0.00000E+00        -0.42219E+08
 
   -0.40798E+08         0.83546E+06         0.00000E+00
    0.83546E+06        -0.49973E+08         0.00000E+00
    0.00000E+00         0.00000E+00        -0.42219E+08
 
   -0.40830E+08         0.90719E+06         0.00000E+00
    0.90719E+06        -0.49968E+08         0.00000E+00
    0.00000E+00         0.00000E+00        -0.42219E+08
 
   -0.40861E+08         0.97880E+06         0.00000E+00
    0.97880E+06        -0.49963E+08         0.00000E+00
    0.00000E+00         0.00000E+00        -0.42219E+08
 
   -0.40893E+08         0.10503E+07         0.00000E+00
    0.10503E+07        -0.49957E+08         0.00000E+00
    0.00000E+00         0.00000E+00        -0.42218E+08
 
   -0.40925E+08         0.11216E+07         0.00000E+00
    0.11216E+07        -0.49951E+08         0.00000E+00
    0.00000E+00         0.00000E+00        -0.42218E+08
 
   -0.40957E+08         0.11929E+07         0.00000E+00
    0.11929E+07        -0.49945E+08         0.00000E+00
    0.00000E+00         0.00000E+00        -0.42218E+08
 
   -0.40989E+08         0.12640E+07         0.00000E+00
    0.12640E+07        -0.49938E+08         0.00000E+00
    0.00000E+00         0.00000E+00        -0.42217E+08
 
   -0.41022E+08         0.13351E+07         0.00000E+00
    0.13351E+07        -0.49931E+08         0.00000E+00
    0.00000E+00         0.00000E+00        -0.42217E+08
 
   -0.41055E+08         0.14060E+07         0.00000E+00
    0.14060E+07        -0.49923E+08         0.00000E+00
    0.00000E+00         0.00000E+00        -0.42217E+08
 
   -0.41088E+08         0.14768E+07         0.00000E+00
    0.14768E+07        -0.49915E+08         0.00000E+00
    0.00000E+00         0.00000E+00        -0.42217E+08
 
   -0.41121E+08         0.15475E+07         0.00000E+00
    0.15475E+07        -0.49907E+08         0.00000E+00
    0.00000E+00         0.00000E+00        -0.42216E+08
 
   -0.41155E+08         0.16182E+07         0.00000E+00
    0.16182E+07        -0.49898E+08         0.00000E+00
    0.00000E+00         0.00000E+00        -0.42216E+08
 
   -0.41189E+08         0.16887E+07         0.00000E+00
    0.16887E+07        -0.49888E+08         0.00000E+00
    0.00000E+00         0.00000E+00        -0.42216E+08
 
   -0.41223E+08         0.17592E+07         0.00000E+00
    0.17592E+07        -0.49879E+08         0.00000E+00
    0.00000E+00         0.00000E+00        -0.42215E+08
 
   -0.41258E+08         0.18296E+07         0.00000E+00
    0.18296E+07        -0.49868E+08         0.00000E+00
    0.00000E+00         0.00000E+00        -0.42215E+08
 
   -0.41293E+08         0.18999E+07         0.00000E+00
    0.18999E+07        -0.49858E+08         0.00000E+00
    0.00000E+00         0.00000E+00        -0.42215E+08
 
   -0.41328E+08         0.19702E+07         0.00000E+00
    0.19702E+07        -0.49847E+08         0.00000E+00
    0.00000E+00         0.00000E+00        -0.42214E+08
 
   -0.41363E+08         0.20403E+07         0.00000E+00
    0.20403E+07        -0.49835E+08         0.00000E+00
    0.00000E+00         0.00000E+00        -0.42214E+08
 
   -0.41399E+08         0.21105E+07         0.00000E+00
    0.21105E+07        -0.49824E+08         0.00000E+00
    0.00000E+00         0.00000E+00        -0.42214E+08
 
   -0.41435E+08         0.21805E+07         0.00000E+00
    0.21805E+07        -0.49811E+08         0.00000E+00
    0.00000E+00         0.00000E+00        -0.42213E+08
 
   -0.41472E+08         0.22505E+07         0.00000E+00
    0.22505E+07        -0.49799E+08         0.00000E+00
    0.00000E+00         0.00000E+00        -0.42213E+08
 
   -0.41508E+08         0.23205E+07         0.00000E+00
    0.23205E+07        -0.49785E+08         0.00000E+00
    0.00000E+00         0.00000E+00        -0.42213E+08
 
   -0.41545E+08         0.23904E+07         0.00000E+00
    0.23904E+07        -0.49772E+08         0.00000E+00
    0.00000E+00         0.00000E+00        -0.42212E+08
 
   -0.41583E+08         0.24602E+07         0.00000E+00
    0.24602E+07        -0.49758E+08         0.00000E+00
    0.00000E+00         0.00000E+00        -0.42212E+08
 
   -0.41620E+08         0.25301E+07         0.00000E+00
    0.25301E+07        -0.49743E+08         0.00000E+00
    0.00000E+00         0.00000E+00        -0.42212E+08
 
   -0.41658E+08         0.25998E+07         0.00000E+00
    0.25998E+07        -0.49728E+08         0.00000E+00
    0.00000E+00         0.00000E+00        -0.42212E+08
 
   -0.41697E+08         0.26696E+07         0.00000E+00
    0.26696E+07        -0.49713E+08         0.00000E+00
    0.00000E+00         0.00000E+00        -0.42211E+08
 
   -0.41735E+08         0.27393E+07         0.00000E+00
    0.27393E+07        -0.49697E+08         0.00000E+00
    0.00000E+00         0.00000E+00        -0.42211E+08
 
   -0.41775E+08         0.28090E+07         0.00000E+00
    0.28090E+07        -0.49681E+08         0.00000E+00
    0.00000E+00         0.00000E+00        -0.42211E+08
 
   -0.41814E+08         0.28786E+07         0.00000E+00
    0.28786E+07        -0.49664E+08         0.00000E+00
    0.00000E+00         0.00000E+00        -0.42211E+08
 
   -0.41854E+08         0.29483E+07         0.00000E+00
    0.29483E+07        -0.49647E+08         0.00000E+00
    0.00000E+00         0.00000E+00        -0.42210E+08
 
   -0.41894E+08         0.30179E+07         0.00000E+00
    0.30179E+07        -0.49629E+08         0.00000E+00
    0.00000E+00         0.00000E+00        -0.42210E+08
 
   -0.41935E+08         0.30875E+07         0.00000E+00
    0.30875E+07        -0.49611E+08         0.00000E+00
    0.00000E+00         0.00000E+00        -0.42210E+08
 
   -0.41976E+08         0.31570E+07         0.00000E+00
    0.31570E+07        -0.49592E+08         0.00000E+00
    0.00000E+00         0.00000E+00        -0.42210E+08
 
   -0.42017E+08         0.32266E+07         0.00000E+00
    0.32266E+07        -0.49572E+08         0.00000E+00
    0.00000E+00         0.00000E+00        -0.42210E+08
 
   -0.42059E+08         0.32961E+07         0.00000E+00
    0.32961E+07        -0.49553E+08         0.00000E+00
    0.00000E+00         0.00000E+00        -0.42210E+08
 
   -0.42102E+08         0.33656E+07         0.00000E+00
    0.33656E+07        -0.49532E+08         0.00000E+00
    0.00000E+00         0.00000E+00        -0.42210E+08
 
   -0.42144E+08         0.34351E+07         0.00000E+00
    0.34351E+07        -0.49512E+08         0.00000E+00
    0.00000E+00         0.00000E+00        -0.42210E+08
 
   -0.42188E+08         0.35046E+07         0.00000E+00
    0.35046E+07        -0.49490E+08         0.00000E+00
    0.00000E+00         0.00000E+00        -0.42210E+08
 
   -0.40100E+08         0.37937E+05         0.00000E+00
    0.37937E+05        -0.50000E+08         0.00000E+00
    0.00000E+00         0.00000E+00        -0.41867E+08
 
   -0.40129E+08         0.11334E+06         0.00000E+00
    0.11334E+06        -0.50000E+08         0.00000E+00
    0.00000E+00         0.00000E+00        -0.41867E+08
 
   -0.40159E+08         0.18857E+06         0.00000E+00
    0.18857E+06        -0.49999E+08         0.00000E+00
    0.00000E+00         0.00000E+00        -0.41867E+08
 
   -0.40188E+08         0.26364E+06         0.00000E+00
    0.26364E+06        -0.49997E+08         0.00000E+00
    0.00000E+00         0.00000E+00        -0.41867E+08
 
   -0.40218E+08         0.33855E+06         0.00000E+00
    0.33855E+06        -0.49996E+08         0.00000E+00
    0.00000E+00         0.00000E+00        -0.41867E+08
 
   -0.40249E+08         0.41329E+06         0.00000E+00
    0.41329E+06        -0.49994E+08         0.00000E+00
    0.00000E+00         0.00000E+00        -0.41867E+08
 
   -0.40279E+08         0.48789E+06         0.00000E+00
    0.48789E+06        -0.49991E+08         0.00000E+00
    0.00000E+00         0.00000E+00        -0.41867E+08
 
   -0.40310E+08         0.56233E+06         0.00000E+00
    0.56233E+06        -0.49989E+08         0.00000E+00
    0.00000E+00         0.00000E+00        -0.41867E+08
 
   -0.40340E+08         0.63662E+06         0.00000E+00
    0.63662E+06        -0.49985E+08         0.00000E+00
    0.00000E+00         0.00000E+00        -0.41867E+08
 
   -0.40372E+08         0.71077E+06         0.00000E+00
    0.71077E+06        -0.49982E+08         0.00000E+00
    0.00000E+00         0.00000E+00        -0.41866E+08
 
   -0.40403E+08         0.78478E+06         0.00000E+00
    0.78478E+06        -0.49978E+08         0.00000E+00
    0.00000E+00         0.00000E+00        -0.41866E+08
 
   -0.40434E+08         0.85866E+06         0.00000E+00
    0.85866E+06        -0.49973E+08         0.00000E+00
    0.00000E+00         0.00000E+00        -0.41866E+08
 
   -0.40466E+08         0.93240E+06         0.00000E+00
    0.93240E+06        -0.49968E+08         0.00000E+00
    0.00000E+00         0.00000E+00        -0.41866E+08
 
   -0.40498E+08         0.10060E+07         0.00000E+00
    0.10060E+07        -0.49963E+08         0.00000E+00
    0.00000E+00         0.00000E+00        -0.41865E+08
 
   -0.40530E+08         0.10795E+07         0.00000E+00
    0.10795E+07        -0.49958E+08         0.00000E+00
    0.00000E+00         0.00000E+00        -0.41865E+08
 
   -0.40563E+08         0.11529E+07         0.00000E+00
    0.11529E+07        -0.49951E+08         0.00000E+00
    0.00000E+00         0.00000E+00        -0.41865E+08
 
   -0.40596E+08         0.12262E+07         0.00000E+00
    0.12262E+07        -0.49945E+08         0.00000E+00
    0.00000E+00         0.00000E+00        -0.41864E+08
 
   -0.40629E+08         0.12993E+07         0.00000E+00
    0.12993E+07        -0.49938E+08         0.00000E+00
    0.00000E+00         0.00000E+00        -0.41864E+08
 
   -0.40662E+08         0.13724E+07         0.00000E+00
    0.13724E+07        -0.49931E+08         0.00000E+00
    0.00000E+00         0.00000E+00        -0.41864E+08
 
   -0.40695E+08         0.14453E+07         0.00000E+00
    0.14453E+07        -0.49923E+08         0.00000E+00
    0.00000E+00         0.00000E+00        -0.41863E+08
 
   -0.40729E+08         0.15182E+07         0.00000E+00
    0.15182E+07        -0.49915E+08         0.00000E+00
    0.00000E+00         0.00000E+00        -0.41863E+08
 
   -0.40763E+08         0.15910E+07         0.00000E+00
    0.15910E+07        -0.49907E+08         0.00000E+00
    0.00000E+00         0.00000E+00        -0.41863E+08
 
   -0.40797E+08         0.16637E+07         0.00000E+00
    0.16637E+07        -0.49898E+08         0.00000E+00
    0.00000E+00         0.00000E+00        -0.41862E+08
 
   -0.40831E+08         0.17363E+07         0.00000E+00
    0.17363E+07        -0.49889E+08         0.00000E+00
    0.00000E+00         0.00000E+00        -0.41862E+08
 
   -0.40866E+08         0.18088E+07         0.00000E+00
    0.18088E+07        -0.49879E+08         0.00000E+00
    0.00000E+00         0.00000E+00        -0.41862E+08
 
   -0.40901E+08         0.18813E+07         0.00000E+00
    0.18813E+07        -0.49869E+08         0.00000E+00
    0.00000E+00         0.00000E+00        -0.41861E+08
 
   -0.40936E+08         0.19537E+07         0.00000E+00
    0.19537E+07        -0.49858E+08         0.00000E+00
    0.00000E+00         0.00000E+00        -0.41861E+08
 
   -0.40972E+08         0.20261E+07         0.00000E+00
    0.20261E+07        -0.49847E+08         0.00000E+00
    0.00000E+00         0.00000E+00        -0.41861E+08
 
   -0.41007E+08         0.20984E+07         0.00000E+00
    0.20984E+07        -0.49836E+08         0.00000E+00
    0.00000E+00         0.00000E+00        -0.41860E+08
 
   -0.41043E+08         0.21706E+07         0.00000E+00
    0.21706E+07        -0.49824E+08         0.00000E+00
    0.00000E+00         0.00000E+00        -0.41860E+08
 
   -0.41080E+08         0.22429E+07         0.00000E+00
    0.22429E+07        -0.49812E+08         0.00000E+00
    0.00000E+00         0.00000E+00        -0.41859E+08
 
   -0.41116E+08         0.23150E+07         0.00000E+00
    0.23150E+07        -0.49800E+08         0.00000E+00
    0.00000E+00         0.00000E+00        -0.41859E+08
 
   -0.41153E+08         0.23872E+07         0.00000E+00
    0.23872E+07        -0.49786E+08         0.00000E+00
    0.00000E+00         0.00000E+00        -0.41859E+08
 
   -0.41190E+08         0.24593E+07         0.00000E+00
    0.24593E+07        -0.49773E+08         0.00000E+00
    0.00000E+00         0.00000E+00        -0.41858E+08
 
   -0.41228E+08         0.25314E+07         0.00000E+00
    0.25314E+07        -0.49759E+08         0.00000E+00
    0.00000E+00         0.00000E+00        -0.41858E+08
 
   -0.41266E+08         0.26035E+07         0.00000E+00
    0.26035E+07        -0.49745E+08         0.00000E+00
    0.00000E+00         0.00000E+00        -0.41858E+08
 
   -0.41304E+08         0.26756E+07         0.00000E+00
    0.26756E+07        -0.49730E+08         0.00000E+00
    0.00000E+00         0.00000E+00        -0.41858E+08
 
   -0.41342E+08         0.27476E+07         0.00000E+00
    0.27476E+07        -0.49714E+08         0.00000E+00
    0.00000E+00         0.00000E+00        -0.41857E+08
 
   -0.41381E+08         0.28197E+07         0.00000E+00
    0.28197E+07        -0.49699E+08         0.00000E+00
    0.00000E+00         0.00000E+00        -0.41857E+08
 
   -0.41420E+08         0.28917E+07         0.00000E+00
    0.28917E+07        -0.49682E+08         0.00000E+00
    0.00000E+00         0.00000E+00        -0.41857E+08
 
   -0.41460E+08         0.29638E+07         0.00000E+00
    0.29638E+07        -0.49666E+08         0.00000E+00
    0.00000E+00         0.00000E+00        -0.41857E+08
 
   -0.41500E+08         0.30358E+07         0.00000E+00
    0.30358E+07        -0.49648E+08         0.00000E+00
    0.00000E+00         0.00000E+00        -0.41856E+08
 
   -0.41540E+08         0.31079E+07         0.00000E+00
    0.31079E+07        -0.49631E+08         0.00000E+00
    0.00000E+00         0.00000E+00        -0.41856E+08
 
   -0.41581E+08         0.31799E+07         0.00000E+00
    0.31799E+07        -0.49612E+08         0.00000E+00
    0.00000E+00         0.00000E+00        -0.41856E+08
 
   -0.41622E+08         0.32520E+07         0.00000E+00
    0.32520E+07        -0.49594E+08         0.00000E+00
    0.00000E+00         0.00000E+00        -0.41856E+08
 
   -0.41663E+08         0.33241E+07         0.00000E+00
    0.33241E+07        -0.49574E+08         0.00000E+00
    0.00000E+00         0.00000E+00        -0.41856E+08
 
   -0.41705E+08         0.33962E+07         0.00000E+00
    0.33962E+07        -0.49555E+08         0.00000E+00
    0.00000E+00         0.00000E+00        -0.41856E+08
 
   -0.41748E+08         0.34683E+07         0.00000E+00
    0.34683E+07        -0.49534E+08         0.00000E+00
    0.00000E+00         0.00000E+00        -0.41856E+08
 
   -0.41790E+08         0.35405E+07         0.00000E+00
    0.35405E+07        -0.49514E+08         0.00000E+00
    0.00000E+00         0.00000E+00        -0.41855E+08
 
   -0.41834E+08         0.36127E+07         0.00000E+00
    0.36127E+07        -0.49492E+08         0.00000E+00
    0.00000E+00         0.00000E+00        -0.41855E+08
 
   -0.39717E+08         0.38962E+05         0.00000E+00
    0.38962E+05        -0.50000E+08         0.00000E+00
    0.00000E+00         0.00000E+00        -0.41501E+08
 
   -0.39748E+08         0.11640E+06         0.00000E+00
    0.11640E+06        -0.50000E+08         0.00000E+00
    0.00000E+00         0.00000E+00        -0.41500E+08
 
   -0.39778E+08         0.19366E+06         0.00000E+00
    0.19366E+06        -0.49999E+08         0.00000E+00
    0.00000E+00         0.00000E+00        -0.41500E+08
 
   -0.39808E+08         0.27075E+06         0.00000E+00
    0.27075E+06        -0.49997E+08         0.00000E+00
    0.00000E+00         0.00000E+00        -0.41500E+08
 
   -0.39839E+08         0.34767E+06         0.00000E+00
    0.34767E+06        -0.49996E+08         0.00000E+00
    0.00000E+00         0.00000E+00        -0.41500E+08
 
   -0.39870E+08         0.42443E+06         0.00000E+00
    0.42443E+06        -0.49994E+08         0.00000E+00
    0.00000E+00         0.00000E+00        -0.41500E+08
 
   -0.39901E+08         0.50103E+06         0.00000E+00
    0.50103E+06        -0.49991E+08         0.00000E+00
    0.00000E+00         0.00000E+00        -0.41500E+08
 
   -0.39933E+08         0.57748E+06         0.00000E+00
    0.57748E+06        -0.49989E+08         0.00000E+00
    0.00000E+00         0.00000E+00        -0.41500E+08
 
   -0.39964E+08         0.65377E+06         0.00000E+00
    0.65377E+06        -0.49985E+08         0.00000E+00
    0.00000E+00         0.00000E+00        -0.41500E+08
 
   -0.39996E+08         0.72991E+06         0.00000E+00
    0.72991E+06        -0.49982E+08         0.00000E+00
    0.00000E+00         0.00000E+00        -0.41499E+08
 
   -0.40028E+08         0.80592E+06         0.00000E+00
    0.80592E+06        -0.49978E+08         0.00000E+00
    0.00000E+00         0.00000E+00        -0.41499E+08
 
   -0.40060E+08         0.88178E+06         0.00000E+00
    0.88178E+06        -0.49973E+08         0.00000E+00
    0.00000E+00         0.00000E+00        -0.41499E+08
 
   -0.40093E+08         0.95751E+06         0.00000E+00
    0.95751E+06        -0.49968E+08         0.00000E+00
    0.00000E+00         0.00000E+00        -0.41498E+08
 
   -0.40125E+08         0.10331E+07         0.00000E+00
    0.10331E+07        -0.49963E+08         0.00000E+00
    0.00000E+00         0.00000E+00        -0.41498E+08
 
   -0.40158E+08         0.11086E+07         0.00000E+00
    0.11086E+07        -0.49958E+08         0.00000E+00
    0.00000E+00         0.00000E+00        -0.41498E+08
 
   -0.40191E+08         0.11840E+07         0.00000E+00
    0.11840E+07        -0.49952E+08         0.00000E+00
    0.00000E+00         0.00000E+00        -0.41498E+08
 
   -0.40225E+08         0.12592E+07         0.00000E+00
    0.12592E+07        -0.49945E+08         0.00000E+00
    0.00000E+00         0.00000E+00        -0.41497E+08
 
   -0.40258E+08         0.13344E+07         0.00000E+00
    0.13344E+07        -0.49939E+08         0.00000E+00
    0.00000E+00         0.00000E+00        -0.41497E+08
 
   -0.40292E+08         0.14094E+07         0.00000E+00
    0.14094E+07        -0.49931E+08         0.00000E+00
    0.00000E+00         0.00000E+00        -0.41496E+08
 
   -0.40326E+08         0.14844E+07         0.00000E+00
    0.14844E+07        -0.49924E+08         0.00000E+00
    0.00000E+00         0.00000E+00        -0.41496E+08
 
   -0.40360E+08         0.15593E+07         0.00000E+00
    0.15593E+07        -0.49916E+08         0.00000E+00
    0.00000E+00         0.00000E+00        -0.41496E+08
 
   -0.40394E+08         0.16341E+07         0.00000E+00
    0.16341E+07        -0.49907E+08         0.00000E+00
    0.00000E+00         0.00000E+00        -0.41495E+08
 
   -0.40429E+08         0.17088E+07         0.00000E+00
    0.17088E+07        -0.49899E+08         0.00000E+00
    0.00000E+00         0.00000E+00        -0.41495E+08
 
   -0.40463E+08         0.17834E+07         0.00000E+00
    0.17834E+07        -0.49889E+08         0.00000E+00
    0.00000E+00         0.00000E+00        -0.41495E+08
 
   -0.40498E+08         0.18580E+07         0.00000E+00
    0.18580E+07        -0.49880E+08         0.00000E+00
    0.00000E+00         0.00000E+00        -0.41494E+08
 
   -0.40534E+08         0.19326E+07         0.00000E+00
    0.19326E+07        -0.49870E+08         0.00000E+00
    0.00000E+00         0.00000E+00        -0.41494E+08
 
   -0.40569E+08         0.20070E+07         0.00000E+00
    0.20070E+07        -0.49859E+08         0.00000E+00
    0.00000E+00         0.00000E+00        -0.41493E+08
 
   -0.40605E+08         0.20815E+07         0.00000E+00
    0.20815E+07        -0.49849E+08         0.00000E+00
    0.00000E+00         0.00000E+00        -0.41493E+08
 
   -0.40641E+08         0.21559E+07         0.00000E+00
    0.21559E+07        -0.49837E+08         0.00000E+00
    0.00000E+00         0.00000E+00        -0.41493E+08
 
   -0.40677E+08         0.22303E+07         0.00000E+00
    0.22303E+07        -0.49826E+08         0.00000E+00
    0.00000E+00         0.00000E+00        -0.41492E+08
 
   -0.40713E+08         0.23046E+07         0.00000E+00
    0.23046E+07        -0.49814E+08         0.00000E+00
    0.00000E+00         0.00000E+00        -0.41492E+08
 
   -0.40750E+08         0.23790E+07         0.00000E+00
    0.23790E+07        -0.49801E+08         0.00000E+00
    0.00000E+00         0.00000E+00        -0.41492E+08
 
   -0.40787E+08         0.24533E+07         0.00000E+00
    0.24533E+07        -0.49788E+08         0.00000E+00
    0.00000E+00         0.00000E+00        -0.41491E+08
 
   -0.40824E+08         0.25276E+07         0.00000E+00
    0.25276E+07        -0.49775E+08         0.00000E+00
    0.00000E+00         0.00000E+00        -0.41491E+08
 
   -0.40862E+08         0.26020E+07         0.00000E+00
    0.26020E+07        -0.49761E+08         0.00000E+00
    0.00000E+00         0.00000E+00        -0.41491E+08
 
   -0.40900E+08         0.26763E+07         0.00000E+00
    0.26763E+07        -0.49747E+08         0.00000E+00
    0.00000E+00         0.00000E+00        -0.41490E+08
 
   -0.40938E+08         0.27507E+07         0.00000E+00
    0.27507E+07        -0.49732E+08         0.00000E+00
    0.00000E+00         0.00000E+00        -0.41490E+08
 
   -0.40976E+08         0.28250E+07         0.00000E+00
    0.28250E+07        -0.49717E+08         0.00000E+00
    0.00000E+00         0.00000E+00        -0.41490E+08
 
   -0.41015E+08         0.28994E+07         0.00000E+00
    0.28994E+07        -0.49701E+08         0.00000E+00
    0.00000E+00         0.00000E+00        -0.41489E+08
 
   -0.41054E+08         0.29738E+07         0.00000E+00
    0.29738E+07        -0.49685E+08         0.00000E+00
    0.00000E+00         0.00000E+00        -0.41489E+08
 
   -0.41093E+08         0.30483E+07         0.00000E+00
    0.30483E+07        -0.49669E+08         0.00000E+00
    0.00000E+00         0.00000E+00        -0.41489E+08
 
   -0.41133E+08         0.31228E+07         0.00000E+00
    0.31228E+07        -0.49652E+08         0.00000E+00
    0.00000E+00         0.00000E+00        -0.41489E+08
 
   -0.41173E+08         0.31973E+07         0.00000E+00
    0.31973E+07        -0.49634E+08         0.00000E+00
    0.00000E+00         0.00000E+00        -0.41488E+08
 
   -0.41214E+08         0.32719E+07         0.00000E+00
    0.32719E+07        -0.49616E+08         0.00000E+00
    0.00000E+00         0.00000E+00        -0.41488E+08
 
   -0.41255E+08         0.33465E+07         0.00000E+00
    0.33465E+07        -0.49598E+08         0.00000E+00
    0.00000E+00         0.00000E+00        -0.41488E+08
 
   -0.41296E+08         0.34212E+07         0.00000E+00
    0.34212E+07        -0.49578E+08         0.00000E+00
    0.00000E+00         0.00000E+00        -0.41488E+08
 
   -0.41338E+08         0.34959E+07         0.00000E+00
    0.34959E+07        -0.49559E+08         0.00000E+00
    0.00000E+00         0.00000E+00        -0.41488E+08
 
   -0.41380E+08         0.35707E+07         0.00000E+00
    0.35707E+07        -0.49539E+08         0.00000E+00
    0.00000E+00         0.00000E+00        -0.41488E+08
 
   -0.41423E+08         0.36455E+07         0.00000E+00
    0.36455E+07        -0.49518E+08         0.00000E+00
    0.00000E+00         0.00000E+00        -0.41488E+08
 
   -0.41466E+08         0.37204E+07         0.00000E+00
    0.37204E+07        -0.49497E+08         0.00000E+00
    0.00000E+00         0.00000E+00        -0.41488E+08
 
   -0.39325E+08         0.39992E+05         0.00000E+00
    0.39992E+05        -0.50000E+08         0.00000E+00
    0.00000E+00         0.00000E+00        -0.41119E+08
 
   -0.39356E+08         0.11946E+06         0.00000E+00
    0.11946E+06        -0.50000E+08         0.00000E+00
    0.00000E+00         0.00000E+00        -0.41119E+08
 
   -0.39387E+08         0.19875E+06         0.00000E+00
    0.19875E+06        -0.49999E+08         0.00000E+00
    0.00000E+00         0.00000E+00        -0.41119E+08
 
   -0.39418E+08         0.27786E+06         0.00000E+00
    0.27786E+06        -0.49997E+08         0.00000E+00
    0.00000E+00         0.00000E+00        -0.41119E+08
 
   -0.39450E+08         0.35679E+06         0.00000E+00
    0.35679E+06        -0.49996E+08         0.00000E+00
    0.00000E+00         0.00000E+00        -0.41119E+08
 
   -0.39482E+08         0.43555E+06         0.00000E+00
    0.43555E+06        -0.49994E+08         0.00000E+00
    0.00000E+00         0.00000E+00        -0.41119E+08
 
   -0.39514E+08         0.51414E+06         0.00000E+00
    0.51414E+06        -0.49991E+08         0.00000E+00
    0.00000E+00         0.00000E+00        -0.41119E+08
 
   -0.39546E+08         0.59257E+06         0.00000E+00
    0.59257E+06        -0.49989E+08         0.00000E+00
    0.00000E+00         0.00000E+00        -0.41119E+08
 
   -0.39578E+08         0.67084E+06         0.00000E+00
    0.67084E+06        -0.49985E+08         0.00000E+00
    0.00000E+00         0.00000E+00        -0.41118E+08
 
   -0.39611E+08         0.74896E+06         0.00000E+00
    0.74896E+06        -0.49982E+08         0.00000E+00
    0.00000E+00         0.00000E+00        -0.41118E+08
 
   -0.39644E+08         0.82693E+06         0.00000E+00
    0.82693E+06        -0.49978E+08         0.00000E+00
    0.00000E+00         0.00000E+00        -0.41118E+08
 
   -0.39676E+08         0.90475E+06         0.00000E+00
    0.90475E+06        -0.49973E+08         0.00000E+00
    0.00000E+00         0.00000E+00        -0.41118E+08
 
   -0.39710E+08         0.98244E+06         0.00000E+00
    0.98244E+06        -0.49969E+08         0.00000E+00
    0.00000E+00         0.00000E+00        -0.41117E+08
 
   -0.39743E+08         0.10600E+07         0.00000E+00
    0.10600E+07        -0.49963E+08         0.00000E+00
    0.00000E+00         0.00000E+00        -0.41117E+08
 
   -0.39776E+08         0.11374E+07         0.00000E+00
    0.11374E+07        -0.49958E+08         0.00000E+00
    0.00000E+00         0.00000E+00        -0.41117E+08
 
   -0.39810E+08         0.12148E+07         0.00000E+00
    0.12148E+07        -0.49952E+08         0.00000E+00
    0.00000E+00         0.00000E+00        -0.41116E+08
 
   -0.39844E+08         0.12920E+07         0.00000E+00
    0.12920E+07        -0.49946E+08         0.00000E+00
    0.00000E+00         0.00000E+00        -0.41116E+08
 
   -0.39878E+08         0.13691E+07         0.00000E+00
    0.13691E+07        -0.49939E+08         0.00000E+00
    0.00000E+00         0.00000E+00        -0.41116E+08
 
   -0.39912E+08         0.14461E+07         0.00000E+00
    0.14461E+07        -0.49932E+08         0.00000E+00
    0.00000E+00         0.00000E+00        -0.41115E+08
 
   -0.39946E+08         0.15230E+07         0.00000E+00
    0.15230E+07        -0.49924E+08         0.00000E+00
    0.00000E+00         0.00000E+00        -0.41115E+08
 
   -0.39981E+08         0.15998E+07         0.00000E+00
    0.15998E+07        -0.49917E+08         0.00000E+00
    0.00000E+00         0.00000E+00        -0.41114E+08
 
   -0.40015E+08         0.16766E+07         0.00000E+00
    0.16766E+07        -0.49908E+08         0.00000E+00
    0.00000E+00         0.00000E+00        -0.41114E+08
 
   -0.40050E+08         0.17533E+07         0.00000E+00
    0.17533E+07        -0.49900E+08         0.00000E+00
    0.00000E+00         0.00000E+00        -0.41114E+08
 
   -0.40085E+08         0.18300E+07         0.00000E+00
    0.18300E+07        -0.49891E+08         0.00000E+00
    0.00000E+00         0.00000E+00        -0.41113E+08
 
   -0.40120E+08         0.19066E+07         0.00000E+00
    0.19066E+07        -0.49881E+08         0.00000E+00
    0.00000E+00         0.00000E+00        -0.41113E+08
 
   -0.40156E+08         0.19831E+07         0.00000E+00
    0.19831E+07        -0.49871E+08         0.00000E+00
    0.00000E+00         0.00000E+00        -0.41112E+08
 
   -0.40192E+08         0.20596E+07         0.00000E+00
    0.20596E+07        -0.49861E+08         0.00000E+00
    0.00000E+00         0.00000E+00        -0.41112E+08
 
   -0.40227E+08         0.21361E+07         0.00000E+00
    0.21361E+07        -0.49851E+08         0.00000E+00
    0.00000E+00         0.00000E+00        -0.41111E+08
 
   -0.40263E+08         0.22126E+07         0.00000E+00
    0.22126E+07        -0.49840E+08         0.00000E+00
    0.00000E+00         0.00000E+00        -0.41111E+08
 
   -0.40300E+08         0.22891E+07         0.00000E+00
    0.22891E+07        -0.49828E+08         0.00000E+00
    0.00000E+00         0.00000E+00        -0.41111E+08
 
   -0.40336E+08         0.23655E+07         0.00000E+00
    0.23655E+07        -0.49816E+08         0.00000E+00
    0.00000E+00         0.00000E+00        -0.41110E+08
 
   -0.40373E+08         0.24420E+07         0.00000E+00
    0.24420E+07        -0.49804E+08         0.00000E+00
    0.00000E+00         0.00000E+00        -0.41110E+08
 
   -0.40410E+08         0.25185E+07         0.00000E+00
    0.25185E+07        -0.49791E+08         0.00000E+00
    0.00000E+00         0.00000E+00        -0.41110E+08
 
   -0.40447E+08         0.25950E+07         0.00000E+00
    0.25950E+07        -0.49778E+08         0.00000E+00
    0.00000E+00         0.00000E+00        -0.41109E+08
 
   -0.40484E+08         0.26715E+07         0.00000E+00
    0.26715E+07        -0.49765E+08         0.00000E+00
    0.00000E+00         0.00000E+00        -0.41109E+08
 
   -0.40522E+08         0.27481E+07         0.00000E+00
    0.27481E+07        -0.49751E+08         0.00000E+00
    0.00000E+00         0.00000E+00        -0.41108E+08
 
   -0.40560E+08         0.28247E+07         0.00000E+00
    0.28247E+07        -0.49736E+08         0.00000E+00
    0.00000E+00         0.00000E+00        -0.41108E+08
 
   -0.40598E+08         0.29014E+07         0.00000E+00
    0.29014E+07        -0.49721E+08         0.00000E+00
    0.00000E+00         0.00000E+00        -0.41108E+08
 
   -0.40637E+08         0.29781E+07         0.00000E+00
    0.29781E+07        -0.49706E+08         0.00000E+00
    0.00000E+00         0.00000E+00        -0.41107E+08
 
   -0.40676E+08         0.30549E+07         0.00000E+00
    0.30549E+07        -0.49690E+08         0.00000E+00
    0.00000E+00         0.00000E+00        -0.41107E+08
 
   -0.40715E+08         0.31317E+07         0.00000E+00
    0.31317E+07        -0.49674E+08         0.00000E+00
    0.00000E+00         0.00000E+00        -0.41107E+08
 
   -0.40755E+08         0.32087E+07         0.00000E+00
    0.32087E+07        -0.49657E+08         0.00000E+00
    0.00000E+00         0.00000E+00        -0.41107E+08
 
   -0.40794E+08         0.32857E+07         0.00000E+00
    0.32857E+07        -0.49640E+08         0.00000E+00
    0.00000E+00         0.00000E+00        -0.41106E+08
 
   -0.40835E+08         0.33628E+07         0.00000E+00
    0.33628E+07        -0.49622E+08         0.00000E+00
    0.00000E+00         0.00000E+00        -0.41106E+08
 
   -0.40875E+08         0.34400E+07         0.00000E+00
    0.34400E+07        -0.49604E+08         0.00000E+00
    0.00000E+00         0.00000E+00        -0.41106E+08
 
   -0.40916E+08         0.35172E+07         0.00000E+00
    0.35172E+07        -0.49585E+08         0.00000E+00
    0.00000E+00         0.00000E+00        -0.41106E+08
 
   -0.40957E+08         0.35946E+07         0.00000E+00
    0.35946E+07        -0.49565E+08         0.00000E+00
    0.00000E+00         0.00000E+00        -0.41106E+08
 
   -0.40999E+08         0.36721E+07         0.00000E+00
    0.36721E+07        -0.49545E+08         0.00000E+00
    0.00000E+00         0.00000E+00        -0.41106E+08
 
   -0.41041E+08         0.37497E+07         0.00000E+00
    0.37497E+07        -0.49525E+08         0.00000E+00
    0.00000E+00         0.00000E+00        -0.41106E+08
 
   -0.41084E+08         0.38274E+07         0.00000E+00
    0.38274E+07        -0.49504E+08         0.00000E+00
    0.00000E+00         0.00000E+00        -0.41106E+08
 
   -0.38922E+08         0.41027E+05         0.00000E+00
    0.41027E+05        -0.50000E+08         0.00000E+00
    0.00000E+00         0.00000E+00        -0.40724E+08
 
   -0.38954E+08         0.12253E+06         0.00000E+00
    0.12253E+06        -0.50000E+08         0.00000E+00
    0.00000E+00         0.00000E+00        -0.40724E+08
 
   -0.38986E+08         0.20384E+06         0.00000E+00
    0.20384E+06        -0.49999E+08         0.00000E+00
    0.00000E+00         0.00000E+00        -0.40724E+08
 
   -0.39018E+08         0.28496E+06         0.00000E+00
    0.28496E+06        -0.49997E+08         0.00000E+00
    0.00000E+00         0.00000E+00        -0.40724E+08
 
   -0.39051E+08         0.36588E+06         0.00000E+00
    0.36588E+06        -0.49996E+08         0.00000E+00
    0.00000E+00         0.00000E+00        -0.40724E+08
 
   -0.39083E+08         0.44662E+06         0.00000E+00
    0.44662E+06        -0.49994E+08         0.00000E+00
    0.00000E+00         0.00000E+00        -0.40724E+08
 
   -0.39116E+08         0.52719E+06         0.00000E+00
    0.52719E+06        -0.49991E+08         0.00000E+00
    0.00000E+00         0.00000E+00        -0.40723E+08
 
   -0.39149E+08         0.60757E+06         0.00000E+00
    0.60757E+06        -0.49989E+08         0.00000E+00
    0.00000E+00         0.00000E+00        -0.40723E+08
 
   -0.39182E+08         0.68779E+06         0.00000E+00
    0.68779E+06        -0.49985E+08         0.00000E+00
    0.00000E+00         0.00000E+00        -0.40723E+08
 
   -0.39216E+08         0.76784E+06         0.00000E+00
    0.76784E+06        -0.49982E+08         0.00000E+00
    0.00000E+00         0.00000E+00        -0.40723E+08
 
   -0.39249E+08         0.84774E+06         0.00000E+00
    0.84774E+06        -0.49978E+08         0.00000E+00
    0.00000E+00         0.00000E+00        -0.40722E+08
 
   -0.39283E+08         0.92749E+06         0.00000E+00
    0.92749E+06        -0.49974E+08         0.00000E+00
    0.00000E+00         0.00000E+00        -0.40722E+08
 
   -0.39317E+08         0.10071E+07         0.00000E+00
    0.10071E+07        -0.49969E+08         0.00000E+00
    0.00000E+00         0.00000E+00        -0.40722E+08
 
   -0.39351E+08         0.10866E+07         0.00000E+00
    0.10866E+07        -0.49964E+08         0.00000E+00
    0.00000E+00         0.00000E+00        -0.40721E+08
 
   -0.39385E+08         0.11659E+07         0.00000E+00
    0.11659E+07        -0.49958E+08         0.00000E+00
    0.00000E+00         0.00000E+00        -0.40721E+08
 
   -0.39419E+08         0.12451E+07         0.00000E+00
    0.12451E+07        -0.49953E+08         0.00000E+00
    0.00000E+00         0.00000E+00        -0.40721E+08
 
   -0.39453E+08         0.13242E+07         0.00000E+00
    0.13242E+07        -0.49946E+08         0.00000E+00
    0.00000E+00         0.00000E+00        -0.40720E+08
 
   -0.39488E+08         0.14032E+07         0.00000E+00
    0.14032E+07        -0.49940E+08         0.00000E+00
    0.00000E+00         0.00000E+00        -0.40720E+08
 
   -0.39522E+08         0.14821E+07         0.00000E+00
    0.14821E+07        -0.49933E+08         0.00000E+00
    0.00000E+00         0.00000E+00        -0.40719E+08
 
   -0.39557E+08         0.15610E+07         0.00000E+00
    0.15610E+07        -0.49925E+08         0.00000E+00
    0.00000E+00         0.00000E+00        -0.40719E+08
 
   -0.39592E+08         0.16397E+07         0.00000E+00
    0.16397E+07        -0.49918E+08         0.00000E+00
    0.00000E+00         0.00000E+00        -0.40719E+08
 
   -0.39627E+08         0.17184E+07         0.00000E+00
    0.17184E+07        -0.49910E+08         0.00000E+00
    0.00000E+00         0.00000E+00        -0.40718E+08
 
   -0.39662E+08         0.17970E+07         0.00000E+00
    0.17970E+07        -0.49901E+08         0.00000E+00
    0.00000E+00         0.00000E+00        -0.40718E+08
 
   -0.39697E+08         0.18756E+07         0.00000E+00
    0.18756E+07        -0.49892E+08         0.00000E+00
    0.00000E+00         0.00000E+00        -0.40717E+08
 
   -0.39733E+08         0.19542E+07         0.00000E+00
    0.19542E+07        -0.49883E+08         0.00000E+00
    0.00000E+00         0.00000E+00        -0.40717E+08
 
   -0.39768E+08         0.20327E+07         0.00000E+00
    0.20327E+07        -0.49874E+08         0.00000E+00
    0.00000E+00         0.00000E+00        -0.40716E+08
 
   -0.39804E+08         0.21112E+07         0.00000E+00
    0.21112E+07        -0.49864E+08         0.00000E+00
    0.00000E+00         0.00000E+00        -0.40716E+08
 
   -0.39840E+08         0.21897E+07         0.00000E+00
    0.21897E+07        -0.49853E+08         0.00000E+00
    0.00000E+00         0.00000E+00        -0.40716E+08
 
   -0.39876E+08         0.22681E+07         0.00000E+00
    0.22681E+07        -0.49843E+08         0.00000E+00
    0.00000E+00         0.00000E+00        -0.40715E+08
 
   -0.39912E+08         0.23466E+07         0.00000E+00
    0.23466E+07        -0.49831E+08         0.00000E+00
    0.00000E+00         0.00000E+00        -0.40715E+08
 
   -0.39949E+08         0.24252E+07         0.00000E+00
    0.24252E+07        -0.49820E+08         0.00000E+00
    0.00000E+00         0.00000E+00        -0.40714E+08
 
   -0.39985E+08         0.25037E+07         0.00000E+00
    0.25037E+07        -0.49808E+08         0.00000E+00
    0.00000E+00         0.00000E+00        -0.40714E+08
 
   -0.40022E+08         0.25823E+07         0.00000E+00
    0.25823E+07        -0.49795E+08         0.00000E+00
    0.00000E+00         0.00000E+00        -0.40713E+08
 
   -0.40059E+08         0.26609E+07         0.00000E+00
    0.26609E+07        -0.49783E+08         0.00000E+00
    0.00000E+00         0.00000E+00        -0.40713E+08
 
   -0.40096E+08         0.27396E+07         0.00000E+00
    0.27396E+07        -0.49769E+08         0.00000E+00
    0.00000E+00         0.00000E+00        -0.40713E+08
 
   -0.40134E+08         0.28184E+07         0.00000E+00
    0.28184E+07        -0.49756E+08         0.00000E+00
    0.00000E+00         0.00000E+00        -0.40712E+08
 
   -0.40171E+08         0.28973E+07         0.00000E+00
    0.28973E+07        -0.49742E+08         0.00000E+00
    0.00000E+00         0.00000E+00        -0.40712E+08
 
   -0.40209E+08         0.29762E+07         0.00000E+00
    0.29762E+07        -0.49727E+08         0.00000E+00
    0.00000E+00         0.00000E+00        -0.40712E+08
 
   -0.40247E+08         0.30552E+07         0.00000E+00
    0.30552E+07        -0.49712E+08         0.00000E+00
    0.00000E+00         0.00000E+00        -0.40711E+08
 
   -0.40286E+08         0.31344E+07         0.00000E+00
    0.31344E+07        -0.49697E+08         0.00000E+00
    0.00000E+00         0.00000E+00        -0.40711E+08
 
   -0.40324E+08         0.32136E+07         0.00000E+00
    0.32136E+07        -0.49681E+08         0.00000E+00
    0.00000E+00         0.00000E+00        -0.40711E+08
 
   -0.40363E+08         0.32930E+07         0.00000E+00
    0.32930E+07        -0.49664E+08         0.00000E+00
    0.00000E+00         0.00000E+00        -0.40710E+08
 
   -0.40403E+08         0.33724E+07         0.00000E+00
    0.33724E+07        -0.49647E+08         0.00000E+00
    0.00000E+00         0.00000E+00        -0.40710E+08
 
   -0.40442E+08         0.34521E+07         0.00000E+00
    0.34521E+07        -0.49630E+08         0.00000E+00
    0.00000E+00         0.00000E+00        -0.40710E+08
 
   -0.40482E+08         0.35318E+07         0.00000E+00
    0.35318E+07        -0.49612E+08         0.00000E+00
    0.00000E+00         0.00000E+00        -0.40710E+08
 
   -0.40523E+08         0.36117E+07         0.00000E+00
    0.36117E+07        -0.49594E+08         0.00000E+00
    0.00000E+00         0.00000E+00        -0.40710E+08
 
   -0.40564E+08         0.36918E+07         0.00000E+00
    0.36918E+07        -0.49575E+08         0.00000E+00
    0.00000E+00         0.00000E+00        -0.40709E+08
 
   -0.40605E+08         0.37720E+07         0.00000E+00
    0.37720E+07        -0.49555E+08         0.00000E+00
    0.00000E+00         0.00000E+00        -0.40709E+08
 
   -0.40646E+08         0.38524E+07         0.00000E+00
    0.38524E+07        -0.49535E+08         0.00000E+00
    0.00000E+00         0.00000E+00        -0.40709E+08
 
   -0.40688E+08         0.39329E+07         0.00000E+00
    0.39329E+07        -0.49515E+08         0.00000E+00
    0.00000E+00         0.00000E+00        -0.40709E+08
 
   -0.38509E+08         0.42070E+05         0.00000E+00
    0.42070E+05        -0.50000E+08         0.00000E+00
    0.00000E+00         0.00000E+00        -0.40314E+08
 
   -0.38542E+08         0.12560E+06         0.00000E+00
    0.12560E+06        -0.50000E+08         0.00000E+00
    0.00000E+00         0.00000E+00        -0.40314E+08
 
   -0.38575E+08         0.20892E+06         0.00000E+00
    0.20892E+06        -0.49999E+08         0.00000E+00
    0.00000E+00         0.00000E+00        -0.40314E+08
 
   -0.38608E+08         0.29203E+06         0.00000E+00
    0.29203E+06        -0.49997E+08         0.00000E+00
    0.00000E+00         0.00000E+00        -0.40314E+08
 
   -0.38642E+08         0.37493E+06         0.00000E+00
    0.37493E+06        -0.49996E+08         0.00000E+00
    0.00000E+00         0.00000E+00        -0.40313E+08
 
   -0.38675E+08         0.45762E+06         0.00000E+00
    0.45762E+06        -0.49994E+08         0.00000E+00
    0.00000E+00         0.00000E+00        -0.40313E+08
 
   -0.38709E+08         0.54012E+06         0.00000E+00
    0.54012E+06        -0.49991E+08         0.00000E+00
    0.00000E+00         0.00000E+00        -0.40313E+08
 
   -0.38743E+08         0.62243E+06         0.00000E+00
    0.62243E+06        -0.49989E+08         0.00000E+00
    0.00000E+00         0.00000E+00        -0.40313E+08
 
   -0.38777E+08         0.70455E+06         0.00000E+00
    0.70455E+06        -0.49986E+08         0.00000E+00
    0.00000E+00         0.00000E+00        -0.40313E+08
 
   -0.38811E+08         0.78649E+06         0.00000E+00
    0.78649E+06        -0.49982E+08         0.00000E+00
    0.00000E+00         0.00000E+00        -0.40312E+08
 
   -0.38845E+08         0.86826E+06         0.00000E+00
    0.86826E+06        -0.49978E+08         0.00000E+00
    0.00000E+00         0.00000E+00        -0.40312E+08
 
   -0.38880E+08         0.94987E+06         0.00000E+00
    0.94987E+06        -0.49974E+08         0.00000E+00
    0.00000E+00         0.00000E+00        -0.40312E+08
 
   -0.38914E+08         0.10313E+07         0.00000E+00
    0.10313E+07        -0.49969E+08         0.00000E+00
    0.00000E+00         0.00000E+00        -0.40311E+08
 
   -0.38949E+08         0.11126E+07         0.00000E+00
    0.11126E+07        -0.49964E+08         0.00000E+00
    0.00000E+00         0.00000E+00        -0.40311E+08
 
   -0.38984E+08         0.11938E+07         0.00000E+00
    0.11938E+07        -0.49959E+08         0.00000E+00
    0.00000E+00         0.00000E+00        -0.40311E+08
 
   -0.39018E+08         0.12749E+07         0.00000E+00
    0.12749E+07        -0.49953E+08         0.00000E+00
    0.00000E+00         0.00000E+00        -0.40310E+08
 
   -0.39053E+08         0.13558E+07         0.00000E+00
    0.13558E+07        -0.49947E+08         0.00000E+00
    0.00000E+00         0.00000E+00        -0.40310E+08
 
   -0.39088E+08         0.14366E+07         0.00000E+00
    0.14366E+07        -0.49941E+08         0.00000E+00
    0.00000E+00         0.00000E+00        -0.40309E+08
 
   -0.39123E+08         0.15174E+07         0.00000E+00
    0.15174E+07        -0.49934E+08         0.00000E+00
    0.00000E+00         0.00000E+00        -0.40309E+08
 
   -0.39158E+08         0.15980E+07         0.00000E+00
    0.15980E+07        -0.49927E+08         0.00000E+00
    0.00000E+00         0.00000E+00        -0.40309E+08
 
   -0.39194E+08         0.16786E+07         0.00000E+00
    0.16786E+07        -0.49919E+08         0.00000E+00
    0.00000E+00         0.00000E+00        -0.40308E+08
 
   -0.39229E+08         0.17591E+07         0.00000E+00
    0.17591E+07        -0.49912E+08         0.00000E+00
    0.00000E+00         0.00000E+00        -0.40308E+08
 
   -0.39264E+08         0.18396E+07         0.00000E+00
    0.18396E+07        -0.49903E+08         0.00000E+00
    0.00000E+00         0.00000E+00        -0.40307E+08
 
   -0.39300E+08         0.19200E+07         0.00000E+00
    0.19200E+07        -0.49895E+08         0.00000E+00
    0.00000E+00         0.00000E+00        -0.40307E+08
 
   -0.39335E+08         0.20005E+07         0.00000E+00
    0.20005E+07        -0.49886E+08         0.00000E+00
    0.00000E+00         0.00000E+00        -0.40306E+08
 
   -0.39371E+08         0.20808E+07         0.00000E+00
    0.20808E+07        -0.49877E+08         0.00000E+00
    0.00000E+00         0.00000E+00        -0.40306E+08
 
   -0.39407E+08         0.21612E+07         0.00000E+00
    0.21612E+07        -0.49867E+08         0.00000E+00
    0.00000E+00         0.00000E+00        -0.40305E+08
 
   -0.39443E+08         0.22416E+07         0.00000E+00
    0.22416E+07        -0.49857E+08         0.00000E+00
    0.00000E+00         0.00000E+00        -0.40305E+08
 
   -0.39479E+08         0.23221E+07         0.00000E+00
    0.23221E+07        -0.49847E+08         0.00000E+00
    0.00000E+00         0.00000E+00        -0.40304E+08
 
   -0.39515E+08         0.24025E+07         0.00000E+00
    0.24025E+07        -0.49836E+08         0.00000E+00
    0.00000E+00         0.00000E+00        -0.40304E+08
 
   -0.39551E+08         0.24830E+07         0.00000E+00
    0.24830E+07        -0.49825E+08         0.00000E+00
    0.00000E+00         0.00000E+00        -0.40304E+08
 
   -0.39587E+08         0.25636E+07         0.00000E+00
    0.25636E+07        -0.49813E+08         0.00000E+00
    0.00000E+00         0.00000E+00        -0.40303E+08
 
   -0.39624E+08         0.26442E+07         0.00000E+00
    0.26442E+07        -0.49801E+08         0.00000E+00
    0.00000E+00         0.00000E+00        -0.40303E+08
 
   -0.39660E+08         0.27249E+07         0.00000E+00
    0.27249E+07        -0.49789E+08         0.00000E+00
    0.00000E+00         0.00000E+00        -0.40302E+08
 
   -0.39697E+08         0.28058E+07         0.00000E+00
    0.28058E+07        -0.49776E+08         0.00000E+00
    0.00000E+00         0.00000E+00        -0.40302E+08
 
   -0.39734E+08         0.28867E+07         0.00000E+00
    0.28867E+07        -0.49763E+08         0.00000E+00
    0.00000E+00         0.00000E+00        -0.40301E+08
 
   -0.39771E+08         0.29677E+07         0.00000E+00
    0.29677E+07        -0.49749E+08         0.00000E+00
    0.00000E+00         0.00000E+00        -0.40301E+08
 
   -0.39809E+08         0.30489E+07         0.00000E+00
    0.30489E+07        -0.49735E+08         0.00000E+00
    0.00000E+00         0.00000E+00        -0.40301E+08
 
   -0.39846E+08         0.31301E+07         0.00000E+00
    0.31301E+07        -0.49721E+08         0.00000E+00
    0.00000E+00         0.00000E+00        -0.40300E+08
 
   -0.39884E+08         0.32116E+07         0.00000E+00
    0.32116E+07        -0.49706E+08         0.00000E+00
    0.00000E+00         0.00000E+00        -0.40300E+08
 
   -0.39922E+08         0.32932E+07         0.00000E+00
    0.32932E+07        -0.49690E+08         0.00000E+00
    0.00000E+00         0.00000E+00        -0.40300E+08
 
   -0.39960E+08         0.33750E+07         0.00000E+00
    0.33750E+07        -0.49674E+08         0.00000E+00
    0.00000E+00         0.00000E+00        -0.40300E+08
 
   -0.39999E+08         0.34569E+07         0.00000E+00
    0.34569E+07        -0.49658E+08         0.00000E+00
    0.00000E+00         0.00000E+00        -0.40299E+08
 
   -0.40038E+08         0.35391E+07         0.00000E+00
    0.35391E+07        -0.49641E+08         0.00000E+00
    0.00000E+00         0.00000E+00        -0.40299E+08
 
   -0.40077E+08         0.36214E+07         0.00000E+00
    0.36214E+07        -0.49624E+08         0.00000E+00
    0.00000E+00         0.00000E+00        -0.40299E+08
 
   -0.40116E+08         0.37039E+07         0.00000E+00
    0.37039E+07        -0.49606E+08         0.00000E+00
    0.00000E+00         0.00000E+00        -0.40299E+08
 
   -0.40156E+08         0.37867E+07         0.00000E+00
    0.37867E+07        -0.49587E+08         0.00000E+00
    0.00000E+00         0.00000E+00        -0.40299E+08
 
   -0.40196E+08         0.38696E+07         0.00000E+00
    0.38696E+07        -0.49569E+08         0.00000E+00
    0.00000E+00         0.00000E+00        -0.40298E+08
 
   -0.40237E+08         0.39528E+07         0.00000E+00
    0.39528E+07        -0.49549E+08         0.00000E+00
    0.00000E+00         0.00000E+00        -0.40298E+08
 
   -0.40278E+08         0.40362E+07         0.00000E+00
    0.40362E+07        -0.49529E+08         0.00000E+00
    0.00000E+00         0.00000E+00        -0.40298E+08
 
   -0.38085E+08         0.43119E+05         0.00000E+00
    0.43119E+05        -0.50000E+08         0.00000E+00
    0.00000E+00         0.00000E+00        -0.39889E+08
 
   -0.38120E+08         0.12867E+06         0.00000E+00
    0.12867E+06        -0.50000E+08         0.00000E+00
    0.00000E+00         0.00000E+00        -0.39889E+08
 
   -0.38154E+08         0.21398E+06         0.00000E+00
    0.21398E+06        -0.49999E+08         0.00000E+00
    0.00000E+00         0.00000E+00        -0.39888E+08
 
   -0.38188E+08         0.29905E+06         0.00000E+00
    0.29905E+06        -0.49997E+08         0.00000E+00
    0.00000E+00         0.00000E+00        -0.39888E+08
 
   -0.38223E+08         0.38389E+06         0.00000E+00
    0.38389E+06        -0.49996E+08         0.00000E+00
    0.00000E+00         0.00000E+00        -0.39888E+08
 
   -0.38258E+08         0.46850E+06         0.00000E+00
    0.46850E+06        -0.49994E+08         0.00000E+00
    0.00000E+00         0.00000E+00        -0.39888E+08
 
   -0.38292E+08         0.55288E+06         0.00000E+00
    0.55288E+06        -0.49992E+08         0.00000E+00
    0.00000E+00         0.00000E+00        -0.39888E+08
 
   -0.38327E+08         0.63705E+06         0.00000E+00
    0.63705E+06        -0.49989E+08         0.00000E+00
    0.00000E+00         0.00000E+00        -0.39888E+08
 
   -0.38362E+08         0.72102E+06         0.00000E+00
    0.72102E+06        -0.49986E+08         0.00000E+00
    0.00000E+00         0.00000E+00        -0.39887E+08
 
   -0.38397E+08         0.80479E+06         0.00000E+00
    0.80479E+06        -0.49982E+08         0.00000E+00
    0.00000E+00         0.00000E+00        -0.39887E+08
 
   -0.38432E+08         0.88836E+06         0.00000E+00
    0.88836E+06        -0.49979E+08         0.00000E+00
    0.00000E+00         0.00000E+00        -0.39887E+08
 
   -0.38468E+08         0.97176E+06         0.00000E+00
    0.97176E+06        -0.49974E+08         0.00000E+00
    0.00000E+00         0.00000E+00        -0.39886E+08
 
   -0.38503E+08         0.10550E+07         0.00000E+00
    0.10550E+07        -0.49970E+08         0.00000E+00
    0.00000E+00         0.00000E+00        -0.39886E+08
 
   -0.38538E+08         0.11381E+07         0.00000E+00
    0.11381E+07        -0.49965E+08         0.00000E+00
    0.00000E+00         0.00000E+00        -0.39886E+08
 
   -0.38574E+08         0.12210E+07         0.00000E+00
    0.12210E+07        -0.49960E+08         0.00000E+00
    0.00000E+00         0.00000E+00        -0.39885E+08
 
   -0.38609E+08         0.13038E+07         0.00000E+00
    0.13038E+07        -0.49954E+08         0.00000E+00
    0.00000E+00         0.00000E+00        -0.39885E+08
 
   -0.38644E+08         0.13865E+07         0.00000E+00
    0.13865E+07        -0.49949E+08         0.00000E+00
    0.00000E+00         0.00000E+00        -0.39884E+08
 
   -0.38680E+08         0.14690E+07         0.00000E+00
    0.14690E+07        -0.49942E+08         0.00000E+00
    0.00000E+00         0.00000E+00        -0.39884E+08
 
   -0.38715E+08         0.15515E+07         0.00000E+00
    0.15515E+07        -0.49936E+08         0.00000E+00
    0.00000E+00         0.00000E+00        -0.39884E+08
 
   -0.38751E+08         0.16339E+07         0.00000E+00
    0.16339E+07        -0.49929E+08         0.00000E+00
    0.00000E+00         0.00000E+00        -0.39883E+08
 
   -0.38786E+08         0.17162E+07         0.00000E+00
    0.17162E+07        -0.49922E+08         0.00000E+00
    0.00000E+00         0.00000E+00        -0.39883E+08
 
   -0.38822E+08         0.17984E+07         0.00000E+00
    0.17984E+07        -0.49914E+08         0.00000E+00
    0.00000E+00         0.00000E+00        -0.39882E+08
 
   -0.38858E+08         0.18807E+07         0.00000E+00
    0.18807E+07        -0.49906E+08         0.00000E+00
    0.00000E+00         0.00000E+00        -0.39882E+08
 
   -0.38893E+08         0.19628E+07         0.00000E+00
    0.19628E+07        -0.49898E+08         0.00000E+00
    0.00000E+00         0.00000E+00        -0.39881E+08
 
   -0.38929E+08         0.20450E+07         0.00000E+00
    0.20450E+07        -0.49890E+08         0.00000E+00
    0.00000E+00         0.00000E+00        -0.39881E+08
 
   -0.38964E+08         0.21272E+07         0.00000E+00
    0.21272E+07        -0.49881E+08         0.00000E+00
    0.00000E+00         0.00000E+00        -0.39880E+08
 
   -0.39000E+08         0.22094E+07         0.00000E+00
    0.22094E+07        -0.49872E+08         0.00000E+00
    0.00000E+00         0.00000E+00        -0.39880E+08
 
   -0.39036E+08         0.22916E+07         0.00000E+00
    0.22916E+07        -0.49862E+08         0.00000E+00
    0.00000E+00         0.00000E+00        -0.39879E+08
 
   -0.39072E+08         0.23739E+07         0.00000E+00
    0.23739E+07        -0.49852E+08         0.00000E+00
    0.00000E+00         0.00000E+00        -0.39879E+08
 
   -0.39108E+08         0.24562E+07         0.00000E+00
    0.24562E+07        -0.49842E+08         0.00000E+00
    0.00000E+00         0.00000E+00        -0.39878E+08
 
   -0.39143E+08         0.25386E+07         0.00000E+00
    0.25386E+07        -0.49831E+08         0.00000E+00
    0.00000E+00         0.00000E+00        -0.39878E+08
 
   -0.39179E+08         0.26211E+07         0.00000E+00
    0.26211E+07        -0.49820E+08         0.00000E+00
    0.00000E+00         0.00000E+00        -0.39878E+08
 
   -0.39215E+08         0.27037E+07         0.00000E+00
    0.27037E+07        -0.49809E+08         0.00000E+00
    0.00000E+00         0.00000E+00        -0.39877E+08
 
   -0.39251E+08         0.27864E+07         0.00000E+00
    0.27864E+07        -0.49797E+08         0.00000E+00
    0.00000E+00         0.00000E+00        -0.39877E+08
 
   -0.39288E+08         0.28692E+07         0.00000E+00
    0.28692E+07        -0.49785E+08         0.00000E+00
    0.00000E+00         0.00000E+00        -0.39876E+08
 
   -0.39324E+08         0.29522E+07         0.00000E+00
    0.29522E+07        -0.49772E+08         0.00000E+00
    0.00000E+00         0.00000E+00        -0.39876E+08
 
   -0.39360E+08         0.30353E+07         0.00000E+00
    0.30353E+07        -0.49759E+08         0.00000E+00
    0.00000E+00         0.00000E+00        -0.39875E+08
 
   -0.39397E+08         0.31187E+07         0.00000E+00
    0.31187E+07        -0.49746E+08         0.00000E+00
    0.00000E+00         0.00000E+00        -0.39875E+08
 
   -0.39434E+08         0.32022E+07         0.00000E+00
    0.32022E+07        -0.49732E+08         0.00000E+00
    0.00000E+00         0.00000E+00        -0.39875E+08
 
   -0.39471E+08         0.32859E+07         0.00000E+00
    0.32859E+07        -0.49718E+08         0.00000E+00
    0.00000E+00         0.00000E+00        -0.39874E+08
 
   -0.39508E+08         0.33698E+07         0.00000E+00
    0.33698E+07        -0.49703E+08         0.00000E+00
    0.00000E+00         0.00000E+00        -0.39874E+08
 
   -0.39545E+08         0.34539E+07         0.00000E+00
    0.34539E+07        -0.49688E+08         0.00000E+00
    0.00000E+00         0.00000E+00        -0.39874E+08
 
   -0.39582E+08         0.35383E+07         0.00000E+00
    0.35383E+07        -0.49672E+08         0.00000E+00
    0.00000E+00         0.00000E+00        -0.39874E+08
 
   -0.39620E+08         0.36230E+07         0.00000E+00
    0.36230E+07        -0.49656E+08         0.00000E+00
    0.00000E+00         0.00000E+00        -0.39873E+08
 
   -0.39658E+08         0.37078E+07         0.00000E+00
    0.37078E+07        -0.49639E+08         0.00000E+00
    0.00000E+00         0.00000E+00        -0.39873E+08
 
   -0.39696E+08         0.37930E+07         0.00000E+00
    0.37930E+07        -0.49622E+08         0.00000E+00
    0.00000E+00         0.00000E+00        -0.39873E+08
 
   -0.39735E+08         0.38785E+07         0.00000E+00
    0.38785E+07        -0.49604E+08         0.00000E+00
    0.00000E+00         0.00000E+00        -0.39873E+08
 
   -0.39774E+08         0.39642E+07         0.00000E+00
    0.39642E+07        -0.49586E+08         0.00000E+00
    0.00000E+00         0.00000E+00        -0.39873E+08
 
   -0.39813E+08         0.40502E+07         0.00000E+00
    0.40502E+07        -0.49567E+08         0.00000E+00
    0.00000E+00         0.00000E+00        -0.39873E+08
 
   -0.39853E+08         0.41366E+07         0.00000E+00
    0.41366E+07        -0.49548E+08         0.00000E+00
    0.00000E+00         0.00000E+00        -0.39873E+08
 
   -0.37652E+08         0.44172E+05         0.00000E+00
    0.44172E+05        -0.50000E+08         0.00000E+00
    0.00000E+00         0.00000E+00        -0.39448E+08
 
   -0.37687E+08         0.13173E+06         0.00000E+00
    0.13173E+06        -0.50000E+08         0.00000E+00
    0.00000E+00         0.00000E+00        -0.39448E+08
 
   -0.37723E+08         0.21900E+06         0.00000E+00
    0.21900E+06        -0.49999E+08         0.00000E+00
    0.00000E+00         0.00000E+00        -0.39448E+08
 
   -0.37759E+08         0.30599E+06         0.00000E+00
    0.30599E+06        -0.49998E+08         0.00000E+00
    0.00000E+00         0.00000E+00        -0.39448E+08
 
   -0.37795E+08         0.39272E+06         0.00000E+00
    0.39272E+06        -0.49996E+08         0.00000E+00
    0.00000E+00         0.00000E+00        -0.39448E+08
 
   -0.37830E+08         0.47918E+06         0.00000E+00
    0.47918E+06        -0.49994E+08         0.00000E+00
    0.00000E+00         0.00000E+00        -0.39448E+08
 
   -0.37866E+08         0.56538E+06         0.00000E+00
    0.56538E+06        -0.49992E+08         0.00000E+00
    0.00000E+00         0.00000E+00        -0.39447E+08
 
   -0.37902E+08         0.65135E+06         0.00000E+00
    0.65135E+06        -0.49989E+08         0.00000E+00
    0.00000E+00         0.00000E+00        -0.39447E+08
 
   -0.37938E+08         0.73707E+06         0.00000E+00
    0.73707E+06        -0.49986E+08         0.00000E+00
    0.00000E+00         0.00000E+00        -0.39447E+08
 
   -0.37975E+08         0.82258E+06         0.00000E+00
    0.82258E+06        -0.49983E+08         0.00000E+00
    0.00000E+00         0.00000E+00        -0.39447E+08
 
   -0.38011E+08         0.90787E+06         0.00000E+00
    0.90787E+06        -0.49979E+08         0.00000E+00
    0.00000E+00         0.00000E+00        -0.39446E+08
 
   -0.38047E+08         0.99296E+06         0.00000E+00
    0.99296E+06        -0.49975E+08         0.00000E+00
    0.00000E+00         0.00000E+00        -0.39446E+08
 
   -0.38083E+08         0.10779E+07         0.00000E+00
    0.10779E+07        -0.49971E+08         0.00000E+00
    0.00000E+00         0.00000E+00        -0.39446E+08
 
   -0.38119E+08         0.11626E+07         0.00000E+00
    0.11626E+07        -0.49966E+08         0.00000E+00
    0.00000E+00         0.00000E+00        -0.39445E+08
 
   -0.38155E+08         0.12472E+07         0.00000E+00
    0.12472E+07        -0.49961E+08         0.00000E+00
    0.00000E+00         0.00000E+00        -0.39445E+08
 
   -0.38191E+08         0.13316E+07         0.00000E+00
    0.13316E+07        -0.49956E+08         0.00000E+00
    0.00000E+00         0.00000E+00        -0.39444E+08
 
   -0.38227E+08         0.14159E+07         0.00000E+00
    0.14159E+07        -0.49950E+08         0.00000E+00
    0.00000E+00         0.00000E+00        -0.39444E+08
 
   -0.38263E+08         0.15000E+07         0.00000E+00
    0.15000E+07        -0.49945E+08         0.00000E+00
    0.00000E+00         0.00000E+00        -0.39443E+08
 
   -0.38299E+08         0.15841E+07         0.00000E+00
    0.15841E+07        -0.49938E+08         0.00000E+00
    0.00000E+00         0.00000E+00        -0.39443E+08
 
   -0.38335E+08         0.16681E+07         0.00000E+00
    0.16681E+07        -0.49932E+08         0.00000E+00
    0.00000E+00         0.00000E+00        -0.39443E+08
 
   -0.38371E+08         0.17520E+07         0.00000E+00
    0.17520E+07        -0.49925E+08         0.00000E+00
    0.00000E+00         0.00000E+00        -0.39442E+08
 
   -0.38407E+08         0.18359E+07         0.00000E+00
    0.18359E+07        -0.49918E+08         0.00000E+00
    0.00000E+00         0.00000E+00        -0.39442E+08
 
   -0.38442E+08         0.19197E+07         0.00000E+00
    0.19197E+07        -0.49911E+08         0.00000E+00
    0.00000E+00         0.00000E+00        -0.39441E+08
 
   -0.38478E+08         0.20035E+07         0.00000E+00
    0.20035E+07        -0.49903E+08         0.00000E+00
    0.00000E+00         0.00000E+00        -0.39441E+08
 
   -0.38514E+08         0.20873E+07         0.00000E+00
    0.20873E+07        -0.49895E+08         0.00000E+00
    0.00000E+00         0.00000E+00        -0.39440E+08
 
   -0.38549E+08         0.21712E+07         0.00000E+00
    0.21712E+07        -0.49886E+08         0.00000E+00
    0.00000E+00         0.00000E+00        -0.39440E+08
 
   -0.38585E+08         0.22550E+07         0.00000E+00
    0.22550E+07        -0.49878E+08         0.00000E+00
    0.00000E+00         0.00000E+00        -0.39439E+08
 
   -0.38620E+08         0.23389E+07         0.00000E+00
    0.23389E+07        -0.49869E+08         0.00000E+00
    0.00000E+00         0.00000E+00        -0.39439E+08
 
   -0.38656E+08         0.24229E+07         0.00000E+00
    0.24229E+07        -0.49859E+08         0.00000E+00
    0.00000E+00         0.00000E+00        -0.39438E+08
 
   -0.38691E+08         0.25070E+07         0.00000E+00
    0.25070E+07        -0.49850E+08         0.00000E+00
    0.00000E+00         0.00000E+00        -0.39438E+08
 
   -0.38727E+08         0.25912E+07         0.00000E+00
    0.25912E+07        -0.49840E+08         0.00000E+00
    0.00000E+00         0.00000E+00        -0.39437E+08
 
   -0.38762E+08         0.26755E+07         0.00000E+00
    0.26755E+07        -0.49829E+08         0.00000E+00
    0.00000E+00         0.00000E+00        -0.39437E+08
 
   -0.38797E+08         0.27599E+07         0.00000E+00
    0.27599E+07        -0.49819E+08         0.00000E+00
    0.00000E+00         0.00000E+00        -0.39436E+08
 
   -0.38833E+08         0.28445E+07         0.00000E+00
    0.28445E+07        -0.49808E+08         0.00000E+00
    0.00000E+00         0.00000E+00        -0.39436E+08
 
   -0.38868E+08         0.29293E+07         0.00000E+00
    0.29293E+07        -0.49796E+08         0.00000E+00
    0.00000E+00         0.00000E+00        -0.39435E+08
 
   -0.38904E+08         0.30142E+07         0.00000E+00
    0.30142E+07        -0.49784E+08         0.00000E+00
    0.00000E+00         0.00000E+00        -0.39435E+08
 
   -0.38939E+08         0.30994E+07         0.00000E+00
    0.30994E+07        -0.49772E+08         0.00000E+00
    0.00000E+00         0.00000E+00        -0.39435E+08
 
   -0.38975E+08         0.31848E+07         0.00000E+00
    0.31848E+07        -0.49760E+08         0.00000E+00
    0.00000E+00         0.00000E+00        -0.39434E+08
 
   -0.39010E+08         0.32705E+07         0.00000E+00
    0.32705E+07        -0.49747E+08         0.00000E+00
    0.00000E+00         0.00000E+00        -0.39434E+08
 
   -0.39046E+08         0.33564E+07         0.00000E+00
    0.33564E+07        -0.49733E+08         0.00000E+00
    0.00000E+00         0.00000E+00        -0.39434E+08
 
   -0.39082E+08         0.34425E+07         0.00000E+00
    0.34425E+07        -0.49719E+08         0.00000E+00
    0.00000E+00         0.00000E+00        -0.39433E+08
 
   -0.39118E+08         0.35290E+07         0.00000E+00
    0.35290E+07        -0.49705E+08         0.00000E+00
    0.00000E+00         0.00000E+00        -0.39433E+08
 
   -0.39154E+08         0.36158E+07         0.00000E+00
    0.36158E+07        -0.49690E+08         0.00000E+00
    0.00000E+00         0.00000E+00        -0.39433E+08
 
   -0.39190E+08         0.37029E+07         0.00000E+00
    0.37029E+07        -0.49675E+08         0.00000E+00
    0.00000E+00         0.00000E+00        -0.39432E+08
 
   -0.39226E+08         0.37903E+07         0.00000E+00
    0.37903E+07        -0.49659E+08         0.00000E+00
    0.00000E+00         0.00000E+00        -0.39432E+08
 
   -0.39263E+08         0.38781E+07         0.00000E+00
    0.38781E+07        -0.49643E+08         0.00000E+00
    0.00000E+00         0.00000E+00        -0.39432E+08
 
   -0.39300E+08         0.39662E+07         0.00000E+00
    0.39662E+07        -0.49626E+08         0.00000E+00
    0.00000E+00         0.00000E+00        -0.39432E+08
 
   -0.39337E+08         0.40547E+07         0.00000E+00
    0.40547E+07        -0.49609E+08         0.00000E+00
    0.00000E+00         0.00000E+00        -0.39432E+08
 
   -0.39375E+08         0.41436E+07         0.00000E+00
    0.41436E+07        -0.49591E+08         0.00000E+00
    0.00000E+00         0.00000E+00        -0.39432E+08
 
   -0.39413E+08         0.42328E+07         0.00000E+00
    0.42328E+07        -0.49572E+08         0.00000E+00
    0.00000E+00         0.00000E+00        -0.39432E+08
 
   -0.37208E+08         0.45227E+05         0.00000E+00
    0.45227E+05        -0.50000E+08         0.00000E+00
    0.00000E+00         0.00000E+00        -0.38992E+08
 
   -0.37245E+08         0.13474E+06         0.00000E+00
    0.13474E+06        -0.50000E+08         0.00000E+00
    0.00000E+00         0.00000E+00        -0.38992E+08
 
   -0.37283E+08         0.22392E+06         0.00000E+00
    0.22392E+06        -0.49999E+08         0.00000E+00
    0.00000E+00         0.00000E+00        -0.38992E+08
 
   -0.37320E+08         0.31278E+06         0.00000E+00
    0.31278E+06        -0.49998E+08         0.00000E+00
    0.00000E+00         0.00000E+00        -0.38992E+08
 
   -0.37357E+08         0.40132E+06         0.00000E+00
    0.40132E+06        -0.49996E+08         0.00000E+00
    0.00000E+00         0.00000E+00        -0.38992E+08
 
   -0.37394E+08         0.48955E+06         0.00000E+00
    0.48955E+06        -0.49994E+08         0.00000E+00
    0.00000E+00         0.00000E+00        -0.38992E+08
 
   -0.37432E+08         0.57749E+06         0.00000E+00
    0.57749E+06        -0.49992E+08         0.00000E+00
    0.00000E+00         0.00000E+00        -0.38991E+08
 
   -0.37469E+08         0.66514E+06         0.00000E+00
    0.66514E+06        -0.49989E+08         0.00000E+00
    0.00000E+00         0.00000E+00        -0.38991E+08
 
   -0.37506E+08         0.75252E+06         0.00000E+00
    0.75252E+06        -0.49987E+08         0.00000E+00
    0.00000E+00         0.00000E+00        -0.38991E+08
 
   -0.37544E+08         0.83964E+06         0.00000E+00
    0.83964E+06        -0.49983E+08         0.00000E+00
    0.00000E+00         0.00000E+00        -0.38991E+08
 
   -0.37581E+08         0.92652E+06         0.00000E+00
    0.92652E+06        -0.49980E+08         0.00000E+00
    0.00000E+00         0.00000E+00        -0.38990E+08
 
   -0.37618E+08         0.10132E+07         0.00000E+00
    0.10132E+07        -0.49976E+08         0.00000E+00
    0.00000E+00         0.00000E+00        -0.38990E+08
 
   -0.37655E+08         0.10996E+07         0.00000E+00
    0.10996E+07        -0.49972E+08         0.00000E+00
    0.00000E+00         0.00000E+00        -0.38990E+08
 
   -0.37692E+08         0.11859E+07         0.00000E+00
    0.11859E+07        -0.49968E+08         0.00000E+00
    0.00000E+00         0.00000E+00        -0.38989E+08
 
   -0.37729E+08         0.12719E+07         0.00000E+00
    0.12719E+07        -0.49963E+08         0.00000E+00
    0.00000E+00         0.00000E+00        -0.38989E+08
 
   -0.37766E+08         0.13578E+07         0.00000E+00
    0.13578E+07        -0.49958E+08         0.00000E+00
    0.00000E+00         0.00000E+00        -0.38988E+08
 
   -0.37802E+08         0.14436E+07         0.00000E+00
    0.14436E+07        -0.49953E+08         0.00000E+00
    0.00000E+00         0.00000E+00        -0.38988E+08
 
   -0.37839E+08         0.15292E+07         0.00000E+00
    0.15292E+07        -0.49948E+08         0.00000E+00
    0.00000E+00         0.00000E+00        -0.38988E+08
 
   -0.37875E+08         0.16147E+07         0.00000E+00
    0.16147E+07        -0.49942E+08         0.00000E+00
    0.00000E+00         0.00000E+00        -0.38987E+08
 
   -0.37912E+08         0.17002E+07         0.00000E+00
    0.17002E+07        -0.49936E+08         0.00000E+00
    0.00000E+00         0.00000E+00        -0.38987E+08
 
   -0.37948E+08         0.17855E+07         0.00000E+00
    0.17855E+07        -0.49929E+08         0.00000E+00
    0.00000E+00         0.00000E+00        -0.38986E+08
 
   -0.37984E+08         0.18709E+07         0.00000E+00
    0.18709E+07        -0.49923E+08         0.00000E+00
    0.00000E+00         0.00000E+00        -0.38986E+08
 
   -0.38020E+08         0.19562E+07         0.00000E+00
    0.19562E+07        -0.49916E+08         0.00000E+00
    0.00000E+00         0.00000E+00        -0.38985E+08
 
   -0.38055E+08         0.20414E+07         0.00000E+00
    0.20414E+07        -0.49909E+08         0.00000E+00
    0.00000E+00         0.00000E+00        -0.38985E+08
 
   -0.38091E+08         0.21267E+07         0.00000E+00
    0.21267E+07        -0.49902E+08         0.00000E+00
    0.00000E+00         0.00000E+00        -0.38984E+08
 
   -0.38126E+08         0.22121E+07         0.00000E+00
    0.22121E+07        -0.49894E+08         0.00000E+00
    0.00000E+00         0.00000E+00        -0.38984E+08
 
   -0.38161E+08         0.22975E+07         0.00000E+00
    0.22975E+07        -0.49886E+08         0.00000E+00
    0.00000E+00         0.00000E+00        -0.38983E+08
 
   -0.38197E+08         0.23829E+07         0.00000E+00
    0.23829E+07        -0.49878E+08         0.00000E+00
    0.00000E+00         0.00000E+00        -0.38983E+08
 
   -0.38232E+08         0.24685E+07         0.00000E+00
    0.24685E+07        -0.49869E+08         0.00000E+00
    0.00000E+00         0.00000E+00        -0.38982E+08
 
   -0.38266E+08         0.25542E+07         0.00000E+00
    0.25542E+07        -0.49860E+08         0.00000E+00
    0.00000E+00         0.00000E+00        -0.38982E+08
 
   -0.38301E+08         0.26400E+07         0.00000E+00
    0.26400E+07        -0.49851E+08         0.00000E+00
    0.00000E+00         0.00000E+00        -0.38981E+08
 
   -0.38336E+08         0.27260E+07         0.00000E+00
    0.27260E+07        -0.49842E+08         0.00000E+00
    0.00000E+00         0.00000E+00        -0.38981E+08
 
   -0.38370E+08         0.28121E+07         0.00000E+00
    0.28121E+07        -0.49832E+08         0.00000E+00
    0.00000E+00         0.00000E+00        -0.38980E+08
 
   -0.38405E+08         0.28985E+07         0.00000E+00
    0.28985E+07        -0.49822E+08         0.00000E+00
    0.00000E+00         0.00000E+00        -0.38980E+08
 
   -0.38439E+08         0.29851E+07         0.00000E+00
    0.29851E+07        -0.49811E+08         0.00000E+00
    0.00000E+00         0.00000E+00        -0.38979E+08
 
   -0.38473E+08         0.30719E+07         0.00000E+00
    0.30719E+07        -0.49800E+08         0.00000E+00
    0.00000E+00         0.00000E+00        -0.38979E+08
 
   -0.38508E+08         0.31590E+07         0.00000E+00
    0.31590E+07        -0.49789E+08         0.00000E+00
    0.00000E+00         0.00000E+00        -0.38979E+08
 
   -0.38542E+08         0.32464E+07         0.00000E+00
    0.32464E+07        -0.49777E+08         0.00000E+00
    0.00000E+00         0.00000E+00        -0.38978E+08
 
   -0.38576E+08         0.33340E+07         0.00000E+00
    0.33340E+07        -0.49765E+08         0.00000E+00
    0.00000E+00         0.00000E+00        -0.38978E+08
 
   -0.38610E+08         0.34220E+07         0.00000E+00
    0.34220E+07        -0.49753E+08         0.00000E+00
    0.00000E+00         0.00000E+00        -0.38978E+08
 
   -0.38644E+08         0.35104E+07         0.00000E+00
    0.35104E+07        -0.49740E+08         0.00000E+00
    0.00000E+00         0.00000E+00        -0.38977E+08
 
   -0.38679E+08         0.35991E+07         0.00000E+00
    0.35991E+07        -0.49727E+08         0.00000E+00
    0.00000E+00         0.00000E+00        -0.38977E+08
 
   -0.38713E+08         0.36882E+07         0.00000E+00
    0.36882E+07        -0.49713E+08         0.00000E+00
    0.00000E+00         0.00000E+00        -0.38977E+08
 
   -0.38748E+08         0.37777E+07         0.00000E+00
    0.37777E+07        -0.49699E+08         0.00000E+00
    0.00000E+00         0.00000E+00        -0.38976E+08
 
   -0.38782E+08         0.38676E+07         0.00000E+00
    0.38676E+07        -0.49685E+08         0.00000E+00
    0.00000E+00         0.00000E+00        -0.38976E+08
 
   -0.38817E+08         0.39580E+07         0.00000E+00
    0.39580E+07        -0.49670E+08         0.00000E+00
    0.00000E+00         0.00000E+00        -0.38976E+08
 
   -0.38852E+08         0.40487E+07         0.00000E+00
    0.40487E+07        -0.49654E+08         0.00000E+00
    0.00000E+00         0.00000E+00        -0.38976E+08
 
   -0.38887E+08         0.41400E+07         0.00000E+00
    0.41400E+07        -0.49638E+08         0.00000E+00
    0.00000E+00         0.00000E+00        -0.38976E+08
 
   -0.38922E+08         0.42318E+07         0.00000E+00
    0.42318E+07        -0.49621E+08         0.00000E+00
    0.00000E+00         0.00000E+00        -0.38976E+08
 
   -0.38958E+08         0.43240E+07         0.00000E+00
    0.43240E+07        -0.49604E+08         0.00000E+00
    0.00000E+00         0.00000E+00        -0.38976E+08
 
   -0.36755E+08         0.46271E+05         0.00000E+00
    0.46271E+05        -0.50000E+08         0.00000E+00
    0.00000E+00         0.00000E+00        -0.38521E+08
 
   -0.36794E+08         0.13768E+06         0.00000E+00
    0.13768E+06        -0.50000E+08         0.00000E+00
    0.00000E+00         0.00000E+00        -0.38521E+08
 
   -0.36833E+08         0.22870E+06         0.00000E+00
    0.22870E+06        -0.49999E+08         0.00000E+00
    0.00000E+00         0.00000E+00        -0.38521E+08
 
   -0.36872E+08         0.31932E+06         0.00000E+00
    0.31932E+06        -0.49998E+08         0.00000E+00
    0.00000E+00         0.00000E+00        -0.38520E+08
 
   -0.36911E+08         0.40957E+06         0.00000E+00
    0.40957E+06        -0.49996E+08         0.00000E+00
    0.00000E+00         0.00000E+00        -0.38520E+08
 
   -0.36950E+08         0.49945E+06         0.00000E+00
    0.49945E+06        -0.49994E+08         0.00000E+00
    0.00000E+00         0.00000E+00        -0.38520E+08
 
   -0.36989E+08         0.58899E+06         0.00000E+00
    0.58899E+06        -0.49992E+08         0.00000E+00
    0.00000E+00         0.00000E+00        -0.38520E+08
 
   -0.37028E+08         0.67819E+06         0.00000E+00
    0.67819E+06        -0.49990E+08         0.00000E+00
    0.00000E+00         0.00000E+00        -0.38520E+08
 
   -0.37066E+08         0.76708E+06         0.00000E+00
    0.76708E+06        -0.49987E+08         0.00000E+00
    0.00000E+00         0.00000E+00        -0.38519E+08
 
   -0.37105E+08         0.85566E+06         0.00000E+00
    0.85566E+06        -0.49984E+08         0.00000E+00
    0.00000E+00         0.00000E+00        -0.38519E+08
 
   -0.37143E+08         0.94397E+06         0.00000E+00
    0.94397E+06        -0.49981E+08         0.00000E+00
    0.00000E+00         0.00000E+00        -0.38519E+08
 
   -0.37182E+08         0.10320E+07         0.00000E+00
    0.10320E+07        -0.49978E+08         0.00000E+00
    0.00000E+00         0.00000E+00        -0.38518E+08
 
   -0.37220E+08         0.11198E+07         0.00000E+00
    0.11198E+07        -0.49974E+08         0.00000E+00
    0.00000E+00         0.00000E+00        -0.38518E+08
 
   -0.37258E+08         0.12074E+07         0.00000E+00
    0.12074E+07        -0.49970E+08         0.00000E+00
    0.00000E+00         0.00000E+00        -0.38518E+08
 
   -0.37296E+08         0.12948E+07         0.00000E+00
    0.12948E+07        -0.49966E+08         0.00000E+00
    0.00000E+00         0.00000E+00        -0.38517E+08
 
   -0.37333E+08         0.13820E+07         0.00000E+00
    0.13820E+07        -0.49961E+08         0.00000E+00
    0.00000E+00         0.00000E+00        -0.38517E+08
 
   -0.37371E+08         0.14690E+07         0.00000E+00
    0.14690E+07        -0.49957E+08         0.00000E+00
    0.00000E+00         0.00000E+00        -0.38516E+08
 
   -0.37408E+08         0.15560E+07         0.00000E+00
    0.15560E+07        -0.49952E+08         0.00000E+00
    0.00000E+00         0.00000E+00        -0.38516E+08
 
   -0.37445E+08         0.16427E+07         0.00000E+00
    0.16427E+07        -0.49947E+08         0.00000E+00
    0.00000E+00         0.00000E+00        -0.38516E+08
 
   -0.37481E+08         0.17295E+07         0.00000E+00
    0.17295E+07        -0.49941E+08         0.00000E+00
    0.00000E+00         0.00000E+00        -0.38515E+08
 
   -0.37518E+08         0.18161E+07         0.00000E+00
    0.18161E+07        -0.49936E+08         0.00000E+00
    0.00000E+00         0.00000E+00        -0.38515E+08
 
   -0.37554E+08         0.19027E+07         0.00000E+00
    0.19027E+07        -0.49930E+08         0.00000E+00
    0.00000E+00         0.00000E+00        -0.38514E+08
 
   -0.37590E+08         0.19893E+07         0.00000E+00
    0.19893E+07        -0.49924E+08         0.00000E+00
    0.00000E+00         0.00000E+00        -0.38514E+08
 
   -0.37625E+08         0.20759E+07         0.00000E+00
    0.20759E+07        -0.49917E+08         0.00000E+00
    0.00000E+00         0.00000E+00        -0.38513E+08
 
   -0.37661E+08         0.21625E+07         0.00000E+00
    0.21625E+07        -0.49911E+08         0.00000E+00
    0.00000E+00         0.00000E+00        -0.38513E+08
 
   -0.37696E+08         0.22491E+07         0.00000E+00
    0.22491E+07        -0.49904E+08         0.00000E+00
    0.00000E+00         0.00000E+00        -0.38512E+08
 
   -0.37731E+08         0.23359E+07         0.00000E+00
    0.23359E+07        -0.49897E+08         0.00000E+00
    0.00000E+00         0.00000E+00        -0.38512E+08
 
   -0.37765E+08         0.24227E+07         0.00000E+00
    0.24227E+07        -0.49889E+08         0.00000E+00
    0.00000E+00         0.00000E+00        -0.38511E+08
 
   -0.37800E+08         0.25097E+07         0.00000E+00
    0.25097E+07        -0.49882E+08         0.00000E+00
    0.00000E+00         0.00000E+00        -0.38511E+08
 
   -0.37834E+08         0.25968E+07         0.00000E+00
    0.25968E+07        -0.49874E+08         0.00000E+00
    0.00000E+00         0.00000E+00        -0.38510E+08
 
   -0.37868E+08         0.26841E+07         0.00000E+00
    0.26841E+07        -0.49866E+08         0.00000E+00
    0.00000E+00         0.00000E+00        -0.38510E+08
 
   -0.37902E+08         0.27716E+07         0.00000E+00
    0.27716E+07        -0.49857E+08         0.00000E+00
    0.00000E+00         0.00000E+00        -0.38509E+08
 
   -0.37935E+08         0.28593E+07         0.00000E+00
    0.28593E+07        -0.49849E+08         0.00000E+00
    0.00000E+00         0.00000E+00        -0.38509E+08
 
   -0.37968E+08         0.29473E+07         0.00000E+00
    0.29473E+07        -0.49840E+08         0.00000E+00
    0.00000E+00         0.00000E+00        -0.38508E+08
 
   -0.38001E+08         0.30355E+07         0.00000E+00
    0.30355E+07        -0.49830E+08         0.00000E+00
    0.00000E+00         0.00000E+00        -0.38508E+08
 
   -0.38034E+08         0.31241E+07         0.00000E+00
    0.31241E+07        -0.49821E+08         0.00000E+00
    0.00000E+00         0.00000E+00        -0.38508E+08
 
   -0.38067E+08         0.32129E+07         0.00000E+00
    0.32129E+07        -0.49811E+08         0.00000E+00
    0.00000E+00         0.00000E+00        -0.38507E+08
 
   -0.38099E+08         0.33022E+07         0.00000E+00
    0.33022E+07        -0.49800E+08         0.00000E+00
    0.00000E+00         0.00000E+00        -0.38507E+08
 
   -0.38132E+08         0.33918E+07         0.00000E+00
    0.33918E+07        -0.49790E+08         0.00000E+00
    0.00000E+00         0.00000E+00        -0.38506E+08
 
   -0.38164E+08         0.34818E+07         0.00000E+00
    0.34818E+07        -0.49779E+08         0.00000E+00
    0.00000E+00         0.00000E+00        -0.38506E+08
 
   -0.38196E+08         0.35722E+07         0.00000E+00
    0.35722E+07        -0.49767E+08         0.00000E+00
    0.00000E+00         0.00000E+00        -0.38506E+08
 
   -0.38229E+08         0.36631E+07         0.00000E+00
    0.36631E+07        -0.49755E+08         0.00000E+00
    0.00000E+00         0.00000E+00        -0.38505E+08
 
   -0.38261E+08         0.37544E+07         0.00000E+00
    0.37544E+07        -0.49743E+08         0.00000E+00
    0.00000E+00         0.00000E+00        -0.38505E+08
 
   -0.38293E+08         0.38462E+07         0.00000E+00
    0.38462E+07        -0.49730E+08         0.00000E+00
    0.00000E+00         0.00000E+00        -0.38505E+08
 
   -0.38325E+08         0.39386E+07         0.00000E+00
    0.39386E+07        -0.49717E+08         0.00000E+00
    0.00000E+00         0.00000E+00        -0.38505E+08
 
   -0.38357E+08         0.40314E+07         0.00000E+00
    0.40314E+07        -0.49703E+08         0.00000E+00
    0.00000E+00         0.00000E+00        -0.38504E+08
 
   -0.38390E+08         0.41249E+07         0.00000E+00
    0.41249E+07        -0.49689E+08         0.00000E+00
    0.00000E+00         0.00000E+00        -0.38504E+08
 
   -0.38422E+08         0.42189E+07         0.00000E+00
    0.42189E+07        -0.49674E+08         0.00000E+00
    0.00000E+00         0.00000E+00        -0.38504E+08
 
   -0.38455E+08         0.43135E+07         0.00000E+00
    0.43135E+07        -0.49659E+08         0.00000E+00
    0.00000E+00         0.00000E+00        -0.38504E+08
 
   -0.38488E+08         0.44087E+07         0.00000E+00
    0.44087E+07        -0.49643E+08         0.00000E+00
    0.00000E+00         0.00000E+00        -0.38504E+08
 
   -0.36292E+08         0.47287E+05         0.00000E+00
    0.47287E+05        -0.50000E+08         0.00000E+00
    0.00000E+00         0.00000E+00        -0.38033E+08
 
   -0.36334E+08         0.14048E+06         0.00000E+00
    0.14048E+06        -0.50000E+08         0.00000E+00
    0.00000E+00         0.00000E+00        -0.38033E+08
 
   -0.36375E+08         0.23320E+06         0.00000E+00
    0.23320E+06        -0.49999E+08         0.00000E+00
    0.00000E+00         0.00000E+00        -0.38033E+08
 
   -0.36416E+08         0.32545E+06         0.00000E+00
    0.32545E+06        -0.49998E+08         0.00000E+00
    0.00000E+00         0.00000E+00        -0.38033E+08
 
   -0.36457E+08         0.41724E+06         0.00000E+00
    0.41724E+06        -0.49997E+08         0.00000E+00
    0.00000E+00         0.00000E+00        -0.38033E+08
 
   -0.36498E+08         0.50861E+06         0.00000E+00
    0.50861E+06        -0.49995E+08         0.00000E+00
    0.00000E+00         0.00000E+00        -0.38033E+08
 
   -0.36538E+08         0.59957E+06         0.00000E+00
    0.59957E+06        -0.49993E+08         0.00000E+00
    0.00000E+00         0.00000E+00        -0.38033E+08
 
   -0.36579E+08         0.69014E+06         0.00000E+00
    0.69014E+06        -0.49991E+08         0.00000E+00
    0.00000E+00         0.00000E+00        -0.38032E+08
 
   -0.36619E+08         0.78033E+06         0.00000E+00
    0.78033E+06        -0.49989E+08         0.00000E+00
    0.00000E+00         0.00000E+00        -0.38032E+08
 
   -0.36659E+08         0.87019E+06         0.00000E+00
    0.87019E+06        -0.49986E+08         0.00000E+00
    0.00000E+00         0.00000E+00        -0.38032E+08
 
   -0.36699E+08         0.95972E+06         0.00000E+00
    0.95972E+06        -0.49983E+08         0.00000E+00
    0.00000E+00         0.00000E+00        -0.38032E+08
 
   -0.36739E+08         0.10490E+07         0.00000E+00
    0.10490E+07        -0.49980E+08         0.00000E+00
    0.00000E+00         0.00000E+00        -0.38031E+08
 
   -0.36778E+08         0.11379E+07         0.00000E+00
    0.11379E+07        -0.49977E+08         0.00000E+00
    0.00000E+00         0.00000E+00        -0.38031E+08
 
   -0.36818E+08         0.12266E+07         0.00000E+00
    0.12266E+07        -0.49973E+08         0.00000E+00
    0.00000E+00         0.00000E+00        -0.38030E+08
 
   -0.36856E+08         0.13151E+07         0.00000E+00
    0.13151E+07        -0.49970E+08         0.00000E+00
    0.00000E+00         0.00000E+00        -0.38030E+08
 
   -0.36895E+08         0.14034E+07         0.00000E+00
    0.14034E+07        -0.49966E+08         0.00000E+00
    0.00000E+00         0.00000E+00        -0.38030E+08
 
   -0.36933E+08         0.14915E+07         0.00000E+00
    0.14915E+07        -0.49962E+08         0.00000E+00
    0.00000E+00         0.00000E+00        -0.38029E+08
 
   -0.36971E+08         0.15795E+07         0.00000E+00
    0.15795E+07        -0.49958E+08         0.00000E+00
    0.00000E+00         0.00000E+00        -0.38029E+08
 
   -0.37008E+08         0.16673E+07         0.00000E+00
    0.16673E+07        -0.49953E+08         0.00000E+00
    0.00000E+00         0.00000E+00        -0.38028E+08
 
   -0.37045E+08         0.17551E+07         0.00000E+00
    0.17551E+07        -0.49949E+08         0.00000E+00
    0.00000E+00         0.00000E+00        -0.38028E+08
 
   -0.37082E+08         0.18428E+07         0.00000E+00
    0.18428E+07        -0.49944E+08         0.00000E+00
    0.00000E+00         0.00000E+00        -0.38027E+08
 
   -0.37118E+08         0.19305E+07         0.00000E+00
    0.19305E+07        -0.49939E+08         0.00000E+00
    0.00000E+00         0.00000E+00        -0.38027E+08
 
   -0.37154E+08         0.20181E+07         0.00000E+00
    0.20181E+07        -0.49934E+08         0.00000E+00
    0.00000E+00         0.00000E+00        -0.38027E+08
 
   -0.37190E+08         0.21058E+07         0.00000E+00
    0.21058E+07        -0.49928E+08         0.00000E+00
    0.00000E+00         0.00000E+00        -0.38026E+08
 
   -0.37225E+08         0.21935E+07         0.00000E+00
    0.21935E+07        -0.49923E+08         0.00000E+00
    0.00000E+00         0.00000E+00        -0.38026E+08
 
   -0.37260E+08         0.22813E+07         0.00000E+00
    0.22813E+07        -0.49917E+08         0.00000E+00
    0.00000E+00         0.00000E+00        -0.38025E+08
 
   -0.37294E+08         0.23692E+07         0.00000E+00
    0.23692E+07        -0.49911E+08         0.00000E+00
    0.00000E+00         0.00000E+00        -0.38025E+08
 
   -0.37328E+08         0.24572E+07         0.00000E+00
    0.24572E+07        -0.49905E+08         0.00000E+00
    0.00000E+00         0.00000E+00        -0.38024E+08
 
   -0.37361E+08         0.25454E+07         0.00000E+00
    0.25454E+07        -0.49898E+08         0.00000E+00
    0.00000E+00         0.00000E+00        -0.38024E+08
 
   -0.37395E+08         0.26337E+07         0.00000E+00
    0.26337E+07        -0.49892E+08         0.00000E+00
    0.00000E+00         0.00000E+00        -0.38023E+08
 
   -0.37428E+08         0.27223E+07         0.00000E+00
    0.27223E+07        -0.49885E+08         0.00000E+00
    0.00000E+00         0.00000E+00        -0.38023E+08
 
   -0.37460E+08         0.28112E+07         0.00000E+00
    0.28112E+07        -0.49878E+08         0.00000E+00
    0.00000E+00         0.00000E+00        -0.38022E+08
 
   -0.37492E+08         0.29003E+07         0.00000E+00
    0.29003E+07        -0.49870E+08         0.00000E+00
    0.00000E+00         0.00000E+00        -0.38022E+08
 
   -0.37524E+08         0.29897E+07         0.00000E+00
    0.29897E+07        -0.49863E+08         0.00000E+00
    0.00000E+00         0.00000E+00        -0.38021E+08
 
   -0.37555E+08         0.30794E+07         0.00000E+00
    0.30794E+07        -0.49855E+08         0.00000E+00
    0.00000E+00         0.00000E+00        -0.38021E+08
 
   -0.37586E+08         0.31696E+07         0.00000E+00
    0.31696E+07        -0.49847E+08         0.00000E+00
    0.00000E+00         0.00000E+00        -0.38021E+08
 
   -0.37617E+08         0.32601E+07         0.00000E+00
    0.32601E+07        -0.49838E+08         0.00000E+00
    0.00000E+00         0.00000E+00        -0.38020E+08
 
   -0.37648E+08         0.33510E+07         0.00000E+00
    0.33510E+07        -0.49830E+08         0.00000E+00
    0.00000E+00         0.00000E+00        -0.38020E+08
 
   -0.37678E+08         0.34424E+07         0.00000E+00
    0.34424E+07        -0.49820E+08         0.00000E+00
    0.00000E+00         0.00000E+00        -0.38019E+08
 
   -0.37708E+08         0.35342E+07         0.00000E+00
    0.35342E+07        -0.49811E+08         0.00000E+00
    0.00000E+00         0.00000E+00        -0.38019E+08
 
   -0.37738E+08         0.36266E+07         0.00000E+00
    0.36266E+07        -0.49801E+08         0.00000E+00
    0.00000E+00         0.00000E+00        -0.38019E+08
 
   -0.37768E+08         0.37195E+07         0.00000E+00
    0.37195E+07        -0.49791E+08         0.00000E+00
    0.00000E+00         0.00000E+00        -0.38018E+08
 
   -0.37797E+08         0.38130E+07         0.00000E+00
    0.38130E+07        -0.49780E+08         0.00000E+00
    0.00000E+00         0.00000E+00        -0.38018E+08
 
   -0.37827E+08         0.39070E+07         0.00000E+00
    0.39070E+07        -0.49769E+08         0.00000E+00
    0.00000E+00         0.00000E+00        -0.38018E+08
 
   -0.37856E+08         0.40017E+07         0.00000E+00
    0.40017E+07        -0.49758E+08         0.00000E+00
    0.00000E+00         0.00000E+00        -0.38018E+08
 
   -0.37885E+08         0.40971E+07         0.00000E+00
    0.40971E+07        -0.49746E+08         0.00000E+00
    0.00000E+00         0.00000E+00        -0.38017E+08
 
   -0.37914E+08         0.41931E+07         0.00000E+00
    0.41931E+07        -0.49733E+08         0.00000E+00
    0.00000E+00         0.00000E+00        -0.38017E+08
 
   -0.37944E+08         0.42898E+07         0.00000E+00
    0.42898E+07        -0.49720E+08         0.00000E+00
    0.00000E+00         0.00000E+00        -0.38017E+08
 
   -0.37973E+08         0.43872E+07         0.00000E+00
    0.43872E+07        -0.49707E+08         0.00000E+00
    0.00000E+00         0.00000E+00        -0.38017E+08
 
   -0.38002E+08         0.44854E+07         0.00000E+00
    0.44854E+07        -0.49692E+08         0.00000E+00
    0.00000E+00         0.00000E+00        -0.38017E+08
 
   -0.35821E+08         0.48242E+05         0.00000E+00
    0.48242E+05        -0.50000E+08         0.00000E+00
    0.00000E+00         0.00000E+00        -0.37530E+08
 
   -0.35865E+08         0.14304E+06         0.00000E+00
    0.14304E+06        -0.50000E+08         0.00000E+00
    0.00000E+00         0.00000E+00        -0.37530E+08
 
   -0.35909E+08         0.23726E+06         0.00000E+00
    0.23726E+06        -0.49999E+08         0.00000E+00
    0.00000E+00         0.00000E+00        -0.37530E+08
 
   -0.35952E+08         0.33092E+06         0.00000E+00
    0.33092E+06        -0.49998E+08         0.00000E+00
    0.00000E+00         0.00000E+00        -0.37530E+08
 
   -0.35995E+08         0.42404E+06         0.00000E+00
    0.42404E+06        -0.49997E+08         0.00000E+00
    0.00000E+00         0.00000E+00        -0.37530E+08
 
   -0.36039E+08         0.51666E+06         0.00000E+00
    0.51666E+06        -0.49996E+08         0.00000E+00
    0.00000E+00         0.00000E+00        -0.37530E+08
 
   -0.36082E+08         0.60879E+06         0.00000E+00
    0.60879E+06        -0.49994E+08         0.00000E+00
    0.00000E+00         0.00000E+00        -0.37529E+08
 
   -0.36124E+08         0.70047E+06         0.00000E+00
    0.70047E+06        -0.49992E+08         0.00000E+00
    0.00000E+00         0.00000E+00        -0.37529E+08
 
   -0.36166E+08         0.79172E+06         0.00000E+00
    0.79172E+06        -0.49990E+08         0.00000E+00
    0.00000E+00         0.00000E+00        -0.37529E+08
 
   -0.36208E+08         0.88257E+06         0.00000E+00
    0.88257E+06        -0.49988E+08         0.00000E+00
    0.00000E+00         0.00000E+00        -0.37529E+08
 
   -0.36250E+08         0.97306E+06         0.00000E+00
    0.97306E+06        -0.49986E+08         0.00000E+00
    0.00000E+00         0.00000E+00        -0.37528E+08
 
   -0.36291E+08         0.10632E+07         0.00000E+00
    0.10632E+07        -0.49983E+08         0.00000E+00
    0.00000E+00         0.00000E+00        -0.37528E+08
 
   -0.36332E+08         0.11531E+07         0.00000E+00
    0.11531E+07        -0.49981E+08         0.00000E+00
    0.00000E+00         0.00000E+00        -0.37528E+08
 
   -0.36372E+08         0.12426E+07         0.00000E+00
    0.12426E+07        -0.49978E+08         0.00000E+00
    0.00000E+00         0.00000E+00        -0.37527E+08
 
   -0.36412E+08         0.13320E+07         0.00000E+00
    0.13320E+07        -0.49975E+08         0.00000E+00
    0.00000E+00         0.00000E+00        -0.37527E+08
 
   -0.36452E+08         0.14211E+07         0.00000E+00
    0.14211E+07        -0.49972E+08         0.00000E+00
    0.00000E+00         0.00000E+00        -0.37527E+08
 
   -0.36491E+08         0.15100E+07         0.00000E+00
    0.15100E+07        -0.49969E+08         0.00000E+00
    0.00000E+00         0.00000E+00        -0.37526E+08
 
   -0.36529E+08         0.15988E+07         0.00000E+00
    0.15988E+07        -0.49966E+08         0.00000E+00
    0.00000E+00         0.00000E+00        -0.37526E+08
 
   -0.36567E+08         0.16874E+07         0.00000E+00
    0.16874E+07        -0.49962E+08         0.00000E+00
    0.00000E+00         0.00000E+00        -0.37525E+08
 
   -0.36604E+08         0.17760E+07         0.00000E+00
    0.17760E+07        -0.49959E+08         0.00000E+00
    0.00000E+00         0.00000E+00        -0.37525E+08
 
   -0.36641E+08         0.18645E+07         0.00000E+00
    0.18645E+07        -0.49955E+08         0.00000E+00
    0.00000E+00         0.00000E+00        -0.37524E+08
 
   -0.36678E+08         0.19530E+07         0.00000E+00
    0.19530E+07        -0.49951E+08         0.00000E+00
    0.00000E+00         0.00000E+00        -0.37524E+08
 
   -0.36714E+08         0.20415E+07         0.00000E+00
    0.20415E+07        -0.49947E+08         0.00000E+00
    0.00000E+00         0.00000E+00        -0.37524E+08
 
   -0.36749E+08         0.21300E+07         0.00000E+00
    0.21300E+07        -0.49943E+08         0.00000E+00
    0.00000E+00         0.00000E+00        -0.37523E+08
 
   -0.36784E+08         0.22186E+07         0.00000E+00
    0.22186E+07        -0.49939E+08         0.00000E+00
    0.00000E+00         0.00000E+00        -0.37523E+08
 
   -0.36818E+08         0.23073E+07         0.00000E+00
    0.23073E+07        -0.49935E+08         0.00000E+00
    0.00000E+00         0.00000E+00        -0.37522E+08
 
   -0.36852E+08         0.23961E+07         0.00000E+00
    0.23961E+07        -0.49930E+08         0.00000E+00
    0.00000E+00         0.00000E+00        -0.37522E+08
 
   -0.36885E+08         0.24851E+07         0.00000E+00
    0.24851E+07        -0.49925E+08         0.00000E+00
    0.00000E+00         0.00000E+00        -0.37521E+08
 
   -0.36917E+08         0.25743E+07         0.00000E+00
    0.25743E+07        -0.49920E+08         0.00000E+00
    0.00000E+00         0.00000E+00        -0.37521E+08
 
   -0.36949E+08         0.26637E+07         0.00000E+00
    0.26637E+07        -0.49915E+08         0.00000E+00
    0.00000E+00         0.00000E+00        -0.37520E+08
 
   -0.36981E+08         0.27534E+07         0.00000E+00
    0.27534E+07        -0.49910E+08         0.00000E+00
    0.00000E+00         0.00000E+00        -0.37520E+08
 
   -0.37012E+08         0.28434E+07         0.00000E+00
    0.28434E+07        -0.49905E+08         0.00000E+00
    0.00000E+00         0.00000E+00        -0.37519E+08
 
   -0.37043E+08         0.29337E+07         0.00000E+00
    0.29337E+07        -0.49899E+08         0.00000E+00
    0.00000E+00         0.00000E+00        -0.37519E+08
 
   -0.37073E+08         0.30243E+07         0.00000E+00
    0.30243E+07        -0.49893E+08         0.00000E+00
    0.00000E+00         0.00000E+00        -0.37519E+08
 
   -0.37102E+08         0.31154E+07         0.00000E+00
    0.31154E+07        -0.49887E+08         0.00000E+00
    0.00000E+00         0.00000E+00        -0.37518E+08
 
   -0.37131E+08         0.32069E+07         0.00000E+00
    0.32069E+07        -0.49880E+08         0.00000E+00
    0.00000E+00         0.00000E+00        -0.37518E+08
 
   -0.37160E+08         0.32988E+07         0.00000E+00
    0.32988E+07        -0.49874E+08         0.00000E+00
    0.00000E+00         0.00000E+00        -0.37517E+08
 
   -0.37188E+08         0.33913E+07         0.00000E+00
    0.33913E+07        -0.49867E+08         0.00000E+00
    0.00000E+00         0.00000E+00        -0.37517E+08
 
   -0.37216E+08         0.34843E+07         0.00000E+00
    0.34843E+07        -0.49859E+08         0.00000E+00
    0.00000E+00         0.00000E+00        -0.37517E+08
 
   -0.37243E+08         0.35778E+07         0.00000E+00
    0.35778E+07        -0.49852E+08         0.00000E+00
    0.00000E+00         0.00000E+00        -0.37516E+08
 
   -0.37270E+08         0.36720E+07         0.00000E+00
    0.36720E+07        -0.49844E+08         0.00000E+00
    0.00000E+00         0.00000E+00        -0.37516E+08
 
   -0.37297E+08         0.37668E+07         0.00000E+00
    0.37668E+07        -0.49836E+08         0.00000E+00
    0.00000E+00         0.00000E+00        -0.37516E+08
 
   -0.37323E+08         0.38623E+07         0.00000E+00
    0.38623E+07        -0.49827E+08         0.00000E+00
    0.00000E+00         0.00000E+00        -0.37516E+08
 
   -0.37349E+08         0.39585E+07         0.00000E+00
    0.39585E+07        -0.49818E+08         0.00000E+00
    0.00000E+00         0.00000E+00        -0.37515E+08
 
   -0.37375E+08         0.40554E+07         0.00000E+00
    0.40554E+07        -0.49809E+08         0.00000E+00
    0.00000E+00         0.00000E+00        -0.37515E+08
 
   -0.37401E+08         0.41531E+07         0.00000E+00
    0.41531E+07        -0.49799E+08         0.00000E+00
    0.00000E+00         0.00000E+00        -0.37515E+08
 
   -0.37426E+08         0.42516E+07         0.00000E+00
    0.42516E+07        -0.49788E+08         0.00000E+00
    0.00000E+00         0.00000E+00        -0.37515E+08
 
   -0.37451E+08         0.43510E+07         0.00000E+00
    0.43510E+07        -0.49778E+08         0.00000E+00
    0.00000E+00         0.00000E+00        -0.37515E+08
 
   -0.37477E+08         0.44512E+07         0.00000E+00
    0.44512E+07        -0.49766E+08         0.00000E+00
    0.00000E+00         0.00000E+00        -0.37515E+08
 
   -0.37502E+08         0.45524E+07         0.00000E+00
    0.45524E+07        -0.49754E+08         0.00000E+00
    0.00000E+00         0.00000E+00        -0.37515E+08
 
   -0.35342E+08         0.49083E+05         0.00000E+00
    0.49083E+05        -0.50000E+08         0.00000E+00
    0.00000E+00         0.00000E+00        -0.37011E+08
 
   -0.35389E+08         0.14521E+06         0.00000E+00
    0.14521E+06        -0.50000E+08         0.00000E+00
    0.00000E+00         0.00000E+00        -0.37011E+08
 
   -0.35436E+08         0.24063E+06         0.00000E+00
    0.24063E+06        -0.49999E+08         0.00000E+00
    0.00000E+00         0.00000E+00        -0.37011E+08
 
   -0.35482E+08         0.33538E+06         0.00000E+00
    0.33538E+06        -0.49999E+08         0.00000E+00
    0.00000E+00         0.00000E+00        -0.37011E+08
 
   -0.35529E+08         0.42951E+06         0.00000E+00
    0.42951E+06        -0.49998E+08         0.00000E+00
    0.00000E+00         0.00000E+00        -0.37011E+08
 
   -0.35574E+08         0.52304E+06         0.00000E+00
    0.52304E+06        -0.49997E+08         0.00000E+00
    0.00000E+00         0.00000E+00        -0.37010E+08
 
   -0.35620E+08         0.61601E+06         0.00000E+00
    0.61601E+06        -0.49996E+08         0.00000E+00
    0.00000E+00         0.00000E+00        -0.37010E+08
 
   -0.35665E+08         0.70845E+06         0.00000E+00
    0.70845E+06        -0.49994E+08         0.00000E+00
    0.00000E+00         0.00000E+00        -0.37010E+08
 
   -0.35709E+08         0.80042E+06         0.00000E+00
    0.80042E+06        -0.49993E+08         0.00000E+00
    0.00000E+00         0.00000E+00        -0.37010E+08
 
   -0.35753E+08         0.89193E+06         0.00000E+00
    0.89193E+06        -0.49992E+08         0.00000E+00
    0.00000E+00         0.00000E+00        -0.37010E+08
 
   -0.35797E+08         0.98304E+06         0.00000E+00
    0.98304E+06        -0.49990E+08         0.00000E+00
    0.00000E+00         0.00000E+00        -0.37009E+08
 
   -0.35840E+08         0.10738E+07         0.00000E+00
    0.10738E+07        -0.49988E+08         0.00000E+00
    0.00000E+00         0.00000E+00        -0.37009E+08
 
   -0.35882E+08         0.11642E+07         0.00000E+00
    0.11642E+07        -0.49987E+08         0.00000E+00
    0.00000E+00         0.00000E+00        -0.37009E+08
 
   -0.35924E+08         0.12543E+07         0.00000E+00
    0.12543E+07        -0.49985E+08         0.00000E+00
    0.00000E+00         0.00000E+00        -0.37008E+08
 
   -0.35965E+08         0.13441E+07         0.00000E+00
    0.13441E+07        -0.49983E+08         0.00000E+00
    0.00000E+00         0.00000E+00        -0.37008E+08
 
   -0.36005E+08         0.14337E+07         0.00000E+00
    0.14337E+07        -0.49981E+08         0.00000E+00
    0.00000E+00         0.00000E+00        -0.37008E+08
 
   -0.36045E+08         0.15232E+07         0.00000E+00
    0.15232E+07        -0.49979E+08         0.00000E+00
    0.00000E+00         0.00000E+00        -0.37007E+08
 
   -0.36084E+08         0.16125E+07         0.00000E+00
    0.16125E+07        -0.49977E+08         0.00000E+00
    0.00000E+00         0.00000E+00        -0.37007E+08
 
   -0.36122E+08         0.17016E+07         0.00000E+00
    0.17016E+07        -0.49975E+08         0.00000E+00
    0.00000E+00         0.00000E+00        -0.37006E+08
 
   -0.36160E+08         0.17907E+07         0.00000E+00
    0.17907E+07        -0.49973E+08         0.00000E+00
    0.00000E+00         0.00000E+00        -0.37006E+08
 
   -0.36197E+08         0.18798E+07         0.00000E+00
    0.18798E+07        -0.49971E+08         0.00000E+00
    0.00000E+00         0.00000E+00        -0.37006E+08
 
   -0.36234E+08         0.19688E+07         0.00000E+00
    0.19688E+07        -0.49968E+08         0.00000E+00
    0.00000E+00         0.00000E+00        -0.37005E+08
 
   -0.36269E+08         0.20579E+07         0.00000E+00
    0.20579E+07        -0.49966E+08         0.00000E+00
    0.00000E+00         0.00000E+00        -0.37005E+08
 
   -0.36304E+08         0.21470E+07         0.00000E+00
    0.21470E+07        -0.49963E+08         0.00000E+00
    0.00000E+00         0.00000E+00        -0.37004E+08
 
   -0.36339E+08         0.22362E+07         0.00000E+00
    0.22362E+07        -0.49961E+08         0.00000E+00
    0.00000E+00         0.00000E+00        -0.37004E+08
 
   -0.36372E+08         0.23256E+07         0.00000E+00
    0.23256E+07        -0.49958E+08         0.00000E+00
    0.00000E+00         0.00000E+00        -0.37004E+08
 
   -0.36405E+08         0.24151E+07         0.00000E+00
    0.24151E+07        -0.49955E+08         0.00000E+00
    0.00000E+00         0.00000E+00        -0.37003E+08
 
   -0.36437E+08         0.25049E+07         0.00000E+00
    0.25049E+07        -0.49952E+08         0.00000E+00
    0.00000E+00         0.00000E+00        -0.37003E+08
 
   -0.36469E+08         0.25948E+07         0.00000E+00
    0.25948E+07        -0.49949E+08         0.00000E+00
    0.00000E+00         0.00000E+00        -0.37002E+08
 
   -0.36499E+08         0.26851E+07         0.00000E+00
    0.26851E+07        -0.49946E+08         0.00000E+00
    0.00000E+00         0.00000E+00        -0.37002E+08
 
   -0.36529E+08         0.27756E+07         0.00000E+00
    0.27756E+07        -0.49943E+08         0.00000E+00
    0.00000E+00         0.00000E+00        -0.37001E+08
 
   -0.36559E+08         0.28665E+07         0.00000E+00
    0.28665E+07        -0.49939E+08         0.00000E+00
    0.00000E+00         0.00000E+00        -0.37001E+08
 
   -0.36588E+08         0.29578E+07         0.00000E+00
    0.29578E+07        -0.49935E+08         0.00000E+00
    0.00000E+00         0.00000E+00        -0.37001E+08
 
   -0.36615E+08         0.30495E+07         0.00000E+00
    0.30495E+07        -0.49932E+08         0.00000E+00
    0.00000E+00         0.00000E+00        -0.37000E+08
 
   -0.36643E+08         0.31417E+07         0.00000E+00
    0.31417E+07        -0.49928E+08         0.00000E+00
    0.00000E+00         0.00000E+00        -0.37000E+08
 
   -0.36669E+08         0.32343E+07         0.00000E+00
    0.32343E+07        -0.49923E+08         0.00000E+00
    0.00000E+00         0.00000E+00        -0.36999E+08
 
   -0.36695E+08         0.33275E+07         0.00000E+00
    0.33275E+07        -0.49919E+08         0.00000E+00
    0.00000E+00         0.00000E+00        -0.36999E+08
 
   -0.36721E+08         0.34213E+07         0.00000E+00
    0.34213E+07        -0.49914E+08         0.00000E+00
    0.00000E+00         0.00000E+00        -0.36999E+08
 
   -0.36746E+08         0.35157E+07         0.00000E+00
    0.35157E+07        -0.49909E+08         0.00000E+00
    0.00000E+00         0.00000E+00        -0.36998E+08
 
   -0.36770E+08         0.36108E+07         0.00000E+00
    0.36108E+07        -0.49904E+08         0.00000E+00
    0.00000E+00         0.00000E+00        -0.36998E+08
 
   -0.36793E+08         0.37066E+07         0.00000E+00
    0.37066E+07        -0.49898E+08         0.00000E+00
    0.00000E+00         0.00000E+00        -0.36998E+08
 
   -0.36816E+08         0.38031E+07         0.00000E+00
    0.38031E+07        -0.49892E+08         0.00000E+00
    0.00000E+00         0.00000E+00        -0.36998E+08
 
   -0.36839E+08         0.39004E+07         0.00000E+00
    0.39004E+07        -0.49886E+08         0.00000E+00
    0.00000E+00         0.00000E+00        -0.36997E+08
 
   -0.36861E+08         0.39986E+07         0.00000E+00
    0.39986E+07        -0.49880E+08         0.00000E+00
    0.00000E+00         0.00000E+00        -0.36997E+08
 
   -0.36883E+08         0.40976E+07         0.00000E+00
    0.40976E+07        -0.49873E+08         0.00000E+00
    0.00000E+00         0.00000E+00        -0.36997E+08
 
   -0.36904E+08         0.41976E+07         0.00000E+00
    0.41976E+07        -0.49865E+08         0.00000E+00
    0.00000E+00         0.00000E+00        -0.36997E+08
 
   -0.36925E+08         0.42985E+07         0.00000E+00
    0.42985E+07        -0.49857E+08         0.00000E+00
    0.00000E+00         0.00000E+00        -0.36997E+08
 
   -0.36946E+08         0.44005E+07         0.00000E+00
    0.44005E+07        -0.49849E+08         0.00000E+00
    0.00000E+00         0.00000E+00        -0.36996E+08
 
   -0.36966E+08         0.45034E+07         0.00000E+00
    0.45034E+07        -0.49840E+08         0.00000E+00
    0.00000E+00         0.00000E+00        -0.36996E+08
 
   -0.36986E+08         0.46075E+07         0.00000E+00
    0.46075E+07        -0.49831E+08         0.00000E+00
    0.00000E+00         0.00000E+00        -0.36996E+08
 
   -0.34857E+08         0.49734E+05         0.00000E+00
    0.49734E+05        -0.50000E+08         0.00000E+00
    0.00000E+00         0.00000E+00        -0.36476E+08
 
   -0.34908E+08         0.14675E+06         0.00000E+00
    0.14675E+06        -0.50000E+08         0.00000E+00
    0.00000E+00         0.00000E+00        -0.36476E+08
 
   -0.34958E+08         0.24294E+06         0.00000E+00
    0.24294E+06        -0.50000E+08         0.00000E+00
    0.00000E+00         0.00000E+00        -0.36476E+08
 
   -0.35008E+08         0.33834E+06         0.00000E+00
    0.33834E+06        -0.49999E+08         0.00000E+00
    0.00000E+00         0.00000E+00        -0.36476E+08
 
   -0.35058E+08         0.43301E+06         0.00000E+00
    0.43301E+06        -0.49999E+08         0.00000E+00
    0.00000E+00         0.00000E+00        -0.36475E+08
 
   -0.35107E+08         0.52700E+06         0.00000E+00
    0.52700E+06        -0.49998E+08         0.00000E+00
    0.00000E+00         0.00000E+00        -0.36475E+08
 
   -0.35155E+08         0.62036E+06         0.00000E+00
    0.62036E+06        -0.49998E+08         0.00000E+00
    0.00000E+00         0.00000E+00        -0.36475E+08
 
   -0.35203E+08         0.71312E+06         0.00000E+00
    0.71312E+06        -0.49997E+08         0.00000E+00
    0.00000E+00         0.00000E+00        -0.36475E+08
 
   -0.35250E+08         0.80535E+06         0.00000E+00
    0.80535E+06        -0.49997E+08         0.00000E+00
    0.00000E+00         0.00000E+00        -0.36475E+08
 
   -0.35296E+08         0.89709E+06         0.00000E+00
    0.89709E+06        -0.49996E+08         0.00000E+00
    0.00000E+00         0.00000E+00        -0.36474E+08
 
   -0.35341E+08         0.98838E+06         0.00000E+00
    0.98838E+06        -0.49996E+08         0.00000E+00
    0.00000E+00         0.00000E+00        -0.36474E+08
 
   -0.35386E+08         0.10793E+07         0.00000E+00
    0.10793E+07        -0.49995E+08         0.00000E+00
    0.00000E+00         0.00000E+00        -0.36474E+08
 
   -0.35430E+08         0.11698E+07         0.00000E+00
    0.11698E+07        -0.49995E+08         0.00000E+00
    0.00000E+00         0.00000E+00        -0.36474E+08
 
   -0.35473E+08         0.12600E+07         0.00000E+00
    0.12600E+07        -0.49994E+08         0.00000E+00
    0.00000E+00         0.00000E+00        -0.36473E+08
 
   -0.35515E+08         0.13500E+07         0.00000E+00
    0.13500E+07        -0.49994E+08         0.00000E+00
    0.00000E+00         0.00000E+00        -0.36473E+08
 
   -0.35557E+08         0.14398E+07         0.00000E+00
    0.14398E+07        -0.49993E+08         0.00000E+00
    0.00000E+00         0.00000E+00        -0.36473E+08
 
   -0.35598E+08         0.15293E+07         0.00000E+00
    0.15293E+07        -0.49993E+08         0.00000E+00
    0.00000E+00         0.00000E+00        -0.36472E+08
 
   -0.35637E+08         0.16188E+07         0.00000E+00
    0.16188E+07        -0.49993E+08         0.00000E+00
    0.00000E+00         0.00000E+00        -0.36472E+08
 
   -0.35676E+08         0.17081E+07         0.00000E+00
    0.17081E+07        -0.49992E+08         0.00000E+00
    0.00000E+00         0.00000E+00        -0.36472E+08
 
   -0.35714E+08         0.17974E+07         0.00000E+00
    0.17974E+07        -0.49992E+08         0.00000E+00
    0.00000E+00         0.00000E+00        -0.36471E+08
 
   -0.35751E+08         0.18867E+07         0.00000E+00
    0.18867E+07        -0.49991E+08         0.00000E+00
    0.00000E+00         0.00000E+00        -0.36471E+08
 
   -0.35788E+08         0.19760E+07         0.00000E+00
    0.19760E+07        -0.49991E+08         0.00000E+00
    0.00000E+00         0.00000E+00        -0.36471E+08
 
   -0.35823E+08         0.20653E+07         0.00000E+00
    0.20653E+07        -0.49991E+08         0.00000E+00
    0.00000E+00         0.00000E+00        -0.36470E+08
 
   -0.35857E+08         0.21548E+07         0.00000E+00
    0.21548E+07        -0.49990E+08         0.00000E+00
    0.00000E+00         0.00000E+00        -0.36470E+08
 
   -0.35891E+08         0.22444E+07         0.00000E+00
    0.22444E+07        -0.49990E+08         0.00000E+00
    0.00000E+00         0.00000E+00        -0.36469E+08
 
   -0.35924E+08         0.23342E+07         0.00000E+00
    0.23342E+07        -0.49989E+08         0.00000E+00
    0.00000E+00         0.00000E+00        -0.36469E+08
 
   -0.35956E+08         0.24242E+07         0.00000E+00
    0.24242E+07        -0.49989E+08         0.00000E+00
    0.00000E+00         0.00000E+00        -0.36469E+08
 
   -0.35986E+08         0.25144E+07         0.00000E+00
    0.25144E+07        -0.49988E+08         0.00000E+00
    0.00000E+00         0.00000E+00        -0.36468E+08
 
   -0.36017E+08         0.26050E+07         0.00000E+00
    0.26050E+07        -0.49987E+08         0.00000E+00
    0.00000E+00         0.00000E+00        -0.36468E+08
 
   -0.36046E+08         0.26958E+07         0.00000E+00
    0.26958E+07        -0.49986E+08         0.00000E+00
    0.00000E+00         0.00000E+00        -0.36467E+08
 
   -0.36074E+08         0.27870E+07         0.00000E+00
    0.27870E+07        -0.49985E+08         0.00000E+00
    0.00000E+00         0.00000E+00        -0.36467E+08
 
   -0.36101E+08         0.28787E+07         0.00000E+00
    0.28787E+07        -0.49984E+08         0.00000E+00
    0.00000E+00         0.00000E+00        -0.36467E+08
 
   -0.36128E+08         0.29707E+07         0.00000E+00
    0.29707E+07        -0.49983E+08         0.00000E+00
    0.00000E+00         0.00000E+00        -0.36466E+08
 
   -0.36153E+08         0.30633E+07         0.00000E+00
    0.30633E+07        -0.49981E+08         0.00000E+00
    0.00000E+00         0.00000E+00        -0.36466E+08
 
   -0.36178E+08         0.31563E+07         0.00000E+00
    0.31563E+07        -0.49980E+08         0.00000E+00
    0.00000E+00         0.00000E+00        -0.36466E+08
 
   -0.36202E+08         0.32500E+07         0.00000E+00
    0.32500E+07        -0.49978E+08         0.00000E+00
    0.00000E+00         0.00000E+00        -0.36465E+08
 
   -0.36225E+08         0.33442E+07         0.00000E+00
    0.33442E+07        -0.49976E+08         0.00000E+00
    0.00000E+00         0.00000E+00        -0.36465E+08
 
   -0.36247E+08         0.34391E+07         0.00000E+00
    0.34391E+07        -0.49974E+08         0.00000E+00
    0.00000E+00         0.00000E+00        -0.36465E+08
 
   -0.36269E+08         0.35347E+07         0.00000E+00
    0.35347E+07        -0.49972E+08         0.00000E+00
    0.00000E+00         0.00000E+00        -0.36464E+08
 
   -0.36289E+08         0.36311E+07         0.00000E+00
    0.36311E+07        -0.49969E+08         0.00000E+00
    0.00000E+00         0.00000E+00        -0.36464E+08
 
   -0.36309E+08         0.37283E+07         0.00000E+00
    0.37283E+07        -0.49967E+08         0.00000E+00
    0.00000E+00         0.00000E+00        -0.36464E+08
 
   -0.36328E+08         0.38263E+07         0.00000E+00
    0.38263E+07        -0.49964E+08         0.00000E+00
    0.00000E+00         0.00000E+00        -0.36464E+08
 
   -0.36346E+08         0.39253E+07         0.00000E+00
    0.39253E+07        -0.49960E+08         0.00000E+00
    0.00000E+00         0.00000E+00        -0.36463E+08
 
   -0.36363E+08         0.40252E+07         0.00000E+00
    0.40252E+07        -0.49957E+08         0.00000E+00
    0.00000E+00         0.00000E+00        -0.36463E+08
 
   -0.36380E+08         0.41262E+07         0.00000E+00
    0.41262E+07        -0.49953E+08         0.00000E+00
    0.00000E+00         0.00000E+00        -0.36463E+08
 
   -0.36396E+08         0.42282E+07         0.00000E+00
    0.42282E+07        -0.49948E+08         0.00000E+00
    0.00000E+00         0.00000E+00        -0.36463E+08
 
   -0.36412E+08         0.43314E+07         0.00000E+00
    0.43314E+07        -0.49944E+08         0.00000E+00
    0.00000E+00         0.00000E+00        -0.36463E+08
 
   -0.36427E+08         0.44358E+07         0.00000E+00
    0.44358E+07        -0.49938E+08         0.00000E+00
    0.00000E+00         0.00000E+00        -0.36463E+08
 
   -0.36441E+08         0.45415E+07         0.00000E+00
    0.45415E+07        -0.49933E+08         0.00000E+00
    0.00000E+00         0.00000E+00        -0.36463E+08
 
   -0.36455E+08         0.46484E+07         0.00000E+00
    0.46484E+07        -0.49926E+08         0.00000E+00
    0.00000E+00         0.00000E+00        -0.36462E+08
 
   -0.34368E+08         0.50087E+05         0.00000E+00
    0.50087E+05        -0.50000E+08         0.00000E+00
    0.00000E+00         0.00000E+00        -0.35924E+08
 
   -0.34424E+08         0.14738E+06         0.00000E+00
    0.14738E+06        -0.50000E+08         0.00000E+00
    0.00000E+00         0.00000E+00        -0.35924E+08
 
   -0.34479E+08         0.24371E+06         0.00000E+00
    0.24371E+06        -0.50000E+08         0.00000E+00
    0.00000E+00         0.00000E+00        -0.35924E+08
 
   -0.34533E+08         0.33914E+06         0.00000E+00
    0.33914E+06        -0.50000E+08         0.00000E+00
    0.00000E+00         0.00000E+00        -0.35924E+08
 
   -0.34586E+08         0.43375E+06         0.00000E+00
    0.43375E+06        -0.50000E+08         0.00000E+00
    0.00000E+00         0.00000E+00        -0.35924E+08
 
   -0.34639E+08         0.52759E+06         0.00000E+00
    0.52759E+06        -0.50000E+08         0.00000E+00
    0.00000E+00         0.00000E+00        -0.35924E+08
 
   -0.34690E+08         0.62073E+06         0.00000E+00
    0.62073E+06        -0.50001E+08         0.00000E+00
    0.00000E+00         0.00000E+00        -0.35924E+08
 
   -0.34741E+08         0.71322E+06         0.00000E+00
    0.71322E+06        -0.50001E+08         0.00000E+00
    0.00000E+00         0.00000E+00        -0.35924E+08
 
   -0.34790E+08         0.80513E+06         0.00000E+00
    0.80513E+06        -0.50002E+08         0.00000E+00
    0.00000E+00         0.00000E+00        -0.35924E+08
 
   -0.34839E+08         0.89652E+06         0.00000E+00
    0.89652E+06        -0.50003E+08         0.00000E+00
    0.00000E+00         0.00000E+00        -0.35923E+08
 
   -0.34887E+08         0.98745E+06         0.00000E+00
    0.98745E+06        -0.50004E+08         0.00000E+00
    0.00000E+00         0.00000E+00        -0.35923E+08
 
   -0.34933E+08         0.10780E+07         0.00000E+00
    0.10780E+07        -0.50005E+08         0.00000E+00
    0.00000E+00         0.00000E+00        -0.35923E+08
 
   -0.34979E+08         0.11681E+07         0.00000E+00
    0.11681E+07        -0.50006E+08         0.00000E+00
    0.00000E+00         0.00000E+00        -0.35923E+08
 
   -0.35023E+08         0.12580E+07         0.00000E+00
    0.12580E+07        -0.50007E+08         0.00000E+00
    0.00000E+00         0.00000E+00        -0.35922E+08
 
   -0.35067E+08         0.13476E+07         0.00000E+00
    0.13476E+07        -0.50008E+08         0.00000E+00
    0.00000E+00         0.00000E+00        -0.35922E+08
 
   -0.35109E+08         0.14370E+07         0.00000E+00
    0.14370E+07        -0.50010E+08         0.00000E+00
    0.00000E+00         0.00000E+00        -0.35922E+08
 
   -0.35151E+08         0.15263E+07         0.00000E+00
    0.15263E+07        -0.50012E+08         0.00000E+00
    0.00000E+00         0.00000E+00        -0.35921E+08
 
   -0.35191E+08         0.16155E+07         0.00000E+00
    0.16155E+07        -0.50013E+08         0.00000E+00
    0.00000E+00         0.00000E+00        -0.35921E+08
 
   -0.35230E+08         0.17046E+07         0.00000E+00
    0.17046E+07        -0.50015E+08         0.00000E+00
    0.00000E+00         0.00000E+00        -0.35921E+08
 
   -0.35268E+08         0.17937E+07         0.00000E+00
    0.17937E+07        -0.50017E+08         0.00000E+00
    0.00000E+00         0.00000E+00        -0.35921E+08
 
   -0.35305E+08         0.18828E+07         0.00000E+00
    0.18828E+07        -0.50019E+08         0.00000E+00
    0.00000E+00         0.00000E+00        -0.35920E+08
 
   -0.35341E+08         0.19720E+07         0.00000E+00
    0.19720E+07        -0.50021E+08         0.00000E+00
    0.00000E+00         0.00000E+00        -0.35920E+08
 
   -0.35376E+08         0.20614E+07         0.00000E+00
    0.20614E+07        -0.50023E+08         0.00000E+00
    0.00000E+00         0.00000E+00        -0.35920E+08
 
   -0.35409E+08         0.21509E+07         0.00000E+00
    0.21509E+07        -0.50025E+08         0.00000E+00
    0.00000E+00         0.00000E+00        -0.35919E+08
 
   -0.35442E+08         0.22406E+07         0.00000E+00
    0.22406E+07        -0.50028E+08         0.00000E+00
    0.00000E+00         0.00000E+00        -0.35919E+08
 
   -0.35474E+08         0.23305E+07         0.00000E+00
    0.23305E+07        -0.50030E+08         0.00000E+00
    0.00000E+00         0.00000E+00        -0.35919E+08
 
   -0.35504E+08         0.24207E+07         0.00000E+00
    0.24207E+07        -0.50032E+08         0.00000E+00
    0.00000E+00         0.00000E+00        -0.35918E+08
 
   -0.35534E+08         0.25113E+07         0.00000E+00
    0.25113E+07        -0.50034E+08         0.00000E+00
    0.00000E+00         0.00000E+00        -0.35918E+08
 
   -0.35562E+08         0.26021E+07         0.00000E+00
    0.26021E+07        -0.50036E+08         0.00000E+00
    0.00000E+00         0.00000E+00        -0.35918E+08
 
   -0.35589E+08         0.26934E+07         0.00000E+00
    0.26934E+07        -0.50038E+08         0.00000E+00
    0.00000E+00         0.00000E+00        -0.35917E+08
 
   -0.35615E+08         0.27851E+07         0.00000E+00
    0.27851E+07        -0.50040E+08         0.00000E+00
    0.00000E+00         0.00000E+00        -0.35917E+08
 
   -0.35641E+08         0.28773E+07         0.00000E+00
    0.28773E+07        -0.50042E+08         0.00000E+00
    0.00000E+00         0.00000E+00        -0.35917E+08
 
   -0.35665E+08         0.29699E+07         0.00000E+00
    0.29699E+07        -0.50044E+08         0.00000E+00
    0.00000E+00         0.00000E+00        -0.35916E+08
 
   -0.35688E+08         0.30631E+07         0.00000E+00
    0.30631E+07        -0.50045E+08         0.00000E+00
    0.00000E+00         0.00000E+00        -0.35916E+08
 
   -0.35709E+08         0.31569E+07         0.00000E+00
    0.31569E+07        -0.50047E+08         0.00000E+00
    0.00000E+00         0.00000E+00        -0.35916E+08
 
   -0.35730E+08         0.32513E+07         0.00000E+00
    0.32513E+07        -0.50048E+08         0.00000E+00
    0.00000E+00         0.00000E+00        -0.35915E+08
 
   -0.35750E+08         0.33464E+07         0.00000E+00
    0.33464E+07        -0.50050E+08         0.00000E+00
    0.00000E+00         0.00000E+00        -0.35915E+08
 
   -0.35768E+08         0.34422E+07         0.00000E+00
    0.34422E+07        -0.50051E+08         0.00000E+00
    0.00000E+00         0.00000E+00        -0.35915E+08
 
   -0.35786E+08         0.35388E+07         0.00000E+00
    0.35388E+07        -0.50052E+08         0.00000E+00
    0.00000E+00         0.00000E+00        -0.35915E+08
 
   -0.35802E+08         0.36362E+07         0.00000E+00
    0.36362E+07        -0.50053E+08         0.00000E+00
    0.00000E+00         0.00000E+00        -0.35914E+08
 
   -0.35817E+08         0.37345E+07         0.00000E+00
    0.37345E+07        -0.50053E+08         0.00000E+00
    0.00000E+00         0.00000E+00        -0.35914E+08
 
   -0.35832E+08         0.38338E+07         0.00000E+00
    0.38338E+07        -0.50053E+08         0.00000E+00
    0.00000E+00         0.00000E+00        -0.35914E+08
 
   -0.35845E+08         0.39342E+07         0.00000E+00
    0.39342E+07        -0.50054E+08         0.00000E+00
    0.00000E+00         0.00000E+00        -0.35914E+08
 
   -0.35857E+08         0.40356E+07         0.00000E+00
    0.40356E+07        -0.50053E+08         0.00000E+00
    0.00000E+00         0.00000E+00        -0.35914E+08
 
   -0.35868E+08         0.41382E+07         0.00000E+00
    0.41382E+07        -0.50053E+08         0.00000E+00
    0.00000E+00         0.00000E+00        -0.35913E+08
 
   -0.35878E+08         0.42422E+07         0.00000E+00
    0.42422E+07        -0.50052E+08         0.00000E+00
    0.00000E+00         0.00000E+00        -0.35913E+08
 
   -0.35887E+08         0.43474E+07         0.00000E+00
    0.43474E+07        -0.50051E+08         0.00000E+00
    0.00000E+00         0.00000E+00        -0.35913E+08
 
   -0.35895E+08         0.44540E+07         0.00000E+00
    0.44540E+07        -0.50050E+08         0.00000E+00
    0.00000E+00         0.00000E+00        -0.35913E+08
 
   -0.35903E+08         0.45622E+07         0.00000E+00
    0.45622E+07        -0.50048E+08         0.00000E+00
    0.00000E+00         0.00000E+00        -0.35913E+08
 
   -0.35910E+08         0.46720E+07         0.00000E+00
    0.46720E+07        -0.50045E+08         0.00000E+00
    0.00000E+00         0.00000E+00        -0.35913E+08
 
   -0.33880E+08         0.50002E+05         0.00000E+00
    0.50002E+05        -0.50000E+08         0.00000E+00
    0.00000E+00         0.00000E+00        -0.35357E+08
 
   -0.33941E+08         0.14672E+06         0.00000E+00
    0.14672E+06        -0.50000E+08         0.00000E+00
    0.00000E+00         0.00000E+00        -0.35357E+08
 
   -0.34001E+08         0.24235E+06         0.00000E+00
    0.24235E+06        -0.50001E+08         0.00000E+00
    0.00000E+00         0.00000E+00        -0.35357E+08
 
   -0.34060E+08         0.33699E+06         0.00000E+00
    0.33699E+06        -0.50001E+08         0.00000E+00
    0.00000E+00         0.00000E+00        -0.35357E+08
 
   -0.34117E+08         0.43072E+06         0.00000E+00
    0.43072E+06        -0.50002E+08         0.00000E+00
    0.00000E+00         0.00000E+00        -0.35357E+08
 
   -0.34173E+08         0.52362E+06         0.00000E+00
    0.52362E+06        -0.50003E+08         0.00000E+00
    0.00000E+00         0.00000E+00        -0.35357E+08
 
   -0.34228E+08         0.61576E+06         0.00000E+00
    0.61576E+06        -0.50005E+08         0.00000E+00
    0.00000E+00         0.00000E+00        -0.35357E+08
 
   -0.34282E+08         0.70723E+06         0.00000E+00
    0.70723E+06        -0.50007E+08         0.00000E+00
    0.00000E+00         0.00000E+00        -0.35357E+08
 
   -0.34335E+08         0.79809E+06         0.00000E+00
    0.79809E+06        -0.50009E+08         0.00000E+00
    0.00000E+00         0.00000E+00        -0.35356E+08
 
   -0.34386E+08         0.88843E+06         0.00000E+00
    0.88843E+06        -0.50011E+08         0.00000E+00
    0.00000E+00         0.00000E+00        -0.35356E+08
 
   -0.34435E+08         0.97830E+06         0.00000E+00
    0.97830E+06        -0.50014E+08         0.00000E+00
    0.00000E+00         0.00000E+00        -0.35356E+08
 
   -0.34484E+08         0.10678E+07         0.00000E+00
    0.10678E+07        -0.50017E+08         0.00000E+00
    0.00000E+00         0.00000E+00        -0.35356E+08
 
   -0.34531E+08         0.11569E+07         0.00000E+00
    0.11569E+07        -0.50020E+08         0.00000E+00
    0.00000E+00         0.00000E+00        -0.35356E+08
 
   -0.34577E+08         0.12458E+07         0.00000E+00
    0.12458E+07        -0.50023E+08         0.00000E+00
    0.00000E+00         0.00000E+00        -0.35355E+08
 
   -0.34621E+08         0.13344E+07         0.00000E+00
    0.13344E+07        -0.50027E+08         0.00000E+00
    0.00000E+00         0.00000E+00        -0.35355E+08
 
   -0.34664E+08         0.14230E+07         0.00000E+00
    0.14230E+07        -0.50031E+08         0.00000E+00
    0.00000E+00         0.00000E+00        -0.35355E+08
 
   -0.34706E+08         0.15114E+07         0.00000E+00
    0.15114E+07        -0.50035E+08         0.00000E+00
    0.00000E+00         0.00000E+00        -0.35355E+08
 
   -0.34747E+08         0.15998E+07         0.00000E+00
    0.15998E+07        -0.50040E+08         0.00000E+00
    0.00000E+00         0.00000E+00        -0.35354E+08
 
   -0.34786E+08         0.16882E+07         0.00000E+00
    0.16882E+07        -0.50045E+08         0.00000E+00
    0.00000E+00         0.00000E+00        -0.35354E+08
 
   -0.34824E+08         0.17766E+07         0.00000E+00
    0.17766E+07        -0.50049E+08         0.00000E+00
    0.00000E+00         0.00000E+00        -0.35354E+08
 
   -0.34860E+08         0.18652E+07         0.00000E+00
    0.18652E+07        -0.50055E+08         0.00000E+00
    0.00000E+00         0.00000E+00        -0.35354E+08
 
   -0.34895E+08         0.19539E+07         0.00000E+00
    0.19539E+07        -0.50060E+08         0.00000E+00
    0.00000E+00         0.00000E+00        -0.35353E+08
 
   -0.34929E+08         0.20428E+07         0.00000E+00
    0.20428E+07        -0.50065E+08         0.00000E+00
    0.00000E+00         0.00000E+00        -0.35353E+08
 
   -0.34962E+08         0.21320E+07         0.00000E+00
    0.21320E+07        -0.50071E+08         0.00000E+00
    0.00000E+00         0.00000E+00        -0.35353E+08
 
   -0.34993E+08         0.22215E+07         0.00000E+00
    0.22215E+07        -0.50076E+08         0.00000E+00
    0.00000E+00         0.00000E+00        -0.35353E+08
 
   -0.35023E+08         0.23113E+07         0.00000E+00
    0.23113E+07        -0.50082E+08         0.00000E+00
    0.00000E+00         0.00000E+00        -0.35352E+08
 
   -0.35052E+08         0.24014E+07         0.00000E+00
    0.24014E+07        -0.50087E+08         0.00000E+00
    0.00000E+00         0.00000E+00        -0.35352E+08
 
   -0.35080E+08         0.24920E+07         0.00000E+00
    0.24920E+07        -0.50093E+08         0.00000E+00
    0.00000E+00         0.00000E+00        -0.35352E+08
 
   -0.35106E+08         0.25830E+07         0.00000E+00
    0.25830E+07        -0.50099E+08         0.00000E+00
    0.00000E+00         0.00000E+00        -0.35352E+08
 
   -0.35131E+08         0.26744E+07         0.00000E+00
    0.26744E+07        -0.50105E+08         0.00000E+00
    0.00000E+00         0.00000E+00        -0.35351E+08
 
   -0.35155E+08         0.27664E+07         0.00000E+00
    0.27664E+07        -0.50110E+08         0.00000E+00
    0.00000E+00         0.00000E+00        -0.35351E+08
 
   -0.35177E+08         0.28589E+07         0.00000E+00
    0.28589E+07        -0.50116E+08         0.00000E+00
    0.00000E+00         0.00000E+00        -0.35351E+08
 
   -0.35199E+08         0.29520E+07         0.00000E+00
    0.29520E+07        -0.50122E+08         0.00000E+00
    0.00000E+00         0.00000E+00        -0.35351E+08
 
   -0.35219E+08         0.30458E+07         0.00000E+00
    0.30458E+07        -0.50127E+08         0.00000E+00
    0.00000E+00         0.00000E+00        -0.35350E+08
 
   -0.35237E+08         0.31401E+07         0.00000E+00
    0.31401E+07        -0.50133E+08         0.00000E+00
    0.00000E+00         0.00000E+00        -0.35350E+08
 
   -0.35255E+08         0.32352E+07         0.00000E+00
    0.32352E+07        -0.50138E+08         0.00000E+00
    0.00000E+00         0.00000E+00        -0.35350E+08
 
   -0.35271E+08         0.33310E+07         0.00000E+00
    0.33310E+07        -0.50143E+08         0.00000E+00
    0.00000E+00         0.00000E+00        -0.35350E+08
 
   -0.35285E+08         0.34276E+07         0.00000E+00
    0.34276E+07        -0.50148E+08         0.00000E+00
    0.00000E+00         0.00000E+00        -0.35349E+08
 
   -0.35298E+08         0.35249E+07         0.00000E+00
    0.35249E+07        -0.50153E+08         0.00000E+00
    0.00000E+00         0.00000E+00        -0.35349E+08
 
   -0.35310E+08         0.36232E+07         0.00000E+00
    0.36232E+07        -0.50158E+08         0.00000E+00
    0.00000E+00         0.00000E+00        -0.35349E+08
 
   -0.35321E+08         0.37224E+07         0.00000E+00
    0.37224E+07        -0.50162E+08         0.00000E+00
    0.00000E+00         0.00000E+00        -0.35349E+08
 
   -0.35330E+08         0.38227E+07         0.00000E+00
    0.38227E+07        -0.50167E+08         0.00000E+00
    0.00000E+00         0.00000E+00        -0.35349E+08
 
   -0.35337E+08         0.39240E+07         0.00000E+00
    0.39240E+07        -0.50171E+08         0.00000E+00
    0.00000E+00         0.00000E+00        -0.35349E+08
 
   -0.35343E+08         0.40266E+07         0.00000E+00
    0.40266E+07        -0.50175E+08         0.00000E+00
    0.00000E+00         0.00000E+00        -0.35348E+08
 
   -0.35348E+08         0.41305E+07         0.00000E+00
    0.41305E+07        -0.50179E+08         0.00000E+00
    0.00000E+00         0.00000E+00        -0.35348E+08
 
   -0.35351E+08         0.42358E+07         0.00000E+00
    0.42358E+07        -0.50183E+08         0.00000E+00
    0.00000E+00         0.00000E+00        -0.35348E+08
 
   -0.35352E+08         0.43428E+07         0.00000E+00
    0.43428E+07        -0.50186E+08         0.00000E+00
    0.00000E+00         0.00000E+00        -0.35348E+08
 
   -0.35352E+08         0.44515E+07         0.00000E+00
    0.44515E+07        -0.50190E+08         0.00000E+00
    0.00000E+00         0.00000E+00        -0.35348E+08
 
   -0.35352E+08         0.45621E+07         0.00000E+00
    0.45621E+07        -0.50192E+08         0.00000E+00
    0.00000E+00         0.00000E+00        -0.35348E+08
 
   -0.35349E+08         0.46742E+07         0.00000E+00
    0.46742E+07        -0.50194E+08         0.00000E+00
    0.00000E+00         0.00000E+00        -0.35348E+08
 
   -0.33398E+08         0.49323E+05         0.00000E+00
    0.49323E+05        -0.50000E+08         0.00000E+00
    0.00000E+00         0.00000E+00        -0.34774E+08
 
   -0.33464E+08         0.14435E+06         0.00000E+00
    0.14435E+06        -0.50001E+08         0.00000E+00
    0.00000E+00         0.00000E+00        -0.34774E+08
 
   -0.33530E+08         0.23820E+06         0.00000E+00
    0.23820E+06        -0.50001E+08         0.00000E+00
    0.00000E+00         0.00000E+00        -0.34774E+08
 
   -0.33593E+08         0.33100E+06         0.00000E+00
    0.33100E+06        -0.50003E+08         0.00000E+00
    0.00000E+00         0.00000E+00        -0.34774E+08
 
   -0.33655E+08         0.42282E+06         0.00000E+00
    0.42282E+06        -0.50005E+08         0.00000E+00
    0.00000E+00         0.00000E+00        -0.34774E+08
 
   -0.33715E+08         0.51378E+06         0.00000E+00
    0.51378E+06        -0.50007E+08         0.00000E+00
    0.00000E+00         0.00000E+00        -0.34774E+08
 
   -0.33774E+08         0.60397E+06         0.00000E+00
    0.60397E+06        -0.50010E+08         0.00000E+00
    0.00000E+00         0.00000E+00        -0.34774E+08
 
   -0.33831E+08         0.69348E+06         0.00000E+00
    0.69348E+06        -0.50013E+08         0.00000E+00
    0.00000E+00         0.00000E+00        -0.34773E+08
 
   -0.33886E+08         0.78238E+06         0.00000E+00
    0.78238E+06        -0.50017E+08         0.00000E+00
    0.00000E+00         0.00000E+00        -0.34773E+08
 
   -0.33940E+08         0.87078E+06         0.00000E+00
    0.87078E+06        -0.50022E+08         0.00000E+00
    0.00000E+00         0.00000E+00        -0.34773E+08
 
   -0.33992E+08         0.95874E+06         0.00000E+00
    0.95874E+06        -0.50027E+08         0.00000E+00
    0.00000E+00         0.00000E+00        -0.34773E+08
 
   -0.34042E+08         0.10464E+07         0.00000E+00
    0.10464E+07        -0.50032E+08         0.00000E+00
    0.00000E+00         0.00000E+00        -0.34773E+08
 
   -0.34090E+08         0.11337E+07         0.00000E+00
    0.11337E+07        -0.50038E+08         0.00000E+00
    0.00000E+00         0.00000E+00        -0.34773E+08
 
   -0.34137E+08         0.12208E+07         0.00000E+00
    0.12208E+07        -0.50044E+08         0.00000E+00
    0.00000E+00         0.00000E+00        -0.34772E+08
 
   -0.34182E+08         0.13078E+07         0.00000E+00
    0.13078E+07        -0.50051E+08         0.00000E+00
    0.00000E+00         0.00000E+00        -0.34772E+08
 
   -0.34226E+08         0.13947E+07         0.00000E+00
    0.13947E+07        -0.50058E+08         0.00000E+00
    0.00000E+00         0.00000E+00        -0.34772E+08
 
   -0.34268E+08         0.14816E+07         0.00000E+00
    0.14816E+07        -0.50065E+08         0.00000E+00
    0.00000E+00         0.00000E+00        -0.34772E+08
 
   -0.34308E+08         0.15685E+07         0.00000E+00
    0.15685E+07        -0.50073E+08         0.00000E+00
    0.00000E+00         0.00000E+00        -0.34772E+08
 
   -0.34347E+08         0.16556E+07         0.00000E+00
    0.16556E+07        -0.50081E+08         0.00000E+00
    0.00000E+00         0.00000E+00        -0.34772E+08
 
   -0.34384E+08         0.17428E+07         0.00000E+00
    0.17428E+07        -0.50090E+08         0.00000E+00
    0.00000E+00         0.00000E+00        -0.34771E+08
 
   -0.34419E+08         0.18302E+07         0.00000E+00
    0.18302E+07        -0.50099E+08         0.00000E+00
    0.00000E+00         0.00000E+00        -0.34771E+08
 
   -0.34454E+08         0.19179E+07         0.00000E+00
    0.19179E+07        -0.50108E+08         0.00000E+00
    0.00000E+00         0.00000E+00        -0.34771E+08
 
   -0.34486E+08         0.20059E+07         0.00000E+00
    0.20059E+07        -0.50117E+08         0.00000E+00
    0.00000E+00         0.00000E+00        -0.34771E+08
 
   -0.34517E+08         0.20942E+07         0.00000E+00
    0.20942E+07        -0.50127E+08         0.00000E+00
    0.00000E+00         0.00000E+00        -0.34771E+08
 
   -0.34547E+08         0.21830E+07         0.00000E+00
    0.21830E+07        -0.50137E+08         0.00000E+00
    0.00000E+00         0.00000E+00        -0.34770E+08
 
   -0.34575E+08         0.22722E+07         0.00000E+00
    0.22722E+07        -0.50147E+08         0.00000E+00
    0.00000E+00         0.00000E+00        -0.34770E+08
 
   -0.34601E+08         0.23619E+07         0.00000E+00
    0.23619E+07        -0.50157E+08         0.00000E+00
    0.00000E+00         0.00000E+00        -0.34770E+08
 
   -0.34626E+08         0.24521E+07         0.00000E+00
    0.24521E+07        -0.50167E+08         0.00000E+00
    0.00000E+00         0.00000E+00        -0.34770E+08
 
   -0.34650E+08         0.25429E+07         0.00000E+00
    0.25429E+07        -0.50177E+08         0.00000E+00
    0.00000E+00         0.00000E+00        -0.34770E+08
 
   -0.34672E+08         0.26342E+07         0.00000E+00
    0.26342E+07        -0.50188E+08         0.00000E+00
    0.00000E+00         0.00000E+00        -0.34769E+08
 
   -0.34693E+08         0.27262E+07         0.00000E+00
    0.27262E+07        -0.50199E+08         0.00000E+00
    0.00000E+00         0.00000E+00        -0.34769E+08
 
   -0.34713E+08         0.28189E+07         0.00000E+00
    0.28189E+07        -0.50209E+08         0.00000E+00
    0.00000E+00         0.00000E+00        -0.34769E+08
 
   -0.34731E+08         0.29122E+07         0.00000E+00
    0.29122E+07        -0.50220E+08         0.00000E+00
    0.00000E+00         0.00000E+00        -0.34769E+08
 
   -0.34747E+08         0.30063E+07         0.00000E+00
    0.30063E+07        -0.50230E+08         0.00000E+00
    0.00000E+00         0.00000E+00        -0.34769E+08
 
   -0.34762E+08         0.31011E+07         0.00000E+00
    0.31011E+07        -0.50241E+08         0.00000E+00
    0.00000E+00         0.00000E+00        -0.34769E+08
 
   -0.34776E+08         0.31967E+07         0.00000E+00
    0.31967E+07        -0.50251E+08         0.00000E+00
    0.00000E+00         0.00000E+00        -0.34768E+08
 
   -0.34788E+08         0.32931E+07         0.00000E+00
    0.32931E+07        -0.50262E+08         0.00000E+00
    0.00000E+00         0.00000E+00        -0.34768E+08
 
   -0.34798E+08         0.33904E+07         0.00000E+00
    0.33904E+07        -0.50272E+08         0.00000E+00
    0.00000E+00         0.00000E+00        -0.34768E+08
 
   -0.34807E+08         0.34885E+07         0.00000E+00
    0.34885E+07        -0.50282E+08         0.00000E+00
    0.00000E+00         0.00000E+00        -0.34768E+08
 
   -0.34814E+08         0.35876E+07         0.00000E+00
    0.35876E+07        -0.50292E+08         0.00000E+00
    0.00000E+00         0.00000E+00        -0.34768E+08
 
   -0.34820E+08         0.36876E+07         0.00000E+00
    0.36876E+07        -0.50302E+08         0.00000E+00
    0.00000E+00         0.00000E+00        -0.34768E+08
 
   -0.34823E+08         0.37886E+07         0.00000E+00
    0.37886E+07        -0.50311E+08         0.00000E+00
    0.00000E+00         0.00000E+00        -0.34768E+08
 
   -0.34825E+08         0.38908E+07         0.00000E+00
    0.38908E+07        -0.50321E+08         0.00000E+00
    0.00000E+00         0.00000E+00        -0.34768E+08
 
   -0.34825E+08         0.39942E+07         0.00000E+00
    0.39942E+07        -0.50330E+08         0.00000E+00
    0.00000E+00         0.00000E+00        -0.34768E+08
 
   -0.34822E+08         0.40989E+07         0.00000E+00
    0.40989E+07        -0.50339E+08         0.00000E+00
    0.00000E+00         0.00000E+00        -0.34768E+08
 
   -0.34817E+08         0.42050E+07         0.00000E+00
    0.42050E+07        -0.50348E+08         0.00000E+00
    0.00000E+00         0.00000E+00        -0.34768E+08
 
   -0.34810E+08         0.43125E+07         0.00000E+00
    0.43125E+07        -0.50357E+08         0.00000E+00
    0.00000E+00         0.00000E+00        -0.34768E+08
 
   -0.34800E+08         0.44220E+07         0.00000E+00
    0.44220E+07        -0.50366E+08         0.00000E+00
    0.00000E+00         0.00000E+00        -0.34768E+08
 
   -0.34788E+08         0.45339E+07         0.00000E+00
    0.45339E+07        -0.50375E+08         0.00000E+00
    0.00000E+00         0.00000E+00        -0.34768E+08
 
   -0.34775E+08         0.46497E+07         0.00000E+00
    0.46497E+07        -0.50385E+08         0.00000E+00
    0.00000E+00         0.00000E+00        -0.34767E+08
 
   -0.32926E+08         0.47884E+05         0.00000E+00
    0.47884E+05        -0.50000E+08         0.00000E+00
    0.00000E+00         0.00000E+00        -0.34175E+08
 
   -0.32999E+08         0.13985E+06         0.00000E+00
    0.13985E+06        -0.50001E+08         0.00000E+00
    0.00000E+00         0.00000E+00        -0.34175E+08
 
   -0.33070E+08         0.23060E+06         0.00000E+00
    0.23060E+06        -0.50002E+08         0.00000E+00
    0.00000E+00         0.00000E+00        -0.34175E+08
 
   -0.33139E+08         0.32026E+06         0.00000E+00
    0.32026E+06        -0.50005E+08         0.00000E+00
    0.00000E+00         0.00000E+00        -0.34175E+08
 
   -0.33205E+08         0.40895E+06         0.00000E+00
    0.40895E+06        -0.50008E+08         0.00000E+00
    0.00000E+00         0.00000E+00        -0.34175E+08
 
   -0.33270E+08         0.49677E+06         0.00000E+00
    0.49677E+06        -0.50012E+08         0.00000E+00
    0.00000E+00         0.00000E+00        -0.34175E+08
 
   -0.33332E+08         0.58385E+06         0.00000E+00
    0.58385E+06        -0.50016E+08         0.00000E+00
    0.00000E+00         0.00000E+00        -0.34175E+08
 
   -0.33392E+08         0.67027E+06         0.00000E+00
    0.67027E+06        -0.50022E+08         0.00000E+00
    0.00000E+00         0.00000E+00        -0.34175E+08
 
   -0.33450E+08         0.75614E+06         0.00000E+00
    0.75614E+06        -0.50028E+08         0.00000E+00
    0.00000E+00         0.00000E+00        -0.34174E+08
 
   -0.33506E+08         0.84155E+06         0.00000E+00
    0.84155E+06        -0.50034E+08         0.00000E+00
    0.00000E+00         0.00000E+00        -0.34174E+08
 
   -0.33559E+08         0.92659E+06         0.00000E+00
    0.92659E+06        -0.50042E+08         0.00000E+00
    0.00000E+00         0.00000E+00        -0.34174E+08
 
   -0.33611E+08         0.10114E+07         0.00000E+00
    0.10114E+07        -0.50050E+08         0.00000E+00
    0.00000E+00         0.00000E+00        -0.34174E+08
 
   -0.33661E+08         0.10959E+07         0.00000E+00
    0.10959E+07        -0.50059E+08         0.00000E+00
    0.00000E+00         0.00000E+00        -0.34174E+08
 
   -0.33708E+08         0.11804E+07         0.00000E+00
    0.11804E+07        -0.50068E+08         0.00000E+00
    0.00000E+00         0.00000E+00        -0.34174E+08
 
   -0.33754E+08         0.12648E+07         0.00000E+00
    0.12648E+07        -0.50078E+08         0.00000E+00
    0.00000E+00         0.00000E+00        -0.34174E+08
 
   -0.33797E+08         0.13492E+07         0.00000E+00
    0.13492E+07        -0.50089E+08         0.00000E+00
    0.00000E+00         0.00000E+00        -0.34174E+08
 
   -0.33839E+08         0.14337E+07         0.00000E+00
    0.14337E+07        -0.50100E+08         0.00000E+00
    0.00000E+00         0.00000E+00        -0.34173E+08
 
   -0.33878E+08         0.15184E+07         0.00000E+00
    0.15184E+07        -0.50112E+08         0.00000E+00
    0.00000E+00         0.00000E+00        -0.34173E+08
 
   -0.33916E+08         0.16034E+07         0.00000E+00
    0.16034E+07        -0.50125E+08         0.00000E+00
    0.00000E+00         0.00000E+00        -0.34173E+08
 
   -0.33952E+08         0.16886E+07         0.00000E+00
    0.16886E+07        -0.50137E+08         0.00000E+00
    0.00000E+00         0.00000E+00        -0.34173E+08
 
   -0.33986E+08         0.17741E+07         0.00000E+00
    0.17741E+07        -0.50151E+08         0.00000E+00
    0.00000E+00         0.00000E+00        -0.34173E+08
 
   -0.34018E+08         0.18600E+07         0.00000E+00
    0.18600E+07        -0.50165E+08         0.00000E+00
    0.00000E+00         0.00000E+00        -0.34173E+08
 
   -0.34049E+08         0.19464E+07         0.00000E+00
    0.19464E+07        -0.50179E+08         0.00000E+00
    0.00000E+00         0.00000E+00        -0.34172E+08
 
   -0.34078E+08         0.20333E+07         0.00000E+00
    0.20333E+07        -0.50193E+08         0.00000E+00
    0.00000E+00         0.00000E+00        -0.34172E+08
 
   -0.34105E+08         0.21207E+07         0.00000E+00
    0.21207E+07        -0.50208E+08         0.00000E+00
    0.00000E+00         0.00000E+00        -0.34172E+08
 
   -0.34130E+08         0.22086E+07         0.00000E+00
    0.22086E+07        -0.50224E+08         0.00000E+00
    0.00000E+00         0.00000E+00        -0.34172E+08
 
   -0.34154E+08         0.22972E+07         0.00000E+00
    0.22972E+07        -0.50239E+08         0.00000E+00
    0.00000E+00         0.00000E+00        -0.34172E+08
 
   -0.34176E+08         0.23865E+07         0.00000E+00
    0.23865E+07        -0.50255E+08         0.00000E+00
    0.00000E+00         0.00000E+00        -0.34172E+08
 
   -0.34197E+08         0.24764E+07         0.00000E+00
    0.24764E+07        -0.50271E+08         0.00000E+00
    0.00000E+00         0.00000E+00        -0.34172E+08
 
   -0.34216E+08         0.25670E+07         0.00000E+00
    0.25670E+07        -0.50288E+08         0.00000E+00
    0.00000E+00         0.00000E+00        -0.34172E+08
 
   -0.34233E+08         0.26584E+07         0.00000E+00
    0.26584E+07        -0.50304E+08         0.00000E+00
    0.00000E+00         0.00000E+00        -0.34172E+08
 
   -0.34249E+08         0.27506E+07         0.00000E+00
    0.27506E+07        -0.50321E+08         0.00000E+00
    0.00000E+00         0.00000E+00        -0.34172E+08
 
   -0.34263E+08         0.28436E+07         0.00000E+00
    0.28436E+07        -0.50338E+08         0.00000E+00
    0.00000E+00         0.00000E+00        -0.34171E+08
 
   -0.34275E+08         0.29375E+07         0.00000E+00
    0.29375E+07        -0.50356E+08         0.00000E+00
    0.00000E+00         0.00000E+00        -0.34171E+08
 
   -0.34286E+08         0.30322E+07         0.00000E+00
    0.30322E+07        -0.50373E+08         0.00000E+00
    0.00000E+00         0.00000E+00        -0.34171E+08
 
   -0.34295E+08         0.31278E+07         0.00000E+00
    0.31278E+07        -0.50390E+08         0.00000E+00
    0.00000E+00         0.00000E+00        -0.34171E+08
 
   -0.34303E+08         0.32244E+07         0.00000E+00
    0.32244E+07        -0.50408E+08         0.00000E+00
    0.00000E+00         0.00000E+00        -0.34171E+08
 
   -0.34309E+08         0.33220E+07         0.00000E+00
    0.33220E+07        -0.50425E+08         0.00000E+00
    0.00000E+00         0.00000E+00        -0.34171E+08
 
   -0.34313E+08         0.34205E+07         0.00000E+00
    0.34205E+07        -0.50443E+08         0.00000E+00
    0.00000E+00         0.00000E+00        -0.34171E+08
 
   -0.34315E+08         0.35202E+07         0.00000E+00
    0.35202E+07        -0.50461E+08         0.00000E+00
    0.00000E+00         0.00000E+00        -0.34171E+08
 
   -0.34315E+08         0.36209E+07         0.00000E+00
    0.36209E+07        -0.50478E+08         0.00000E+00
    0.00000E+00         0.00000E+00        -0.34171E+08
 
   -0.34314E+08         0.37226E+07         0.00000E+00
    0.37226E+07        -0.50496E+08         0.00000E+00
    0.00000E+00         0.00000E+00        -0.34171E+08
 
   -0.34309E+08         0.38253E+07         0.00000E+00
    0.38253E+07        -0.50513E+08         0.00000E+00
    0.00000E+00         0.00000E+00        -0.34171E+08
 
   -0.34303E+08         0.39291E+07         0.00000E+00
    0.39291E+07        -0.50531E+08         0.00000E+00
    0.00000E+00         0.00000E+00        -0.34171E+08
 
   -0.34293E+08         0.40341E+07         0.00000E+00
    0.40341E+07        -0.50549E+08         0.00000E+00
    0.00000E+00         0.00000E+00        -0.34172E+08
 
   -0.34279E+08         0.41409E+07         0.00000E+00
    0.41409E+07        -0.50567E+08         0.00000E+00
    0.00000E+00         0.00000E+00        -0.34172E+08
 
   -0.34263E+08         0.42504E+07         0.00000E+00
    0.42504E+07        -0.50586E+08         0.00000E+00
    0.00000E+00         0.00000E+00        -0.34172E+08
 
   -0.34242E+08         0.43614E+07         0.00000E+00
    0.43614E+07        -0.50602E+08         0.00000E+00
    0.00000E+00         0.00000E+00        -0.34172E+08
 
   -0.34219E+08         0.44744E+07         0.00000E+00
    0.44744E+07        -0.50614E+08         0.00000E+00
    0.00000E+00         0.00000E+00        -0.34172E+08
 
   -0.34189E+08         0.45863E+07         0.00000E+00
    0.45863E+07        -0.50626E+08         0.00000E+00
    0.00000E+00         0.00000E+00        -0.34172E+08
 
   -0.32474E+08         0.45553E+05         0.00000E+00
    0.45553E+05        -0.50000E+08         0.00000E+00
    0.00000E+00         0.00000E+00        -0.33560E+08
 
   -0.32554E+08         0.13284E+06         0.00000E+00
    0.13284E+06        -0.50001E+08         0.00000E+00
    0.00000E+00         0.00000E+00        -0.33560E+08
 
   -0.32630E+08         0.21895E+06         0.00000E+00
    0.21895E+06        -0.50004E+08         0.00000E+00
    0.00000E+00         0.00000E+00        -0.33560E+08
 
   -0.32704E+08         0.30399E+06         0.00000E+00
    0.30399E+06        -0.50007E+08         0.00000E+00
    0.00000E+00         0.00000E+00        -0.33560E+08
 
   -0.32775E+08         0.38811E+06         0.00000E+00
    0.38811E+06        -0.50011E+08         0.00000E+00
    0.00000E+00         0.00000E+00        -0.33560E+08
 
   -0.32843E+08         0.47143E+06         0.00000E+00
    0.47143E+06        -0.50017E+08         0.00000E+00
    0.00000E+00         0.00000E+00        -0.33560E+08
 
   -0.32909E+08         0.55405E+06         0.00000E+00
    0.55405E+06        -0.50023E+08         0.00000E+00
    0.00000E+00         0.00000E+00        -0.33560E+08
 
   -0.32972E+08         0.63611E+06         0.00000E+00
    0.63611E+06        -0.50031E+08         0.00000E+00
    0.00000E+00         0.00000E+00        -0.33560E+08
 
   -0.33032E+08         0.71770E+06         0.00000E+00
    0.71770E+06        -0.50039E+08         0.00000E+00
    0.00000E+00         0.00000E+00        -0.33560E+08
 
   -0.33090E+08         0.79892E+06         0.00000E+00
    0.79892E+06        -0.50049E+08         0.00000E+00
    0.00000E+00         0.00000E+00        -0.33560E+08
 
   -0.33145E+08         0.87989E+06         0.00000E+00
    0.87989E+06        -0.50059E+08         0.00000E+00
    0.00000E+00         0.00000E+00        -0.33560E+08
 
   -0.33197E+08         0.96069E+06         0.00000E+00
    0.96069E+06        -0.50071E+08         0.00000E+00
    0.00000E+00         0.00000E+00        -0.33560E+08
 
   -0.33247E+08         0.10414E+07         0.00000E+00
    0.10414E+07        -0.50083E+08         0.00000E+00
    0.00000E+00         0.00000E+00        -0.33560E+08
 
   -0.33295E+08         0.11222E+07         0.00000E+00
    0.11222E+07        -0.50096E+08         0.00000E+00
    0.00000E+00         0.00000E+00        -0.33559E+08
 
   -0.33340E+08         0.12030E+07         0.00000E+00
    0.12030E+07        -0.50110E+08         0.00000E+00
    0.00000E+00         0.00000E+00        -0.33559E+08
 
   -0.33383E+08         0.12840E+07         0.00000E+00
    0.12840E+07        -0.50125E+08         0.00000E+00
    0.00000E+00         0.00000E+00        -0.33559E+08
 
   -0.33423E+08         0.13652E+07         0.00000E+00
    0.13652E+07        -0.50140E+08         0.00000E+00
    0.00000E+00         0.00000E+00        -0.33559E+08
 
   -0.33462E+08         0.14467E+07         0.00000E+00
    0.14467E+07        -0.50157E+08         0.00000E+00
    0.00000E+00         0.00000E+00        -0.33559E+08
 
   -0.33498E+08         0.15286E+07         0.00000E+00
    0.15286E+07        -0.50174E+08         0.00000E+00
    0.00000E+00         0.00000E+00        -0.33559E+08
 
   -0.33532E+08         0.16109E+07         0.00000E+00
    0.16109E+07        -0.50191E+08         0.00000E+00
    0.00000E+00         0.00000E+00        -0.33559E+08
 
   -0.33564E+08         0.16937E+07         0.00000E+00
    0.16937E+07        -0.50210E+08         0.00000E+00
    0.00000E+00         0.00000E+00        -0.33559E+08
 
   -0.33594E+08         0.17770E+07         0.00000E+00
    0.17770E+07        -0.50229E+08         0.00000E+00
    0.00000E+00         0.00000E+00        -0.33559E+08
 
   -0.33622E+08         0.18609E+07         0.00000E+00
    0.18609E+07        -0.50248E+08         0.00000E+00
    0.00000E+00         0.00000E+00        -0.33558E+08
 
   -0.33648E+08         0.19454E+07         0.00000E+00
    0.19454E+07        -0.50268E+08         0.00000E+00
    0.00000E+00         0.00000E+00        -0.33558E+08
 
   -0.33672E+08         0.20305E+07         0.00000E+00
    0.20305E+07        -0.50289E+08         0.00000E+00
    0.00000E+00         0.00000E+00        -0.33558E+08
 
   -0.33694E+08         0.21164E+07         0.00000E+00
    0.21164E+07        -0.50310E+08         0.00000E+00
    0.00000E+00         0.00000E+00        -0.33558E+08
 
   -0.33714E+08         0.22030E+07         0.00000E+00
    0.22030E+07        -0.50332E+08         0.00000E+00
    0.00000E+00         0.00000E+00        -0.33558E+08
 
   -0.33733E+08         0.22903E+07         0.00000E+00
    0.22903E+07        -0.50354E+08         0.00000E+00
    0.00000E+00         0.00000E+00        -0.33558E+08
 
   -0.33749E+08         0.23784E+07         0.00000E+00
    0.23784E+07        -0.50377E+08         0.00000E+00
    0.00000E+00         0.00000E+00        -0.33558E+08
 
   -0.33764E+08         0.24673E+07         0.00000E+00
    0.24673E+07        -0.50400E+08         0.00000E+00
    0.00000E+00         0.00000E+00        -0.33558E+08
 
   -0.33778E+08         0.25571E+07         0.00000E+00
    0.25571E+07        -0.50424E+08         0.00000E+00
    0.00000E+00         0.00000E+00        -0.33558E+08
 
   -0.33789E+08         0.26477E+07         0.00000E+00
    0.26477E+07        -0.50448E+08         0.00000E+00
    0.00000E+00         0.00000E+00        -0.33558E+08
 
   -0.33799E+08         0.27392E+07         0.00000E+00
    0.27392E+07        -0.50473E+08         0.00000E+00
    0.00000E+00         0.00000E+00        -0.33558E+08
 
   -0.33807E+08         0.28316E+07         0.00000E+00
    0.28316E+07        -0.50498E+08         0.00000E+00
    0.00000E+00         0.00000E+00        -0.33558E+08
 
   -0.33813E+08         0.29250E+07         0.00000E+00
    0.29250E+07        -0.50523E+08         0.00000E+00
    0.00000E+00         0.00000E+00        -0.33558E+08
 
   -0.33818E+08         0.30193E+07         0.00000E+00
    0.30193E+07        -0.50549E+08         0.00000E+00
    0.00000E+00         0.00000E+00        -0.33558E+08
 
   -0.33821E+08         0.31145E+07         0.00000E+00
    0.31145E+07        -0.50575E+08         0.00000E+00
    0.00000E+00         0.00000E+00        -0.33558E+08
 
   -0.33822E+08         0.32105E+07         0.00000E+00
    0.32105E+07        -0.50602E+08         0.00000E+00
    0.00000E+00         0.00000E+00        -0.33559E+08
 
   -0.33821E+08         0.33076E+07         0.00000E+00
    0.33076E+07        -0.50630E+08         0.00000E+00
    0.00000E+00         0.00000E+00        -0.33559E+08
 
   -0.33818E+08         0.34054E+07         0.00000E+00
    0.34054E+07        -0.50658E+08         0.00000E+00
    0.00000E+00         0.00000E+00        -0.33559E+08
 
   -0.33812E+08         0.35044E+07         0.00000E+00
    0.35044E+07        -0.50687E+08         0.00000E+00
    0.00000E+00         0.00000E+00        -0.33559E+08
 
   -0.33804E+08         0.36051E+07         0.00000E+00
    0.36051E+07        -0.50717E+08         0.00000E+00
    0.00000E+00         0.00000E+00        -0.33559E+08
 
   -0.33795E+08         0.37078E+07         0.00000E+00
    0.37078E+07        -0.50749E+08         0.00000E+00
    0.00000E+00         0.00000E+00        -0.33559E+08
 
   -0.33783E+08         0.38111E+07         0.00000E+00
    0.38111E+07        -0.50777E+08         0.00000E+00
    0.00000E+00         0.00000E+00        -0.33559E+08
 
   -0.33770E+08         0.39158E+07         0.00000E+00
    0.39158E+07        -0.50806E+08         0.00000E+00
    0.00000E+00         0.00000E+00        -0.33560E+08
 
   -0.33755E+08         0.40181E+07         0.00000E+00
    0.40181E+07        -0.50835E+08         0.00000E+00
    0.00000E+00         0.00000E+00        -0.33560E+08
 
   -0.33734E+08         0.41162E+07         0.00000E+00
    0.41162E+07        -0.50868E+08         0.00000E+00
    0.00000E+00         0.00000E+00        -0.33560E+08
 
   -0.33702E+08         0.42161E+07         0.00000E+00
    0.42161E+07        -0.50918E+08         0.00000E+00
    0.00000E+00         0.00000E+00        -0.33560E+08
 
   -0.33659E+08         0.43161E+07         0.00000E+00
    0.43161E+07        -0.50984E+08         0.00000E+00
    0.00000E+00         0.00000E+00        -0.33563E+08
 
   -0.33643E+08         0.44088E+07         0.00000E+00
    0.44088E+07        -0.51044E+08         0.00000E+00
    0.00000E+00         0.00000E+00        -0.33610E+08
 
   -0.32050E+08         0.42203E+05         0.00000E+00
    0.42203E+05        -0.50000E+08         0.00000E+00
    0.00000E+00         0.00000E+00        -0.32930E+08
 
   -0.32135E+08         0.12308E+06         0.00000E+00
    0.12308E+06        -0.50002E+08         0.00000E+00
    0.00000E+00         0.00000E+00        -0.32930E+08
 
   -0.32217E+08         0.20283E+06         0.00000E+00
    0.20283E+06        -0.50005E+08         0.00000E+00
    0.00000E+00         0.00000E+00        -0.32930E+08
 
   -0.32296E+08         0.28162E+06         0.00000E+00
    0.28162E+06        -0.50009E+08         0.00000E+00
    0.00000E+00         0.00000E+00        -0.32930E+08
 
   -0.32371E+08         0.35958E+06         0.00000E+00
    0.35958E+06        -0.50015E+08         0.00000E+00
    0.00000E+00         0.00000E+00        -0.32930E+08
 
   -0.32443E+08         0.43685E+06         0.00000E+00
    0.43685E+06        -0.50022E+08         0.00000E+00
    0.00000E+00         0.00000E+00        -0.32930E+08
 
   -0.32511E+08         0.51355E+06         0.00000E+00
    0.51355E+06        -0.50031E+08         0.00000E+00
    0.00000E+00         0.00000E+00        -0.32930E+08
 
   -0.32576E+08         0.58982E+06         0.00000E+00
    0.58982E+06        -0.50041E+08         0.00000E+00
    0.00000E+00         0.00000E+00        -0.32930E+08
 
   -0.32638E+08         0.66577E+06         0.00000E+00
    0.66577E+06        -0.50052E+08         0.00000E+00
    0.00000E+00         0.00000E+00        -0.32930E+08
 
   -0.32697E+08         0.74151E+06         0.00000E+00
    0.74151E+06        -0.50064E+08         0.00000E+00
    0.00000E+00         0.00000E+00        -0.32930E+08
 
   -0.32753E+08         0.81714E+06         0.00000E+00
    0.81714E+06        -0.50078E+08         0.00000E+00
    0.00000E+00         0.00000E+00        -0.32930E+08
 
   -0.32806E+08         0.89277E+06         0.00000E+00
    0.89277E+06        -0.50093E+08         0.00000E+00
    0.00000E+00         0.00000E+00        -0.32930E+08
 
   -0.32855E+08         0.96850E+06         0.00000E+00
    0.96850E+06        -0.50109E+08         0.00000E+00
    0.00000E+00         0.00000E+00        -0.32930E+08
 
   -0.32902E+08         0.10444E+07         0.00000E+00
    0.10444E+07        -0.50126E+08         0.00000E+00
    0.00000E+00         0.00000E+00        -0.32930E+08
 
   -0.32946E+08         0.11206E+07         0.00000E+00
    0.11206E+07        -0.50144E+08         0.00000E+00
    0.00000E+00         0.00000E+00        -0.32930E+08
 
   -0.32988E+08         0.11971E+07         0.00000E+00
    0.11971E+07        -0.50163E+08         0.00000E+00
    0.00000E+00         0.00000E+00        -0.32929E+08
 
   -0.33027E+08         0.12740E+07         0.00000E+00
    0.12740E+07        -0.50183E+08         0.00000E+00
    0.00000E+00         0.00000E+00        -0.32929E+08
 
   -0.33063E+08         0.13514E+07         0.00000E+00
    0.13514E+07        -0.50204E+08         0.00000E+00
    0.00000E+00         0.00000E+00        -0.32929E+08
 
   -0.33097E+08         0.14293E+07         0.00000E+00
    0.14293E+07        -0.50226E+08         0.00000E+00
    0.00000E+00         0.00000E+00        -0.32929E+08
 
   -0.33128E+08         0.15078E+07         0.00000E+00
    0.15078E+07        -0.50249E+08         0.00000E+00
    0.00000E+00         0.00000E+00        -0.32929E+08
 
   -0.33157E+08         0.15870E+07         0.00000E+00
    0.15870E+07        -0.50272E+08         0.00000E+00
    0.00000E+00         0.00000E+00        -0.32929E+08
 
   -0.33184E+08         0.16668E+07         0.00000E+00
    0.16668E+07        -0.50297E+08         0.00000E+00
    0.00000E+00         0.00000E+00        -0.32929E+08
 
   -0.33209E+08         0.17473E+07         0.00000E+00
    0.17473E+07        -0.50322E+08         0.00000E+00
    0.00000E+00         0.00000E+00        -0.32929E+08
 
   -0.33231E+08         0.18285E+07         0.00000E+00
    0.18285E+07        -0.50348E+08         0.00000E+00
    0.00000E+00         0.00000E+00        -0.32929E+08
 
   -0.33252E+08         0.19106E+07         0.00000E+00
    0.19106E+07        -0.50374E+08         0.00000E+00
    0.00000E+00         0.00000E+00        -0.32929E+08
 
   -0.33270E+08         0.19934E+07         0.00000E+00
    0.19934E+07        -0.50402E+08         0.00000E+00
    0.00000E+00         0.00000E+00        -0.32929E+08
 
   -0.33287E+08         0.20770E+07         0.00000E+00
    0.20770E+07        -0.50430E+08         0.00000E+00
    0.00000E+00         0.00000E+00        -0.32929E+08
 
   -0.33301E+08         0.21614E+07         0.00000E+00
    0.21614E+07        -0.50458E+08         0.00000E+00
    0.00000E+00         0.00000E+00        -0.32929E+08
 
   -0.33314E+08         0.22467E+07         0.00000E+00
    0.22467E+07        -0.50488E+08         0.00000E+00
    0.00000E+00         0.00000E+00        -0.32929E+08
 
   -0.33325E+08         0.23328E+07         0.00000E+00
    0.23328E+07        -0.50518E+08         0.00000E+00
    0.00000E+00         0.00000E+00        -0.32929E+08
 
   -0.33334E+08         0.24198E+07         0.00000E+00
    0.24198E+07        -0.50548E+08         0.00000E+00
    0.00000E+00         0.00000E+00        -0.32929E+08
 
   -0.33341E+08         0.25075E+07         0.00000E+00
    0.25075E+07        -0.50579E+08         0.00000E+00
    0.00000E+00         0.00000E+00        -0.32929E+08
 
   -0.33347E+08         0.25960E+07         0.00000E+00
    0.25960E+07        -0.50611E+08         0.00000E+00
    0.00000E+00         0.00000E+00        -0.32929E+08
 
   -0.33351E+08         0.26852E+07         0.00000E+00
    0.26852E+07        -0.50644E+08         0.00000E+00
    0.00000E+00         0.00000E+00        -0.32929E+08
 
   -0.33353E+08         0.27751E+07         0.00000E+00
    0.27751E+07        -0.50678E+08         0.00000E+00
    0.00000E+00         0.00000E+00        -0.32929E+08
 
   -0.33352E+08         0.28660E+07         0.00000E+00
    0.28660E+07        -0.50712E+08         0.00000E+00
    0.00000E+00         0.00000E+00        -0.32929E+08
 
   -0.33351E+08         0.29581E+07         0.00000E+00
    0.29581E+07        -0.50748E+08         0.00000E+00
    0.00000E+00         0.00000E+00        -0.32930E+08
 
   -0.33347E+08         0.30515E+07         0.00000E+00
    0.30515E+07        -0.50785E+08         0.00000E+00
    0.00000E+00         0.00000E+00        -0.32930E+08
 
   -0.33343E+08         0.31453E+07         0.00000E+00
    0.31453E+07        -0.50820E+08         0.00000E+00
    0.00000E+00         0.00000E+00        -0.32930E+08
 
   -0.33338E+08         0.32402E+07         0.00000E+00
    0.32402E+07        -0.50855E+08         0.00000E+00
    0.00000E+00         0.00000E+00        -0.32930E+08
 
   -0.33333E+08         0.33338E+07         0.00000E+00
    0.33338E+07        -0.50891E+08         0.00000E+00
    0.00000E+00         0.00000E+00        -0.32931E+08
 
   -0.33325E+08         0.34236E+07         0.00000E+00
    0.34236E+07        -0.50928E+08         0.00000E+00
    0.00000E+00         0.00000E+00        -0.32931E+08
 
   -0.33312E+08         0.35106E+07         0.00000E+00
    0.35106E+07        -0.50969E+08         0.00000E+00
    0.00000E+00         0.00000E+00        -0.32931E+08
 
   -0.33291E+08         0.36004E+07         0.00000E+00
    0.36004E+07        -0.51031E+08         0.00000E+00
    0.00000E+00         0.00000E+00        -0.32931E+08
 
   -0.33268E+08         0.36873E+07         0.00000E+00
    0.36873E+07        -0.51098E+08         0.00000E+00
    0.00000E+00         0.00000E+00        -0.32940E+08
 
   -0.33267E+08         0.37699E+07         0.00000E+00
    0.37699E+07        -0.51159E+08         0.00000E+00
    0.00000E+00         0.00000E+00        -0.32982E+08
 
   -0.33259E+08         0.38523E+07         0.00000E+00
    0.38523E+07        -0.51222E+08         0.00000E+00
    0.00000E+00         0.00000E+00        -0.33025E+08
 
   -0.33269E+08         0.39271E+07         0.00000E+00
    0.39271E+07        -0.51276E+08         0.00000E+00
    0.00000E+00         0.00000E+00        -0.33097E+08
 
   -0.33298E+08         0.39905E+07         0.00000E+00
    0.39905E+07        -0.51325E+08         0.00000E+00
    0.00000E+00         0.00000E+00        -0.33194E+08
 
   -0.33338E+08         0.40497E+07         0.00000E+00
    0.40497E+07        -0.51396E+08         0.00000E+00
    0.00000E+00         0.00000E+00        -0.33303E+08
 
   -0.31663E+08         0.37947E+05         0.00000E+00
    0.37947E+05        -0.50000E+08         0.00000E+00
    0.00000E+00         0.00000E+00        -0.32285E+08
 
   -0.31754E+08         0.11041E+06         0.00000E+00
    0.11041E+06        -0.50002E+08         0.00000E+00
    0.00000E+00         0.00000E+00        -0.32285E+08
 
   -0.31841E+08         0.18198E+06         0.00000E+00
    0.18198E+06        -0.50006E+08         0.00000E+00
    0.00000E+00         0.00000E+00        -0.32285E+08
 
   -0.31923E+08         0.25272E+06         0.00000E+00
    0.25272E+06        -0.50012E+08         0.00000E+00
    0.00000E+00         0.00000E+00        -0.32285E+08
 
   -0.32002E+08         0.32280E+06         0.00000E+00
    0.32280E+06        -0.50019E+08         0.00000E+00
    0.00000E+00         0.00000E+00        -0.32285E+08
 
   -0.32076E+08         0.39238E+06         0.00000E+00
    0.39238E+06        -0.50028E+08         0.00000E+00
    0.00000E+00         0.00000E+00        -0.32285E+08
 
   -0.32147E+08         0.46159E+06         0.00000E+00
    0.46159E+06        -0.50039E+08         0.00000E+00
    0.00000E+00         0.00000E+00        -0.32285E+08
 
   -0.32213E+08         0.53055E+06         0.00000E+00
    0.53055E+06        -0.50051E+08         0.00000E+00
    0.00000E+00         0.00000E+00        -0.32285E+08
 
   -0.32276E+08         0.59939E+06         0.00000E+00
    0.59939E+06        -0.50065E+08         0.00000E+00
    0.00000E+00         0.00000E+00        -0.32285E+08
 
   -0.32335E+08         0.66824E+06         0.00000E+00
    0.66824E+06        -0.50081E+08         0.00000E+00
    0.00000E+00         0.00000E+00        -0.32285E+08
 
   -0.32391E+08         0.73723E+06         0.00000E+00
    0.73723E+06        -0.50098E+08         0.00000E+00
    0.00000E+00         0.00000E+00        -0.32285E+08
 
   -0.32442E+08         0.80645E+06         0.00000E+00
    0.80645E+06        -0.50116E+08         0.00000E+00
    0.00000E+00         0.00000E+00        -0.32285E+08
 
   -0.32491E+08         0.87602E+06         0.00000E+00
    0.87602E+06        -0.50136E+08         0.00000E+00
    0.00000E+00         0.00000E+00        -0.32285E+08
 
   -0.32536E+08         0.94603E+06         0.00000E+00
    0.94603E+06        -0.50157E+08         0.00000E+00
    0.00000E+00         0.00000E+00        -0.32285E+08
 
   -0.32578E+08         0.10166E+07         0.00000E+00
    0.10166E+07        -0.50180E+08         0.00000E+00
    0.00000E+00         0.00000E+00        -0.32284E+08
 
   -0.32617E+08         0.10877E+07         0.00000E+00
    0.10877E+07        -0.50203E+08         0.00000E+00
    0.00000E+00         0.00000E+00        -0.32284E+08
 
   -0.32653E+08         0.11594E+07         0.00000E+00
    0.11594E+07        -0.50228E+08         0.00000E+00
    0.00000E+00         0.00000E+00        -0.32284E+08
 
   -0.32687E+08         0.12319E+07         0.00000E+00
    0.12319E+07        -0.50254E+08         0.00000E+00
    0.00000E+00         0.00000E+00        -0.32284E+08
 
   -0.32717E+08         0.13050E+07         0.00000E+00
    0.13050E+07        -0.50280E+08         0.00000E+00
    0.00000E+00         0.00000E+00        -0.32284E+08
 
   -0.32745E+08         0.13790E+07         0.00000E+00
    0.13790E+07        -0.50308E+08         0.00000E+00
    0.00000E+00         0.00000E+00        -0.32284E+08
 
   -0.32770E+08         0.14538E+07         0.00000E+00
    0.14538E+07        -0.50337E+08         0.00000E+00
    0.00000E+00         0.00000E+00        -0.32284E+08
 
   -0.32793E+08         0.15295E+07         0.00000E+00
    0.15295E+07        -0.50367E+08         0.00000E+00
    0.00000E+00         0.00000E+00        -0.32284E+08
 
   -0.32814E+08         0.16061E+07         0.00000E+00
    0.16061E+07        -0.50397E+08         0.00000E+00
    0.00000E+00         0.00000E+00        -0.32284E+08
 
   -0.32833E+08         0.16836E+07         0.00000E+00
    0.16836E+07        -0.50428E+08         0.00000E+00
    0.00000E+00         0.00000E+00        -0.32284E+08
 
   -0.32849E+08         0.17618E+07         0.00000E+00
    0.17618E+07        -0.50460E+08         0.00000E+00
    0.00000E+00         0.00000E+00        -0.32284E+08
 
   -0.32863E+08         0.18409E+07         0.00000E+00
    0.18409E+07        -0.50493E+08         0.00000E+00
    0.00000E+00         0.00000E+00        -0.32284E+08
 
   -0.32876E+08         0.19209E+07         0.00000E+00
    0.19209E+07        -0.50527E+08         0.00000E+00
    0.00000E+00         0.00000E+00        -0.32284E+08
 
   -0.32886E+08         0.20016E+07         0.00000E+00
    0.20016E+07        -0.50561E+08         0.00000E+00
    0.00000E+00         0.00000E+00        -0.32284E+08
 
   -0.32894E+08         0.20831E+07         0.00000E+00
    0.20831E+07        -0.50596E+08         0.00000E+00
    0.00000E+00         0.00000E+00        -0.32284E+08
 
   -0.32901E+08         0.21656E+07         0.00000E+00
    0.21656E+07        -0.50632E+08         0.00000E+00
    0.00000E+00         0.00000E+00        -0.32284E+08
 
   -0.32905E+08         0.22491E+07         0.00000E+00
    0.22491E+07        -0.50669E+08         0.00000E+00
    0.00000E+00         0.00000E+00        -0.32284E+08
 
   -0.32909E+08         0.23339E+07         0.00000E+00
    0.23339E+07        -0.50708E+08         0.00000E+00
    0.00000E+00         0.00000E+00        -0.32284E+08
 
   -0.32910E+08         0.24194E+07         0.00000E+00
    0.24194E+07        -0.50744E+08         0.00000E+00
    0.00000E+00         0.00000E+00        -0.32284E+08
 
   -0.32912E+08         0.25060E+07         0.00000E+00
    0.25060E+07        -0.50781E+08         0.00000E+00
    0.00000E+00         0.00000E+00        -0.32284E+08
 
   -0.32912E+08         0.25930E+07         0.00000E+00
    0.25930E+07        -0.50819E+08         0.00000E+00
    0.00000E+00         0.00000E+00        -0.32285E+08
 
   -0.32913E+08         0.26781E+07         0.00000E+00
    0.26781E+07        -0.50857E+08         0.00000E+00
    0.00000E+00         0.00000E+00        -0.32285E+08
 
   -0.32910E+08         0.27611E+07         0.00000E+00
    0.27611E+07        -0.50896E+08         0.00000E+00
    0.00000E+00         0.00000E+00        -0.32285E+08
 
   -0.32903E+08         0.28427E+07         0.00000E+00
    0.28427E+07        -0.50937E+08         0.00000E+00
    0.00000E+00         0.00000E+00        -0.32285E+08
 
   -0.32891E+08         0.29271E+07         0.00000E+00
    0.29271E+07        -0.50996E+08         0.00000E+00
    0.00000E+00         0.00000E+00        -0.32286E+08
 
   -0.32872E+08         0.30104E+07         0.00000E+00
    0.30104E+07        -0.51059E+08         0.00000E+00
    0.00000E+00         0.00000E+00        -0.32288E+08
 
   -0.32873E+08         0.30916E+07         0.00000E+00
    0.30916E+07        -0.51114E+08         0.00000E+00
    0.00000E+00         0.00000E+00        -0.32321E+08
 
   -0.32870E+08         0.31746E+07         0.00000E+00
    0.31746E+07        -0.51169E+08         0.00000E+00
    0.00000E+00         0.00000E+00        -0.32358E+08
 
   -0.32861E+08         0.32588E+07         0.00000E+00
    0.32588E+07        -0.51224E+08         0.00000E+00
    0.00000E+00         0.00000E+00        -0.32400E+08
 
   -0.32878E+08         0.33367E+07         0.00000E+00
    0.33367E+07        -0.51264E+08         0.00000E+00
    0.00000E+00         0.00000E+00        -0.32480E+08
 
   -0.32899E+08         0.34098E+07         0.00000E+00
    0.34098E+07        -0.51305E+08         0.00000E+00
    0.00000E+00         0.00000E+00        -0.32572E+08
 
   -0.32928E+08         0.34810E+07         0.00000E+00
    0.34810E+07        -0.51361E+08         0.00000E+00
    0.00000E+00         0.00000E+00        -0.32675E+08
 
   -0.32956E+08         0.35447E+07         0.00000E+00
    0.35447E+07        -0.51420E+08         0.00000E+00
    0.00000E+00         0.00000E+00        -0.32777E+08
 
   -0.32989E+08         0.36020E+07         0.00000E+00
    0.36020E+07        -0.51484E+08         0.00000E+00
    0.00000E+00         0.00000E+00        -0.32876E+08
 
   -0.33029E+08         0.36567E+07         0.00000E+00
    0.36567E+07        -0.51550E+08         0.00000E+00
    0.00000E+00         0.00000E+00        -0.32970E+08
 
   -0.33073E+08         0.37101E+07         0.00000E+00
    0.37101E+07        -0.51613E+08         0.00000E+00
    0.00000E+00         0.00000E+00        -0.33055E+08
 
   -0.31323E+08         0.32340E+05         0.00000E+00
    0.32340E+05        -0.50001E+08         0.00000E+00
    0.00000E+00         0.00000E+00        -0.31626E+08
 
   -0.31418E+08         0.94757E+05         0.00000E+00
    0.94757E+05        -0.50003E+08         0.00000E+00
    0.00000E+00         0.00000E+00        -0.31626E+08
 
   -0.31509E+08         0.15618E+06         0.00000E+00
    0.15618E+06        -0.50008E+08         0.00000E+00
    0.00000E+00         0.00000E+00        -0.31626E+08
 
   -0.31595E+08         0.21713E+06         0.00000E+00
    0.21713E+06        -0.50014E+08         0.00000E+00
    0.00000E+00         0.00000E+00        -0.31626E+08
 
   -0.31676E+08         0.27762E+06         0.00000E+00
    0.27762E+06        -0.50023E+08         0.00000E+00
    0.00000E+00         0.00000E+00        -0.31625E+08
 
   -0.31752E+08         0.33771E+06         0.00000E+00
    0.33771E+06        -0.50034E+08         0.00000E+00
    0.00000E+00         0.00000E+00        -0.31625E+08
 
   -0.31824E+08         0.39756E+06         0.00000E+00
    0.39756E+06        -0.50047E+08         0.00000E+00
    0.00000E+00         0.00000E+00        -0.31625E+08
 
   -0.31891E+08         0.45740E+06         0.00000E+00
    0.45740E+06        -0.50062E+08         0.00000E+00
    0.00000E+00         0.00000E+00        -0.31625E+08
 
   -0.31953E+08         0.51742E+06         0.00000E+00
    0.51742E+06        -0.50079E+08         0.00000E+00
    0.00000E+00         0.00000E+00        -0.31625E+08
 
   -0.32011E+08         0.57782E+06         0.00000E+00
    0.57782E+06        -0.50098E+08         0.00000E+00
    0.00000E+00         0.00000E+00        -0.31625E+08
 
   -0.32064E+08         0.63877E+06         0.00000E+00
    0.63877E+06        -0.50119E+08         0.00000E+00
    0.00000E+00         0.00000E+00        -0.31625E+08
 
   -0.32113E+08         0.70040E+06         0.00000E+00
    0.70040E+06        -0.50142E+08         0.00000E+00
    0.00000E+00         0.00000E+00        -0.31625E+08
 
   -0.32159E+08         0.76283E+06         0.00000E+00
    0.76283E+06        -0.50166E+08         0.00000E+00
    0.00000E+00         0.00000E+00        -0.31625E+08
 
   -0.32201E+08         0.82613E+06         0.00000E+00
    0.82613E+06        -0.50191E+08         0.00000E+00
    0.00000E+00         0.00000E+00        -0.31625E+08
 
   -0.32239E+08         0.89038E+06         0.00000E+00
    0.89038E+06        -0.50218E+08         0.00000E+00
    0.00000E+00         0.00000E+00        -0.31625E+08
 
   -0.32274E+08         0.95555E+06         0.00000E+00
    0.95555E+06        -0.50246E+08         0.00000E+00
    0.00000E+00         0.00000E+00        -0.31625E+08
 
   -0.32306E+08         0.10217E+07         0.00000E+00
    0.10217E+07        -0.50275E+08         0.00000E+00
    0.00000E+00         0.00000E+00        -0.31624E+08
 
   -0.32335E+08         0.10889E+07         0.00000E+00
    0.10889E+07        -0.50306E+08         0.00000E+00
    0.00000E+00         0.00000E+00        -0.31624E+08
 
   -0.32362E+08         0.11571E+07         0.00000E+00
    0.11571E+07        -0.50337E+08         0.00000E+00
    0.00000E+00         0.00000E+00        -0.31624E+08
 
   -0.32385E+08         0.12262E+07         0.00000E+00
    0.12262E+07        -0.50369E+08         0.00000E+00
    0.00000E+00         0.00000E+00        -0.31624E+08
 
   -0.32406E+08         0.12963E+07         0.00000E+00
    0.12963E+07        -0.50402E+08         0.00000E+00
    0.00000E+00         0.00000E+00        -0.31624E+08
 
   -0.32424E+08         0.13673E+07         0.00000E+00
    0.13673E+07        -0.50436E+08         0.00000E+00
    0.00000E+00         0.00000E+00        -0.31624E+08
 
   -0.32440E+08         0.14393E+07         0.00000E+00
    0.14393E+07        -0.50472E+08         0.00000E+00
    0.00000E+00         0.00000E+00        -0.31624E+08
 
   -0.32453E+08         0.15125E+07         0.00000E+00
    0.15125E+07        -0.50508E+08         0.00000E+00
    0.00000E+00         0.00000E+00        -0.31624E+08
 
   -0.32464E+08         0.15873E+07         0.00000E+00
    0.15873E+07        -0.50546E+08         0.00000E+00
    0.00000E+00         0.00000E+00        -0.31624E+08
 
   -0.32474E+08         0.16632E+07         0.00000E+00
    0.16632E+07        -0.50583E+08         0.00000E+00
    0.00000E+00         0.00000E+00        -0.31624E+08
 
   -0.32481E+08         0.17404E+07         0.00000E+00
    0.17404E+07        -0.50620E+08         0.00000E+00
    0.00000E+00         0.00000E+00        -0.31624E+08
 
   -0.32489E+08         0.18189E+07         0.00000E+00
    0.18189E+07        -0.50658E+08         0.00000E+00
    0.00000E+00         0.00000E+00        -0.31624E+08
 
   -0.32495E+08         0.18970E+07         0.00000E+00
    0.18970E+07        -0.50696E+08         0.00000E+00
    0.00000E+00         0.00000E+00        -0.31624E+08
 
   -0.32500E+08         0.19742E+07         0.00000E+00
    0.19742E+07        -0.50735E+08         0.00000E+00
    0.00000E+00         0.00000E+00        -0.31624E+08
 
   -0.32502E+08         0.20508E+07         0.00000E+00
    0.20508E+07        -0.50775E+08         0.00000E+00
    0.00000E+00         0.00000E+00        -0.31624E+08
 
   -0.32500E+08         0.21271E+07         0.00000E+00
    0.21271E+07        -0.50814E+08         0.00000E+00
    0.00000E+00         0.00000E+00        -0.31624E+08
 
   -0.32494E+08         0.22057E+07         0.00000E+00
    0.22057E+07        -0.50866E+08         0.00000E+00
    0.00000E+00         0.00000E+00        -0.31624E+08
 
   -0.32483E+08         0.22847E+07         0.00000E+00
    0.22847E+07        -0.50923E+08         0.00000E+00
    0.00000E+00         0.00000E+00        -0.31624E+08
 
   -0.32479E+08         0.23635E+07         0.00000E+00
    0.23635E+07        -0.50975E+08         0.00000E+00
    0.00000E+00         0.00000E+00        -0.31641E+08
 
   -0.32479E+08         0.24439E+07         0.00000E+00
    0.24439E+07        -0.51025E+08         0.00000E+00
    0.00000E+00         0.00000E+00        -0.31672E+08
 
   -0.32473E+08         0.25273E+07         0.00000E+00
    0.25273E+07        -0.51074E+08         0.00000E+00
    0.00000E+00         0.00000E+00        -0.31704E+08
 
   -0.32461E+08         0.26130E+07         0.00000E+00
    0.26130E+07        -0.51121E+08         0.00000E+00
    0.00000E+00         0.00000E+00        -0.31741E+08
 
   -0.32471E+08         0.26956E+07         0.00000E+00
    0.26956E+07        -0.51154E+08         0.00000E+00
    0.00000E+00         0.00000E+00        -0.31814E+08
 
   -0.32480E+08         0.27756E+07         0.00000E+00
    0.27756E+07        -0.51185E+08         0.00000E+00
    0.00000E+00         0.00000E+00        -0.31896E+08
 
   -0.32496E+08         0.28553E+07         0.00000E+00
    0.28553E+07        -0.51229E+08         0.00000E+00
    0.00000E+00         0.00000E+00        -0.31990E+08
 
   -0.32511E+08         0.29304E+07         0.00000E+00
    0.29304E+07        -0.51276E+08         0.00000E+00
    0.00000E+00         0.00000E+00        -0.32086E+08
 
   -0.32528E+08         0.29995E+07         0.00000E+00
    0.29995E+07        -0.51327E+08         0.00000E+00
    0.00000E+00         0.00000E+00        -0.32182E+08
 
   -0.32551E+08         0.30645E+07         0.00000E+00
    0.30645E+07        -0.51382E+08         0.00000E+00
    0.00000E+00         0.00000E+00        -0.32277E+08
 
   -0.32579E+08         0.31277E+07         0.00000E+00
    0.31277E+07        -0.51439E+08         0.00000E+00
    0.00000E+00         0.00000E+00        -0.32369E+08
 
   -0.32611E+08         0.31892E+07         0.00000E+00
    0.31892E+07        -0.51494E+08         0.00000E+00
    0.00000E+00         0.00000E+00        -0.32455E+08
 
   -0.32649E+08         0.32513E+07         0.00000E+00
    0.32513E+07        -0.51550E+08         0.00000E+00
    0.00000E+00         0.00000E+00        -0.32538E+08
 
   -0.32689E+08         0.33134E+07         0.00000E+00
    0.33134E+07        -0.51605E+08         0.00000E+00
    0.00000E+00         0.00000E+00        -0.32618E+08
 
   -0.32731E+08         0.33755E+07         0.00000E+00
    0.33755E+07        -0.51657E+08         0.00000E+00
    0.00000E+00         0.00000E+00        -0.32693E+08
 
   -0.32776E+08         0.34377E+07         0.00000E+00
    0.34377E+07        -0.51708E+08         0.00000E+00
    0.00000E+00         0.00000E+00        -0.32765E+08
 
   -0.31039E+08         0.25993E+05         0.00000E+00
    0.25993E+05        -0.49998E+08         0.00000E+00
    0.00000E+00         0.00000E+00        -0.30952E+08
 
   -0.31138E+08         0.76139E+05         0.00000E+00
    0.76139E+05        -0.50002E+08         0.00000E+00
    0.00000E+00         0.00000E+00        -0.30952E+08
 
   -0.31233E+08         0.12629E+06         0.00000E+00
    0.12629E+06        -0.50008E+08         0.00000E+00
    0.00000E+00         0.00000E+00        -0.30952E+08
 
   -0.31322E+08         0.17499E+06         0.00000E+00
    0.17499E+06        -0.50015E+08         0.00000E+00
    0.00000E+00         0.00000E+00        -0.30952E+08
 
   -0.31405E+08         0.22273E+06         0.00000E+00
    0.22273E+06        -0.50026E+08         0.00000E+00
    0.00000E+00         0.00000E+00        -0.30951E+08
 
   -0.31482E+08         0.27036E+06         0.00000E+00
    0.27036E+06        -0.50040E+08         0.00000E+00
    0.00000E+00         0.00000E+00        -0.30951E+08
 
   -0.31552E+08         0.31840E+06         0.00000E+00
    0.31840E+06        -0.50057E+08         0.00000E+00
    0.00000E+00         0.00000E+00        -0.30951E+08
 
   -0.31617E+08         0.36718E+06         0.00000E+00
    0.36718E+06        -0.50076E+08         0.00000E+00
    0.00000E+00         0.00000E+00        -0.30951E+08
 
   -0.31676E+08         0.41692E+06         0.00000E+00
    0.41692E+06        -0.50098E+08         0.00000E+00
    0.00000E+00         0.00000E+00        -0.30951E+08
 
   -0.31730E+08         0.46775E+06         0.00000E+00
    0.46775E+06        -0.50121E+08         0.00000E+00
    0.00000E+00         0.00000E+00        -0.30951E+08
 
   -0.31779E+08         0.51977E+06         0.00000E+00
    0.51977E+06        -0.50146E+08         0.00000E+00
    0.00000E+00         0.00000E+00        -0.30951E+08
 
   -0.31823E+08         0.57306E+06         0.00000E+00
    0.57306E+06        -0.50173E+08         0.00000E+00
    0.00000E+00         0.00000E+00        -0.30951E+08
 
   -0.31863E+08         0.62770E+06         0.00000E+00
    0.62770E+06        -0.50201E+08         0.00000E+00
    0.00000E+00         0.00000E+00        -0.30951E+08
 
   -0.31899E+08         0.68379E+06         0.00000E+00
    0.68379E+06        -0.50231E+08         0.00000E+00
    0.00000E+00         0.00000E+00        -0.30950E+08
 
   -0.31931E+08         0.74146E+06         0.00000E+00
    0.74146E+06        -0.50262E+08         0.00000E+00
    0.00000E+00         0.00000E+00        -0.30950E+08
 
   -0.31960E+08         0.80086E+06         0.00000E+00
    0.80086E+06        -0.50295E+08         0.00000E+00
    0.00000E+00         0.00000E+00        -0.30950E+08
 
   -0.31985E+08         0.86186E+06         0.00000E+00
    0.86186E+06        -0.50328E+08         0.00000E+00
    0.00000E+00         0.00000E+00        -0.30950E+08
 
   -0.32008E+08         0.92449E+06         0.00000E+00
    0.92449E+06        -0.50362E+08         0.00000E+00
    0.00000E+00         0.00000E+00        -0.30950E+08
 
   -0.32029E+08         0.98875E+06         0.00000E+00
    0.98875E+06        -0.50398E+08         0.00000E+00
    0.00000E+00         0.00000E+00        -0.30950E+08
 
   -0.32048E+08         0.10539E+07         0.00000E+00
    0.10539E+07        -0.50434E+08         0.00000E+00
    0.00000E+00         0.00000E+00        -0.30950E+08
 
   -0.32065E+08         0.11194E+07         0.00000E+00
    0.11194E+07        -0.50471E+08         0.00000E+00
    0.00000E+00         0.00000E+00        -0.30949E+08
 
   -0.32079E+08         0.11855E+07         0.00000E+00
    0.11855E+07        -0.50508E+08         0.00000E+00
    0.00000E+00         0.00000E+00        -0.30949E+08
 
   -0.32090E+08         0.12523E+07         0.00000E+00
    0.12523E+07        -0.50546E+08         0.00000E+00
    0.00000E+00         0.00000E+00        -0.30949E+08
 
   -0.32097E+08         0.13198E+07         0.00000E+00
    0.13198E+07        -0.50584E+08         0.00000E+00
    0.00000E+00         0.00000E+00        -0.30949E+08
 
   -0.32102E+08         0.13881E+07         0.00000E+00
    0.13881E+07        -0.50622E+08         0.00000E+00
    0.00000E+00         0.00000E+00        -0.30949E+08
 
   -0.32103E+08         0.14582E+07         0.00000E+00
    0.14582E+07        -0.50669E+08         0.00000E+00
    0.00000E+00         0.00000E+00        -0.30949E+08
 
   -0.32100E+08         0.15295E+07         0.00000E+00
    0.15295E+07        -0.50719E+08         0.00000E+00
    0.00000E+00         0.00000E+00        -0.30949E+08
 
   -0.32097E+08         0.16016E+07         0.00000E+00
    0.16016E+07        -0.50767E+08         0.00000E+00
    0.00000E+00         0.00000E+00        -0.30956E+08
 
   -0.32101E+08         0.16756E+07         0.00000E+00
    0.16756E+07        -0.50811E+08         0.00000E+00
    0.00000E+00         0.00000E+00        -0.30979E+08
 
   -0.32099E+08         0.17526E+07         0.00000E+00
    0.17526E+07        -0.50855E+08         0.00000E+00
    0.00000E+00         0.00000E+00        -0.31003E+08
 
   -0.32092E+08         0.18329E+07         0.00000E+00
    0.18329E+07        -0.50898E+08         0.00000E+00
    0.00000E+00         0.00000E+00        -0.31030E+08
 
   -0.32079E+08         0.19163E+07         0.00000E+00
    0.19163E+07        -0.50940E+08         0.00000E+00
    0.00000E+00         0.00000E+00        -0.31058E+08
 
   -0.32080E+08         0.19994E+07         0.00000E+00
    0.19994E+07        -0.50970E+08         0.00000E+00
    0.00000E+00         0.00000E+00        -0.31116E+08
 
   -0.32082E+08         0.20820E+07         0.00000E+00
    0.20820E+07        -0.50996E+08         0.00000E+00
    0.00000E+00         0.00000E+00        -0.31184E+08
 
   -0.32086E+08         0.21645E+07         0.00000E+00
    0.21645E+07        -0.51028E+08         0.00000E+00
    0.00000E+00         0.00000E+00        -0.31262E+08
 
   -0.32090E+08         0.22460E+07         0.00000E+00
    0.22460E+07        -0.51066E+08         0.00000E+00
    0.00000E+00         0.00000E+00        -0.31346E+08
 
   -0.32093E+08         0.23243E+07         0.00000E+00
    0.23243E+07        -0.51106E+08         0.00000E+00
    0.00000E+00         0.00000E+00        -0.31434E+08
 
   -0.32099E+08         0.23982E+07         0.00000E+00
    0.23982E+07        -0.51148E+08         0.00000E+00
    0.00000E+00         0.00000E+00        -0.31522E+08
 
   -0.32110E+08         0.24690E+07         0.00000E+00
    0.24690E+07        -0.51195E+08         0.00000E+00
    0.00000E+00         0.00000E+00        -0.31611E+08
 
   -0.32126E+08         0.25381E+07         0.00000E+00
    0.25381E+07        -0.51245E+08         0.00000E+00
    0.00000E+00         0.00000E+00        -0.31699E+08
 
   -0.32145E+08         0.26052E+07         0.00000E+00
    0.26052E+07        -0.51295E+08         0.00000E+00
    0.00000E+00         0.00000E+00        -0.31785E+08
 
   -0.32168E+08         0.26718E+07         0.00000E+00
    0.26718E+07        -0.51346E+08         0.00000E+00
    0.00000E+00         0.00000E+00        -0.31869E+08
 
   -0.32195E+08         0.27378E+07         0.00000E+00
    0.27378E+07        -0.51398E+08         0.00000E+00
    0.00000E+00         0.00000E+00        -0.31951E+08
 
   -0.32224E+08         0.28033E+07         0.00000E+00
    0.28033E+07        -0.51449E+08         0.00000E+00
    0.00000E+00         0.00000E+00        -0.32029E+08
 
   -0.32256E+08         0.28684E+07         0.00000E+00
    0.28684E+07        -0.51498E+08         0.00000E+00
    0.00000E+00         0.00000E+00        -0.32105E+08
 
   -0.32291E+08         0.29336E+07         0.00000E+00
    0.29336E+07        -0.51548E+08         0.00000E+00
    0.00000E+00         0.00000E+00        -0.32179E+08
 
   -0.32328E+08         0.29983E+07         0.00000E+00
    0.29983E+07        -0.51596E+08         0.00000E+00
    0.00000E+00         0.00000E+00        -0.32250E+08
 
   -0.32368E+08         0.30634E+07         0.00000E+00
    0.30634E+07        -0.51644E+08         0.00000E+00
    0.00000E+00         0.00000E+00        -0.32319E+08
 
   -0.32412E+08         0.31286E+07         0.00000E+00
    0.31286E+07        -0.51692E+08         0.00000E+00
    0.00000E+00         0.00000E+00        -0.32386E+08
 
   -0.32457E+08         0.31937E+07         0.00000E+00
    0.31937E+07        -0.51739E+08         0.00000E+00
    0.00000E+00         0.00000E+00        -0.32450E+08
 
   -0.30831E+08         0.28069E+05         0.00000E+00
    0.28069E+05        -0.49993E+08         0.00000E+00
    0.00000E+00         0.00000E+00        -0.30296E+08
 
   -0.30930E+08         0.55391E+05         0.00000E+00
    0.55391E+05        -0.49998E+08         0.00000E+00
    0.00000E+00         0.00000E+00        -0.30272E+08
 
   -0.31028E+08         0.83357E+05         0.00000E+00
    0.83357E+05        -0.50010E+08         0.00000E+00
    0.00000E+00         0.00000E+00        -0.30264E+08
 
   -0.31120E+08         0.11300E+06         0.00000E+00
    0.11300E+06        -0.50026E+08         0.00000E+00
    0.00000E+00         0.00000E+00        -0.30264E+08
 
   -0.31200E+08         0.14502E+06         0.00000E+00
    0.14502E+06        -0.50044E+08         0.00000E+00
    0.00000E+00         0.00000E+00        -0.30264E+08
 
   -0.31272E+08         0.17935E+06         0.00000E+00
    0.17935E+06        -0.50064E+08         0.00000E+00
    0.00000E+00         0.00000E+00        -0.30264E+08
 
   -0.31337E+08         0.21586E+06         0.00000E+00
    0.21586E+06        -0.50086E+08         0.00000E+00
    0.00000E+00         0.00000E+00        -0.30264E+08
 
   -0.31394E+08         0.25445E+06         0.00000E+00
    0.25445E+06        -0.50110E+08         0.00000E+00
    0.00000E+00         0.00000E+00        -0.30263E+08
 
   -0.31446E+08         0.29501E+06         0.00000E+00
    0.29501E+06        -0.50135E+08         0.00000E+00
    0.00000E+00         0.00000E+00        -0.30263E+08
 
   -0.31493E+08         0.33746E+06         0.00000E+00
    0.33746E+06        -0.50162E+08         0.00000E+00
    0.00000E+00         0.00000E+00        -0.30263E+08
 
   -0.31534E+08         0.38171E+06         0.00000E+00
    0.38171E+06        -0.50190E+08         0.00000E+00
    0.00000E+00         0.00000E+00        -0.30263E+08
 
   -0.31571E+08         0.42770E+06         0.00000E+00
    0.42770E+06        -0.50220E+08         0.00000E+00
    0.00000E+00         0.00000E+00        -0.30263E+08
 
   -0.31603E+08         0.47536E+06         0.00000E+00
    0.47536E+06        -0.50251E+08         0.00000E+00
    0.00000E+00         0.00000E+00        -0.30262E+08
 
   -0.31631E+08         0.52460E+06         0.00000E+00
    0.52460E+06        -0.50282E+08         0.00000E+00
    0.00000E+00         0.00000E+00        -0.30262E+08
 
   -0.31655E+08         0.57539E+06         0.00000E+00
    0.57539E+06        -0.50314E+08         0.00000E+00
    0.00000E+00         0.00000E+00        -0.30262E+08
 
   -0.31676E+08         0.62771E+06         0.00000E+00
    0.62771E+06        -0.50347E+08         0.00000E+00
    0.00000E+00         0.00000E+00        -0.30262E+08
 
   -0.31692E+08         0.68183E+06         0.00000E+00
    0.68183E+06        -0.50386E+08         0.00000E+00
    0.00000E+00         0.00000E+00        -0.30261E+08
 
   -0.31704E+08         0.73749E+06         0.00000E+00
    0.73749E+06        -0.50426E+08         0.00000E+00
    0.00000E+00         0.00000E+00        -0.30261E+08
 
   -0.31715E+08         0.79480E+06         0.00000E+00
    0.79480E+06        -0.50467E+08         0.00000E+00
    0.00000E+00         0.00000E+00        -0.30265E+08
 
   -0.31727E+08         0.85430E+06         0.00000E+00
    0.85430E+06        -0.50505E+08         0.00000E+00
    0.00000E+00         0.00000E+00        -0.30278E+08
 
   -0.31736E+08         0.91666E+06         0.00000E+00
    0.91666E+06        -0.50543E+08         0.00000E+00
    0.00000E+00         0.00000E+00        -0.30293E+08
 
   -0.31740E+08         0.98195E+06         0.00000E+00
    0.98195E+06        -0.50581E+08         0.00000E+00
    0.00000E+00         0.00000E+00        -0.30309E+08
 
   -0.31741E+08         0.10502E+07         0.00000E+00
    0.10502E+07        -0.50618E+08         0.00000E+00
    0.00000E+00         0.00000E+00        -0.30326E+08
 
   -0.31736E+08         0.11215E+07         0.00000E+00
    0.11215E+07        -0.50656E+08         0.00000E+00
    0.00000E+00         0.00000E+00        -0.30345E+08
 
   -0.31727E+08         0.11961E+07         0.00000E+00
    0.11961E+07        -0.50692E+08         0.00000E+00
    0.00000E+00         0.00000E+00        -0.30366E+08
 
   -0.31726E+08         0.12722E+07         0.00000E+00
    0.12722E+07        -0.50720E+08         0.00000E+00
    0.00000E+00         0.00000E+00        -0.30409E+08
 
   -0.31725E+08         0.13495E+07         0.00000E+00
    0.13495E+07        -0.50744E+08         0.00000E+00
    0.00000E+00         0.00000E+00        -0.30462E+08
 
   -0.31722E+08         0.14278E+07         0.00000E+00
    0.14278E+07        -0.50771E+08         0.00000E+00
    0.00000E+00         0.00000E+00        -0.30520E+08
 
   -0.31719E+08         0.15072E+07         0.00000E+00
    0.15072E+07        -0.50803E+08         0.00000E+00
    0.00000E+00         0.00000E+00        -0.30587E+08
 
   -0.31715E+08         0.15861E+07         0.00000E+00
    0.15861E+07        -0.50835E+08         0.00000E+00
    0.00000E+00         0.00000E+00        -0.30658E+08
 
   -0.31710E+08         0.16636E+07         0.00000E+00
    0.16636E+07        -0.50869E+08         0.00000E+00
    0.00000E+00         0.00000E+00        -0.30732E+08
 
   -0.31706E+08         0.17387E+07         0.00000E+00
    0.17387E+07        -0.50905E+08         0.00000E+00
    0.00000E+00         0.00000E+00        -0.30809E+08
 
   -0.31705E+08         0.18119E+07         0.00000E+00
    0.18119E+07        -0.50944E+08         0.00000E+00
    0.00000E+00         0.00000E+00        -0.30888E+08
 
   -0.31708E+08         0.18842E+07         0.00000E+00
    0.18842E+07        -0.50987E+08         0.00000E+00
    0.00000E+00         0.00000E+00        -0.30969E+08
 
   -0.31714E+08         0.19551E+07         0.00000E+00
    0.19551E+07        -0.51032E+08         0.00000E+00
    0.00000E+00         0.00000E+00        -0.31050E+08
 
   -0.31723E+08         0.20250E+07         0.00000E+00
    0.20250E+07        -0.51077E+08         0.00000E+00
    0.00000E+00         0.00000E+00        -0.31131E+08
 
   -0.31735E+08         0.20941E+07         0.00000E+00
    0.20941E+07        -0.51124E+08         0.00000E+00
    0.00000E+00         0.00000E+00        -0.31212E+08
 
   -0.31750E+08         0.21623E+07         0.00000E+00
    0.21623E+07        -0.51172E+08         0.00000E+00
    0.00000E+00         0.00000E+00        -0.31292E+08
 
   -0.31767E+08         0.22296E+07         0.00000E+00
    0.22296E+07        -0.51220E+08         0.00000E+00
    0.00000E+00         0.00000E+00        -0.31370E+08
 
   -0.31786E+08         0.22964E+07         0.00000E+00
    0.22964E+07        -0.51268E+08         0.00000E+00
    0.00000E+00         0.00000E+00        -0.31446E+08
 
   -0.31809E+08         0.23632E+07         0.00000E+00
    0.23632E+07        -0.51315E+08         0.00000E+00
    0.00000E+00         0.00000E+00        -0.31522E+08
 
   -0.31834E+08         0.24298E+07         0.00000E+00
    0.24298E+07        -0.51363E+08         0.00000E+00
    0.00000E+00         0.00000E+00        -0.31595E+08
 
   -0.31862E+08         0.24963E+07         0.00000E+00
    0.24963E+07        -0.51409E+08         0.00000E+00
    0.00000E+00         0.00000E+00        -0.31666E+08
 
   -0.31892E+08         0.25632E+07         0.00000E+00
    0.25632E+07        -0.51456E+08         0.00000E+00
    0.00000E+00         0.00000E+00        -0.31736E+08
 
   -0.31924E+08         0.26302E+07         0.00000E+00
    0.26302E+07        -0.51503E+08         0.00000E+00
    0.00000E+00         0.00000E+00        -0.31804E+08
 
   -0.31959E+08         0.26972E+07         0.00000E+00
    0.26972E+07        -0.51549E+08         0.00000E+00
    0.00000E+00         0.00000E+00        -0.31871E+08
 
   -0.31997E+08         0.27645E+07         0.00000E+00
    0.27645E+07        -0.51595E+08         0.00000E+00
    0.00000E+00         0.00000E+00        -0.31936E+08
 
   -0.32037E+08         0.28309E+07         0.00000E+00
    0.28309E+07        -0.51641E+08         0.00000E+00
    0.00000E+00         0.00000E+00        -0.31999E+08
 
   -0.32080E+08         0.28982E+07         0.00000E+00
    0.28982E+07        -0.51686E+08         0.00000E+00
    0.00000E+00         0.00000E+00        -0.32060E+08
 
   -0.32125E+08         0.29660E+07         0.00000E+00
    0.29660E+07        -0.51731E+08         0.00000E+00
    0.00000E+00         0.00000E+00        -0.32119E+08
 
   -0.30758E+08        -0.15258E+05         0.00000E+00
   -0.15258E+05        -0.49997E+08         0.00000E+00
    0.00000E+00         0.00000E+00        -0.29739E+08
 
   -0.30832E+08        -0.70106E+04         0.00000E+00
   -0.70106E+04        -0.50007E+08         0.00000E+00
    0.00000E+00         0.00000E+00        -0.29686E+08
 
   -0.30913E+08         0.73172E+04         0.00000E+00
    0.73172E+04        -0.50020E+08         0.00000E+00
    0.00000E+00         0.00000E+00        -0.29658E+08
 
   -0.30990E+08         0.25717E+05         0.00000E+00
    0.25717E+05        -0.50036E+08         0.00000E+00
    0.00000E+00         0.00000E+00        -0.29644E+08
 
   -0.31058E+08         0.47041E+05         0.00000E+00
    0.47041E+05        -0.50056E+08         0.00000E+00
    0.00000E+00         0.00000E+00        -0.29633E+08
 
   -0.31118E+08         0.71070E+05         0.00000E+00
    0.71070E+05        -0.50077E+08         0.00000E+00
    0.00000E+00         0.00000E+00        -0.29625E+08
 
   -0.31170E+08         0.97752E+05         0.00000E+00
    0.97752E+05        -0.50101E+08         0.00000E+00
    0.00000E+00         0.00000E+00        -0.29620E+08
 
   -0.31217E+08         0.12711E+06         0.00000E+00
    0.12711E+06        -0.50126E+08         0.00000E+00
    0.00000E+00         0.00000E+00        -0.29618E+08
 
   -0.31257E+08         0.15918E+06         0.00000E+00
    0.15918E+06        -0.50152E+08         0.00000E+00
    0.00000E+00         0.00000E+00        -0.29617E+08
 
   -0.31292E+08         0.19401E+06         0.00000E+00
    0.19401E+06        -0.50180E+08         0.00000E+00
    0.00000E+00         0.00000E+00        -0.29619E+08
 
   -0.31322E+08         0.23168E+06         0.00000E+00
    0.23168E+06        -0.50209E+08         0.00000E+00
    0.00000E+00         0.00000E+00        -0.29622E+08
 
   -0.31347E+08         0.27224E+06         0.00000E+00
    0.27224E+06        -0.50238E+08         0.00000E+00
    0.00000E+00         0.00000E+00        -0.29626E+08
 
   -0.31367E+08         0.31579E+06         0.00000E+00
    0.31579E+06        -0.50268E+08         0.00000E+00
    0.00000E+00         0.00000E+00        -0.29633E+08
 
   -0.31382E+08         0.36242E+06         0.00000E+00
    0.36242E+06        -0.50299E+08         0.00000E+00
    0.00000E+00         0.00000E+00        -0.29641E+08
 
   -0.31393E+08         0.41227E+06         0.00000E+00
    0.41227E+06        -0.50330E+08         0.00000E+00
    0.00000E+00         0.00000E+00        -0.29650E+08
 
   -0.31398E+08         0.46554E+06         0.00000E+00
    0.46554E+06        -0.50361E+08         0.00000E+00
    0.00000E+00         0.00000E+00        -0.29662E+08
 
   -0.31406E+08         0.52170E+06         0.00000E+00
    0.52170E+06        -0.50386E+08         0.00000E+00
    0.00000E+00         0.00000E+00        -0.29687E+08
 
   -0.31411E+08         0.58040E+06         0.00000E+00
    0.58040E+06        -0.50411E+08         0.00000E+00
    0.00000E+00         0.00000E+00        -0.29719E+08
 
   -0.31413E+08         0.64162E+06         0.00000E+00
    0.64162E+06        -0.50436E+08         0.00000E+00
    0.00000E+00         0.00000E+00        -0.29755E+08
 
   -0.31413E+08         0.70524E+06         0.00000E+00
    0.70524E+06        -0.50464E+08         0.00000E+00
    0.00000E+00         0.00000E+00        -0.29797E+08
 
   -0.31410E+08         0.77073E+06         0.00000E+00
    0.77073E+06        -0.50492E+08         0.00000E+00
    0.00000E+00         0.00000E+00        -0.29843E+08
 
   -0.31405E+08         0.83783E+06         0.00000E+00
    0.83783E+06        -0.50520E+08         0.00000E+00
    0.00000E+00         0.00000E+00        -0.29893E+08
 
   -0.31397E+08         0.90623E+06         0.00000E+00
    0.90623E+06        -0.50548E+08         0.00000E+00
    0.00000E+00         0.00000E+00        -0.29947E+08
 
   -0.31388E+08         0.97534E+06         0.00000E+00
    0.97534E+06        -0.50578E+08         0.00000E+00
    0.00000E+00         0.00000E+00        -0.30005E+08
 
   -0.31378E+08         0.10442E+07         0.00000E+00
    0.10442E+07        -0.50609E+08         0.00000E+00
    0.00000E+00         0.00000E+00        -0.30066E+08
 
   -0.31370E+08         0.11130E+07         0.00000E+00
    0.11130E+07        -0.50643E+08         0.00000E+00
    0.00000E+00         0.00000E+00        -0.30130E+08
 
   -0.31364E+08         0.11825E+07         0.00000E+00
    0.11825E+07        -0.50680E+08         0.00000E+00
    0.00000E+00         0.00000E+00        -0.30198E+08
 
   -0.31358E+08         0.12519E+07         0.00000E+00
    0.12519E+07        -0.50718E+08         0.00000E+00
    0.00000E+00         0.00000E+00        -0.30269E+08
 
   -0.31354E+08         0.13212E+07         0.00000E+00
    0.13212E+07        -0.50757E+08         0.00000E+00
    0.00000E+00         0.00000E+00        -0.30340E+08
 
   -0.31352E+08         0.13905E+07         0.00000E+00
    0.13905E+07        -0.50799E+08         0.00000E+00
    0.00000E+00         0.00000E+00        -0.30414E+08
 
   -0.31351E+08         0.14592E+07         0.00000E+00
    0.14592E+07        -0.50842E+08         0.00000E+00
    0.00000E+00         0.00000E+00        -0.30490E+08
 
   -0.31353E+08         0.15272E+07         0.00000E+00
    0.15272E+07        -0.50886E+08         0.00000E+00
    0.00000E+00         0.00000E+00        -0.30566E+08
 
   -0.31357E+08         0.15946E+07         0.00000E+00
    0.15946E+07        -0.50931E+08         0.00000E+00
    0.00000E+00         0.00000E+00        -0.30642E+08
 
   -0.31363E+08         0.16616E+07         0.00000E+00
    0.16616E+07        -0.50976E+08         0.00000E+00
    0.00000E+00         0.00000E+00        -0.30718E+08
 
   -0.31371E+08         0.17286E+07         0.00000E+00
    0.17286E+07        -0.51022E+08         0.00000E+00
    0.00000E+00         0.00000E+00        -0.30793E+08
 
   -0.31382E+08         0.17954E+07         0.00000E+00
    0.17954E+07        -0.51068E+08         0.00000E+00
    0.00000E+00         0.00000E+00        -0.30867E+08
 
   -0.31395E+08         0.18623E+07         0.00000E+00
    0.18623E+07        -0.51113E+08         0.00000E+00
    0.00000E+00         0.00000E+00        -0.30940E+08
 
   -0.31411E+08         0.19293E+07         0.00000E+00
    0.19293E+07        -0.51159E+08         0.00000E+00
    0.00000E+00         0.00000E+00        -0.31013E+08
 
   -0.31429E+08         0.19966E+07         0.00000E+00
    0.19966E+07        -0.51205E+08         0.00000E+00
    0.00000E+00         0.00000E+00        -0.31084E+08
 
   -0.31450E+08         0.20641E+07         0.00000E+00
    0.20641E+07        -0.51251E+08         0.00000E+00
    0.00000E+00         0.00000E+00        -0.31154E+08
 
   -0.31472E+08         0.21316E+07         0.00000E+00
    0.21316E+07        -0.51297E+08         0.00000E+00
    0.00000E+00         0.00000E+00        -0.31223E+08
 
   -0.31497E+08         0.21994E+07         0.00000E+00
    0.21994E+07        -0.51342E+08         0.00000E+00
    0.00000E+00         0.00000E+00        -0.31291E+08
 
   -0.31525E+08         0.22673E+07         0.00000E+00
    0.22673E+07        -0.51388E+08         0.00000E+00
    0.00000E+00         0.00000E+00        -0.31357E+08
 
   -0.31554E+08         0.23348E+07         0.00000E+00
    0.23348E+07        -0.51433E+08         0.00000E+00
    0.00000E+00         0.00000E+00        -0.31421E+08
 
   -0.31586E+08         0.24030E+07         0.00000E+00
    0.24030E+07        -0.51477E+08         0.00000E+00
    0.00000E+00         0.00000E+00        -0.31485E+08
 
   -0.31620E+08         0.24715E+07         0.00000E+00
    0.24715E+07        -0.51522E+08         0.00000E+00
    0.00000E+00         0.00000E+00        -0.31546E+08
 
   -0.31657E+08         0.25400E+07         0.00000E+00
    0.25400E+07        -0.51566E+08         0.00000E+00
    0.00000E+00         0.00000E+00        -0.31607E+08
 
   -0.31696E+08         0.26095E+07         0.00000E+00
    0.26095E+07        -0.51609E+08         0.00000E+00
    0.00000E+00         0.00000E+00        -0.31666E+08
 
   -0.31738E+08         0.26783E+07         0.00000E+00
    0.26783E+07        -0.51653E+08         0.00000E+00
    0.00000E+00         0.00000E+00        -0.31722E+08
 
   -0.31782E+08         0.27466E+07         0.00000E+00
    0.27466E+07        -0.51696E+08         0.00000E+00
    0.00000E+00         0.00000E+00        -0.31778E+08
 
   -0.30813E+08        -0.22536E+05         0.00000E+00
   -0.22536E+05        -0.49997E+08         0.00000E+00
    0.00000E+00         0.00000E+00        -0.29237E+08
 
   -0.30854E+08        -0.39846E+05         0.00000E+00
   -0.39846E+05        -0.49999E+08         0.00000E+00
    0.00000E+00         0.00000E+00        -0.29205E+08
 
   -0.30896E+08        -0.49358E+05         0.00000E+00
   -0.49358E+05        -0.50003E+08         0.00000E+00
    0.00000E+00         0.00000E+00        -0.29176E+08
 
   -0.30937E+08        -0.49917E+05         0.00000E+00
   -0.49917E+05        -0.50012E+08         0.00000E+00
    0.00000E+00         0.00000E+00        -0.29152E+08
 
   -0.30977E+08        -0.42647E+05         0.00000E+00
   -0.42647E+05        -0.50024E+08         0.00000E+00
    0.00000E+00         0.00000E+00        -0.29134E+08
 
   -0.31013E+08        -0.28954E+05         0.00000E+00
   -0.28954E+05        -0.50038E+08         0.00000E+00
    0.00000E+00         0.00000E+00        -0.29121E+08
 
   -0.31045E+08        -0.98333E+04         0.00000E+00
   -0.98333E+04        -0.50055E+08         0.00000E+00
    0.00000E+00         0.00000E+00        -0.29115E+08
 
   -0.31073E+08         0.14017E+05         0.00000E+00
    0.14017E+05        -0.50073E+08         0.00000E+00
    0.00000E+00         0.00000E+00        -0.29114E+08
 
   -0.31096E+08         0.42109E+05         0.00000E+00
    0.42109E+05        -0.50093E+08         0.00000E+00
    0.00000E+00         0.00000E+00        -0.29119E+08
 
   -0.31114E+08         0.74095E+05         0.00000E+00
    0.74095E+05        -0.50114E+08         0.00000E+00
    0.00000E+00         0.00000E+00        -0.29129E+08
 
   -0.31128E+08         0.10971E+06         0.00000E+00
    0.10971E+06        -0.50135E+08         0.00000E+00
    0.00000E+00         0.00000E+00        -0.29144E+08
 
   -0.31138E+08         0.14874E+06         0.00000E+00
    0.14874E+06        -0.50158E+08         0.00000E+00
    0.00000E+00         0.00000E+00        -0.29164E+08
 
   -0.31143E+08         0.19096E+06         0.00000E+00
    0.19096E+06        -0.50181E+08         0.00000E+00
    0.00000E+00         0.00000E+00        -0.29188E+08
 
   -0.31145E+08         0.23613E+06         0.00000E+00
    0.23613E+06        -0.50205E+08         0.00000E+00
    0.00000E+00         0.00000E+00        -0.29216E+08
 
   -0.31143E+08         0.28388E+06         0.00000E+00
    0.28388E+06        -0.50229E+08         0.00000E+00
    0.00000E+00         0.00000E+00        -0.29249E+08
 
   -0.31139E+08         0.33359E+06         0.00000E+00
    0.33359E+06        -0.50255E+08         0.00000E+00
    0.00000E+00         0.00000E+00        -0.29286E+08
 
   -0.31133E+08         0.38532E+06         0.00000E+00
    0.38532E+06        -0.50283E+08         0.00000E+00
    0.00000E+00         0.00000E+00        -0.29328E+08
 
   -0.31126E+08         0.43934E+06         0.00000E+00
    0.43934E+06        -0.50313E+08         0.00000E+00
    0.00000E+00         0.00000E+00        -0.29373E+08
 
   -0.31117E+08         0.49523E+06         0.00000E+00
    0.49523E+06        -0.50343E+08         0.00000E+00
    0.00000E+00         0.00000E+00        -0.29423E+08
 
   -0.31107E+08         0.55296E+06         0.00000E+00
    0.55296E+06        -0.50375E+08         0.00000E+00
    0.00000E+00         0.00000E+00        -0.29475E+08
 
   -0.31097E+08         0.61242E+06         0.00000E+00
    0.61242E+06        -0.50408E+08         0.00000E+00
    0.00000E+00         0.00000E+00        -0.29531E+08
 
   -0.31085E+08         0.67309E+06         0.00000E+00
    0.67309E+06        -0.50443E+08         0.00000E+00
    0.00000E+00         0.00000E+00        -0.29591E+08
 
   -0.31074E+08         0.73451E+06         0.00000E+00
    0.73451E+06        -0.50480E+08         0.00000E+00
    0.00000E+00         0.00000E+00        -0.29654E+08
 
   -0.31063E+08         0.79635E+06         0.00000E+00
    0.79635E+06        -0.50518E+08         0.00000E+00
    0.00000E+00         0.00000E+00        -0.29720E+08
 
   -0.31052E+08         0.85855E+06         0.00000E+00
    0.85855E+06        -0.50557E+08         0.00000E+00
    0.00000E+00         0.00000E+00        -0.29788E+08
 
   -0.31042E+08         0.92102E+06         0.00000E+00
    0.92102E+06        -0.50597E+08         0.00000E+00
    0.00000E+00         0.00000E+00        -0.29857E+08
 
   -0.31034E+08         0.98382E+06         0.00000E+00
    0.98382E+06        -0.50638E+08         0.00000E+00
    0.00000E+00         0.00000E+00        -0.29928E+08
 
   -0.31027E+08         0.10472E+07         0.00000E+00
    0.10472E+07        -0.50680E+08         0.00000E+00
    0.00000E+00         0.00000E+00        -0.29999E+08
 
   -0.31023E+08         0.11110E+07         0.00000E+00
    0.11110E+07        -0.50723E+08         0.00000E+00
    0.00000E+00         0.00000E+00        -0.30071E+08
 
   -0.31020E+08         0.11750E+07         0.00000E+00
    0.11750E+07        -0.50766E+08         0.00000E+00
    0.00000E+00         0.00000E+00        -0.30144E+08
 
   -0.31019E+08         0.12396E+07         0.00000E+00
    0.12396E+07        -0.50810E+08         0.00000E+00
    0.00000E+00         0.00000E+00        -0.30216E+08
 
   -0.31020E+08         0.13047E+07         0.00000E+00
    0.13047E+07        -0.50854E+08         0.00000E+00
    0.00000E+00         0.00000E+00        -0.30288E+08
 
   -0.31024E+08         0.13702E+07         0.00000E+00
    0.13702E+07        -0.50899E+08         0.00000E+00
    0.00000E+00         0.00000E+00        -0.30361E+08
 
   -0.31030E+08         0.14362E+07         0.00000E+00
    0.14362E+07        -0.50944E+08         0.00000E+00
    0.00000E+00         0.00000E+00        -0.30432E+08
 
   -0.31037E+08         0.15025E+07         0.00000E+00
    0.15025E+07        -0.50988E+08         0.00000E+00
    0.00000E+00         0.00000E+00        -0.30504E+08
 
   -0.31047E+08         0.15691E+07         0.00000E+00
    0.15691E+07        -0.51033E+08         0.00000E+00
    0.00000E+00         0.00000E+00        -0.30574E+08
 
   -0.31059E+08         0.16362E+07         0.00000E+00
    0.16362E+07        -0.51078E+08         0.00000E+00
    0.00000E+00         0.00000E+00        -0.30643E+08
 
   -0.31074E+08         0.17037E+07         0.00000E+00
    0.17037E+07        -0.51123E+08         0.00000E+00
    0.00000E+00         0.00000E+00        -0.30712E+08
 
   -0.31091E+08         0.17713E+07         0.00000E+00
    0.17713E+07        -0.51167E+08         0.00000E+00
    0.00000E+00         0.00000E+00        -0.30779E+08
 
   -0.31110E+08         0.18392E+07         0.00000E+00
    0.18392E+07        -0.51212E+08         0.00000E+00
    0.00000E+00         0.00000E+00        -0.30844E+08
 
   -0.31131E+08         0.19079E+07         0.00000E+00
    0.19079E+07        -0.51256E+08         0.00000E+00
    0.00000E+00         0.00000E+00        -0.30909E+08
 
   -0.31155E+08         0.19767E+07         0.00000E+00
    0.19767E+07        -0.51300E+08         0.00000E+00
    0.00000E+00         0.00000E+00        -0.30973E+08
 
   -0.31181E+08         0.20458E+07         0.00000E+00
    0.20458E+07        -0.51343E+08         0.00000E+00
    0.00000E+00         0.00000E+00        -0.31035E+08
 
   -0.31210E+08         0.21155E+07         0.00000E+00
    0.21155E+07        -0.51386E+08         0.00000E+00
    0.00000E+00         0.00000E+00        -0.31096E+08
 
   -0.31241E+08         0.21848E+07         0.00000E+00
    0.21848E+07        -0.51430E+08         0.00000E+00
    0.00000E+00         0.00000E+00        -0.31154E+08
 
   -0.31275E+08         0.22541E+07         0.00000E+00
    0.22541E+07        -0.51473E+08         0.00000E+00
    0.00000E+00         0.00000E+00        -0.31212E+08
 
   -0.31310E+08         0.23243E+07         0.00000E+00
    0.23243E+07        -0.51515E+08         0.00000E+00
    0.00000E+00         0.00000E+00        -0.31268E+08
 
   -0.31348E+08         0.23948E+07         0.00000E+00
    0.23948E+07        -0.51557E+08         0.00000E+00
    0.00000E+00         0.00000E+00        -0.31323E+08
 
   -0.31388E+08         0.24657E+07         0.00000E+00
    0.24657E+07        -0.51599E+08         0.00000E+00
    0.00000E+00         0.00000E+00        -0.31376E+08
 
   -0.31431E+08         0.25372E+07         0.00000E+00
    0.25372E+07        -0.51640E+08         0.00000E+00
    0.00000E+00         0.00000E+00        -0.31428E+08
 
   -0.30931E+08        -0.24096E+05         0.00000E+00
   -0.24096E+05        -0.50000E+08         0.00000E+00
    0.00000E+00         0.00000E+00        -0.28696E+08
 
   -0.30939E+08        -0.47713E+05         0.00000E+00
   -0.47713E+05        -0.50000E+08         0.00000E+00
    0.00000E+00         0.00000E+00        -0.28689E+08
 
   -0.30947E+08        -0.65409E+05         0.00000E+00
   -0.65409E+05        -0.50000E+08         0.00000E+00
    0.00000E+00         0.00000E+00        -0.28684E+08
 
   -0.30955E+08        -0.77081E+05         0.00000E+00
   -0.77081E+05        -0.50002E+08         0.00000E+00
    0.00000E+00         0.00000E+00        -0.28681E+08
 
   -0.30961E+08        -0.82391E+05         0.00000E+00
   -0.82391E+05        -0.50006E+08         0.00000E+00
    0.00000E+00         0.00000E+00        -0.28680E+08
 
   -0.30966E+08        -0.81286E+05         0.00000E+00
   -0.81286E+05        -0.50012E+08         0.00000E+00
    0.00000E+00         0.00000E+00        -0.28683E+08
 
   -0.30970E+08        -0.74042E+05         0.00000E+00
   -0.74042E+05        -0.50021E+08         0.00000E+00
    0.00000E+00         0.00000E+00        -0.28689E+08
 
   -0.30972E+08        -0.61085E+05         0.00000E+00
   -0.61085E+05        -0.50032E+08         0.00000E+00
    0.00000E+00         0.00000E+00        -0.28700E+08
 
   -0.30972E+08        -0.42897E+05         0.00000E+00
   -0.42897E+05        -0.50045E+08         0.00000E+00
    0.00000E+00         0.00000E+00        -0.28715E+08
 
   -0.30969E+08        -0.19967E+05         0.00000E+00
   -0.19967E+05        -0.50061E+08         0.00000E+00
    0.00000E+00         0.00000E+00        -0.28735E+08
 
   -0.30964E+08         0.72340E+04         0.00000E+00
    0.72340E+04        -0.50079E+08         0.00000E+00
    0.00000E+00         0.00000E+00        -0.28760E+08
 
   -0.30956E+08         0.38241E+05         0.00000E+00
    0.38241E+05        -0.50099E+08         0.00000E+00
    0.00000E+00         0.00000E+00        -0.28789E+08
 
   -0.30946E+08         0.72627E+05         0.00000E+00
    0.72627E+05        -0.50121E+08         0.00000E+00
    0.00000E+00         0.00000E+00        -0.28823E+08
 
   -0.30934E+08         0.10998E+06         0.00000E+00
    0.10998E+06        -0.50145E+08         0.00000E+00
    0.00000E+00         0.00000E+00        -0.28862E+08
 
   -0.30920E+08         0.14995E+06         0.00000E+00
    0.14995E+06        -0.50171E+08         0.00000E+00
    0.00000E+00         0.00000E+00        -0.28904E+08
 
   -0.30905E+08         0.19237E+06         0.00000E+00
    0.19237E+06        -0.50199E+08         0.00000E+00
    0.00000E+00         0.00000E+00        -0.28951E+08
 
   -0.30888E+08         0.23706E+06         0.00000E+00
    0.23706E+06        -0.50228E+08         0.00000E+00
    0.00000E+00         0.00000E+00        -0.29001E+08
 
   -0.30871E+08         0.28383E+06         0.00000E+00
    0.28383E+06        -0.50259E+08         0.00000E+00
    0.00000E+00         0.00000E+00        -0.29053E+08
 
   -0.30853E+08         0.33262E+06         0.00000E+00
    0.33262E+06        -0.50291E+08         0.00000E+00
    0.00000E+00         0.00000E+00        -0.29109E+08
 
   -0.30835E+08         0.38317E+06         0.00000E+00
    0.38317E+06        -0.50325E+08         0.00000E+00
    0.00000E+00         0.00000E+00        -0.29168E+08
 
   -0.30817E+08         0.43523E+06         0.00000E+00
    0.43523E+06        -0.50360E+08         0.00000E+00
    0.00000E+00         0.00000E+00        -0.29230E+08
 
   -0.30799E+08         0.48875E+06         0.00000E+00
    0.48875E+06        -0.50397E+08         0.00000E+00
    0.00000E+00         0.00000E+00        -0.29294E+08
 
   -0.30782E+08         0.54363E+06         0.00000E+00
    0.54363E+06        -0.50435E+08         0.00000E+00
    0.00000E+00         0.00000E+00        -0.29360E+08
 
   -0.30767E+08         0.59981E+06         0.00000E+00
    0.59981E+06        -0.50473E+08         0.00000E+00
    0.00000E+00         0.00000E+00        -0.29427E+08
 
   -0.30752E+08         0.65720E+06         0.00000E+00
    0.65720E+06        -0.50513E+08         0.00000E+00
    0.00000E+00         0.00000E+00        -0.29496E+08
 
   -0.30739E+08         0.71571E+06         0.00000E+00
    0.71571E+06        -0.50554E+08         0.00000E+00
    0.00000E+00         0.00000E+00        -0.29566E+08
 
   -0.30727E+08         0.77510E+06         0.00000E+00
    0.77510E+06        -0.50595E+08         0.00000E+00
    0.00000E+00         0.00000E+00        -0.29636E+08
 
   -0.30717E+08         0.83532E+06         0.00000E+00
    0.83532E+06        -0.50637E+08         0.00000E+00
    0.00000E+00         0.00000E+00        -0.29707E+08
 
   -0.30709E+08         0.89653E+06         0.00000E+00
    0.89653E+06        -0.50680E+08         0.00000E+00
    0.00000E+00         0.00000E+00        -0.29779E+08
 
   -0.30703E+08         0.95871E+06         0.00000E+00
    0.95871E+06        -0.50722E+08         0.00000E+00
    0.00000E+00         0.00000E+00        -0.29850E+08
 
   -0.30699E+08         0.10217E+07         0.00000E+00
    0.10217E+07        -0.50765E+08         0.00000E+00
    0.00000E+00         0.00000E+00        -0.29921E+08
 
   -0.30697E+08         0.10856E+07         0.00000E+00
    0.10856E+07        -0.50808E+08         0.00000E+00
    0.00000E+00         0.00000E+00        -0.29992E+08
 
   -0.30697E+08         0.11504E+07         0.00000E+00
    0.11504E+07        -0.50852E+08         0.00000E+00
    0.00000E+00         0.00000E+00        -0.30061E+08
 
   -0.30700E+08         0.12158E+07         0.00000E+00
    0.12158E+07        -0.50895E+08         0.00000E+00
    0.00000E+00         0.00000E+00        -0.30131E+08
 
   -0.30705E+08         0.12819E+07         0.00000E+00
    0.12819E+07        -0.50939E+08         0.00000E+00
    0.00000E+00         0.00000E+00        -0.30199E+08
 
   -0.30712E+08         0.13489E+07         0.00000E+00
    0.13489E+07        -0.50982E+08         0.00000E+00
    0.00000E+00         0.00000E+00        -0.30267E+08
 
   -0.30722E+08         0.14165E+07         0.00000E+00
    0.14165E+07        -0.51025E+08         0.00000E+00
    0.00000E+00         0.00000E+00        -0.30333E+08
 
   -0.30734E+08         0.14847E+07         0.00000E+00
    0.14847E+07        -0.51068E+08         0.00000E+00
    0.00000E+00         0.00000E+00        -0.30398E+08
 
   -0.30748E+08         0.15535E+07         0.00000E+00
    0.15535E+07        -0.51111E+08         0.00000E+00
    0.00000E+00         0.00000E+00        -0.30463E+08
 
   -0.30766E+08         0.16228E+07         0.00000E+00
    0.16228E+07        -0.51154E+08         0.00000E+00
    0.00000E+00         0.00000E+00        -0.30525E+08
 
   -0.30786E+08         0.16921E+07         0.00000E+00
    0.16921E+07        -0.51196E+08         0.00000E+00
    0.00000E+00         0.00000E+00        -0.30586E+08
 
   -0.30808E+08         0.17619E+07         0.00000E+00
    0.17619E+07        -0.51239E+08         0.00000E+00
    0.00000E+00         0.00000E+00        -0.30646E+08
 
   -0.30832E+08         0.18324E+07         0.00000E+00
    0.18324E+07        -0.51281E+08         0.00000E+00
    0.00000E+00         0.00000E+00        -0.30704E+08
 
   -0.30859E+08         0.19033E+07         0.00000E+00
    0.19033E+07        -0.51322E+08         0.00000E+00
    0.00000E+00         0.00000E+00        -0.30761E+08
 
   -0.30888E+08         0.19746E+07         0.00000E+00
    0.19746E+07        -0.51363E+08         0.00000E+00
    0.00000E+00         0.00000E+00        -0.30816E+08
 
   -0.30920E+08         0.20462E+07         0.00000E+00
    0.20462E+07        -0.51404E+08         0.00000E+00
    0.00000E+00         0.00000E+00        -0.30870E+08
 
   -0.30954E+08         0.21180E+07         0.00000E+00
    0.21180E+07        -0.51444E+08         0.00000E+00
    0.00000E+00         0.00000E+00        -0.30923E+08
 
   -0.30991E+08         0.21894E+07         0.00000E+00
    0.21894E+07        -0.51485E+08         0.00000E+00
    0.00000E+00         0.00000E+00        -0.30973E+08
 
   -0.31031E+08         0.22607E+07         0.00000E+00
    0.22607E+07        -0.51526E+08         0.00000E+00
    0.00000E+00         0.00000E+00        -0.31022E+08
 
   -0.31073E+08         0.23323E+07         0.00000E+00
    0.23323E+07        -0.51566E+08         0.00000E+00
    0.00000E+00         0.00000E+00        -0.31070E+08
 
   -0.31074E+08        -0.23318E+05         0.00000E+00
   -0.23318E+05        -0.50000E+08         0.00000E+00
    0.00000E+00         0.00000E+00        -0.28147E+08
 
   -0.31055E+08        -0.51368E+05         0.00000E+00
   -0.51368E+05        -0.50000E+08         0.00000E+00
    0.00000E+00         0.00000E+00        -0.28160E+08
 
   -0.31036E+08        -0.74344E+05         0.00000E+00
   -0.74344E+05        -0.50001E+08         0.00000E+00
    0.00000E+00         0.00000E+00        -0.28176E+08
 
   -0.31015E+08        -0.92294E+05         0.00000E+00
   -0.92294E+05        -0.50003E+08         0.00000E+00
    0.00000E+00         0.00000E+00        -0.28193E+08
 
   -0.30994E+08        -0.10527E+06         0.00000E+00
   -0.10527E+06        -0.50006E+08         0.00000E+00
    0.00000E+00         0.00000E+00        -0.28213E+08
 
   -0.30972E+08        -0.11326E+06         0.00000E+00
   -0.11326E+06        -0.50012E+08         0.00000E+00
    0.00000E+00         0.00000E+00        -0.28235E+08
 
   -0.30949E+08        -0.11624E+06         0.00000E+00
   -0.11624E+06        -0.50018E+08         0.00000E+00
    0.00000E+00         0.00000E+00        -0.28259E+08
 
   -0.30925E+08        -0.11426E+06         0.00000E+00
   -0.11426E+06        -0.50027E+08         0.00000E+00
    0.00000E+00         0.00000E+00        -0.28286E+08
 
   -0.30901E+08        -0.10748E+06         0.00000E+00
   -0.10748E+06        -0.50038E+08         0.00000E+00
    0.00000E+00         0.00000E+00        -0.28316E+08
 
   -0.30876E+08        -0.96084E+05         0.00000E+00
   -0.96084E+05        -0.50050E+08         0.00000E+00
    0.00000E+00         0.00000E+00        -0.28349E+08
 
   -0.30850E+08        -0.80352E+05         0.00000E+00
   -0.80352E+05        -0.50066E+08         0.00000E+00
    0.00000E+00         0.00000E+00        -0.28386E+08
 
   -0.30823E+08        -0.60543E+05         0.00000E+00
   -0.60543E+05        -0.50083E+08         0.00000E+00
    0.00000E+00         0.00000E+00        -0.28425E+08
 
   -0.30796E+08        -0.36932E+05         0.00000E+00
   -0.36932E+05        -0.50103E+08         0.00000E+00
    0.00000E+00         0.00000E+00        -0.28469E+08
 
   -0.30768E+08        -0.97763E+04         0.00000E+00
   -0.97763E+04        -0.50124E+08         0.00000E+00
    0.00000E+00         0.00000E+00        -0.28515E+08
 
   -0.30739E+08         0.20682E+05         0.00000E+00
    0.20682E+05        -0.50148E+08         0.00000E+00
    0.00000E+00         0.00000E+00        -0.28565E+08
 
   -0.30710E+08         0.54181E+05         0.00000E+00
    0.54181E+05        -0.50173E+08         0.00000E+00
    0.00000E+00         0.00000E+00        -0.28617E+08
 
   -0.30681E+08         0.90466E+05         0.00000E+00
    0.90466E+05        -0.50201E+08         0.00000E+00
    0.00000E+00         0.00000E+00        -0.28673E+08
 
   -0.30653E+08         0.12932E+06         0.00000E+00
    0.12932E+06        -0.50230E+08         0.00000E+00
    0.00000E+00         0.00000E+00        -0.28731E+08
 
   -0.30624E+08         0.17054E+06         0.00000E+00
    0.17054E+06        -0.50260E+08         0.00000E+00
    0.00000E+00         0.00000E+00        -0.28791E+08
 
   -0.30596E+08         0.21401E+06         0.00000E+00
    0.21401E+06        -0.50292E+08         0.00000E+00
    0.00000E+00         0.00000E+00        -0.28854E+08
 
   -0.30569E+08         0.25957E+06         0.00000E+00
    0.25957E+06        -0.50326E+08         0.00000E+00
    0.00000E+00         0.00000E+00        -0.28918E+08
 
   -0.30543E+08         0.30713E+06         0.00000E+00
    0.30713E+06        -0.50360E+08         0.00000E+00
    0.00000E+00         0.00000E+00        -0.28984E+08
 
   -0.30519E+08         0.35664E+06         0.00000E+00
    0.35664E+06        -0.50396E+08         0.00000E+00
    0.00000E+00         0.00000E+00        -0.29051E+08
 
   -0.30495E+08         0.40799E+06         0.00000E+00
    0.40799E+06        -0.50433E+08         0.00000E+00
    0.00000E+00         0.00000E+00        -0.29120E+08
 
   -0.30473E+08         0.46105E+06         0.00000E+00
    0.46105E+06        -0.50470E+08         0.00000E+00
    0.00000E+00         0.00000E+00        -0.29189E+08
 
   -0.30453E+08         0.51576E+06         0.00000E+00
    0.51576E+06        -0.50509E+08         0.00000E+00
    0.00000E+00         0.00000E+00        -0.29259E+08
 
   -0.30435E+08         0.57214E+06         0.00000E+00
    0.57214E+06        -0.50548E+08         0.00000E+00
    0.00000E+00         0.00000E+00        -0.29330E+08
 
   -0.30419E+08         0.63003E+06         0.00000E+00
    0.63003E+06        -0.50587E+08         0.00000E+00
    0.00000E+00         0.00000E+00        -0.29400E+08
 
   -0.30405E+08         0.68922E+06         0.00000E+00
    0.68922E+06        -0.50628E+08         0.00000E+00
    0.00000E+00         0.00000E+00        -0.29471E+08
 
   -0.30394E+08         0.74974E+06         0.00000E+00
    0.74974E+06        -0.50668E+08         0.00000E+00
    0.00000E+00         0.00000E+00        -0.29541E+08
 
   -0.30384E+08         0.81163E+06         0.00000E+00
    0.81163E+06        -0.50709E+08         0.00000E+00
    0.00000E+00         0.00000E+00        -0.29611E+08
 
   -0.30377E+08         0.87473E+06         0.00000E+00
    0.87473E+06        -0.50750E+08         0.00000E+00
    0.00000E+00         0.00000E+00        -0.29680E+08
 
   -0.30373E+08         0.93894E+06         0.00000E+00
    0.93894E+06        -0.50791E+08         0.00000E+00
    0.00000E+00         0.00000E+00        -0.29749E+08
 
   -0.30371E+08         0.10043E+07         0.00000E+00
    0.10043E+07        -0.50832E+08         0.00000E+00
    0.00000E+00         0.00000E+00        -0.29817E+08
 
   -0.30371E+08         0.10707E+07         0.00000E+00
    0.10707E+07        -0.50874E+08         0.00000E+00
    0.00000E+00         0.00000E+00        -0.29883E+08
 
   -0.30375E+08         0.11378E+07         0.00000E+00
    0.11378E+07        -0.50915E+08         0.00000E+00
    0.00000E+00         0.00000E+00        -0.29949E+08
 
   -0.30381E+08         0.12057E+07         0.00000E+00
    0.12057E+07        -0.50956E+08         0.00000E+00
    0.00000E+00         0.00000E+00        -0.30013E+08
 
   -0.30390E+08         0.12745E+07         0.00000E+00
    0.12745E+07        -0.50998E+08         0.00000E+00
    0.00000E+00         0.00000E+00        -0.30076E+08
 
   -0.30402E+08         0.13442E+07         0.00000E+00
    0.13442E+07        -0.51038E+08         0.00000E+00
    0.00000E+00         0.00000E+00        -0.30137E+08
 
   -0.30416E+08         0.14145E+07         0.00000E+00
    0.14145E+07        -0.51079E+08         0.00000E+00
    0.00000E+00         0.00000E+00        -0.30197E+08
 
   -0.30433E+08         0.14855E+07         0.00000E+00
    0.14855E+07        -0.51119E+08         0.00000E+00
    0.00000E+00         0.00000E+00        -0.30255E+08
 
   -0.30452E+08         0.15571E+07         0.00000E+00
    0.15571E+07        -0.51160E+08         0.00000E+00
    0.00000E+00         0.00000E+00        -0.30312E+08
 
   -0.30475E+08         0.16289E+07         0.00000E+00
    0.16289E+07        -0.51200E+08         0.00000E+00
    0.00000E+00         0.00000E+00        -0.30367E+08
 
   -0.30501E+08         0.17005E+07         0.00000E+00
    0.17005E+07        -0.51240E+08         0.00000E+00
    0.00000E+00         0.00000E+00        -0.30420E+08
 
   -0.30530E+08         0.17726E+07         0.00000E+00
    0.17726E+07        -0.51280E+08         0.00000E+00
    0.00000E+00         0.00000E+00        -0.30471E+08
 
   -0.30561E+08         0.18449E+07         0.00000E+00
    0.18449E+07        -0.51320E+08         0.00000E+00
    0.00000E+00         0.00000E+00        -0.30521E+08
 
   -0.30594E+08         0.19176E+07         0.00000E+00
    0.19176E+07        -0.51359E+08         0.00000E+00
    0.00000E+00         0.00000E+00        -0.30569E+08
 
   -0.30629E+08         0.19917E+07         0.00000E+00
    0.19917E+07        -0.51397E+08         0.00000E+00
    0.00000E+00         0.00000E+00        -0.30616E+08
 
   -0.30666E+08         0.20665E+07         0.00000E+00
    0.20665E+07        -0.51434E+08         0.00000E+00
    0.00000E+00         0.00000E+00        -0.30661E+08
 
   -0.30706E+08         0.21414E+07         0.00000E+00
    0.21414E+07        -0.51471E+08         0.00000E+00
    0.00000E+00         0.00000E+00        -0.30705E+08
 
   -0.31239E+08        -0.23979E+05         0.00000E+00
   -0.23979E+05        -0.50000E+08         0.00000E+00
    0.00000E+00         0.00000E+00        -0.27597E+08
 
   -0.31197E+08        -0.57315E+05         0.00000E+00
   -0.57315E+05        -0.50000E+08         0.00000E+00
    0.00000E+00         0.00000E+00        -0.27626E+08
 
   -0.31153E+08        -0.86159E+05         0.00000E+00
   -0.86159E+05        -0.50002E+08         0.00000E+00
    0.00000E+00         0.00000E+00        -0.27657E+08
 
   -0.31109E+08        -0.11047E+06         0.00000E+00
   -0.11047E+06        -0.50005E+08         0.00000E+00
    0.00000E+00         0.00000E+00        -0.27691E+08
 
   -0.31064E+08        -0.13026E+06         0.00000E+00
   -0.13026E+06        -0.50010E+08         0.00000E+00
    0.00000E+00         0.00000E+00        -0.27727E+08
 
   -0.31019E+08        -0.14559E+06         0.00000E+00
   -0.14559E+06        -0.50016E+08         0.00000E+00
    0.00000E+00         0.00000E+00        -0.27765E+08
 
   -0.30973E+08        -0.15650E+06         0.00000E+00
   -0.15650E+06        -0.50023E+08         0.00000E+00
    0.00000E+00         0.00000E+00        -0.27805E+08
 
   -0.30927E+08        -0.16306E+06         0.00000E+00
   -0.16306E+06        -0.50032E+08         0.00000E+00
    0.00000E+00         0.00000E+00        -0.27848E+08
 
   -0.30880E+08        -0.16532E+06         0.00000E+00
   -0.16532E+06        -0.50043E+08         0.00000E+00
    0.00000E+00         0.00000E+00        -0.27893E+08
 
   -0.30834E+08        -0.16336E+06         0.00000E+00
   -0.16336E+06        -0.50055E+08         0.00000E+00
    0.00000E+00         0.00000E+00        -0.27939E+08
 
   -0.30787E+08        -0.15725E+06         0.00000E+00
   -0.15725E+06        -0.50068E+08         0.00000E+00
    0.00000E+00         0.00000E+00        -0.27988E+08
 
   -0.30741E+08        -0.14711E+06         0.00000E+00
   -0.14711E+06        -0.50084E+08         0.00000E+00
    0.00000E+00         0.00000E+00        -0.28040E+08
 
   -0.30694E+08        -0.13309E+06         0.00000E+00
   -0.13309E+06        -0.50101E+08         0.00000E+00
    0.00000E+00         0.00000E+00        -0.28093E+08
 
   -0.30649E+08        -0.11534E+06         0.00000E+00
   -0.11534E+06        -0.50120E+08         0.00000E+00
    0.00000E+00         0.00000E+00        -0.28148E+08
 
   -0.30604E+08        -0.94057E+05         0.00000E+00
   -0.94057E+05        -0.50140E+08         0.00000E+00
    0.00000E+00         0.00000E+00        -0.28205E+08
 
   -0.30559E+08        -0.69362E+05         0.00000E+00
   -0.69362E+05        -0.50162E+08         0.00000E+00
    0.00000E+00         0.00000E+00        -0.28265E+08
 
   -0.30515E+08        -0.41414E+05         0.00000E+00
   -0.41414E+05        -0.50186E+08         0.00000E+00
    0.00000E+00         0.00000E+00        -0.28326E+08
 
   -0.30473E+08        -0.10381E+05         0.00000E+00
   -0.10381E+05        -0.50211E+08         0.00000E+00
    0.00000E+00         0.00000E+00        -0.28389E+08
 
   -0.30431E+08         0.23567E+05         0.00000E+00
    0.23567E+05        -0.50238E+08         0.00000E+00
    0.00000E+00         0.00000E+00        -0.28453E+08
 
   -0.30391E+08         0.60278E+05         0.00000E+00
    0.60278E+05        -0.50266E+08         0.00000E+00
    0.00000E+00         0.00000E+00        -0.28519E+08
 
   -0.30352E+08         0.99659E+05         0.00000E+00
    0.99659E+05        -0.50295E+08         0.00000E+00
    0.00000E+00         0.00000E+00        -0.28586E+08
 
   -0.30315E+08         0.14158E+06         0.00000E+00
    0.14158E+06        -0.50325E+08         0.00000E+00
    0.00000E+00         0.00000E+00        -0.28654E+08
 
   -0.30280E+08         0.18584E+06         0.00000E+00
    0.18584E+06        -0.50357E+08         0.00000E+00
    0.00000E+00         0.00000E+00        -0.28723E+08
 
   -0.30246E+08         0.23236E+06         0.00000E+00
    0.23236E+06        -0.50389E+08         0.00000E+00
    0.00000E+00         0.00000E+00        -0.28792E+08
 
   -0.30215E+08         0.28111E+06         0.00000E+00
    0.28111E+06        -0.50423E+08         0.00000E+00
    0.00000E+00         0.00000E+00        -0.28863E+08
 
   -0.30185E+08         0.33201E+06         0.00000E+00
    0.33201E+06        -0.50457E+08         0.00000E+00
    0.00000E+00         0.00000E+00        -0.28933E+08
 
   -0.30158E+08         0.38492E+06         0.00000E+00
    0.38492E+06        -0.50492E+08         0.00000E+00
    0.00000E+00         0.00000E+00        -0.29004E+08
 
   -0.30134E+08         0.43976E+06         0.00000E+00
    0.43976E+06        -0.50528E+08         0.00000E+00
    0.00000E+00         0.00000E+00        -0.29074E+08
 
   -0.30112E+08         0.49653E+06         0.00000E+00
    0.49653E+06        -0.50565E+08         0.00000E+00
    0.00000E+00         0.00000E+00        -0.29145E+08
 
   -0.30092E+08         0.55508E+06         0.00000E+00
    0.55508E+06        -0.50602E+08         0.00000E+00
    0.00000E+00         0.00000E+00        -0.29215E+08
 
   -0.30076E+08         0.61519E+06         0.00000E+00
    0.61519E+06        -0.50639E+08         0.00000E+00
    0.00000E+00         0.00000E+00        -0.29284E+08
 
   -0.30062E+08         0.67678E+06         0.00000E+00
    0.67678E+06        -0.50677E+08         0.00000E+00
    0.00000E+00         0.00000E+00        -0.29353E+08
 
   -0.30051E+08         0.73993E+06         0.00000E+00
    0.73993E+06        -0.50715E+08         0.00000E+00
    0.00000E+00         0.00000E+00        -0.29421E+08
 
   -0.30043E+08         0.80456E+06         0.00000E+00
    0.80456E+06        -0.50754E+08         0.00000E+00
    0.00000E+00         0.00000E+00        -0.29487E+08
 
   -0.30039E+08         0.87054E+06         0.00000E+00
    0.87054E+06        -0.50793E+08         0.00000E+00
    0.00000E+00         0.00000E+00        -0.29553E+08
 
   -0.30037E+08         0.93784E+06         0.00000E+00
    0.93784E+06        -0.50831E+08         0.00000E+00
    0.00000E+00         0.00000E+00        -0.29617E+08
 
   -0.30038E+08         0.10063E+07         0.00000E+00
    0.10063E+07        -0.50870E+08         0.00000E+00
    0.00000E+00         0.00000E+00        -0.29680E+08
 
   -0.30042E+08         0.10757E+07         0.00000E+00
    0.10757E+07        -0.50909E+08         0.00000E+00
    0.00000E+00         0.00000E+00        -0.29741E+08
 
   -0.30050E+08         0.11457E+07         0.00000E+00
    0.11457E+07        -0.50948E+08         0.00000E+00
    0.00000E+00         0.00000E+00        -0.29800E+08
 
   -0.30062E+08         0.12164E+07         0.00000E+00
    0.12164E+07        -0.50987E+08         0.00000E+00
    0.00000E+00         0.00000E+00        -0.29858E+08
 
   -0.30077E+08         0.12877E+07         0.00000E+00
    0.12877E+07        -0.51026E+08         0.00000E+00
    0.00000E+00         0.00000E+00        -0.29913E+08
 
   -0.30094E+08         0.13597E+07         0.00000E+00
    0.13597E+07        -0.51064E+08         0.00000E+00
    0.00000E+00         0.00000E+00        -0.29967E+08
 
   -0.30114E+08         0.14324E+07         0.00000E+00
    0.14324E+07        -0.51103E+08         0.00000E+00
    0.00000E+00         0.00000E+00        -0.30019E+08
 
   -0.30136E+08         0.15068E+07         0.00000E+00
    0.15068E+07        -0.51140E+08         0.00000E+00
    0.00000E+00         0.00000E+00        -0.30069E+08
 
   -0.30161E+08         0.15815E+07         0.00000E+00
    0.15815E+07        -0.51177E+08         0.00000E+00
    0.00000E+00         0.00000E+00        -0.30117E+08
 
   -0.30189E+08         0.16571E+07         0.00000E+00
    0.16571E+07        -0.51213E+08         0.00000E+00
    0.00000E+00         0.00000E+00        -0.30164E+08
 
   -0.30220E+08         0.17324E+07         0.00000E+00
    0.17324E+07        -0.51250E+08         0.00000E+00
    0.00000E+00         0.00000E+00        -0.30209E+08
 
   -0.30255E+08         0.18065E+07         0.00000E+00
    0.18065E+07        -0.51287E+08         0.00000E+00
    0.00000E+00         0.00000E+00        -0.30251E+08
 
   -0.30292E+08         0.18814E+07         0.00000E+00
    0.18814E+07        -0.51324E+08         0.00000E+00
    0.00000E+00         0.00000E+00        -0.30293E+08
 
   -0.30332E+08         0.19570E+07         0.00000E+00
    0.19570E+07        -0.51360E+08         0.00000E+00
    0.00000E+00         0.00000E+00        -0.30333E+08
 
   -0.31433E+08        -0.26710E+05         0.00000E+00
   -0.26710E+05        -0.50000E+08         0.00000E+00
    0.00000E+00         0.00000E+00        -0.27044E+08
 
   -0.31368E+08        -0.66650E+05         0.00000E+00
   -0.66650E+05        -0.50001E+08         0.00000E+00
    0.00000E+00         0.00000E+00        -0.27086E+08
 
   -0.31303E+08        -0.10202E+06         0.00000E+00
   -0.10202E+06        -0.50004E+08         0.00000E+00
    0.00000E+00         0.00000E+00        -0.27130E+08
 
   -0.31236E+08        -0.13291E+06         0.00000E+00
   -0.13291E+06        -0.50008E+08         0.00000E+00
    0.00000E+00         0.00000E+00        -0.27176E+08
 
   -0.31169E+08        -0.15933E+06         0.00000E+00
   -0.15933E+06        -0.50013E+08         0.00000E+00
    0.00000E+00         0.00000E+00        -0.27225E+08
 
   -0.31102E+08        -0.18131E+06         0.00000E+00
   -0.18131E+06        -0.50020E+08         0.00000E+00
    0.00000E+00         0.00000E+00        -0.27277E+08
 
   -0.31034E+08        -0.19891E+06         0.00000E+00
   -0.19891E+06        -0.50027E+08         0.00000E+00
    0.00000E+00         0.00000E+00        -0.27330E+08
 
   -0.30967E+08        -0.21221E+06         0.00000E+00
   -0.21221E+06        -0.50036E+08         0.00000E+00
    0.00000E+00         0.00000E+00        -0.27385E+08
 
   -0.30899E+08        -0.22129E+06         0.00000E+00
   -0.22129E+06        -0.50047E+08         0.00000E+00
    0.00000E+00         0.00000E+00        -0.27442E+08
 
   -0.30832E+08        -0.22623E+06         0.00000E+00
   -0.22623E+06        -0.50058E+08         0.00000E+00
    0.00000E+00         0.00000E+00        -0.27501E+08
 
   -0.30765E+08        -0.22710E+06         0.00000E+00
   -0.22710E+06        -0.50070E+08         0.00000E+00
    0.00000E+00         0.00000E+00        -0.27561E+08
 
   -0.30699E+08        -0.22400E+06         0.00000E+00
   -0.22400E+06        -0.50084E+08         0.00000E+00
    0.00000E+00         0.00000E+00        -0.27623E+08
 
   -0.30634E+08        -0.21706E+06         0.00000E+00
   -0.21706E+06        -0.50099E+08         0.00000E+00
    0.00000E+00         0.00000E+00        -0.27685E+08
 
   -0.30570E+08        -0.20638E+06         0.00000E+00
   -0.20638E+06        -0.50115E+08         0.00000E+00
    0.00000E+00         0.00000E+00        -0.27750E+08
 
   -0.30507E+08        -0.19202E+06         0.00000E+00
   -0.19202E+06        -0.50132E+08         0.00000E+00
    0.00000E+00         0.00000E+00        -0.27815E+08
 
   -0.30446E+08        -0.17417E+06         0.00000E+00
   -0.17417E+06        -0.50151E+08         0.00000E+00
    0.00000E+00         0.00000E+00        -0.27881E+08
 
   -0.30386E+08        -0.15291E+06         0.00000E+00
   -0.15291E+06        -0.50170E+08         0.00000E+00
    0.00000E+00         0.00000E+00        -0.27948E+08
 
   -0.30328E+08        -0.12845E+06         0.00000E+00
   -0.12845E+06        -0.50191E+08         0.00000E+00
    0.00000E+00         0.00000E+00        -0.28016E+08
 
   -0.30271E+08        -0.10084E+06         0.00000E+00
   -0.10084E+06        -0.50213E+08         0.00000E+00
    0.00000E+00         0.00000E+00        -0.28085E+08
 
   -0.30217E+08        -0.70166E+05         0.00000E+00
   -0.70166E+05        -0.50236E+08         0.00000E+00
    0.00000E+00         0.00000E+00        -0.28154E+08
 
   -0.30164E+08        -0.36578E+05         0.00000E+00
   -0.36578E+05        -0.50260E+08         0.00000E+00
    0.00000E+00         0.00000E+00        -0.28224E+08
 
   -0.30114E+08        -0.23428E+03         0.00000E+00
   -0.23428E+03        -0.50285E+08         0.00000E+00
    0.00000E+00         0.00000E+00        -0.28295E+08
 
   -0.30066E+08         0.38841E+05         0.00000E+00
    0.38841E+05        -0.50311E+08         0.00000E+00
    0.00000E+00         0.00000E+00        -0.28366E+08
 
   -0.30020E+08         0.80547E+05         0.00000E+00
    0.80547E+05        -0.50338E+08         0.00000E+00
    0.00000E+00         0.00000E+00        -0.28437E+08
 
   -0.29977E+08         0.12471E+06         0.00000E+00
    0.12471E+06        -0.50366E+08         0.00000E+00
    0.00000E+00         0.00000E+00        -0.28508E+08
 
   -0.29937E+08         0.17125E+06         0.00000E+00
    0.17125E+06        -0.50395E+08         0.00000E+00
    0.00000E+00         0.00000E+00        -0.28579E+08
 
   -0.29899E+08         0.22001E+06         0.00000E+00
    0.22001E+06        -0.50425E+08         0.00000E+00
    0.00000E+00         0.00000E+00        -0.28651E+08
 
   -0.29864E+08         0.27105E+06         0.00000E+00
    0.27105E+06        -0.50456E+08         0.00000E+00
    0.00000E+00         0.00000E+00        -0.28722E+08
 
   -0.29832E+08         0.32428E+06         0.00000E+00
    0.32428E+06        -0.50488E+08         0.00000E+00
    0.00000E+00         0.00000E+00        -0.28792E+08
 
   -0.29804E+08         0.37958E+06         0.00000E+00
    0.37958E+06        -0.50520E+08         0.00000E+00
    0.00000E+00         0.00000E+00        -0.28863E+08
 
   -0.29778E+08         0.43699E+06         0.00000E+00
    0.43699E+06        -0.50553E+08         0.00000E+00
    0.00000E+00         0.00000E+00        -0.28932E+08
 
   -0.29755E+08         0.49642E+06         0.00000E+00
    0.49642E+06        -0.50587E+08         0.00000E+00
    0.00000E+00         0.00000E+00        -0.29001E+08
 
   -0.29736E+08         0.55766E+06         0.00000E+00
    0.55766E+06        -0.50622E+08         0.00000E+00
    0.00000E+00         0.00000E+00        -0.29069E+08
 
   -0.29721E+08         0.62055E+06         0.00000E+00
    0.62055E+06        -0.50656E+08         0.00000E+00
    0.00000E+00         0.00000E+00        -0.29135E+08
 
   -0.29709E+08         0.68495E+06         0.00000E+00
    0.68495E+06        -0.50692E+08         0.00000E+00
    0.00000E+00         0.00000E+00        -0.29200E+08
 
   -0.29701E+08         0.75085E+06         0.00000E+00
    0.75085E+06        -0.50728E+08         0.00000E+00
    0.00000E+00         0.00000E+00        -0.29264E+08
 
   -0.29696E+08         0.81816E+06         0.00000E+00
    0.81816E+06        -0.50764E+08         0.00000E+00
    0.00000E+00         0.00000E+00        -0.29326E+08
 
   -0.29696E+08         0.88688E+06         0.00000E+00
    0.88688E+06        -0.50801E+08         0.00000E+00
    0.00000E+00         0.00000E+00        -0.29386E+08
 
   -0.29698E+08         0.95708E+06         0.00000E+00
    0.95708E+06        -0.50838E+08         0.00000E+00
    0.00000E+00         0.00000E+00        -0.29445E+08
 
   -0.29704E+08         0.10290E+07         0.00000E+00
    0.10290E+07        -0.50874E+08         0.00000E+00
    0.00000E+00         0.00000E+00        -0.29501E+08
 
   -0.29713E+08         0.11021E+07         0.00000E+00
    0.11021E+07        -0.50910E+08         0.00000E+00
    0.00000E+00         0.00000E+00        -0.29556E+08
 
   -0.29726E+08         0.11762E+07         0.00000E+00
    0.11762E+07        -0.50946E+08         0.00000E+00
    0.00000E+00         0.00000E+00        -0.29608E+08
 
   -0.29743E+08         0.12505E+07         0.00000E+00
    0.12505E+07        -0.50982E+08         0.00000E+00
    0.00000E+00         0.00000E+00        -0.29657E+08
 
   -0.29763E+08         0.13244E+07         0.00000E+00
    0.13244E+07        -0.51018E+08         0.00000E+00
    0.00000E+00         0.00000E+00        -0.29705E+08
 
   -0.29787E+08         0.13996E+07         0.00000E+00
    0.13996E+07        -0.51054E+08         0.00000E+00
    0.00000E+00         0.00000E+00        -0.29750E+08
 
   -0.29815E+08         0.14746E+07         0.00000E+00
    0.14746E+07        -0.51090E+08         0.00000E+00
    0.00000E+00         0.00000E+00        -0.29794E+08
 
   -0.29845E+08         0.15496E+07         0.00000E+00
    0.15496E+07        -0.51126E+08         0.00000E+00
    0.00000E+00         0.00000E+00        -0.29835E+08
 
   -0.29878E+08         0.16255E+07         0.00000E+00
    0.16255E+07        -0.51162E+08         0.00000E+00
    0.00000E+00         0.00000E+00        -0.29875E+08
 
   -0.29914E+08         0.17012E+07         0.00000E+00
    0.17012E+07        -0.51197E+08         0.00000E+00
    0.00000E+00         0.00000E+00        -0.29913E+08
 
   -0.29950E+08         0.17773E+07         0.00000E+00
    0.17773E+07        -0.51232E+08         0.00000E+00
    0.00000E+00         0.00000E+00        -0.29951E+08
 
   -0.31664E+08        -0.30606E+05         0.00000E+00
   -0.30606E+05        -0.50000E+08         0.00000E+00
    0.00000E+00         0.00000E+00        -0.26488E+08
 
   -0.31575E+08        -0.77924E+05         0.00000E+00
   -0.77924E+05        -0.50001E+08         0.00000E+00
    0.00000E+00         0.00000E+00        -0.26539E+08
 
   -0.31486E+08        -0.12037E+06         0.00000E+00
   -0.12037E+06        -0.50004E+08         0.00000E+00
    0.00000E+00         0.00000E+00        -0.26594E+08
 
   -0.31396E+08        -0.15776E+06         0.00000E+00
   -0.15776E+06        -0.50009E+08         0.00000E+00
    0.00000E+00         0.00000E+00        -0.26652E+08
 
   -0.31306E+08        -0.19018E+06         0.00000E+00
   -0.19018E+06        -0.50014E+08         0.00000E+00
    0.00000E+00         0.00000E+00        -0.26712E+08
 
   -0.31215E+08        -0.21781E+06         0.00000E+00
   -0.21781E+06        -0.50021E+08         0.00000E+00
    0.00000E+00         0.00000E+00        -0.26774E+08
 
   -0.31125E+08        -0.24078E+06         0.00000E+00
   -0.24078E+06        -0.50028E+08         0.00000E+00
    0.00000E+00         0.00000E+00        -0.26838E+08
 
   -0.31036E+08        -0.25923E+06         0.00000E+00
   -0.25923E+06        -0.50036E+08         0.00000E+00
    0.00000E+00         0.00000E+00        -0.26904E+08
 
   -0.30947E+08        -0.27323E+06         0.00000E+00
   -0.27323E+06        -0.50046E+08         0.00000E+00
    0.00000E+00         0.00000E+00        -0.26971E+08
 
   -0.30859E+08        -0.28295E+06         0.00000E+00
   -0.28295E+06        -0.50056E+08         0.00000E+00
    0.00000E+00         0.00000E+00        -0.27039E+08
 
   -0.30772E+08        -0.28850E+06         0.00000E+00
   -0.28850E+06        -0.50066E+08         0.00000E+00
    0.00000E+00         0.00000E+00        -0.27109E+08
 
   -0.30687E+08        -0.29002E+06         0.00000E+00
   -0.29002E+06        -0.50078E+08         0.00000E+00
    0.00000E+00         0.00000E+00        -0.27179E+08
 
   -0.30602E+08        -0.28768E+06         0.00000E+00
   -0.28768E+06        -0.50090E+08         0.00000E+00
    0.00000E+00         0.00000E+00        -0.27250E+08
 
   -0.30520E+08        -0.28155E+06         0.00000E+00
   -0.28155E+06        -0.50102E+08         0.00000E+00
    0.00000E+00         0.00000E+00        -0.27321E+08
 
   -0.30439E+08        -0.27181E+06         0.00000E+00
   -0.27181E+06        -0.50116E+08         0.00000E+00
    0.00000E+00         0.00000E+00        -0.27393E+08
 
   -0.30361E+08        -0.25861E+06         0.00000E+00
   -0.25861E+06        -0.50130E+08         0.00000E+00
    0.00000E+00         0.00000E+00        -0.27465E+08
 
   -0.30285E+08        -0.24213E+06         0.00000E+00
   -0.24213E+06        -0.50145E+08         0.00000E+00
    0.00000E+00         0.00000E+00        -0.27537E+08
 
   -0.30210E+08        -0.22236E+06         0.00000E+00
   -0.22236E+06        -0.50161E+08         0.00000E+00
    0.00000E+00         0.00000E+00        -0.27609E+08
 
   -0.30138E+08        -0.19951E+06         0.00000E+00
   -0.19951E+06        -0.50177E+08         0.00000E+00
    0.00000E+00         0.00000E+00        -0.27682E+08
 
   -0.30069E+08        -0.17374E+06         0.00000E+00
   -0.17374E+06        -0.50195E+08         0.00000E+00
    0.00000E+00         0.00000E+00        -0.27755E+08
 
   -0.30003E+08        -0.14511E+06         0.00000E+00
   -0.14511E+06        -0.50213E+08         0.00000E+00
    0.00000E+00         0.00000E+00        -0.27827E+08
 
   -0.29939E+08        -0.11374E+06         0.00000E+00
   -0.11374E+06        -0.50232E+08         0.00000E+00
    0.00000E+00         0.00000E+00        -0.27900E+08
 
   -0.29877E+08        -0.79658E+05         0.00000E+00
   -0.79658E+05        -0.50252E+08         0.00000E+00
    0.00000E+00         0.00000E+00        -0.27972E+08
 
   -0.29819E+08        -0.42925E+05         0.00000E+00
   -0.42925E+05        -0.50273E+08         0.00000E+00
    0.00000E+00         0.00000E+00        -0.28045E+08
 
   -0.29763E+08        -0.36162E+04         0.00000E+00
   -0.36162E+04        -0.50295E+08         0.00000E+00
    0.00000E+00         0.00000E+00        -0.28117E+08
 
   -0.29711E+08         0.38108E+05         0.00000E+00
    0.38108E+05        -0.50318E+08         0.00000E+00
    0.00000E+00         0.00000E+00        -0.28189E+08
 
   -0.29661E+08         0.82394E+05         0.00000E+00
    0.82394E+05        -0.50342E+08         0.00000E+00
    0.00000E+00         0.00000E+00        -0.28261E+08
 
   -0.29615E+08         0.12903E+06         0.00000E+00
    0.12903E+06        -0.50367E+08         0.00000E+00
    0.00000E+00         0.00000E+00        -0.28333E+08
 
   -0.29572E+08         0.17787E+06         0.00000E+00
    0.17787E+06        -0.50393E+08         0.00000E+00
    0.00000E+00         0.00000E+00        -0.28404E+08
 
   -0.29532E+08         0.22898E+06         0.00000E+00
    0.22898E+06        -0.50420E+08         0.00000E+00
    0.00000E+00         0.00000E+00        -0.28474E+08
 
   -0.29496E+08         0.28218E+06         0.00000E+00
    0.28218E+06        -0.50448E+08         0.00000E+00
    0.00000E+00         0.00000E+00        -0.28544E+08
 
   -0.29464E+08         0.33742E+06         0.00000E+00
    0.33742E+06        -0.50477E+08         0.00000E+00
    0.00000E+00         0.00000E+00        -0.28613E+08
 
   -0.29435E+08         0.39476E+06         0.00000E+00
    0.39476E+06        -0.50507E+08         0.00000E+00
    0.00000E+00         0.00000E+00        -0.28681E+08
 
   -0.29411E+08         0.45416E+06         0.00000E+00
    0.45416E+06        -0.50537E+08         0.00000E+00
    0.00000E+00         0.00000E+00        -0.28748E+08
 
   -0.29390E+08         0.51572E+06         0.00000E+00
    0.51572E+06        -0.50569E+08         0.00000E+00
    0.00000E+00         0.00000E+00        -0.28813E+08
 
   -0.29372E+08         0.57947E+06         0.00000E+00
    0.57947E+06        -0.50601E+08         0.00000E+00
    0.00000E+00         0.00000E+00        -0.28878E+08
 
   -0.29359E+08         0.64535E+06         0.00000E+00
    0.64535E+06        -0.50634E+08         0.00000E+00
    0.00000E+00         0.00000E+00        -0.28941E+08
 
   -0.29350E+08         0.71314E+06         0.00000E+00
    0.71314E+06        -0.50667E+08         0.00000E+00
    0.00000E+00         0.00000E+00        -0.29002E+08
 
   -0.29345E+08         0.78243E+06         0.00000E+00
    0.78243E+06        -0.50701E+08         0.00000E+00
    0.00000E+00         0.00000E+00        -0.29061E+08
 
   -0.29345E+08         0.85271E+06         0.00000E+00
    0.85271E+06        -0.50735E+08         0.00000E+00
    0.00000E+00         0.00000E+00        -0.29118E+08
 
   -0.29349E+08         0.92457E+06         0.00000E+00
    0.92457E+06        -0.50770E+08         0.00000E+00
    0.00000E+00         0.00000E+00        -0.29173E+08
 
   -0.29358E+08         0.99750E+06         0.00000E+00
    0.99750E+06        -0.50806E+08         0.00000E+00
    0.00000E+00         0.00000E+00        -0.29225E+08
 
   -0.29371E+08         0.10716E+07         0.00000E+00
    0.10716E+07        -0.50842E+08         0.00000E+00
    0.00000E+00         0.00000E+00        -0.29275E+08
 
   -0.29389E+08         0.11469E+07         0.00000E+00
    0.11469E+07        -0.50877E+08         0.00000E+00
    0.00000E+00         0.00000E+00        -0.29322E+08
 
   -0.29411E+08         0.12223E+07         0.00000E+00
    0.12223E+07        -0.50913E+08         0.00000E+00
    0.00000E+00         0.00000E+00        -0.29366E+08
 
   -0.29436E+08         0.12987E+07         0.00000E+00
    0.12987E+07        -0.50948E+08         0.00000E+00
    0.00000E+00         0.00000E+00        -0.29408E+08
 
   -0.29463E+08         0.13769E+07         0.00000E+00
    0.13769E+07        -0.50982E+08         0.00000E+00
    0.00000E+00         0.00000E+00        -0.29447E+08
 
   -0.29492E+08         0.14562E+07         0.00000E+00
    0.14562E+07        -0.51014E+08         0.00000E+00
    0.00000E+00         0.00000E+00        -0.29485E+08
 
   -0.29522E+08         0.15375E+07         0.00000E+00
    0.15375E+07        -0.51045E+08         0.00000E+00
    0.00000E+00         0.00000E+00        -0.29521E+08
 
   -0.29554E+08         0.16201E+07         0.00000E+00
    0.16201E+07        -0.51073E+08         0.00000E+00
    0.00000E+00         0.00000E+00        -0.29554E+08
 
   -0.31933E+08        -0.34977E+05         0.00000E+00
   -0.34977E+05        -0.50000E+08         0.00000E+00
    0.00000E+00         0.00000E+00        -0.25930E+08
 
   -0.31817E+08        -0.90004E+05         0.00000E+00
   -0.90004E+05        -0.50002E+08         0.00000E+00
    0.00000E+00         0.00000E+00        -0.25992E+08
 
   -0.31701E+08        -0.13840E+06         0.00000E+00
   -0.13840E+06        -0.50005E+08         0.00000E+00
    0.00000E+00         0.00000E+00        -0.26056E+08
 
   -0.31584E+08        -0.18115E+06         0.00000E+00
   -0.18115E+06        -0.50008E+08         0.00000E+00
    0.00000E+00         0.00000E+00        -0.26123E+08
 
   -0.31468E+08        -0.21858E+06         0.00000E+00
   -0.21858E+06        -0.50013E+08         0.00000E+00
    0.00000E+00         0.00000E+00        -0.26193E+08
 
   -0.31353E+08        -0.25071E+06         0.00000E+00
   -0.25071E+06        -0.50018E+08         0.00000E+00
    0.00000E+00         0.00000E+00        -0.26264E+08
 
   -0.31239E+08        -0.27763E+06         0.00000E+00
   -0.27763E+06        -0.50025E+08         0.00000E+00
    0.00000E+00         0.00000E+00        -0.26337E+08
 
   -0.31126E+08        -0.29944E+06         0.00000E+00
   -0.29944E+06        -0.50031E+08         0.00000E+00
    0.00000E+00         0.00000E+00        -0.26412E+08
 
   -0.31014E+08        -0.31636E+06         0.00000E+00
   -0.31636E+06        -0.50038E+08         0.00000E+00
    0.00000E+00         0.00000E+00        -0.26487E+08
 
   -0.30905E+08        -0.32864E+06         0.00000E+00
   -0.32864E+06        -0.50046E+08         0.00000E+00
    0.00000E+00         0.00000E+00        -0.26563E+08
 
   -0.30797E+08        -0.33659E+06         0.00000E+00
   -0.33659E+06        -0.50053E+08         0.00000E+00
    0.00000E+00         0.00000E+00        -0.26639E+08
 
   -0.30692E+08        -0.34047E+06         0.00000E+00
   -0.34047E+06        -0.50061E+08         0.00000E+00
    0.00000E+00         0.00000E+00        -0.26715E+08
 
   -0.30588E+08        -0.34047E+06         0.00000E+00
   -0.34047E+06        -0.50069E+08         0.00000E+00
    0.00000E+00         0.00000E+00        -0.26791E+08
 
   -0.30488E+08        -0.33692E+06         0.00000E+00
   -0.33692E+06        -0.50078E+08         0.00000E+00
    0.00000E+00         0.00000E+00        -0.26867E+08
 
   -0.30390E+08        -0.32996E+06         0.00000E+00
   -0.32996E+06        -0.50086E+08         0.00000E+00
    0.00000E+00         0.00000E+00        -0.26943E+08
 
   -0.30295E+08        -0.31978E+06         0.00000E+00
   -0.31978E+06        -0.50096E+08         0.00000E+00
    0.00000E+00         0.00000E+00        -0.27019E+08
 
   -0.30203E+08        -0.30646E+06         0.00000E+00
   -0.30646E+06        -0.50106E+08         0.00000E+00
    0.00000E+00         0.00000E+00        -0.27095E+08
 
   -0.30113E+08        -0.29012E+06         0.00000E+00
   -0.29012E+06        -0.50116E+08         0.00000E+00
    0.00000E+00         0.00000E+00        -0.27170E+08
 
   -0.30027E+08        -0.27087E+06         0.00000E+00
   -0.27087E+06        -0.50127E+08         0.00000E+00
    0.00000E+00         0.00000E+00        -0.27245E+08
 
   -0.29943E+08        -0.24881E+06         0.00000E+00
   -0.24881E+06        -0.50139E+08         0.00000E+00
    0.00000E+00         0.00000E+00        -0.27319E+08
 
   -0.29863E+08        -0.22415E+06         0.00000E+00
   -0.22415E+06        -0.50151E+08         0.00000E+00
    0.00000E+00         0.00000E+00        -0.27394E+08
 
   -0.29786E+08        -0.19677E+06         0.00000E+00
   -0.19677E+06        -0.50164E+08         0.00000E+00
    0.00000E+00         0.00000E+00        -0.27467E+08
 
   -0.29711E+08        -0.16688E+06         0.00000E+00
   -0.16688E+06        -0.50177E+08         0.00000E+00
    0.00000E+00         0.00000E+00        -0.27541E+08
 
   -0.29640E+08        -0.13460E+06         0.00000E+00
   -0.13460E+06        -0.50192E+08         0.00000E+00
    0.00000E+00         0.00000E+00        -0.27613E+08
 
   -0.29573E+08        -0.10001E+06         0.00000E+00
   -0.10001E+06        -0.50207E+08         0.00000E+00
    0.00000E+00         0.00000E+00        -0.27686E+08
 
   -0.29508E+08        -0.62990E+05         0.00000E+00
   -0.62990E+05        -0.50223E+08         0.00000E+00
    0.00000E+00         0.00000E+00        -0.27757E+08
 
   -0.29447E+08        -0.23832E+05         0.00000E+00
   -0.23832E+05        -0.50241E+08         0.00000E+00
    0.00000E+00         0.00000E+00        -0.27829E+08
 
   -0.29389E+08         0.17500E+05         0.00000E+00
    0.17500E+05        -0.50259E+08         0.00000E+00
    0.00000E+00         0.00000E+00        -0.27900E+08
 
   -0.29335E+08         0.61028E+05         0.00000E+00
    0.61028E+05        -0.50278E+08         0.00000E+00
    0.00000E+00         0.00000E+00        -0.27970E+08
 
   -0.29285E+08         0.10669E+06         0.00000E+00
    0.10669E+06        -0.50299E+08         0.00000E+00
    0.00000E+00         0.00000E+00        -0.28040E+08
 
   -0.29238E+08         0.15455E+06         0.00000E+00
    0.15455E+06        -0.50321E+08         0.00000E+00
    0.00000E+00         0.00000E+00        -0.28109E+08
 
   -0.29195E+08         0.20471E+06         0.00000E+00
    0.20471E+06        -0.50343E+08         0.00000E+00
    0.00000E+00         0.00000E+00        -0.28178E+08
 
   -0.29155E+08         0.25709E+06         0.00000E+00
    0.25709E+06        -0.50367E+08         0.00000E+00
    0.00000E+00         0.00000E+00        -0.28246E+08
 
   -0.29120E+08         0.31181E+06         0.00000E+00
    0.31181E+06        -0.50392E+08         0.00000E+00
    0.00000E+00         0.00000E+00        -0.28313E+08
 
   -0.29088E+08         0.36868E+06         0.00000E+00
    0.36868E+06        -0.50419E+08         0.00000E+00
    0.00000E+00         0.00000E+00        -0.28379E+08
 
   -0.29061E+08         0.42756E+06         0.00000E+00
    0.42756E+06        -0.50446E+08         0.00000E+00
    0.00000E+00         0.00000E+00        -0.28445E+08
 
   -0.29037E+08         0.48840E+06         0.00000E+00
    0.48840E+06        -0.50475E+08         0.00000E+00
    0.00000E+00         0.00000E+00        -0.28509E+08
 
   -0.29019E+08         0.55134E+06         0.00000E+00
    0.55134E+06        -0.50505E+08         0.00000E+00
    0.00000E+00         0.00000E+00        -0.28572E+08
 
   -0.29005E+08         0.61642E+06         0.00000E+00
    0.61642E+06        -0.50537E+08         0.00000E+00
    0.00000E+00         0.00000E+00        -0.28633E+08
 
   -0.28996E+08         0.68394E+06         0.00000E+00
    0.68394E+06        -0.50569E+08         0.00000E+00
    0.00000E+00         0.00000E+00        -0.28693E+08
 
   -0.28992E+08         0.75336E+06         0.00000E+00
    0.75336E+06        -0.50602E+08         0.00000E+00
    0.00000E+00         0.00000E+00        -0.28750E+08
 
   -0.28993E+08         0.82503E+06         0.00000E+00
    0.82503E+06        -0.50636E+08         0.00000E+00
    0.00000E+00         0.00000E+00        -0.28805E+08
 
   -0.28998E+08         0.89914E+06         0.00000E+00
    0.89914E+06        -0.50670E+08         0.00000E+00
    0.00000E+00         0.00000E+00        -0.28858E+08
 
   -0.29007E+08         0.97562E+06         0.00000E+00
    0.97562E+06        -0.50704E+08         0.00000E+00
    0.00000E+00         0.00000E+00        -0.28908E+08
 
   -0.29019E+08         0.10550E+07         0.00000E+00
    0.10550E+07        -0.50737E+08         0.00000E+00
    0.00000E+00         0.00000E+00        -0.28957E+08
 
   -0.29034E+08         0.11378E+07         0.00000E+00
    0.11378E+07        -0.50769E+08         0.00000E+00
    0.00000E+00         0.00000E+00        -0.29003E+08
 
   -0.29054E+08         0.12211E+07         0.00000E+00
    0.12211E+07        -0.50801E+08         0.00000E+00
    0.00000E+00         0.00000E+00        -0.29045E+08
 
   -0.29079E+08         0.13048E+07         0.00000E+00
    0.13048E+07        -0.50832E+08         0.00000E+00
    0.00000E+00         0.00000E+00        -0.29084E+08
 
   -0.29109E+08         0.13879E+07         0.00000E+00
    0.13879E+07        -0.50865E+08         0.00000E+00
    0.00000E+00         0.00000E+00        -0.29120E+08
 
   -0.29147E+08         0.14673E+07         0.00000E+00
    0.14673E+07        -0.50899E+08         0.00000E+00
    0.00000E+00         0.00000E+00        -0.29152E+08
 
   -0.32239E+08        -0.40307E+05         0.00000E+00
   -0.40307E+05        -0.50001E+08         0.00000E+00
    0.00000E+00         0.00000E+00        -0.25376E+08
 
   -0.32090E+08        -0.98704E+05         0.00000E+00
   -0.98704E+05        -0.50000E+08         0.00000E+00
    0.00000E+00         0.00000E+00        -0.25446E+08
 
   -0.31942E+08        -0.15274E+06         0.00000E+00
   -0.15274E+06        -0.50003E+08         0.00000E+00
    0.00000E+00         0.00000E+00        -0.25519E+08
 
   -0.31796E+08        -0.20050E+06         0.00000E+00
   -0.20050E+06        -0.50006E+08         0.00000E+00
    0.00000E+00         0.00000E+00        -0.25596E+08
 
   -0.31650E+08        -0.24120E+06         0.00000E+00
   -0.24120E+06        -0.50010E+08         0.00000E+00
    0.00000E+00         0.00000E+00        -0.25675E+08
 
   -0.31506E+08        -0.27510E+06         0.00000E+00
   -0.27510E+06        -0.50013E+08         0.00000E+00
    0.00000E+00         0.00000E+00        -0.25755E+08
 
   -0.31365E+08        -0.30281E+06         0.00000E+00
   -0.30281E+06        -0.50016E+08         0.00000E+00
    0.00000E+00         0.00000E+00        -0.25835E+08
 
   -0.31226E+08        -0.32500E+06         0.00000E+00
   -0.32500E+06        -0.50019E+08         0.00000E+00
    0.00000E+00         0.00000E+00        -0.25915E+08
 
   -0.31091E+08        -0.34233E+06         0.00000E+00
   -0.34233E+06        -0.50022E+08         0.00000E+00
    0.00000E+00         0.00000E+00        -0.25995E+08
 
   -0.30959E+08        -0.35530E+06         0.00000E+00
   -0.35530E+06        -0.50024E+08         0.00000E+00
    0.00000E+00         0.00000E+00        -0.26075E+08
 
   -0.30830E+08        -0.36418E+06         0.00000E+00
   -0.36418E+06        -0.50027E+08         0.00000E+00
    0.00000E+00         0.00000E+00        -0.26155E+08
 
   -0.30705E+08        -0.36925E+06         0.00000E+00
   -0.36925E+06        -0.50030E+08         0.00000E+00
    0.00000E+00         0.00000E+00        -0.26234E+08
 
   -0.30584E+08        -0.37075E+06         0.00000E+00
   -0.37075E+06        -0.50033E+08         0.00000E+00
    0.00000E+00         0.00000E+00        -0.26313E+08
 
   -0.30467E+08        -0.36883E+06         0.00000E+00
   -0.36883E+06        -0.50037E+08         0.00000E+00
    0.00000E+00         0.00000E+00        -0.26392E+08
 
   -0.30353E+08        -0.36367E+06         0.00000E+00
   -0.36367E+06        -0.50041E+08         0.00000E+00
    0.00000E+00         0.00000E+00        -0.26470E+08
 
   -0.30242E+08        -0.35530E+06         0.00000E+00
   -0.35530E+06        -0.50045E+08         0.00000E+00
    0.00000E+00         0.00000E+00        -0.26548E+08
 
   -0.30134E+08        -0.34390E+06         0.00000E+00
   -0.34390E+06        -0.50050E+08         0.00000E+00
    0.00000E+00         0.00000E+00        -0.26626E+08
 
   -0.30031E+08        -0.32970E+06         0.00000E+00
   -0.32970E+06        -0.50055E+08         0.00000E+00
    0.00000E+00         0.00000E+00        -0.26702E+08
 
   -0.29930E+08        -0.31283E+06         0.00000E+00
   -0.31283E+06        -0.50060E+08         0.00000E+00
    0.00000E+00         0.00000E+00        -0.26778E+08
 
   -0.29834E+08        -0.29342E+06         0.00000E+00
   -0.29342E+06        -0.50065E+08         0.00000E+00
    0.00000E+00         0.00000E+00        -0.26852E+08
 
   -0.29741E+08        -0.27147E+06         0.00000E+00
   -0.27147E+06        -0.50071E+08         0.00000E+00
    0.00000E+00         0.00000E+00        -0.26926E+08
 
   -0.29651E+08        -0.24729E+06         0.00000E+00
   -0.24729E+06        -0.50077E+08         0.00000E+00
    0.00000E+00         0.00000E+00        -0.26999E+08
 
   -0.29566E+08        -0.22094E+06         0.00000E+00
   -0.22094E+06        -0.50084E+08         0.00000E+00
    0.00000E+00         0.00000E+00        -0.27071E+08
 
   -0.29483E+08        -0.19252E+06         0.00000E+00
   -0.19252E+06        -0.50092E+08         0.00000E+00
    0.00000E+00         0.00000E+00        -0.27142E+08
 
   -0.29405E+08        -0.16210E+06         0.00000E+00
   -0.16210E+06        -0.50100E+08         0.00000E+00
    0.00000E+00         0.00000E+00        -0.27213E+08
 
   -0.29330E+08        -0.12982E+06         0.00000E+00
   -0.12982E+06        -0.50109E+08         0.00000E+00
    0.00000E+00         0.00000E+00        -0.27282E+08
 
   -0.29259E+08        -0.95657E+05         0.00000E+00
   -0.95657E+05        -0.50119E+08         0.00000E+00
    0.00000E+00         0.00000E+00        -0.27351E+08
 
   -0.29191E+08        -0.59621E+05         0.00000E+00
   -0.59621E+05        -0.50130E+08         0.00000E+00
    0.00000E+00         0.00000E+00        -0.27419E+08
 
   -0.29127E+08        -0.21674E+05         0.00000E+00
   -0.21674E+05        -0.50142E+08         0.00000E+00
    0.00000E+00         0.00000E+00        -0.27487E+08
 
   -0.29066E+08         0.18172E+05         0.00000E+00
    0.18172E+05        -0.50155E+08         0.00000E+00
    0.00000E+00         0.00000E+00        -0.27554E+08
 
   -0.29009E+08         0.59925E+05         0.00000E+00
    0.59925E+05        -0.50169E+08         0.00000E+00
    0.00000E+00         0.00000E+00        -0.27621E+08
 
   -0.28956E+08         0.10352E+06         0.00000E+00
    0.10352E+06        -0.50185E+08         0.00000E+00
    0.00000E+00         0.00000E+00        -0.27688E+08
 
   -0.28905E+08         0.14902E+06         0.00000E+00
    0.14902E+06        -0.50203E+08         0.00000E+00
    0.00000E+00         0.00000E+00        -0.27755E+08
 
   -0.28859E+08         0.19640E+06         0.00000E+00
    0.19640E+06        -0.50221E+08         0.00000E+00
    0.00000E+00         0.00000E+00        -0.27821E+08
 
   -0.28816E+08         0.24593E+06         0.00000E+00
    0.24593E+06        -0.50242E+08         0.00000E+00
    0.00000E+00         0.00000E+00        -0.27888E+08
 
   -0.28778E+08         0.29764E+06         0.00000E+00
    0.29764E+06        -0.50264E+08         0.00000E+00
    0.00000E+00         0.00000E+00        -0.27953E+08
 
   -0.28743E+08         0.35177E+06         0.00000E+00
    0.35177E+06        -0.50288E+08         0.00000E+00
    0.00000E+00         0.00000E+00        -0.28019E+08
 
   -0.28713E+08         0.40845E+06         0.00000E+00
    0.40845E+06        -0.50313E+08         0.00000E+00
    0.00000E+00         0.00000E+00        -0.28084E+08
 
   -0.28686E+08         0.46790E+06         0.00000E+00
    0.46790E+06        -0.50340E+08         0.00000E+00
    0.00000E+00         0.00000E+00        -0.28148E+08
 
   -0.28664E+08         0.53011E+06         0.00000E+00
    0.53011E+06        -0.50368E+08         0.00000E+00
    0.00000E+00         0.00000E+00        -0.28211E+08
 
   -0.28646E+08         0.59557E+06         0.00000E+00
    0.59557E+06        -0.50398E+08         0.00000E+00
    0.00000E+00         0.00000E+00        -0.28274E+08
 
   -0.28632E+08         0.66443E+06         0.00000E+00
    0.66443E+06        -0.50429E+08         0.00000E+00
    0.00000E+00         0.00000E+00        -0.28336E+08
 
   -0.28622E+08         0.73685E+06         0.00000E+00
    0.73685E+06        -0.50461E+08         0.00000E+00
    0.00000E+00         0.00000E+00        -0.28398E+08
 
   -0.28618E+08         0.81265E+06         0.00000E+00
    0.81265E+06        -0.50494E+08         0.00000E+00
    0.00000E+00         0.00000E+00        -0.28457E+08
 
   -0.28620E+08         0.89028E+06         0.00000E+00
    0.89028E+06        -0.50528E+08         0.00000E+00
    0.00000E+00         0.00000E+00        -0.28514E+08
 
   -0.28631E+08         0.96796E+06         0.00000E+00
    0.96796E+06        -0.50565E+08         0.00000E+00
    0.00000E+00         0.00000E+00        -0.28566E+08
 
   -0.28649E+08         0.10473E+07         0.00000E+00
    0.10473E+07        -0.50603E+08         0.00000E+00
    0.00000E+00         0.00000E+00        -0.28615E+08
 
   -0.28673E+08         0.11277E+07         0.00000E+00
    0.11277E+07        -0.50642E+08         0.00000E+00
    0.00000E+00         0.00000E+00        -0.28660E+08
 
   -0.28703E+08         0.12083E+07         0.00000E+00
    0.12083E+07        -0.50681E+08         0.00000E+00
    0.00000E+00         0.00000E+00        -0.28701E+08
 
   -0.28736E+08         0.12957E+07         0.00000E+00
    0.12957E+07        -0.50716E+08         0.00000E+00
    0.00000E+00         0.00000E+00        -0.28737E+08
 
   -0.32572E+08        -0.36894E+05         0.00000E+00
   -0.36894E+05        -0.49995E+08         0.00000E+00
    0.00000E+00         0.00000E+00        -0.24827E+08
 
   -0.32387E+08        -0.10998E+06         0.00000E+00
   -0.10998E+06        -0.50003E+08         0.00000E+00
    0.00000E+00         0.00000E+00        -0.24913E+08
 
   -0.32199E+08        -0.16619E+06         0.00000E+00
   -0.16619E+06        -0.50006E+08         0.00000E+00
    0.00000E+00         0.00000E+00        -0.24999E+08
 
   -0.32013E+08        -0.21003E+06         0.00000E+00
   -0.21003E+06        -0.50006E+08         0.00000E+00
    0.00000E+00         0.00000E+00        -0.25084E+08
 
   -0.31832E+08        -0.24604E+06         0.00000E+00
   -0.24604E+06        -0.50002E+08         0.00000E+00
    0.00000E+00         0.00000E+00        -0.25166E+08
 
   -0.31658E+08        -0.27653E+06         0.00000E+00
   -0.27653E+06        -0.49998E+08         0.00000E+00
    0.00000E+00         0.00000E+00        -0.25248E+08
 
   -0.31489E+08        -0.30252E+06         0.00000E+00
   -0.30252E+06        -0.49994E+08         0.00000E+00
    0.00000E+00         0.00000E+00        -0.25329E+08
 
   -0.31327E+08        -0.32451E+06         0.00000E+00
   -0.32451E+06        -0.49990E+08         0.00000E+00
    0.00000E+00         0.00000E+00        -0.25410E+08
 
   -0.31170E+08        -0.34264E+06         0.00000E+00
   -0.34264E+06        -0.49987E+08         0.00000E+00
    0.00000E+00         0.00000E+00        -0.25491E+08
 
   -0.31017E+08        -0.35690E+06         0.00000E+00
   -0.35690E+06        -0.49985E+08         0.00000E+00
    0.00000E+00         0.00000E+00        -0.25573E+08
 
   -0.30869E+08        -0.36732E+06         0.00000E+00
   -0.36732E+06        -0.49983E+08         0.00000E+00
    0.00000E+00         0.00000E+00        -0.25655E+08
 
   -0.30726E+08        -0.37391E+06         0.00000E+00
   -0.37391E+06        -0.49982E+08         0.00000E+00
    0.00000E+00         0.00000E+00        -0.25737E+08
 
   -0.30587E+08        -0.37675E+06         0.00000E+00
   -0.37675E+06        -0.49981E+08         0.00000E+00
    0.00000E+00         0.00000E+00        -0.25818E+08
 
   -0.30452E+08        -0.37590E+06         0.00000E+00
   -0.37590E+06        -0.49980E+08         0.00000E+00
    0.00000E+00         0.00000E+00        -0.25899E+08
 
   -0.30321E+08        -0.37151E+06         0.00000E+00
   -0.37151E+06        -0.49979E+08         0.00000E+00
    0.00000E+00         0.00000E+00        -0.25979E+08
 
   -0.30194E+08        -0.36382E+06         0.00000E+00
   -0.36382E+06        -0.49978E+08         0.00000E+00
    0.00000E+00         0.00000E+00        -0.26057E+08
 
   -0.30073E+08        -0.35308E+06         0.00000E+00
   -0.35308E+06        -0.49977E+08         0.00000E+00
    0.00000E+00         0.00000E+00        -0.26135E+08
 
   -0.29955E+08        -0.33957E+06         0.00000E+00
   -0.33957E+06        -0.49975E+08         0.00000E+00
    0.00000E+00         0.00000E+00        -0.26210E+08
 
   -0.29843E+08        -0.32352E+06         0.00000E+00
   -0.32352E+06        -0.49974E+08         0.00000E+00
    0.00000E+00         0.00000E+00        -0.26284E+08
 
   -0.29734E+08        -0.30522E+06         0.00000E+00
   -0.30522E+06        -0.49972E+08         0.00000E+00
    0.00000E+00         0.00000E+00        -0.26357E+08
 
   -0.29631E+08        -0.28492E+06         0.00000E+00
   -0.28492E+06        -0.49971E+08         0.00000E+00
    0.00000E+00         0.00000E+00        -0.26427E+08
 
   -0.29531E+08        -0.26281E+06         0.00000E+00
   -0.26281E+06        -0.49970E+08         0.00000E+00
    0.00000E+00         0.00000E+00        -0.26496E+08
 
   -0.29436E+08        -0.23906E+06         0.00000E+00
   -0.23906E+06        -0.49969E+08         0.00000E+00
    0.00000E+00         0.00000E+00        -0.26564E+08
 
   -0.29346E+08        -0.21378E+06         0.00000E+00
   -0.21378E+06        -0.49969E+08         0.00000E+00
    0.00000E+00         0.00000E+00        -0.26630E+08
 
   -0.29259E+08        -0.18700E+06         0.00000E+00
   -0.18700E+06        -0.49969E+08         0.00000E+00
    0.00000E+00         0.00000E+00        -0.26696E+08
 
   -0.29176E+08        -0.15892E+06         0.00000E+00
   -0.15892E+06        -0.49971E+08         0.00000E+00
    0.00000E+00         0.00000E+00        -0.26760E+08
 
   -0.29097E+08        -0.12955E+06         0.00000E+00
   -0.12955E+06        -0.49973E+08         0.00000E+00
    0.00000E+00         0.00000E+00        -0.26824E+08
 
   -0.29021E+08        -0.98939E+05         0.00000E+00
   -0.98939E+05        -0.49976E+08         0.00000E+00
    0.00000E+00         0.00000E+00        -0.26887E+08
 
   -0.28949E+08        -0.67163E+05         0.00000E+00
   -0.67163E+05        -0.49980E+08         0.00000E+00
    0.00000E+00         0.00000E+00        -0.26950E+08
 
   -0.28880E+08        -0.34139E+05         0.00000E+00
   -0.34139E+05        -0.49986E+08         0.00000E+00
    0.00000E+00         0.00000E+00        -0.27013E+08
 
   -0.28814E+08         0.24947E+03         0.00000E+00
    0.24947E+03        -0.49993E+08         0.00000E+00
    0.00000E+00         0.00000E+00        -0.27076E+08
 
   -0.28752E+08         0.36107E+05         0.00000E+00
    0.36107E+05        -0.50002E+08         0.00000E+00
    0.00000E+00         0.00000E+00        -0.27139E+08
 
   -0.28693E+08         0.73556E+05         0.00000E+00
    0.73556E+05        -0.50013E+08         0.00000E+00
    0.00000E+00         0.00000E+00        -0.27203E+08
 
   -0.28637E+08         0.11268E+06         0.00000E+00
    0.11268E+06        -0.50025E+08         0.00000E+00
    0.00000E+00         0.00000E+00        -0.27267E+08
 
   -0.28584E+08         0.15356E+06         0.00000E+00
    0.15356E+06        -0.50039E+08         0.00000E+00
    0.00000E+00         0.00000E+00        -0.27331E+08
 
   -0.28534E+08         0.19656E+06         0.00000E+00
    0.19656E+06        -0.50055E+08         0.00000E+00
    0.00000E+00         0.00000E+00        -0.27396E+08
 
   -0.28487E+08         0.24191E+06         0.00000E+00
    0.24191E+06        -0.50073E+08         0.00000E+00
    0.00000E+00         0.00000E+00        -0.27463E+08
 
   -0.28443E+08         0.28977E+06         0.00000E+00
    0.28977E+06        -0.50093E+08         0.00000E+00
    0.00000E+00         0.00000E+00        -0.27530E+08
 
   -0.28402E+08         0.34039E+06         0.00000E+00
    0.34039E+06        -0.50115E+08         0.00000E+00
    0.00000E+00         0.00000E+00        -0.27598E+08
 
   -0.28365E+08         0.39400E+06         0.00000E+00
    0.39400E+06        -0.50139E+08         0.00000E+00
    0.00000E+00         0.00000E+00        -0.27667E+08
 
   -0.28331E+08         0.45060E+06         0.00000E+00
    0.45060E+06        -0.50166E+08         0.00000E+00
    0.00000E+00         0.00000E+00        -0.27737E+08
 
   -0.28301E+08         0.51019E+06         0.00000E+00
    0.51019E+06        -0.50194E+08         0.00000E+00
    0.00000E+00         0.00000E+00        -0.27808E+08
 
   -0.28277E+08         0.57201E+06         0.00000E+00
    0.57201E+06        -0.50226E+08         0.00000E+00
    0.00000E+00         0.00000E+00        -0.27878E+08
 
   -0.28260E+08         0.63687E+06         0.00000E+00
    0.63687E+06        -0.50260E+08         0.00000E+00
    0.00000E+00         0.00000E+00        -0.27947E+08
 
   -0.28249E+08         0.70508E+06         0.00000E+00
    0.70508E+06        -0.50298E+08         0.00000E+00
    0.00000E+00         0.00000E+00        -0.28016E+08
 
   -0.28245E+08         0.77829E+06         0.00000E+00
    0.77829E+06        -0.50337E+08         0.00000E+00
    0.00000E+00         0.00000E+00        -0.28082E+08
 
   -0.28248E+08         0.85640E+06         0.00000E+00
    0.85640E+06        -0.50378E+08         0.00000E+00
    0.00000E+00         0.00000E+00        -0.28145E+08
 
   -0.28257E+08         0.93977E+06         0.00000E+00
    0.93977E+06        -0.50418E+08         0.00000E+00
    0.00000E+00         0.00000E+00        -0.28204E+08
 
   -0.28275E+08         0.10262E+07         0.00000E+00
    0.10262E+07        -0.50458E+08         0.00000E+00
    0.00000E+00         0.00000E+00        -0.28256E+08
 
   -0.28306E+08         0.11103E+07         0.00000E+00
    0.11103E+07        -0.50501E+08         0.00000E+00
    0.00000E+00         0.00000E+00        -0.28301E+08
 
   -0.32921E+08        -0.77903E+05         0.00000E+00
   -0.77903E+05        -0.50030E+08         0.00000E+00
    0.00000E+00         0.00000E+00        -0.24333E+08
 
   -0.32655E+08        -0.10195E+06         0.00000E+00
   -0.10195E+06        -0.50016E+08         0.00000E+00
    0.00000E+00         0.00000E+00        -0.24421E+08
 
   -0.32420E+08        -0.13107E+06         0.00000E+00
   -0.13107E+06        -0.49993E+08         0.00000E+00
    0.00000E+00         0.00000E+00        -0.24494E+08
 
   -0.32206E+08        -0.16650E+06         0.00000E+00
   -0.16650E+06        -0.49972E+08         0.00000E+00
    0.00000E+00         0.00000E+00        -0.24565E+08
 
   -0.32004E+08        -0.20316E+06         0.00000E+00
   -0.20316E+06        -0.49958E+08         0.00000E+00
    0.00000E+00         0.00000E+00        -0.24639E+08
 
   -0.31811E+08        -0.23864E+06         0.00000E+00
   -0.23864E+06        -0.49947E+08         0.00000E+00
    0.00000E+00         0.00000E+00        -0.24717E+08
 
   -0.31623E+08        -0.27131E+06         0.00000E+00
   -0.27131E+06        -0.49940E+08         0.00000E+00
    0.00000E+00         0.00000E+00        -0.24799E+08
 
   -0.31439E+08        -0.29992E+06         0.00000E+00
   -0.29992E+06        -0.49935E+08         0.00000E+00
    0.00000E+00         0.00000E+00        -0.24883E+08
 
   -0.31260E+08        -0.32340E+06         0.00000E+00
   -0.32340E+06        -0.49930E+08         0.00000E+00
    0.00000E+00         0.00000E+00        -0.24968E+08
 
   -0.31084E+08        -0.34087E+06         0.00000E+00
   -0.34087E+06        -0.49927E+08         0.00000E+00
    0.00000E+00         0.00000E+00        -0.25056E+08
 
   -0.30913E+08        -0.35257E+06         0.00000E+00
   -0.35257E+06        -0.49923E+08         0.00000E+00
    0.00000E+00         0.00000E+00        -0.25143E+08
 
   -0.30748E+08        -0.35893E+06         0.00000E+00
   -0.35893E+06        -0.49919E+08         0.00000E+00
    0.00000E+00         0.00000E+00        -0.25229E+08
 
   -0.30588E+08        -0.36032E+06         0.00000E+00
   -0.36032E+06        -0.49914E+08         0.00000E+00
    0.00000E+00         0.00000E+00        -0.25313E+08
 
   -0.30434E+08        -0.35722E+06         0.00000E+00
   -0.35722E+06        -0.49907E+08         0.00000E+00
    0.00000E+00         0.00000E+00        -0.25395E+08
 
   -0.30286E+08        -0.35027E+06         0.00000E+00
   -0.35027E+06        -0.49899E+08         0.00000E+00
    0.00000E+00         0.00000E+00        -0.25474E+08
 
   -0.30144E+08        -0.34012E+06         0.00000E+00
   -0.34012E+06        -0.49890E+08         0.00000E+00
    0.00000E+00         0.00000E+00        -0.25550E+08
 
   -0.30009E+08        -0.32734E+06         0.00000E+00
   -0.32734E+06        -0.49881E+08         0.00000E+00
    0.00000E+00         0.00000E+00        -0.25623E+08
 
   -0.29880E+08        -0.31239E+06         0.00000E+00
   -0.31239E+06        -0.49870E+08         0.00000E+00
    0.00000E+00         0.00000E+00        -0.25693E+08
 
   -0.29758E+08        -0.29569E+06         0.00000E+00
   -0.29569E+06        -0.49860E+08         0.00000E+00
    0.00000E+00         0.00000E+00        -0.25761E+08
 
   -0.29641E+08        -0.27756E+06         0.00000E+00
   -0.27756E+06        -0.49850E+08         0.00000E+00
    0.00000E+00         0.00000E+00        -0.25826E+08
 
   -0.29529E+08        -0.25822E+06         0.00000E+00
   -0.25822E+06        -0.49839E+08         0.00000E+00
    0.00000E+00         0.00000E+00        -0.25889E+08
 
   -0.29423E+08        -0.23789E+06         0.00000E+00
   -0.23789E+06        -0.49829E+08         0.00000E+00
    0.00000E+00         0.00000E+00        -0.25951E+08
 
   -0.29322E+08        -0.21673E+06         0.00000E+00
   -0.21673E+06        -0.49820E+08         0.00000E+00
    0.00000E+00         0.00000E+00        -0.26010E+08
 
   -0.29226E+08        -0.19490E+06         0.00000E+00
   -0.19490E+06        -0.49812E+08         0.00000E+00
    0.00000E+00         0.00000E+00        -0.26069E+08
 
   -0.29134E+08        -0.17252E+06         0.00000E+00
   -0.17252E+06        -0.49804E+08         0.00000E+00
    0.00000E+00         0.00000E+00        -0.26126E+08
 
   -0.29046E+08        -0.14949E+06         0.00000E+00
   -0.14949E+06        -0.49797E+08         0.00000E+00
    0.00000E+00         0.00000E+00        -0.26183E+08
 
   -0.28962E+08        -0.12582E+06         0.00000E+00
   -0.12582E+06        -0.49792E+08         0.00000E+00
    0.00000E+00         0.00000E+00        -0.26239E+08
 
   -0.28881E+08        -0.10150E+06         0.00000E+00
   -0.10150E+06        -0.49788E+08         0.00000E+00
    0.00000E+00         0.00000E+00        -0.26295E+08
 
   -0.28804E+08        -0.76489E+05         0.00000E+00
   -0.76489E+05        -0.49786E+08         0.00000E+00
    0.00000E+00         0.00000E+00        -0.26352E+08
 
   -0.28730E+08        -0.50775E+05         0.00000E+00
   -0.50775E+05        -0.49785E+08         0.00000E+00
    0.00000E+00         0.00000E+00        -0.26408E+08
 
   -0.28659E+08        -0.24346E+05         0.00000E+00
   -0.24346E+05        -0.49786E+08         0.00000E+00
    0.00000E+00         0.00000E+00        -0.26465E+08
 
   -0.28591E+08         0.29203E+04         0.00000E+00
    0.29203E+04        -0.49788E+08         0.00000E+00
    0.00000E+00         0.00000E+00        -0.26523E+08
 
   -0.28525E+08         0.31137E+05         0.00000E+00
    0.31137E+05        -0.49793E+08         0.00000E+00
    0.00000E+00         0.00000E+00        -0.26582E+08
 
   -0.28461E+08         0.60471E+05         0.00000E+00
    0.60471E+05        -0.49799E+08         0.00000E+00
    0.00000E+00         0.00000E+00        -0.26642E+08
 
   -0.28400E+08         0.91071E+05         0.00000E+00
    0.91071E+05        -0.49808E+08         0.00000E+00
    0.00000E+00         0.00000E+00        -0.26704E+08
 
   -0.28341E+08         0.12313E+06         0.00000E+00
    0.12313E+06        -0.49818E+08         0.00000E+00
    0.00000E+00         0.00000E+00        -0.26767E+08
 
   -0.28283E+08         0.15684E+06         0.00000E+00
    0.15684E+06        -0.49831E+08         0.00000E+00
    0.00000E+00         0.00000E+00        -0.26834E+08
 
   -0.28227E+08         0.19241E+06         0.00000E+00
    0.19241E+06        -0.49847E+08         0.00000E+00
    0.00000E+00         0.00000E+00        -0.26902E+08
 
   -0.28174E+08         0.23009E+06         0.00000E+00
    0.23009E+06        -0.49866E+08         0.00000E+00
    0.00000E+00         0.00000E+00        -0.26973E+08
 
   -0.28123E+08         0.27010E+06         0.00000E+00
    0.27010E+06        -0.49887E+08         0.00000E+00
    0.00000E+00         0.00000E+00        -0.27047E+08
 
   -0.28076E+08         0.31269E+06         0.00000E+00
    0.31269E+06        -0.49912E+08         0.00000E+00
    0.00000E+00         0.00000E+00        -0.27123E+08
 
   -0.28031E+08         0.35814E+06         0.00000E+00
    0.35814E+06        -0.49939E+08         0.00000E+00
    0.00000E+00         0.00000E+00        -0.27201E+08
 
   -0.27990E+08         0.40697E+06         0.00000E+00
    0.40697E+06        -0.49970E+08         0.00000E+00
    0.00000E+00         0.00000E+00        -0.27282E+08
 
   -0.27952E+08         0.45905E+06         0.00000E+00
    0.45905E+06        -0.50003E+08         0.00000E+00
    0.00000E+00         0.00000E+00        -0.27364E+08
 
   -0.27916E+08         0.51703E+06         0.00000E+00
    0.51703E+06        -0.50038E+08         0.00000E+00
    0.00000E+00         0.00000E+00        -0.27449E+08
 
   -0.27884E+08         0.58065E+06         0.00000E+00
    0.58065E+06        -0.50077E+08         0.00000E+00
    0.00000E+00         0.00000E+00        -0.27536E+08
 
   -0.27861E+08         0.65089E+06         0.00000E+00
    0.65089E+06        -0.50119E+08         0.00000E+00
    0.00000E+00         0.00000E+00        -0.27622E+08
 
   -0.27850E+08         0.72428E+06         0.00000E+00
    0.72428E+06        -0.50167E+08         0.00000E+00
    0.00000E+00         0.00000E+00        -0.27706E+08
 
   -0.27856E+08         0.80788E+06         0.00000E+00
    0.80788E+06        -0.50220E+08         0.00000E+00
    0.00000E+00         0.00000E+00        -0.27783E+08
 
   -0.27869E+08         0.89580E+06         0.00000E+00
    0.89580E+06        -0.50268E+08         0.00000E+00
    0.00000E+00         0.00000E+00        -0.27847E+08
 
   -0.33096E+08         0.72625E+05         0.00000E+00
    0.72625E+05        -0.49834E+08         0.00000E+00
    0.00000E+00         0.00000E+00        -0.23717E+08
 
   -0.32861E+08        -0.10363E+04         0.00000E+00
   -0.10363E+04        -0.49815E+08         0.00000E+00
    0.00000E+00         0.00000E+00        -0.23781E+08
 
   -0.32636E+08        -0.63559E+05         0.00000E+00
   -0.63559E+05        -0.49840E+08         0.00000E+00
    0.00000E+00         0.00000E+00        -0.23882E+08
 
   -0.32424E+08        -0.11694E+06         0.00000E+00
   -0.11694E+06        -0.49868E+08         0.00000E+00
    0.00000E+00         0.00000E+00        -0.23988E+08
 
   -0.32214E+08        -0.17129E+06         0.00000E+00
   -0.17129E+06        -0.49883E+08         0.00000E+00
    0.00000E+00         0.00000E+00        -0.24085E+08
 
   -0.31996E+08        -0.21930E+06         0.00000E+00
   -0.21930E+06        -0.49892E+08         0.00000E+00
    0.00000E+00         0.00000E+00        -0.24185E+08
 
   -0.31775E+08        -0.25580E+06         0.00000E+00
   -0.25580E+06        -0.49898E+08         0.00000E+00
    0.00000E+00         0.00000E+00        -0.24285E+08
 
   -0.31557E+08        -0.28089E+06         0.00000E+00
   -0.28089E+06        -0.49898E+08         0.00000E+00
    0.00000E+00         0.00000E+00        -0.24384E+08
 
   -0.31345E+08        -0.29694E+06         0.00000E+00
   -0.29694E+06        -0.49894E+08         0.00000E+00
    0.00000E+00         0.00000E+00        -0.24479E+08
 
   -0.31138E+08        -0.30683E+06         0.00000E+00
   -0.30683E+06        -0.49882E+08         0.00000E+00
    0.00000E+00         0.00000E+00        -0.24567E+08
 
   -0.30939E+08        -0.31026E+06         0.00000E+00
   -0.31026E+06        -0.49866E+08         0.00000E+00
    0.00000E+00         0.00000E+00        -0.24652E+08
 
   -0.30748E+08        -0.30747E+06         0.00000E+00
   -0.30747E+06        -0.49848E+08         0.00000E+00
    0.00000E+00         0.00000E+00        -0.24732E+08
 
   -0.30567E+08        -0.29998E+06         0.00000E+00
   -0.29998E+06        -0.49827E+08         0.00000E+00
    0.00000E+00         0.00000E+00        -0.24808E+08
 
   -0.30396E+08        -0.28936E+06         0.00000E+00
   -0.28936E+06        -0.49805E+08         0.00000E+00
    0.00000E+00         0.00000E+00        -0.24879E+08
 
   -0.30234E+08        -0.27670E+06         0.00000E+00
   -0.27670E+06        -0.49782E+08         0.00000E+00
    0.00000E+00         0.00000E+00        -0.24945E+08
 
   -0.30082E+08        -0.26273E+06         0.00000E+00
   -0.26273E+06        -0.49758E+08         0.00000E+00
    0.00000E+00         0.00000E+00        -0.25008E+08
 
   -0.29938E+08        -0.24790E+06         0.00000E+00
   -0.24790E+06        -0.49735E+08         0.00000E+00
    0.00000E+00         0.00000E+00        -0.25068E+08
 
   -0.29803E+08        -0.23251E+06         0.00000E+00
   -0.23251E+06        -0.49712E+08         0.00000E+00
    0.00000E+00         0.00000E+00        -0.25125E+08
 
   -0.29676E+08        -0.21679E+06         0.00000E+00
   -0.21679E+06        -0.49689E+08         0.00000E+00
    0.00000E+00         0.00000E+00        -0.25179E+08
 
   -0.29555E+08        -0.20089E+06         0.00000E+00
   -0.20089E+06        -0.49668E+08         0.00000E+00
    0.00000E+00         0.00000E+00        -0.25232E+08
 
   -0.29440E+08        -0.18491E+06         0.00000E+00
   -0.18491E+06        -0.49647E+08         0.00000E+00
    0.00000E+00         0.00000E+00        -0.25283E+08
 
   -0.29332E+08        -0.16889E+06         0.00000E+00
   -0.16889E+06        -0.49628E+08         0.00000E+00
    0.00000E+00         0.00000E+00        -0.25333E+08
 
   -0.29229E+08        -0.15284E+06         0.00000E+00
   -0.15284E+06        -0.49611E+08         0.00000E+00
    0.00000E+00         0.00000E+00        -0.25382E+08
 
   -0.29131E+08        -0.13676E+06         0.00000E+00
   -0.13676E+06        -0.49595E+08         0.00000E+00
    0.00000E+00         0.00000E+00        -0.25430E+08
 
   -0.29037E+08        -0.12061E+06         0.00000E+00
   -0.12061E+06        -0.49580E+08         0.00000E+00
    0.00000E+00         0.00000E+00        -0.25478E+08
 
   -0.28947E+08        -0.10442E+06         0.00000E+00
   -0.10442E+06        -0.49568E+08         0.00000E+00
    0.00000E+00         0.00000E+00        -0.25526E+08
 
   -0.28861E+08        -0.88170E+05         0.00000E+00
   -0.88170E+05        -0.49557E+08         0.00000E+00
    0.00000E+00         0.00000E+00        -0.25574E+08
 
   -0.28779E+08        -0.71818E+05         0.00000E+00
   -0.71818E+05        -0.49547E+08         0.00000E+00
    0.00000E+00         0.00000E+00        -0.25622E+08
 
   -0.28700E+08        -0.55306E+05         0.00000E+00
   -0.55306E+05        -0.49540E+08         0.00000E+00
    0.00000E+00         0.00000E+00        -0.25671E+08
 
   -0.28623E+08        -0.38566E+05         0.00000E+00
   -0.38566E+05        -0.49534E+08         0.00000E+00
    0.00000E+00         0.00000E+00        -0.25721E+08
 
   -0.28549E+08        -0.21499E+05         0.00000E+00
   -0.21499E+05        -0.49531E+08         0.00000E+00
    0.00000E+00         0.00000E+00        -0.25772E+08
 
   -0.28477E+08        -0.40817E+04         0.00000E+00
   -0.40817E+04        -0.49530E+08         0.00000E+00
    0.00000E+00         0.00000E+00        -0.25825E+08
 
   -0.28408E+08         0.13745E+05         0.00000E+00
    0.13745E+05        -0.49530E+08         0.00000E+00
    0.00000E+00         0.00000E+00        -0.25879E+08
 
   -0.28340E+08         0.32089E+05         0.00000E+00
    0.32089E+05        -0.49533E+08         0.00000E+00
    0.00000E+00         0.00000E+00        -0.25935E+08
 
   -0.28274E+08         0.51009E+05         0.00000E+00
    0.51009E+05        -0.49539E+08         0.00000E+00
    0.00000E+00         0.00000E+00        -0.25993E+08
 
   -0.28209E+08         0.70538E+05         0.00000E+00
    0.70538E+05        -0.49546E+08         0.00000E+00
    0.00000E+00         0.00000E+00        -0.26055E+08
 
   -0.28144E+08         0.90804E+05         0.00000E+00
    0.90804E+05        -0.49557E+08         0.00000E+00
    0.00000E+00         0.00000E+00        -0.26119E+08
 
   -0.28081E+08         0.11213E+06         0.00000E+00
    0.11213E+06        -0.49570E+08         0.00000E+00
    0.00000E+00         0.00000E+00        -0.26187E+08
 
   -0.28018E+08         0.13470E+06         0.00000E+00
    0.13470E+06        -0.49586E+08         0.00000E+00
    0.00000E+00         0.00000E+00        -0.26259E+08
 
   -0.27956E+08         0.15881E+06         0.00000E+00
    0.15881E+06        -0.49605E+08         0.00000E+00
    0.00000E+00         0.00000E+00        -0.26334E+08
 
   -0.27895E+08         0.18489E+06         0.00000E+00
    0.18489E+06        -0.49627E+08         0.00000E+00
    0.00000E+00         0.00000E+00        -0.26414E+08
 
   -0.27836E+08         0.21345E+06         0.00000E+00
    0.21345E+06        -0.49653E+08         0.00000E+00
    0.00000E+00         0.00000E+00        -0.26498E+08
 
   -0.27777E+08         0.24574E+06         0.00000E+00
    0.24574E+06        -0.49682E+08         0.00000E+00
    0.00000E+00         0.00000E+00        -0.26587E+08
 
   -0.27719E+08         0.28207E+06         0.00000E+00
    0.28207E+06        -0.49715E+08         0.00000E+00
    0.00000E+00         0.00000E+00        -0.26683E+08
 
   -0.27657E+08         0.32137E+06         0.00000E+00
    0.32137E+06        -0.49753E+08         0.00000E+00
    0.00000E+00         0.00000E+00        -0.26788E+08
 
   -0.27594E+08         0.36459E+06         0.00000E+00
    0.36459E+06        -0.49794E+08         0.00000E+00
    0.00000E+00         0.00000E+00        -0.26900E+08
 
   -0.27533E+08         0.41499E+06         0.00000E+00
    0.41499E+06        -0.49838E+08         0.00000E+00
    0.00000E+00         0.00000E+00        -0.27018E+08
 
   -0.27479E+08         0.47785E+06         0.00000E+00
    0.47785E+06        -0.49886E+08         0.00000E+00
    0.00000E+00         0.00000E+00        -0.27138E+08
 
   -0.27435E+08         0.54640E+06         0.00000E+00
    0.54640E+06        -0.49941E+08         0.00000E+00
    0.00000E+00         0.00000E+00        -0.27260E+08
 
   -0.27426E+08         0.63568E+06         0.00000E+00
    0.63568E+06        -0.50017E+08         0.00000E+00
    0.00000E+00         0.00000E+00        -0.27378E+08
 
   -0.32956E+08         0.22329E+05         0.00000E+00
    0.22329E+05        -0.50157E+08         0.00000E+00
    0.00000E+00         0.00000E+00        -0.25541E+08
 
   -0.32925E+08         0.37690E+05         0.00000E+00
    0.37690E+05        -0.50169E+08         0.00000E+00
    0.00000E+00         0.00000E+00        -0.24471E+08
 
   -0.32797E+08         0.71200E+04         0.00000E+00
    0.71200E+04        -0.50137E+08         0.00000E+00
    0.00000E+00         0.00000E+00        -0.23814E+08
 
   -0.32677E+08        -0.45535E+05         0.00000E+00
   -0.45535E+05        -0.50093E+08         0.00000E+00
    0.00000E+00         0.00000E+00        -0.23709E+08
 
   -0.32470E+08        -0.92395E+05         0.00000E+00
   -0.92395E+05        -0.50050E+08         0.00000E+00
    0.00000E+00         0.00000E+00        -0.23749E+08
 
   -0.32199E+08        -0.12470E+06         0.00000E+00
   -0.12470E+06        -0.50001E+08         0.00000E+00
    0.00000E+00         0.00000E+00        -0.23809E+08
 
   -0.31913E+08        -0.14289E+06         0.00000E+00
   -0.14289E+06        -0.49948E+08         0.00000E+00
    0.00000E+00         0.00000E+00        -0.23876E+08
 
   -0.31647E+08        -0.15179E+06         0.00000E+00
   -0.15179E+06        -0.49893E+08         0.00000E+00
    0.00000E+00         0.00000E+00        -0.23936E+08
 
   -0.31402E+08        -0.15524E+06         0.00000E+00
   -0.15524E+06        -0.49837E+08         0.00000E+00
    0.00000E+00         0.00000E+00        -0.23991E+08
 
   -0.31164E+08        -0.15399E+06         0.00000E+00
   -0.15399E+06        -0.49784E+08         0.00000E+00
    0.00000E+00         0.00000E+00        -0.24048E+08
 
   -0.30935E+08        -0.14745E+06         0.00000E+00
   -0.14745E+06        -0.49731E+08         0.00000E+00
    0.00000E+00         0.00000E+00        -0.24105E+08
 
   -0.30722E+08        -0.13858E+06         0.00000E+00
   -0.13858E+06        -0.49681E+08         0.00000E+00
    0.00000E+00         0.00000E+00        -0.24159E+08
 
   -0.30527E+08        -0.12947E+06         0.00000E+00
   -0.12947E+06        -0.49632E+08         0.00000E+00
    0.00000E+00         0.00000E+00        -0.24209E+08
 
   -0.30349E+08        -0.12064E+06         0.00000E+00
   -0.12064E+06        -0.49586E+08         0.00000E+00
    0.00000E+00         0.00000E+00        -0.24256E+08
 
   -0.30183E+08        -0.11220E+06         0.00000E+00
   -0.11220E+06        -0.49544E+08         0.00000E+00
    0.00000E+00         0.00000E+00        -0.24300E+08
 
   -0.30028E+08        -0.10406E+06         0.00000E+00
   -0.10406E+06        -0.49503E+08         0.00000E+00
    0.00000E+00         0.00000E+00        -0.24344E+08
 
   -0.29883E+08        -0.96212E+05         0.00000E+00
   -0.96212E+05        -0.49466E+08         0.00000E+00
    0.00000E+00         0.00000E+00        -0.24386E+08
 
   -0.29747E+08        -0.88717E+05         0.00000E+00
   -0.88717E+05        -0.49431E+08         0.00000E+00
    0.00000E+00         0.00000E+00        -0.24427E+08
 
   -0.29619E+08        -0.81565E+05         0.00000E+00
   -0.81565E+05        -0.49399E+08         0.00000E+00
    0.00000E+00         0.00000E+00        -0.24467E+08
 
   -0.29499E+08        -0.74693E+05         0.00000E+00
   -0.74693E+05        -0.49369E+08         0.00000E+00
    0.00000E+00         0.00000E+00        -0.24507E+08
 
   -0.29384E+08        -0.68053E+05         0.00000E+00
   -0.68053E+05        -0.49342E+08         0.00000E+00
    0.00000E+00         0.00000E+00        -0.24547E+08
 
   -0.29276E+08        -0.61611E+05         0.00000E+00
   -0.61611E+05        -0.49318E+08         0.00000E+00
    0.00000E+00         0.00000E+00        -0.24586E+08
 
   -0.29173E+08        -0.55324E+05         0.00000E+00
   -0.55324E+05        -0.49295E+08         0.00000E+00
    0.00000E+00         0.00000E+00        -0.24626E+08
 
   -0.29075E+08        -0.49157E+05         0.00000E+00
   -0.49157E+05        -0.49276E+08         0.00000E+00
    0.00000E+00         0.00000E+00        -0.24666E+08
 
   -0.28982E+08        -0.43078E+05         0.00000E+00
   -0.43078E+05        -0.49258E+08         0.00000E+00
    0.00000E+00         0.00000E+00        -0.24707E+08
 
   -0.28892E+08        -0.37064E+05         0.00000E+00
   -0.37064E+05        -0.49243E+08         0.00000E+00
    0.00000E+00         0.00000E+00        -0.24749E+08
 
   -0.28806E+08        -0.31101E+05         0.00000E+00
   -0.31101E+05        -0.49230E+08         0.00000E+00
    0.00000E+00         0.00000E+00        -0.24791E+08
 
   -0.28723E+08        -0.25174E+05         0.00000E+00
   -0.25174E+05        -0.49220E+08         0.00000E+00
    0.00000E+00         0.00000E+00        -0.24834E+08
 
   -0.28643E+08        -0.19250E+05         0.00000E+00
   -0.19250E+05        -0.49211E+08         0.00000E+00
    0.00000E+00         0.00000E+00        -0.24879E+08
 
   -0.28566E+08        -0.13317E+05         0.00000E+00
   -0.13317E+05        -0.49206E+08         0.00000E+00
    0.00000E+00         0.00000E+00        -0.24925E+08
 
   -0.28491E+08        -0.73582E+04         0.00000E+00
   -0.73582E+04        -0.49202E+08         0.00000E+00
    0.00000E+00         0.00000E+00        -0.24973E+08
 
   -0.28418E+08        -0.13210E+04         0.00000E+00
   -0.13210E+04        -0.49201E+08         0.00000E+00
    0.00000E+00         0.00000E+00        -0.25022E+08
 
   -0.28347E+08         0.47974E+04         0.00000E+00
    0.47974E+04        -0.49202E+08         0.00000E+00
    0.00000E+00         0.00000E+00        -0.25074E+08
 
   -0.28278E+08         0.11000E+05         0.00000E+00
    0.11000E+05        -0.49206E+08         0.00000E+00
    0.00000E+00         0.00000E+00        -0.25128E+08
 
   -0.28210E+08         0.17388E+05         0.00000E+00
    0.17388E+05        -0.49212E+08         0.00000E+00
    0.00000E+00         0.00000E+00        -0.25185E+08
 
   -0.28143E+08         0.23999E+05         0.00000E+00
    0.23999E+05        -0.49221E+08         0.00000E+00
    0.00000E+00         0.00000E+00        -0.25245E+08
 
   -0.28075E+08         0.30812E+05         0.00000E+00
    0.30812E+05        -0.49233E+08         0.00000E+00
    0.00000E+00         0.00000E+00        -0.25308E+08
 
   -0.28008E+08         0.37802E+05         0.00000E+00
    0.37802E+05        -0.49248E+08         0.00000E+00
    0.00000E+00         0.00000E+00        -0.25376E+08
 
   -0.27940E+08         0.45178E+05         0.00000E+00
    0.45178E+05        -0.49265E+08         0.00000E+00
    0.00000E+00         0.00000E+00        -0.25448E+08
 
   -0.27872E+08         0.53086E+05         0.00000E+00
    0.53086E+05        -0.49286E+08         0.00000E+00
    0.00000E+00         0.00000E+00        -0.25526E+08
 
   -0.27803E+08         0.61670E+05         0.00000E+00
    0.61670E+05        -0.49309E+08         0.00000E+00
    0.00000E+00         0.00000E+00        -0.25609E+08
 
   -0.27732E+08         0.71148E+05         0.00000E+00
    0.71148E+05        -0.49337E+08         0.00000E+00
    0.00000E+00         0.00000E+00        -0.25698E+08
 
   -0.27660E+08         0.81526E+05         0.00000E+00
    0.81526E+05        -0.49368E+08         0.00000E+00
    0.00000E+00         0.00000E+00        -0.25795E+08
 
   -0.27586E+08         0.93504E+05         0.00000E+00
    0.93504E+05        -0.49404E+08         0.00000E+00
    0.00000E+00         0.00000E+00        -0.25901E+08
 
   -0.27508E+08         0.10810E+06         0.00000E+00
    0.10810E+06        -0.49445E+08         0.00000E+00
    0.00000E+00         0.00000E+00        -0.26016E+08
 
   -0.27425E+08         0.12625E+06         0.00000E+00
    0.12625E+06        -0.49492E+08         0.00000E+00
    0.00000E+00         0.00000E+00        -0.26147E+08
 
   -0.27321E+08         0.14821E+06         0.00000E+00
    0.14821E+06        -0.49546E+08         0.00000E+00
    0.00000E+00         0.00000E+00        -0.26307E+08
 
   -0.27213E+08         0.17647E+06         0.00000E+00
    0.17647E+06        -0.49606E+08         0.00000E+00
    0.00000E+00         0.00000E+00        -0.26483E+08
 
   -0.27102E+08         0.21736E+06         0.00000E+00
    0.21736E+06        -0.49672E+08         0.00000E+00
    0.00000E+00         0.00000E+00        -0.26675E+08
 
   -0.26988E+08         0.26292E+06         0.00000E+00
    0.26292E+06        -0.49738E+08         0.00000E+00
    0.00000E+00         0.00000E+00        -0.26873E+08
 
SCALARS stresss double 
LOOKUP_TABLE default
  -49719846.7179849     
  -49730140.3600326     
  -49739401.3681658     
  -49747854.6349693     
  -49755655.8852993     
  -49762917.8287626     
  -49769725.1118689     
  -49776143.2711810     
  -49782224.3357937     
  -49788010.4783431     
  -49793536.4825748     
  -49798831.4655223     
  -49803920.1136621     
  -49808823.5921643     
  -49813560.2281347     
  -49818146.0337844     
  -49822595.1138070     
  -49826919.9874422     
  -49831131.8466709     
  -49835240.7659385     
  -49839255.8746677     
  -49843185.5009379     
  -49847037.2926760     
  -49850818.3212410     
  -49854535.1712320     
  -49858194.0195896     
  -49861800.7065056     
  -49865360.8002754     
  -49868879.6579639     
  -49872362.4836087     
  -49875814.3856352     
  -49879240.4352045     
  -49882645.7273782     
  -49886035.4472778     
  -49889414.9438899     
  -49892789.8148830     
  -49896166.0068789     
  -49899549.9372292     
  -49902948.6457929     
  -49906369.9889833     
  -49909822.8943258     
  -49913317.7034629     
  -49916866.6477677     
  -49920484.5287514     
  -49924189.7254871     
  -49928005.7437213     
  -49931963.6979954     
  -49936106.4669763     
  -49940495.9730153     
  -49945226.5280093     
  -49713651.6723099     
  -49719403.8603765     
  -49725351.5739921     
  -49731305.8579469     
  -49737170.7851842     
  -49742899.1265206     
  -49748469.7400207     
  -49753875.6873627     
  -49759117.8081148     
  -49764201.1559327     
  -49769132.9803875     
  -49773921.5671380     
  -49778575.5669871     
  -49783103.6095584     
  -49787514.0856468     
  -49791815.0308382     
  -49796014.0703844     
  -49800118.4011543     
  -49804134.7958474     
  -49808069.6203026     
  -49811928.8582009     
  -49815718.1396169     
  -49819442.7712333     
  -49823107.7668927     
  -49826717.8777152     
  -49830277.6213530     
  -49833791.3101805     
  -49837263.0783412     
  -49840696.9076508     
  -49844096.6523720     
  -49847466.0628606     
  -49850808.8080153     
  -49854128.4963420     
  -49857428.6952334     
  -49860712.9477310     
  -49863984.7854895     
  -49867247.7357811     
  -49870505.3189079     
  -49873761.0299393     
  -49877018.2944793     
  -49880280.3808183     
  -49883550.2376623     
  -49886830.2025003     
  -49890121.4802605     
  -49893423.2041876     
  -49896730.7168995     
  -49900032.3554719     
  -49903303.2854196     
  -49906493.3493476     
  -49909502.4464625     
  -49708059.5114750     
  -49711966.3815598     
  -49715951.3641983     
  -49720024.4491550     
  -49724164.3770968     
  -49728343.1378150     
  -49732534.8747172     
  -49736718.4892771     
  -49740877.8281984     
  -49745001.0523267     
  -49749079.8236486     
  -49753108.5444564     
  -49757083.7184927     
  -49761003.4402085     
  -49764866.9964388     
  -49768674.5597964     
  -49772426.9543210     
  -49776125.4770370     
  -49779771.7623729     
  -49783367.6792841     
  -49786915.2532647     
  -49790416.6072643     
  -49793873.9169287     
  -49797289.3766396     
  -49800665.1736221     
  -49804003.4679747     
  -49807306.3769001     
  -49810575.9617155     
  -49813814.2164165     
  -49817023.0566735     
  -49820204.3081669     
  -49823359.6931082     
  -49826490.8136534     
  -49829599.1306680     
  -49832685.9359379     
  -49835752.3154061     
  -49838799.1003201     
  -49841826.8022843     
  -49844835.5271296     
  -49847824.8613811     
  -49850793.7243319     
  -49853740.1794416     
  -49856661.2037613     
  -49859552.4300313     
  -49862407.9188208     
  -49865220.1247286     
  -49867980.4785655     
  -49870681.6225817     
  -49873323.7969555     
  -49875931.3505274     
  -49700155.4221976     
  -49702937.3116916     
  -49705826.0739745     
  -49708801.1368115     
  -49711851.4697224     
  -49714966.9683492     
  -49718136.8581111     
  -49721350.0574954     
  -49724595.8329409     
  -49727864.2881448     
  -49731146.6291289     
  -49734435.2547179     
  -49737723.7348889     
  -49741006.7263570     
  -49744279.8587053     
  -49747539.6115629     
  -49750783.1945017     
  -49754008.4356679     
  -49757213.6817304     
  -49760397.7097389     
  -49763559.6503941     
  -49766698.9216887     
  -49769815.1716465     
  -49772908.2288324     
  -49775978.0593487     
  -49779024.7291091     
  -49782048.3702769     
  -49785049.1508433     
  -49788027.2463989     
  -49790982.8132158     
  -49793915.9618075     
  -49796826.7301737     
  -49799715.0559766     
  -49802580.7469501     
  -49805423.4489346     
  -49808242.6111052     
  -49811037.4482847     
  -49813806.9008103     
  -49816549.5934270     
  -49819263.7963528     
  -49821947.3943157     
  -49824597.8733325     
  -49827212.3402641     
  -49829787.5953970     
  -49832320.2778619     
  -49834807.0798773     
  -49837244.9280772     
  -49839630.7216069     
  -49841959.3363042     
  -49844216.2155110     
  -49690100.6437749     
  -49692103.9290290     
  -49694210.7143084     
  -49696413.4485316     
  -49698702.4156603     
  -49701068.4892629     
  -49703503.3237069     
  -49705999.1211332     
  -49708548.4754938     
  -49711144.3347679     
  -49713780.0295120     
  -49716449.3206967     
  -49719146.4403910     
  -49721866.1148318     
  -49724603.5685201     
  -49727354.5121307     
  -49730115.1183299     
  -49732881.9894952     
  -49735652.1206745     
  -49738422.8603248     
  -49741191.8706390     
  -49743957.0886624     
  -49746716.6889317     
  -49749469.0480260     
  -49752212.7111745     
  -49754946.3608989     
  -49757668.7875608     
  -49760378.8616231     
  -49763075.5074051     
  -49765757.6781105     
  -49768424.3319350     
  -49771074.4091087     
  -49773706.8098076     
  -49776320.3729844     
  -49778913.8563155     
  -49781485.9176626     
  -49784035.0986861     
  -49786559.8115125     
  -49789058.3295968     
  -49791528.7840113     
  -49793969.1660753     
  -49796377.3360966     
  -49798751.0353060     
  -49801087.8930712     
  -49803385.4141986     
  -49805640.9258553     
  -49807851.4798327     
  -49810013.8103736     
  -49812124.8462023     
  -49814184.5640084     
  -49677799.5190976     
  -49679256.6701780     
  -49680813.2264304     
  -49682462.4830096     
  -49684198.3607314     
  -49686014.6869118     
  -49687905.2961280     
  -49689864.1703084     
  -49691885.5071251     
  -49693963.7419054     
  -49696093.5529419     
  -49698269.8647871     
  -49700487.8532917     
  -49702742.9514189     
  -49705030.8537619     
  -49707347.5181099     
  -49709689.1632115     
  -49712052.2625939     
  -49714433.5347668     
  -49716829.9303923     
  -49719238.6170927     
  -49721656.9625516     
  -49724082.5164931     
  -49726512.9920328     
  -49728946.2467946     
  -49731380.2641032     
  -49733813.1344855     
  -49736243.0376618     
  -49738668.2251668     
  -49741087.0037173     
  -49743497.7194381     
  -49745898.7430607     
  -49748288.4562241     
  -49750665.2390269     
  -49753027.4589968     
  -49755373.4616477     
  -49757701.5627700     
  -49760010.0425279     
  -49762297.1412956     
  -49764561.0569480     
  -49766799.9430527     
  -49769011.9072381     
  -49771195.0092563     
  -49773347.2596000     
  -49775466.6229370     
  -49777551.0364254     
  -49779598.4565756     
  -49781606.9245032     
  -49783574.4918464     
  -49785498.2573621     
  -49663262.4555177     
  -49664331.9171861     
  -49665494.9090605     
  -49666746.5916215     
  -49668082.0390252     
  -49669496.4521541     
  -49670985.1278716     
  -49672543.4418570     
  -49674166.8579984     
  -49675850.9463595     
  -49677591.3994176     
  -49679384.0439263     
  -49681224.8489572     
  -49683109.9312585     
  -49685035.5587241     
  -49686998.1523324     
  -49688994.2866356     
  -49691020.6887745     
  -49693074.2359987     
  -49695151.9517262     
  -49697251.0002404     
  -49699368.6801784     
  -49701502.4169969     
  -49703649.7546244     
  -49705808.3465082     
  -49707975.9462600     
  -49710150.3980911     
  -49712329.6272150     
  -49714511.6303761     
  -49716694.4666532     
  -49718876.2486682     
  -49721055.1343195     
  -49723229.3191454     
  -49725397.0294050     
  -49727556.5159469     
  -49729706.0489094     
  -49731843.9132752     
  -49733968.4052757     
  -49736077.8296406     
  -49738170.4977142     
  -49740244.7265485     
  -49742298.8392330     
  -49744331.1668699     
  -49746340.0525166     
  -49748323.8565392     
  -49750280.9603157     
  -49752209.7612261     
  -49754108.6537387     
  -49755976.0379293     
  -49757810.6404170     
  -49646521.5401642     
  -49647322.6091814     
  -49648210.3368288     
  -49649180.9323782     
  -49650230.6427890     
  -49651355.7142462     
  -49652552.4211623     
  -49653817.0832065     
  -49655146.0732339     
  -49656535.8232467     
  -49657982.8307283     
  -49659483.6651849     
  -49661034.9742242     
  -49662633.4887196     
  -49664276.0268911     
  -49665959.4973071     
  -49667680.9008754     
  -49669437.3319007     
  -49671225.9782771     
  -49673044.1208742     
  -49674889.1321749     
  -49676758.4742279     
  -49678649.6959870     
  -49680560.4301195     
  -49682488.3893729     
  -49684431.3625961     
  -49686387.2105143     
  -49688353.8613542     
  -49690329.3064175     
  -49692311.5956919     
  -49694298.8335866     
  -49696289.1748670     
  -49698280.8208601     
  -49700272.0159884     
  -49702261.0446870     
  -49704246.2287471     
  -49706225.9251308     
  -49708198.5242978     
  -49710162.4490876     
  -49712116.1541983     
  -49714058.1262810     
  -49715986.8846177     
  -49717900.9822490     
  -49719799.0073157     
  -49721679.5844594     
  -49723541.3768454     
  -49725383.0912584     
  -49727203.4902854     
  -49729001.4030749     
  -49730775.6336726     
  -49627631.5511836     
  -49628255.6996697     
  -49628959.2555034     
  -49629739.2555268     
  -49630592.7263722     
  -49631516.7032369     
  -49632508.2302941     
  -49633564.3658782     
  -49634682.1895017     
  -49635858.8083383     
  -49637091.3627752     
  -49638377.0312623     
  -49639713.0346611     
  -49641096.6401553     
  -49642525.1647030     
  -49643995.9779948     
  -49645506.5048935     
  -49647054.2273517     
  -49648636.6858216     
  -49650251.4801805     
  -49651896.2702054     
  -49653568.7756312     
  -49655266.7758329     
  -49656988.1091739     
  -49658730.6720673     
  -49660492.4177959     
  -49662271.3551425     
  -49664065.5468796     
  -49665873.1081709     
  -49667692.2049327     
  -49669521.0522052     
  -49671357.9125790     
  -49673201.0947204     
  -49675048.9520365     
  -49676899.8815166     
  -49678752.3227846     
  -49680604.7573904     
  -49682455.7083666     
  -49684303.7400635     
  -49686147.4582741     
  -49687985.5106457     
  -49689816.5873840     
  -49691639.4222746     
  -49693452.7941005     
  -49695255.5285717     
  -49697046.5007430     
  -49698824.6372273     
  -49700588.9163678     
  -49702338.3672507     
  -49704072.1014795     
  -49606659.8639835     
  -49607178.3449624     
  -49607768.9183348     
  -49608429.2634482     
  -49609157.0442125     
  -49609949.9117330     
  -49610805.5114393     
  -49611721.4881787     
  -49612695.4906356     
  -49613725.1756884     
  -49614808.2126672     
  -49615942.2873762     
  -49617125.1058075     
  -49618354.3975334     
  -49619627.9187825     
  -49620943.4552089     
  -49622298.8243574     
  -49623691.8778297     
  -49625120.5031557     
  -49626582.6253792     
  -49628076.2083709     
  -49629599.2558834     
  -49631149.8123695     
  -49632725.9635845     
  -49634325.8369963     
  -49635947.6020292     
  -49637589.4701674     
  -49639249.6949449     
  -49640926.5718509     
  -49642618.4381761     
  -49644323.6728282     
  -49646040.6961434     
  -49647767.9697171     
  -49649503.9962806     
  -49651247.3196426     
  -49652996.5247179     
  -49654750.2376586     
  -49656507.1261047     
  -49658265.8995658     
  -49660025.3099476     
  -49661784.1522340     
  -49663541.2653381     
  -49665295.5331246     
  -49667045.8855884     
  -49668791.3001417     
  -49670530.8029627     
  -49672263.4705455     
  -49673988.4321128     
  -49675704.8731853     
  -49677412.0293457     
  -49583679.1713518     
  -49584147.4150087     
  -49584680.6628983     
  -49585277.1058496     
  -49585934.9104744     
  -49586652.2240554     
  -49587427.1781339     
  -49588257.8925511     
  -49589142.4794042     
  -49590079.0467601     
  -49591065.7021578     
  -49592100.5559350     
  -49593181.7243791     
  -49594307.3326964     
  -49595475.5177896     
  -49596684.4308409     
  -49597932.2396991     
  -49599217.1310758     
  -49600537.3125533     
  -49601891.0144111     
  -49603276.4912779     
  -49604692.0236172     
  -49606135.9190571     
  -49607606.5135748     
  -49609102.1725494     
  -49610621.2916950     
  -49612162.2978888     
  -49613723.6499091     
  -49615303.8390985     
  -49616901.3899654     
  -49618514.8607422     
  -49620142.8439108     
  -49621783.9667132     
  -49623436.8916582     
  -49625100.3170378     
  -49626772.9774651     
  -49628453.6444442     
  -49630141.1269809     
  -49631834.2722444     
  -49633531.9662845     
  -49635233.1348106     
  -49636936.7440329     
  -49638641.8015666     
  -49640347.3574009     
  -49642052.5049469     
  -49643756.3821849     
  -49645458.1728899     
  -49647157.1077164     
  -49648852.4648635     
  -49650543.5737332     
  -49558760.8619503     
  -49559221.6877759     
  -49559740.8485176     
  -49560316.9433810     
  -49560948.5430043     
  -49561634.1928780     
  -49562372.4169494     
  -49563161.7209391     
  -49564000.5955458     
  -49564887.5195641     
  -49565820.9628890     
  -49566799.3893941     
  -49567821.2596816     
  -49568885.0337016     
  -49569989.1732438     
  -49571132.1443000     
  -49572312.4192968     
  -49573528.4792012     
  -49574778.8154997     
  -49576061.9320543     
  -49577376.3468396     
  -49578720.5935657     
  -49580093.2231909     
  -49581492.8053333     
  -49582917.9295847     
  -49584367.2067357     
  -49585839.2699199     
  -49587332.7756836     
  -49588846.4049899     
  -49590378.8641666     
  -49591928.8858031     
  -49593495.2296072     
  -49595076.6832283     
  -49596672.0630537     
  -49598280.2149872     
  -49599900.0152138     
  -49601530.3709586     
  -49603170.2212436     
  -49604818.5376477     
  -49606474.3250721     
  -49608136.6225150     
  -49609804.5038581     
  -49611477.0786650     
  -49613153.4929942     
  -49614832.9302207     
  -49616514.6118565     
  -49618197.7983618     
  -49619881.7900065     
  -49621565.9279088     
  -49623249.5942053     
  -49531969.8315524     
  -49532455.9269732     
  -49532994.2358711     
  -49533583.6805056     
  -49534223.1524286     
  -49534911.5154787     
  -49535647.6086345     
  -49536430.2488445     
  -49537258.2337719     
  -49538130.3444489     
  -49539045.3478465     
  -49540001.9993581     
  -49540999.0451970     
  -49542035.2247032     
  -49543109.2725599     
  -49544219.9209199     
  -49545365.9014402     
  -49546545.9472277     
  -49547758.7946954     
  -49549003.1853319     
  -49550277.8673849     
  -49551581.5974625     
  -49552913.1420535     
  -49554271.2789719     
  -49555654.7987268     
  -49557062.5058234     
  -49558493.2199982     
  -49559945.7773920     
  -49561419.0316667     
  -49562911.8550683     
  -49564423.1394411     
  -49565951.7971986     
  -49567496.7622526     
  -49569056.9909067     
  -49570631.4627168     
  -49572219.1813223     
  -49573819.1752503     
  -49575430.4986969     
  -49577052.2322859     
  -49578683.4838081     
  -49580323.3889419     
  -49581971.1119555     
  -49583625.8463911     
  -49585286.8157298     
  -49586953.2740358     
  -49588624.5065835     
  -49590299.8304654     
  -49591978.5951652     
  -49593660.1830354     
  -49595344.0099888     
  -49503360.7467503     
  -49503896.7038456     
  -49504479.3706482     
  -49505107.9214091     
  -49505781.4993843     
  -49506499.2193004     
  -49507260.1697852     
  -49508063.4157303     
  -49508908.0006011     
  -49509792.9486911     
  -49510717.2673169     
  -49511679.9489512     
  -49512679.9732937     
  -49513716.3092786     
  -49514787.9170171     
  -49515893.7496763     
  -49517032.7552922     
  -49518203.8785180     
  -49519406.0623077     
  -49520638.2495352     
  -49521899.3845507     
  -49523188.4146741     
  -49524504.2916280     
  -49525845.9729107     
  -49527212.4231120     
  -49528602.6151725     
  -49530015.5315887     
  -49531450.1655667     
  -49532905.5221253     
  -49534380.6191514     
  -49535874.4884102     
  -49537386.1765110     
  -49538914.7458319     
  -49540459.2754042     
  -49542018.8617596     
  -49543592.6197400     
  -49545179.6832729     
  -49546779.2061126     
  -49548390.3625486     
  -49550012.3480811     
  -49551644.3800650     
  -49553285.6983212     
  -49554935.5657157     
  -49556593.2687061     
  -49558258.1178536     
  -49559929.4483002     
  -49561606.6202048     
  -49563289.0191436     
  -49564976.0564887     
  -49566667.1696747     
  -49472975.6682340     
  -49473579.6849049     
  -49474225.5498887     
  -49474912.6301164     
  -49475640.2625396     
  -49476407.7561671     
  -49477214.3940656     
  -49478059.4353290     
  -49478942.1170106     
  -49479861.6560151     
  -49480817.2509503     
  -49481808.0839374     
  -49482833.3223770     
  -49483892.1206709     
  -49484983.6218979     
  -49486106.9594435     
  -49487261.2585820     
  -49488445.6380112     
  -49489659.2113398     
  -49490901.0885264     
  -49492170.3772705     
  -49493466.1843567     
  -49494787.6169505     
  -49496133.7838484     
  -49497503.7966810     
  -49498896.7710712     
  -49500311.8277467     
  -49501748.0936095     
  -49503204.7027618     
  -49504680.7974894     
  -49506175.5292044     
  -49507688.0593464     
  -49509217.5602449     
  -49510763.2159419     
  -49512324.2229768     
  -49513899.7911334     
  -49515489.1441490     
  -49517091.5203879     
  -49518706.1734770     
  -49520332.3729050     
  -49521969.4045851     
  -49523616.5713808     
  -49525273.1935933     
  -49526938.6094118     
  -49528612.1753237     
  -49530293.2664854     
  -49531981.2770524     
  -49533675.6204666     
  -49535375.7296927     
  -49537081.0574283     
  -49440842.8055886     
  -49441528.1089567     
  -49442251.0326898     
  -49443011.0874351     
  -49443807.7557355     
  -49444640.4936855     
  -49445508.7325675     
  -49446411.8804673     
  -49447349.3238669     
  -49448320.4292132     
  -49449324.5444592     
  -49450361.0005788     
  -49451429.1130505     
  -49452528.1833116     
  -49453657.5001796     
  -49454816.3412414     
  -49456003.9742081     
  -49457219.6582354     
  -49458462.6452089     
  -49459732.1809929     
  -49461027.5066445     
  -49462347.8595890     
  -49463692.4747608     
  -49465060.5857054     
  -49466451.4256461     
  -49467864.2285124     
  -49469298.2299327     
  -49470752.6681888     
  -49472226.7851351     
  -49473719.8270808     
  -49475231.0456350     
  -49476759.6985166     
  -49478305.0503280     
  -49479866.3732923     
  -49481442.9479551     
  -49483034.0638507     
  -49484639.0201322     
  -49486257.1261656     
  -49487887.7020881     
  -49489530.0793307     
  -49491183.6011032     
  -49492847.6228428     
  -49494521.5126258     
  -49496204.6515406     
  -49497896.4340224     
  -49499596.2681483     
  -49501303.5758926     
  -49503017.7933398     
  -49504738.3708584     
  -49506464.7732259     
  -49406976.1408542     
  -49407752.1676143     
  -49408562.1883643     
  -49409405.8175580     
  -49410282.6439360     
  -49411192.2318505     
  -49412134.1225832     
  -49413107.8356526     
  -49414112.8701085     
  -49415148.7058137     
  -49416214.8047083     
  -49417310.6120581     
  -49418435.5576832     
  -49419589.0571662     
  -49420770.5130398     
  -49421979.3159504     
  -49423214.8457988     
  -49424476.4728558     
  -49425763.5588520     
  -49427075.4580412     
  -49428411.5182371     
  -49429771.0818211     
  -49431153.4867232     
  -49432558.0673726     
  -49433984.1556200     
  -49435431.0816296     
  -49436898.1747417     
  -49438384.7643043     
  -49439890.1804747     
  -49441413.7549895     
  -49442954.8219047     
  -49444512.7183036     
  -49446086.7849733     
  -49447676.3670500     
  -49449280.8146322     
  -49450899.4833613     
  -49452531.7349708     
  -49454176.9378019     
  -49455834.4672867     
  -49457503.7063980     
  -49459184.0460655     
  -49460874.8855579     
  -49462575.6328303     
  -49464285.7048375     
  -49466004.5278106     
  -49467731.5374988     
  -49469466.1793738     
  -49471207.9087976     
  -49472956.1911515     
  -49474710.5019285     
  -49371375.6690480     
  -49372249.0316589     
  -49373153.3172580     
  -49374088.2120665     
  -49375053.3792329     
  -49376048.4598789     
  -49377073.0741436     
  -49378126.8222262     
  -49379209.2854226     
  -49380320.0271568     
  -49381458.5940034     
  -49382624.5167010     
  -49383817.3111541     
  -49385036.4794229     
  -49386281.5106985     
  -49387551.8822643     
  -49388847.0604400     
  -49390166.5015092     
  -49391509.6526281     
  -49392875.9527158     
  -49394264.8333239     
  -49395675.7194855     
  -49397108.0305429     
  -49398561.1809527     
  -49400034.5810684     
  -49401527.6378989     
  -49403039.7558442     
  -49404570.3374050     
  -49406118.7838688     
  -49407684.4959696     
  -49409266.8745220     
  -49410865.3210296     
  -49412479.2382658     
  -49414108.0308283     
  -49415751.1056658     
  -49417407.8725776     
  -49419077.7446843     
  -49420760.1388705     
  -49422454.4761989     
  -49424160.1822948     
  -49425876.6877013     
  -49427603.4282048     
  -49429339.8451299     
  -49431085.3856041     
  -49432839.5027908     
  -49434601.6560918     
  -49436371.3113172     
  -49438147.9408238     
  -49439931.0236204     
  -49441720.0454406     
  -49334028.0407614     
  -49335003.3066804     
  -49336006.9261096     
  -49337038.6317161     
  -49338098.1357993     
  -49339185.1311022     
  -49340299.2916273     
  -49341440.2734543     
  -49342607.7155589     
  -49343801.2406295     
  -49345020.4558828     
  -49346264.9538737     
  -49347534.3133009     
  -49348828.0998053     
  -49350145.8667599     
  -49351487.1560516     
  -49352851.4988510     
  -49354238.4163722     
  -49355647.4206194     
  -49357078.0151199     
  -49358529.6956432     
  -49360001.9509046     
  -49361494.2632532     
  -49363006.1093424     
  -49364536.9607836     
  -49366086.2847814     
  -49367653.5447501     
  -49369238.2009111     
  -49370839.7108696     
  -49372457.5301716     
  -49374091.1128395     
  -49375739.9118861     
  -49377403.3798071     
  -49379080.9690509     
  -49380772.1324657     
  -49382476.3237229     
  -49384192.9977182     
  -49385921.6109470     
  -49387661.6218572     
  -49389412.4911758     
  -49391173.6822115     
  -49392944.6611320     
  -49394724.8972146     
  -49396513.8630724     
  -49398311.0348529     
  -49400115.8924111     
  -49401927.9194551     
  -49403746.6036655     
  -49405571.4367867     
  -49407401.9146918     
  -49294907.4368387     
  -49295987.7473018     
  -49297094.2866732     
  -49298226.8143819     
  -49299385.0721314     
  -49300568.7845183     
  -49301777.6596594     
  -49303011.3898235     
  -49304269.6520671     
  -49305552.1088726     
  -49306858.4087876     
  -49308188.1870643     
  -49309541.0662967     
  -49310916.6570558     
  -49312314.5585202     
  -49313734.3591024     
  -49315175.6370684     
  -49316637.9611506     
  -49318120.8911522     
  -49319623.9785430     
  -49321146.7670452     
  -49322688.7932082     
  -49324249.5869722     
  -49325828.6722191     
  -49327425.5673108     
  -49329039.7856138     
  -49330670.8360087     
  -49332318.2233857     
  -49333981.4491238     
  -49335660.0115544     
  -49337353.4064077     
  -49339061.1272424     
  -49340782.6658577     
  -49342517.5126867     
  -49344265.1571722     
  -49346025.0881230     
  -49347796.7940508     
  -49349579.7634878     
  -49351373.4852842     
  -49353177.4488854     
  -49354991.1445885     
  -49356814.0637780     
  -49358645.6991405     
  -49360485.5448580     
  -49362333.0967791     
  -49364187.8525693     
  -49366049.3118389     
  -49367916.9762486     
  -49369790.3495934     
  -49371668.9378640     
  -49253976.5487343     
  -49255164.1023572     
  -49256376.1490564     
  -49257612.4599869     
  -49258872.7910778     
  -49260156.8834968     
  -49261464.4641229     
  -49262795.2460260     
  -49264148.9289535     
  -49265525.1998201     
  -49266923.7332022     
  -49268344.1918339     
  -49269786.2271046     
  -49271249.4795563     
  -49272733.5793803     
  -49274238.1469113     
  -49275762.7931198     
  -49277307.1200985     
  -49278870.7215463     
  -49280453.1832452     
  -49282054.0835306     
  -49283672.9937555     
  -49285309.4787458     
  -49286963.0972467     
  -49288633.4023605     
  -49290319.9419741     
  -49292022.2591748     
  -49293739.8926567     
  -49295472.3771133     
  -49297219.2436191     
  -49298980.0199976     
  -49300754.2311764     
  -49302541.3995279     
  -49304341.0451962     
  -49306152.6864093     
  -49307975.8397760     
  -49309810.0205679     
  -49311654.7429848     
  -49313509.5204051     
  -49315373.8656196     
  -49317247.2910477     
  -49319129.3089386     
  -49321019.4315543     
  -49322917.1713352     
  -49324822.0410494     
  -49326733.5539238     
  -49328651.2237575     
  -49330574.5650180     
  -49332503.0929196     
  -49334436.3234833     
  -49211187.5758445     
  -49212484.0004022     
  -49213803.5175494     
  -49215145.8988999     
  -49216510.9031566     
  -49217898.2764519     
  -49219307.7526981     
  -49220739.0539445     
  -49222191.8907425     
  -49223665.9625161     
  -49225160.9579371     
  -49226676.5553040     
  -49228212.4229247     
  -49229768.2194994     
  -49231343.5945065     
  -49232938.1885864     
  -49234551.6339271     
  -49236183.5546454     
  -49237833.5671685     
  -49239501.2806101     
  -49241186.2971445     
  -49242888.2123749     
  -49244606.6156967     
  -49246341.0906555     
  -49248091.2152979     
  -49249856.5625151     
  -49251636.7003796     
  -49253431.1924727     
  -49255239.5982039     
  -49257061.4731208     
  -49258896.3692092     
  -49260743.8351831     
  -49262603.4167642     
  -49264474.6569507     
  -49266357.0962737     
  -49268250.2730436     
  -49270153.7235828     
  -49272066.9824474     
  -49273989.5826356     
  -49275921.0557835     
  -49277860.9323481     
  -49279808.7417767     
  -49281764.0126633     
  -49283726.2728912     
  -49285695.0497617     
  -49287669.8701099     
  -49289650.2604059     
  -49291635.7468420     
  -49293625.8554071     
  -49295620.1119460     
  -49166483.1814835     
  -49167889.8147830     
  -49169318.4260223     
  -49170768.7790166     
  -49172240.6267816     
  -49173733.7117771     
  -49175247.7661596     
  -49176782.5120434     
  -49178337.6617687     
  -49179912.9181761     
  -49181507.9748858     
  -49183122.5165829     
  -49184756.2193053     
  -49186408.7507347     
  -49188079.7704904     
  -49189768.9304241     
  -49191475.8749157     
  -49193200.2411692     
  -49194941.6595072     
  -49196699.7536653     
  -49198474.1410836     
  -49200264.4331959     
  -49202070.2357161     
  -49203891.1489199     
  -49205726.7679233     
  -49207576.6829558     
  -49209440.4796278     
  -49211317.7391933     
  -49213208.0388050     
  -49215110.9517639     
  -49217026.0477610     
  -49218952.8931119     
  -49220891.0509831     
  -49222840.0816106     
  -49224799.5425095     
  -49226768.9886751     
  -49228747.9727747     
  -49230736.0453300     
  -49232732.7548898     
  -49234737.6481931     
  -49236750.2703222     
  -49238770.1648452     
  -49240796.8739488     
  -49242829.9385602     
  -49244868.8984585     
  -49246913.2923761     
  -49248962.6580884     
  -49251016.5324937     
  -49253074.4516823     
  -49255135.9509948     
  -49119797.3723753     
  -49121315.4704290     
  -49122854.6726005     
  -49124414.7290179     
  -49125995.3809161     
  -49127596.3608060     
  -49129217.3926516     
  -49130858.1920555     
  -49132518.4664501     
  -49134197.9152970     
  -49135896.2302903     
  -49137613.0955655     
  -49139348.1879128     
  -49141101.1769936     
  -49142871.7255601     
  -49144659.4896772     
  -49146464.1189461     
  -49148285.2567288     
  -49150122.5403733     
  -49151975.6014388     
  -49153844.0659202     
  -49155727.5544711     
  -49157625.6826259     
  -49159538.0610196     
  -49161464.2956039     
  -49163403.9878622     
  -49165356.7350194     
  -49167322.1302486     
  -49169299.7628731     
  -49171289.2185648     
  -49173290.0795354     
  -49175301.9247248     
  -49177324.3299819     
  -49179356.8682400     
  -49181399.1096864     
  -49183450.6219248     
  -49185510.9701310     
  -49187579.7172025     
  -49189656.4238993     
  -49191740.6489790     
  -49193831.9493232     
  -49195929.8800570     
  -49198033.9946600     
  -49200143.8450703     
  -49202258.9817798     
  -49204378.9539220     
  -49206503.3093514     
  -49208631.5947152     
  -49210763.3555169     
  -49212898.1361720     
  -49071056.2834788     
  -49072687.1714491     
  -49074338.4901638     
  -49076009.9720122     
  -49077701.3422037     
  -49079412.3188788     
  -49081142.6132287     
  -49082891.9296219     
  -49084659.9657366     
  -49086446.4127005     
  -49088250.9552342     
  -49090073.2718007     
  -49091913.0347591     
  -49093769.9105213     
  -49095643.5597127     
  -49097533.6373350     
  -49099439.7929319     
  -49101361.6707560     
  -49103298.9099370     
  -49105251.1446508     
  -49107218.0042889     
  -49109199.1136278     
  -49111194.0929971     
  -49113202.5584483     
  -49115224.1219201     
  -49117258.3914038     
  -49119304.9711055     
  -49121363.4616063     
  -49123433.4600196     
  -49125514.5601454     
  -49127606.3526208     
  -49129708.4250675     
  -49131820.3622346     
  -49133941.7461379     
  -49136072.1561938     
  -49138211.1693496     
  -49140358.3602081     
  -49142513.3011476     
  -49144675.5624365     
  -49146844.7123426     
  -49149020.3172366     
  -49151201.9416907     
  -49153389.1485706     
  -49155581.4991223     
  -49157778.5530531     
  -49159979.8686060     
  -49162185.0026292     
  -49164393.5106391     
  -49166604.9468774     
  -49168818.8643624     
  -49020178.8618213     
  -49021924.0406040     
  -49023689.1412892     
  -49025473.8758847     
  -49027277.9507536     
  -49029101.0666835     
  -49030942.9189606     
  -49032803.1974524     
  -49034681.5866945     
  -49036577.7659837     
  -49038491.4094757     
  -49040422.1862874     
  -49042369.7606036     
  -49044333.7917868     
  -49046313.9344910     
  -49048309.8387774     
  -49050321.1502336     
  -49052347.5100939     
  -49054388.5553618     
  -49056443.9189337     
  -49058513.2297233     
  -49060596.1127866     
  -49062692.1894475     
  -49064801.0774225     
  -49066922.3909456     
  -49069055.7408919     
  -49071200.7349008     
  -49073356.9774969     
  -49075524.0702099     
  -49077701.6116928     
  -49079889.1978369     
  -49082086.4218855     
  -49084292.8745441     
  -49086508.1440886     
  -49088731.8164697     
  -49090963.4754147     
  -49093202.7025250     
  -49095449.0773714     
  -49097702.1775847     
  -49099961.5789425     
  -49102226.8554528     
  -49104497.5794330     
  -49106773.3215850     
  -49109053.6510664     
  -49111338.1355568     
  -49113626.3413209     
  -49115917.8332666     
  -49118212.1749991     
  -49120508.9288708     
  -49122807.6560271     
  -48967077.4509218     
  -48968938.6698652     
  -48970819.4345993     
  -48972719.4351723     
  -48974638.3573677     
  -48976575.8827402     
  -48978531.6886583     
  -48980505.4483513     
  -48982496.8309623     
  -48984505.5016056     
  -48986531.1214282     
  -48988573.3476762     
  -48990631.8337642     
  -48992706.2293482     
  -48994796.1804025     
  -48996901.3292980     
  -48999021.3148837     
  -49001155.7725707     
  -49003304.3344172     
  -49005466.6292155     
  -49007642.2825798     
  -49009830.9170361     
  -49012032.1521109     
  -49014245.6044222     
  -49016470.8877691     
  -49018707.6132223     
  -49020955.3892135     
  -49023213.8216247     
  -49025482.5138768     
  -49027761.0670160     
  -49030049.0798008     
  -49032346.1487857     
  -49034651.8684044     
  -49036965.8310510     
  -49039287.6271592     
  -49041616.8452787     
  -49043953.0721510     
  -49046295.8927809     
  -49048644.8905068     
  -49050999.6470682     
  -49053359.7426698     
  -49055724.7560443     
  -49058094.2645106     
  -49060467.8440306     
  -49062845.0692627     
  -49065225.5136116     
  -49067608.7492766     
  -49069994.3472955     
  -49072381.8775869     
  -49074770.9089885     
  -48911658.2823445     
  -48913637.5865209     
  -48915636.1649717     
  -48917653.6850060     
  -48919689.8109135     
  -48921744.2039772     
  -48923816.5224908     
  -48925906.4217797     
  -48928013.5542279     
  -48930137.5693081     
  -48932278.1136152     
  -48934434.8309047     
  -48936607.3621330     
  -48938795.3455016     
  -48940998.4165043     
  -48943216.2079759     
  -48945448.3501443     
  -48947694.4706844     
  -48949954.1947730     
  -48952227.1451469     
  -48954512.9421609     
  -48956811.2038474     
  -48959121.5459775     
  -48961443.5821216     
  -48963776.9237121     
  -48966121.1801047     
  -48968475.9586409     
  -48970840.8647102     
  -48973215.5018120     
  -48975599.4716167     
  -48977992.3740268     
  -48980393.8072368     
  -48982803.3677925     
  -48985220.6506491     
  -48987645.2492279     
  -48990076.7554723     
  -48992514.7599019     
  -48994958.8516655     
  -48997408.6185919     
  -48999863.6472398     
  -49002323.5229454     
  -49004787.8298688     
  -49007256.1510374     
  -49009728.0683891     
  -49012203.1628121     
  -49014681.0141834     
  -49017161.2014055     
  -49019643.3024410     
  -49022126.8943450     
  -49024611.5532962     
  -48853821.8837670     
  -48855921.6424255     
  -48858040.4834806     
  -48860178.0513158     
  -48862333.9884295     
  -48864507.9354288     
  -48866699.5310288     
  -48868908.4120543     
  -48871134.2134462     
  -48873376.5682700     
  -48875635.1077293     
  -48877909.4611805     
  -48880199.2561514     
  -48882504.1183624     
  -48884823.6717496     
  -48887157.5384909     
  -48889505.3390336     
  -48891866.6921240     
  -48894241.2148392     
  -48896628.5226197     
  -48899028.2293042     
  -48901439.9471647     
  -48903863.2869433     
  -48906297.8578896     
  -48908743.2677991     
  -48911199.1230512     
  -48913665.0286490     
  -48916140.5882582     
  -48918625.4042466     
  -48921119.0777238     
  -48923621.2085799     
  -48926131.3955250     
  -48928649.2361276     
  -48931174.3268525     
  -48933706.2630987     
  -48936244.6392361     
  -48938789.0486413     
  -48941339.0837332     
  -48943894.3360068     
  -48946454.3960670     
  -48949018.8536607     
  -48951587.2977075     
  -48954159.3163306     
  -48956734.4968851     
  -48959312.4259857     
  -48961892.6895336     
  -48964474.8727414     
  -48967058.5601575     
  -48969643.3356891     
  -48972228.7826236     
  -48793463.4143127     
  -48795686.3356469     
  -48797928.2048639     
  -48800188.6436771     
  -48802467.2729567     
  -48804763.7127114     
  -48807077.5820727     
  -48809408.4992821     
  -48811756.0816812     
  -48814119.9457050     
  -48816499.7068767     
  -48818894.9798067     
  -48821305.3781924     
  -48823730.5148205     
  -48826170.0015724     
  -48828623.4494303     
  -48831090.4684857     
  -48833570.6679493     
  -48836063.6561633     
  -48838569.0406135     
  -48841086.4279442     
  -48843615.4239737     
  -48846155.6337104     
  -48848706.6613704     
  -48851268.1103957     
  -48853839.5834728     
  -48856420.6825526     
  -48859011.0088696     
  -48861610.1629623     
  -48864217.7446938     
  -48866833.3532720     
  -48869456.5872703     
  -48872087.0446483     
  -48874724.3227718     
  -48877368.0184337     
  -48880017.7278730     
  -48882673.0467953     
  -48885333.5703914     
  -48887998.8933565     
  -48890668.6099081     
  -48893342.3138039     
  -48896019.5983590     
  -48898700.0564623     
  -48901383.2805926     
  -48904068.8628335     
  -48906756.3948887     
  -48909445.4680952     
  -48912135.6734369     
  -48914826.6015575     
  -48917517.8427721     
  -48730472.9382907     
  -48732822.0744176     
  -48735190.0612128     
  -48737576.4983042     
  -48739980.9854478     
  -48742403.1224984     
  -48744842.5093832     
  -48747298.7460768     
  -48749771.4325792     
  -48752260.1688956     
  -48754764.5550182     
  -48757284.1909101     
  -48759818.6764912     
  -48762367.6116251     
  -48764930.5961090     
  -48767507.2296640     
  -48770097.1119275     
  -48772699.8424471     
  -48775315.0206752     
  -48777942.2459654     
  -48780581.1175700     
  -48783231.2346384     
  -48785892.1962162     
  -48788563.6012455     
  -48791245.0485660     
  -48793936.1369166     
  -48796636.4649377     
  -48799345.6311741     
  -48802063.2340779     
  -48804788.8720128     
  -48807522.1432574     
  -48810262.6460099     
  -48813009.9783919     
  -48815763.7384537     
  -48818523.5241780     
  -48821288.9334851     
  -48824059.5642369     
  -48826835.0142419     
  -48829614.8812590     
  -48832398.7630019     
  -48835186.2571430     
  -48837976.9613170     
  -48840770.4731247     
  -48843566.3901361     
  -48846364.3098931     
  -48849163.8299128     
  -48851964.5476893     
  -48854766.0606963     
  -48857567.9663885     
  -48860369.8622037     
  -48664735.6482513     
  -48667214.3932985     
  -48669711.9108017     
  -48672227.7791423     
  -48674761.5777464     
  -48677312.8870471     
  -48679881.2884491     
  -48682466.3642935     
  -48685067.6978258     
  -48687684.8731647     
  -48690317.4752723     
  -48692965.0899260     
  -48695627.3036922     
  -48698303.7039006     
  -48700993.8786202     
  -48703697.4166368     
  -48706413.9074316     
  -48709142.9411600     
  -48711884.1086332     
  -48714637.0012995     
  -48717401.2112265     
  -48720176.3310854     
  -48722961.9541349     
  -48725757.6742063     
  -48728563.0856895     
  -48731377.7835195     
  -48734201.3631633     
  -48737033.4206078     
  -48739873.5523479     
  -48742721.3553747     
  -48745576.4271651     
  -48748438.3656704     
  -48751306.7693067     
  -48754181.2369441     
  -48757061.3678970     
  -48759946.7619146     
  -48762837.0191710     
  -48765731.7402560     
  -48768630.5261653     
  -48771532.9782917     
  -48774438.6984158     
  -48777347.2886961     
  -48780258.3516606     
  -48783171.4901971     
  -48786086.3075440     
  -48789002.4072812     
  -48791919.3933205     
  -48794836.8698969     
  -48797754.4415586     
  -48800671.7131583     
  -48596132.0476774     
  -48598744.1310692     
  -48601374.9107794     
  -48604023.9449855     
  -48606690.7937874     
  -48609375.0191630     
  -48612076.1849232     
  -48614793.8566701     
  -48617527.6017540     
  -48620276.9892335     
  -48623041.5898354     
  -48625820.9759160     
  -48628614.7214238     
  -48631422.4018624     
  -48634243.5942550     
  -48637077.8771097     
  -48639924.8303858     
  -48642784.0354603     
  -48645655.0750961     
  -48648537.5334108     
  -48651430.9958456     
  -48654335.0491360     
  -48657249.2812819     
  -48660173.2815201     
  -48663106.6402953     
  -48666048.9492335     
  -48668999.8011149     
  -48671958.7898480     
  -48674925.5104433     
  -48677899.5589884     
  -48680880.5326227     
  -48683868.0295136     
  -48686861.6488312     
  -48689860.9907255     
  -48692865.6563023     
  -48695875.2476002     
  -48698889.3675676     
  -48701907.6200394     
  -48704929.6097155     
  -48707954.9421376     
  -48710983.2236674     
  -48714014.0614646     
  -48717047.0634652     
  -48720081.8383601     
  -48723117.9955728     
  -48726155.1452393     
  -48729192.8981859     
  -48732230.8659092     
  -48735268.6605544     
  -48738305.8948953     
  -48524538.1028597     
  -48527287.5792570     
  -48530055.6619964     
  -48532841.8902692     
  -48535645.8060420     
  -48538466.9540047     
  -48541304.8815184     
  -48544159.1385643     
  -48547029.2776935     
  -48549914.8539767     
  -48552815.4249553     
  -48555730.5505926     
  -48558659.7932263     
  -48561602.7175210     
  -48564558.8904216     
  -48567527.8811077     
  -48570509.2609476     
  -48573502.6034545     
  -48576507.4842416     
  -48579523.4809793     
  -48582550.1733517     
  -48585587.1430146     
  -48588633.9735537     
  -48591690.2504429     
  -48594755.5610042     
  -48597829.4943668     
  -48600911.6414276     
  -48604001.5948120     
  -48607098.9488345     
  -48610203.2994606     
  -48613314.2442686     
  -48616431.3824121     
  -48619554.3145822     
  -48622682.6429709     
  -48625815.9712344     
  -48628953.9044569     
  -48632096.0491145     
  -48635242.0130393     
  -48638391.4053847     
  -48641543.8365897     
  -48644698.9183442     
  -48647856.2635550     
  -48651015.4863107     
  -48654176.2018486     
  -48657338.0265206     
  -48660500.5777595     
  -48663663.4740464     
  -48666826.3348777     
  -48669988.7807321     
  -48673150.4330389     
  -48449825.3726694     
  -48452716.6095184     
  -48455626.3336834     
  -48458554.0667510     
  -48461499.3339225     
  -48464461.6639539     
  -48467440.5890959     
  -48470435.6450350     
  -48473446.3708340     
  -48476472.3088728     
  -48479513.0047901     
  -48482568.0074255     
  -48485636.8687606     
  -48488719.1438623     
  -48491814.3908252     
  -48494922.1707151     
  -48498042.0475121     
  -48501173.5880549     
  -48504316.3619856     
  -48507469.9416934     
  -48510633.9022610     
  -48513807.8214094     
  -48516991.2794443     
  -48520183.8592024     
  -48523385.1459980     
  -48526594.7275706     
  -48529812.1940324     
  -48533037.1378159     
  -48536269.1536230     
  -48539507.8383729     
  -48542752.7911520     
  -48546003.6131630     
  -48549259.9076746     
  -48552521.2799722     
  -48555787.3373079     
  -48559057.6888520     
  -48562331.9456439     
  -48565609.7205435     
  -48568890.6281838     
  -48572174.2849225     
  -48575460.3087951     
  -48578748.3194677     
  -48582037.9381901     
  -48585328.7877496     
  -48588620.4924252     
  -48591912.6779415     
  -48595204.9714234     
  -48598497.0013516     
  -48601788.3975173     
  -48605078.7909783     
  -48371861.1241230     
  -48374898.7873769     
  -48377954.7750938     
  -48381028.5928021     
  -48384119.7504804     
  -48387227.7624887     
  -48390352.1475005     
  -48393492.4284340     
  -48396648.1323841     
  -48399818.7905540     
  -48403003.9381865     
  -48406203.1144961     
  -48409415.8626004     
  -48412641.7294521     
  -48415880.2657715     
  -48419131.0259780     
  -48422393.5681231     
  -48425667.4538227     
  -48428952.2481901     
  -48432247.5197691     
  -48435552.8404675     
  -48438867.7854903     
  -48442191.9332742     
  -48445524.8654214     
  -48448866.1666343     
  -48452215.4246502     
  -48455572.2301766     
  -48458936.1768266     
  -48462306.8610547     
  -48465683.8820926     
  -48469066.8418864     
  -48472455.3450329     
  -48475848.9987163     
  -48479247.4126467     
  -48482650.1989973     
  -48486056.9723427     
  -48489467.3495972     
  -48492880.9499543     
  -48496297.3948254     
  -48499716.3077796     
  -48503137.3144838     
  -48506560.0426431     
  -48509984.1219409     
  -48513409.1839809     
  -48516834.8622282     
  -48520260.7919510     
  -48523686.6101631     
  -48527111.9555664     
  -48530536.4684943     
  -48533959.7908546     
  -48290508.4408699     
  -48293697.4791494     
  -48296904.6206394     
  -48300129.3565338     
  -48303371.1833154     
  -48306629.6026786     
  -48309904.1214511     
  -48313194.2515163     
  -48316499.5097348     
  -48319819.4178652     
  -48323153.5024862     
  -48326501.2949169     
  -48329862.3311378     
  -48333236.1517119     
  -48336622.3017055     
  -48340020.3306088     
  -48343429.7922568     
  -48346850.2447507     
  -48350281.2503780     
  -48353722.3755347     
  -48357173.1906458     
  -48360633.2700871     
  -48364102.1921069     
  -48367579.5387475     
  -48371064.8957678     
  -48374557.8525652     
  -48378058.0020982     
  -48381564.9408093     
  -48385078.2685483     
  -48388597.5884953     
  -48392122.5070849     
  -48395652.6339297     
  -48399187.5817450     
  -48402726.9662734     
  -48406270.4062099     
  -48409817.5231268     
  -48413367.9414002     
  -48416921.2881354     
  -48420477.1930937     
  -48424035.2886193     
  -48427595.2095662     
  -48431156.5932260     
  -48434719.0792561     
  -48438282.3096078     
  -48441845.9284552     
  -48445409.5821248     
  -48448972.9190244     
  -48452535.5895740     
  -48456097.2461360     
  -48459657.5429462     
  -48205626.3310552     
  -48208971.9582817     
  -48212335.3945085     
  -48215716.1185142     
  -48219113.6152155     
  -48222527.3755791     
  -48225956.8965332     
  -48229401.6808785     
  -48232861.2371987     
  -48236335.0797703     
  -48239822.7284728     
  -48243323.7086977     
  -48246837.5512580     
  -48250363.7922971     
  -48253901.9731977     
  -48257451.6404905     
  -48261012.3457629     
  -48264583.6455677     
  -48268165.1013314     
  -48271756.2792636     
  -48275356.7502650     
  -48278966.0898366     
  -48282583.8779887     
  -48286209.6991497     
  -48289843.1420758     
  -48293483.7997601     
  -48297131.2693424     
  -48300785.1520192     
  -48304445.0529538     
  -48308110.5811867     
  -48311781.3495463     
  -48315456.9745600     
  -48319137.0763655     
  -48322821.2786223     
  -48326509.2084241     
  -48330200.4962104     
  -48333894.7756801     
  -48337591.6837040     
  -48341290.8602384     
  -48344991.9482390     
  -48348694.5935751     
  -48352398.4449443     
  -48356103.1537876     
  -48359808.3742048     
  -48363513.7628707     
  -48367218.9789513     
  -48370923.6840206     
  -48374627.5419780     
  -48378330.2189661     
  -48382031.3832889     
  -48117069.8404111     
  -48120577.5167727     
  -48124102.6202667     
  -48127644.6193971     
  -48131202.9896700     
  -48134777.2134933     
  -48138366.7800757     
  -48141971.1853260     
  -48145589.9317504     
  -48149222.5283509     
  -48152868.4905217     
  -48156527.3399468     
  -48160198.6044956     
  -48163881.8181199     
  -48167576.5207493     
  -48171282.2581871     
  -48174998.5820064     
  -48178725.0494452     
  -48182461.2233021     
  -48186206.6718319     
  -48189960.9686412     
  -48193723.6925838     
  -48197494.4276566     
  -48201272.7628955     
  -48205058.2922712     
  -48208850.6145854     
  -48212649.3333671     
  -48216454.0567695     
  -48220264.3974663     
  -48224079.9725492     
  -48227900.4034252     
  -48231725.3157140     
  -48235554.3391465     
  -48239387.1074624     
  -48243223.2583096     
  -48247062.4331428     
  -48250904.2771231     
  -48254748.4390177     
  -48258594.5711001     
  -48262442.3290508     
  -48266291.3718582     
  -48270141.3617203     
  -48273991.9639466     
  -48277842.8468601     
  -48281693.6817005     
  -48285544.1425274     
  -48289393.9061243     
  -48293242.6519021     
  -48297090.0618050     
  -48300935.8202148     
  -48024690.1759186     
  -48028365.5868976     
  -48032057.9405202     
  -48035766.6974086     
  -48039491.3260681     
  -48043231.3027729     
  -48046986.1114524     
  -48050755.2435756     
  -48054538.1980352     
  -48058334.4810320     
  -48062143.6059576     
  -48065965.0932775     
  -48069798.4704139     
  -48073643.2716276     
  -48077499.0379005     
  -48081365.3168169     
  -48085241.6624460     
  -48089127.6352228     
  -48093022.8018304     
  -48096926.7350811     
  -48100839.0137982     
  -48104759.2226978     
  -48108686.9522707     
  -48112621.7986640     
  -48116563.3635635     
  -48120511.2540758     
  -48124465.0826110     
  -48128424.4667654     
  -48132389.0292043     
  -48136358.3975455     
  -48140332.2042430     
  -48144310.0864707     
  -48148291.6860067     
  -48152276.6491180     
  -48156264.6264455     
  -48160255.2728895     
  -48164248.2474952     
  -48168243.2133392     
  -48172239.8374160     
  -48176237.7905252     
  -48180236.7471589     
  -48184236.3853898     
  -48188236.3867598     
  -48192236.4361686     
  -48196236.2217636     
  -48200235.4348296     
  -48204233.7696793     
  -48208230.9235444     
  -48212226.5964669     
  -48216220.4911912     
  -47928334.8449341     
  -47932183.8780290     
  -47936049.2513447     
  -47939930.4202984     
  -47943826.8490898     
  -47947738.0105721     
  -47951663.3861226     
  -47955602.4655111     
  -47959554.7467698     
  -47963519.7360613     
  -47967496.9475472     
  -47971485.9032552     
  -47975486.1329469     
  -47979497.1739852     
  -47983518.5712009     
  -47987549.8767600     
  -47991590.6500304     
  -47995640.4574489     
  -47999698.8723873     
  -48003765.4750204     
  -48007839.8521918     
  -48011921.5972818     
  -48016010.3100744     
  -48020105.5966242     
  -48024207.0691247     
  -48028314.3457757     
  -48032427.0506516     
  -48036544.8135698     
  -48040667.2699592     
  -48044794.0607293     
  -48048924.8321401     
  -48053059.2356709     
  -48057196.9278913     
  -48061337.5703313     
  -48065480.8293524     
  -48069626.3760190     
  -48073773.8859703     
  -48077923.0392924     
  -48082073.5203914     
  -48086225.0178663     
  -48090377.2243830     
  -48094529.8365487     
  -48098682.5547862     
  -48102835.0832096     
  -48106987.1294999     
  -48111138.4047817     
  -48115288.6234995     
  -48119437.5032958     
  -48123584.7648889     
  -48127730.1319514     
  -47827847.8142905     
  -47831876.5330001     
  -47835920.8558550     
  -47839980.2360639     
  -47844054.1365359     
  -47848142.0297334     
  -47852243.3975257     
  -47856357.7310413     
  -47860484.5305198     
  -47864623.3051642     
  -47868773.5729921     
  -47872934.8606867     
  -47877106.7034486     
  -47881288.6448462     
  -47885480.2366668     
  -47889681.0387676     
  -47893890.6189267     
  -47898108.5526940     
  -47902334.4232423     
  -47906567.8212188     
  -47910808.3445963     
  -47915055.5985251     
  -47919309.1951848     
  -47923568.7536365     
  -47927833.8996755     
  -47932104.2656836     
  -47936379.4904831     
  -47940659.2191896     
  -47944943.1030662     
  -47949230.7993777     
  -47953521.9712458     
  -47957816.2875034     
  -47962113.4225514     
  -47966413.0562137     
  -47970714.8735944     
  -47975018.5649348     
  -47979323.8254707     
  -47983630.3552910     
  -47987937.8591958     
  -47992246.0465556     
  -47996554.6311715     
  -48000863.3311349     
  -48005171.8686884     
  -48009479.9700872     
  -48013787.3654612     
  -48018093.7886774     
  -48022398.9772029     
  -48026702.6719687     
  -48031004.6172341     
  -48035304.5604516     
  -47723069.6935153     
  -47727284.3081120     
  -47731513.6409828     
  -47735757.1464804     
  -47740014.2895899     
  -47744284.5457635     
  -47748567.4007548     
  -47752862.3504528     
  -47757168.9007157     
  -47761486.5672044     
  -47765814.8752167     
  -47770153.3595199     
  -47774501.5641854     
  -47778859.0424214     
  -47783225.3564077     
  -47787600.0771286     
  -47791982.7842079     
  -47796373.0657430     
  -47800770.5181394     
  -47805174.7459457     
  -47809585.3616893     
  -47814001.9857116     
  -47818424.2460043     
  -47822851.7780455     
  -47827284.2246370     
  -47831721.2357414     
  -47836162.4683198     
  -47840607.5861701     
  -47845056.2597658     
  -47849508.1660950     
  -47853962.9885005     
  -47858420.4165196     
  -47862880.1457256     
  -47867341.8775681     
  -47871805.3192159     
  -47876270.1833991     
  -47880736.1882519     
  -47885203.0571564     
  -47889670.5185869     
  -47894138.3059544     
  -47898606.1574523     
  -47903073.8159021     
  -47907541.0285998     
  -47912007.5471639     
  -47916473.1273823     
  -47920937.5290612     
  -47925400.5158741     
  -47929861.8552115     
  -47934321.3180312     
  -47938778.6787094     
  -47613837.9459672     
  -47618244.7805745     
  -47622665.2812388     
  -47627098.9071989     
  -47631545.1292687     
  -47636003.4296515     
  -47640473.3017539     
  -47644954.2499995     
  -47649445.7896437     
  -47653947.4465873     
  -47658458.7571912     
  -47662979.2680914     
  -47667508.5360137     
  -47672046.1275890     
  -47676591.6191696     
  -47681144.5966449     
  -47685704.6552580     
  -47690271.3994229     
  -47694844.4425422     
  -47699423.4068246     
  -47704007.9231042     
  -47708597.6306590     
  -47713192.1770312     
  -47717791.2178467     
  -47722394.4166365     
  -47727001.4446580     
  -47731611.9807170     
  -47736225.7109902     
  -47740842.3288487     
  -47745461.5346816     
  -47750083.0357207     
  -47754706.5458656     
  -47759331.7855092     
  -47763958.4813644     
  -47768586.3662909     
  -47773215.1791230     
  -47777844.6644977     
  -47782474.5726837     
  -47787104.6594112     
  -47791734.6857016     
  -47796364.4176990     
  -47800993.6265011     
  -47805622.0879919     
  -47810249.5826739     
  -47814875.8955024     
  -47819500.8157189     
  -47824124.1366863     
  -47828745.6557243     
  -47833365.1739453     
  -47837982.4960918     
  -47499987.1313256     
  -47504592.5868275     
  -47509210.4729217     
  -47513840.2578984     
  -47518481.4225691     
  -47523133.4600588     
  -47527795.8755981     
  -47532468.1863162     
  -47537149.9210337     
  -47541840.6200570     
  -47546539.8349725     
  -47551247.1284411     
  -47555962.0739947     
  -47560684.2558321     
  -47565413.2686162     
  -47570148.7172714     
  -47574890.2167830     
  -47579637.3919952     
  -47584389.8774123     
  -47589147.3169989     
  -47593909.3639812     
  -47598675.6806499     
  -47603445.9381629     
  -47608219.8163493     
  -47612997.0035139     
  -47617777.1962428     
  -47622560.0992095     
  -47627345.4249815     
  -47632132.8938287     
  -47636922.2335309     
  -47641713.1791877     
  -47646505.4730281     
  -47651298.8642212     
  -47656093.1086874     
  -47660887.9689105     
  -47665683.2137509     
  -47670478.6182583     
  -47675273.9634865     
  -47680069.0363082     
  -47684863.6292301     
  -47689657.5402097     
  -47694450.5724717     
  -47699242.5343263     
  -47704033.2389868     
  -47708822.5043888     
  -47713610.1530102     
  -47718396.0116909     
  -47723179.9114547     
  -47727961.6873300     
  -47732741.1781730     
  -47381349.1824570     
  -47386159.6948136     
  -47390981.2018983     
  -47395813.1856691     
  -47400655.1415456     
  -47405506.5781779     
  -47410367.0172156     
  -47415235.9930790     
  -47420113.0527301     
  -47424997.7554455     
  -47429889.6725900     
  -47434788.3873915     
  -47439693.4947167     
  -47444604.6008480     
  -47449521.3232618     
  -47454443.2904072     
  -47459370.1414867     
  -47464301.5262374     
  -47469237.1047131     
  -47474176.5470681     
  -47479119.5333416     
  -47484065.7532433     
  -47489014.9059398     
  -47493966.6998425     
  -47498920.8523957     
  -47503877.0898666     
  -47508835.1471353     
  -47513794.7674866     
  -47518755.7024018     
  -47523717.7113526     
  -47528680.5615941     
  -47533644.0279605     
  -47538607.8926604     
  -47543571.9450734     
  -47548535.9815470     
  -47553499.8051951     
  -47558463.2256965     
  -47563426.0590945     
  -47568388.1275968     
  -47573349.2593770     
  -47578309.2883755     
  -47583268.0541025     
  -47588225.4014404     
  -47593181.1804482     
  -47598135.2461649     
  -47603087.4584152     
  -47608037.6816154     
  -47612985.7845787     
  -47617931.6403236     
  -47622875.1258807     
  -47257753.7192054     
  -47262775.7128363     
  -47267807.0476778     
  -47272847.2244450     
  -47277895.7582369     
  -47282952.1782806     
  -47288016.0276774     
  -47293086.8631511     
  -47298164.2547969     
  -47303247.7858330     
  -47308337.0523532     
  -47313431.6630812     
  -47318531.2391269     
  -47323635.4137438     
  -47328743.8320883     
  -47333856.1509801     
  -47338972.0386651     
  -47344091.1745785     
  -47349213.2491105     
  -47354337.9633722     
  -47359465.0289645     
  -47364594.1677462     
  -47369725.1116058     
  -47374857.6022324     
  -47379991.3908890     
  -47385126.2381868     
  -47390261.9138604     
  -47395398.1965439     
  -47400534.8735490     
  -47405671.7406426     
  -47410808.6018266     
  -47415945.2691182     
  -47421081.5623307     
  -47426217.3088562     
  -47431352.3434474     
  -47436486.5080020     
  -47441619.6513469     
  -47446751.6290230     
  -47451882.3030714     
  -47457011.5418194     
  -47462139.2196679     
  -47467265.2168792     
  -47472389.4193655     
  -47477511.7184774     
  -47482632.0107944     
  -47487750.1979145     
  -47492866.1862453     
  -47497979.8867955     
  -47503091.2149672     
  -47508200.0903481     
  -47129028.4010714     
  -47134268.2371031     
  -47139515.5260233     
  -47144769.7928778     
  -47150030.5779851     
  -47155297.4366558     
  -47160569.9389162     
  -47165847.6692331     
  -47171130.2262417     
  -47176417.2224752     
  -47181708.2840978     
  -47187003.0506385     
  -47192301.1747287     
  -47197602.3218409     
  -47202906.1700295     
  -47208212.4096749     
  -47213520.7432275     
  -47218830.8849558     
  -47224142.5606948     
  -47229455.5075969     
  -47234769.4738843     
  -47240084.2186031     
  -47245399.5113789     
  -47250715.1321738     
  -47256030.8710454     
  -47261346.5279061     
  -47266661.9122846     
  -47271976.8430883     
  -47277291.1483666     
  -47282604.6650758     
  -47287917.2388443     
  -47293228.7237397     
  -47298538.9820358     
  -47303847.8839812     
  -47309155.3075679     
  -47314461.1383020     
  -47319765.2689734     
  -47325067.5994273     
  -47330368.0363360     
  -47335666.4929716     
  -47340962.8889781     
  -47346257.1501459     
  -47351549.2081849     
  -47356839.0004995     
  -47362126.4699636     
  -47367411.5646957     
  -47372694.2378350     
  -47377974.4473178     
  -47383252.1556542     
  -47388527.3297057     
  -46994999.3200257     
  -47000463.2394025     
  -47005932.4717570     
  -47011406.5725213     
  -47016885.1132366     
  -47022367.6812497     
  -47027853.8794136     
  -47033343.3257910     
  -47038835.6533608     
  -47044330.5097286     
  -47049827.5568400     
  -47055326.4706965     
  -47060826.9410748     
  -47066328.6712489     
  -47071831.3777146     
  -47077334.7899173     
  -47082838.6499811     
  -47088342.7124420     
  -47093846.7439815     
  -47099350.5231638     
  -47104853.8401744     
  -47110356.4965609     
  -47115858.3049754     
  -47121359.0889186     
  -47126858.6824860     
  -47132356.9301149     
  -47137853.6863332     
  -47143348.8155096     
  -47148842.1916047     
  -47154333.6979228     
  -47159823.2268664     
  -47165310.6796892     
  -47170795.9662517     
  -47176279.0047772     
  -47181759.7216076     
  -47187238.0509614     
  -47192713.9346905     
  -47198187.3220386     
  -47203658.1694000     
  -47209126.4400780     
  -47214592.1040446     
  -47220055.1377000     
  -47225515.5236322     
  -47230973.2503771     
  -47236428.3121793     
  -47241880.7087520     
  -47247330.4450383     
  -47252777.5309719     
  -47258221.9812384     
  -47263663.8150365     
  -46855491.4338237     
  -46861185.4955651     
  -46866882.4627026     
  -46872581.9275704     
  -46878283.4993741     
  -46883986.8038664     
  -46889691.4830264     
  -46895397.1947434     
  -46901103.6125055     
  -46906810.4250921     
  -46912517.3362704     
  -46918224.0644955     
  -46923930.3426149     
  -46929635.9175762     
  -46935340.5501378     
  -46941044.0145832     
  -46946746.0984386     
  -46952446.6021931     
  -46958145.3390211     
  -46963842.1345085     
  -46969536.8263801     
  -46975229.2642296     
  -46980919.3092520     
  -46986606.8339775     
  -46992291.7220073     
  -46997973.8677509     
  -47003653.1761647     
  -47009329.5624925     
  -47015002.9520061     
  -47020673.2797480     
  -47026340.4902744     
  -47032004.5373988     
  -47037665.3839369     
  -47043323.0014513     
  -47048977.3699970     
  -47054628.4778676     
  -47060276.3213407     
  -47065920.9044248     
  -47071562.2386051     
  -47077200.3425898     
  -47082835.2420572     
  -47088466.9694008     
  -47094095.5634762     
  -47099721.0693471     
  -47105343.5380305     
  -47110963.0262431     
  -47116579.5961458     
  -47122193.3150901     
  -47127804.2553624     
  -47133412.4939287     
  -46710329.0391124     
  -46716259.0543943     
  -46722189.2848509     
  -46728119.3666476     
  -46734048.9534838     
  -46739977.7162506     
  -46745905.3426919     
  -46751831.5370733     
  -46757756.0198549     
  -46763678.5273704     
  -46769598.8115104     
  -46775516.6394113     
  -46781431.7931483     
  -46787344.0694327     
  -46793253.2793132     
  -46799159.2478818     
  -46805061.8139823     
  -46810960.8299225     
  -46816856.1611902     
  -46822747.6861710     
  -46828635.2958696     
  -46834518.8936329     
  -46840398.3948762     
  -46846273.7268104     
  -46852144.8281712     
  -46858011.6489507     
  -46863874.1501289     
  -46869732.3034080     
  -46875586.0909458     
  -46881435.5050921     
  -46887280.5481232     
  -46893121.2319793     
  -46898957.5780001     
  -46904789.6166624     
  -46910617.3873157     
  -46916440.9379197     
  -46922260.3247800     
  -46928075.6122846     
  -46933886.8726386     
  -46939694.1856001     
  -46945497.6382139     
  -46951297.3245456     
  -46957093.3454145     
  -46962885.8081258     
  -46968674.8262021     
  -46974460.5191141     
  -46980243.0120105     
  -46986022.4354467     
  -46991798.9251137     
  -46997572.6215652     
  -46559336.2823227     
  -46565507.7455925     
  -46571676.4378160     
  -46577842.0462517     
  -46584004.2762252     
  -46590162.8507729     
  -46596317.5102911     
  -46602468.0121943     
  -46608614.1305788     
  -46614755.6558930     
  -46620892.3946148     
  -46627024.1689329     
  -46633150.8164359     
  -46639272.1898044     
  -46645388.1565093     
  -46651498.5985137     
  -46657603.4119799     
  -46663702.5069792     
  -46669795.8072055     
  -46675883.2496926     
  -46681964.7845336     
  -46688040.3746034     
  -46694109.9952827     
  -46700173.6341852     
  -46706231.2908849     
  -46712282.9766461     
  -46718328.7141535     
  -46724368.5372439     
  -46730402.4906378     
  -46736430.6296722     
  -46742453.0200323     
  -46748469.7374846     
  -46754480.8676081     
  -46760486.5055264     
  -46766486.7556382     
  -46772481.7313473     
  -46778471.5547918     
  -46784456.3565717     
  -46790436.2754755     
  -46796411.4582058     
  -46802382.0591026     
  -46808348.2398659     
  -46814310.1692764     
  -46820268.0229139     
  -46826221.9828758     
  -46832172.2374915     
  -46838118.9810371     
  -46844062.4134474     
  -46850002.7400265     
  -46855940.1711570     
  -46402337.7048160     
  -46408755.7238600     
  -46415167.6784742     
  -46421573.3144813     
  -46427972.3961399     
  -46434364.7057812     
  -46440750.0434544     
  -46447128.2265814     
  -46453499.0896195     
  -46459862.4837314     
  -46466218.2764629     
  -46472566.3514277     
  -46478906.6079976     
  -46485238.9609996     
  -46491563.3404184     
  -46497879.6911029     
  -46504187.9724789     
  -46510488.1582645     
  -46516780.2361902     
  -46523064.2077218     
  -46529340.0877862     
  -46535607.9045001     
  -46541867.6989001     
  -46548119.5246748     
  -46554363.4478990     
  -46560599.5467668     
  -46566827.9113280     
  -46573048.6432220     
  -46579261.8554138     
  -46585467.6719287     
  -46591666.2275858     
  -46597857.6677320     
  -46604042.1479732     
  -46610219.8339050     
  -46616390.9008416     
  -46622555.5335425     
  -46628713.9259376     
  -46634866.2808491     
  -46641012.8097124     
  -46647153.7322928     
  -46653289.2764012     
  -46659419.6776058     
  -46665545.1789415     
  -46671666.0306161     
  -46677782.4897139     
  -46683894.8198964     
  -46690003.2910994     
  -46696108.1792276     
  -46702209.7658469     
  -46708308.3378723     
  -46239158.8169868     
  -46245828.0448034     
  -46252487.5993626     
  -46259137.2925518     
  -46265776.9548594     
  -46272406.4350158     
  -46279025.5996455     
  -46285634.3329290     
  -46292232.5362754     
  -46298820.1280032     
  -46305397.0430296     
  -46311963.2325683     
  -46318518.6638339     
  -46325063.3197535     
  -46331597.1986841     
  -46338120.3141353     
  -46344632.6944975     
  -46351134.3827737     
  -46357625.4363161     
  -46364105.9265647     
  -46370575.9387894     
  -46377035.5718341     
  -46383484.9378623     
  -46389924.1621040     
  -46396353.3826032     
  -46402772.7499654     
  -46409182.4271054     
  -46415582.5889936     
  -46421973.4224019     
  -46428355.1256477     
  -46434727.9083365     
  -46441091.9911017     
  -46447447.6053422     
  -46453794.9929571     
  -46460134.4060772     
  -46466466.1067934     
  -46472790.3668811     
  -46479107.4675207     
  -46485417.6990145     
  -46491721.3604991     
  -46498018.7596535     
  -46504310.2124027     
  -46510596.0426165     
  -46516876.5818047     
  -46523152.1688062     
  -46529423.1494740     
  -46535689.8763564     
  -46541952.7083719     
  -46548212.0104807     
  -46554468.1533512     
  -46069626.6940570     
  -46076551.2666016     
  -46083462.2370002     
  -46090359.4904826     
  -46097242.9307987     
  -46104112.4798788     
  -46110968.0775059     
  -46117809.6810005     
  -46124637.2649170     
  -46131450.8207498     
  -46138250.3566490     
  -46145035.8971463     
  -46151807.4828869     
  -46158565.1703708     
  -46165309.0316987     
  -46172039.1543252     
  -46178755.6408162     
  -46185458.6086106     
  -46192148.1897862     
  -46198824.5308273     
  -46205487.7923956     
  -46212138.1491019     
  -46218775.7892794     
  -46225400.9147556     
  -46232013.7406261     
  -46238614.4950253     
  -46245203.4188968     
  -46251780.7657614     
  -46258346.8014822     
  -46264901.8040272     
  -46271446.0632275     
  -46277979.8805323     
  -46284503.5687596     
  -46291017.4518408     
  -46297521.8645618     
  -46304017.1522976     
  -46310503.6707418     
  -46316981.7856295     
  -46323451.8724542     
  -46329914.3161784     
  -46336369.5109377     
  -46342817.8597374     
  -46349259.7741432     
  -46355695.6739643     
  -46362125.9869298     
  -46368551.1483578     
  -46374971.6008178     
  -46381387.7937861     
  -46387800.1832941     
  -46394209.2315702     
  -45893570.5841751     
  -45900754.0696082     
  -45907919.7038692     
  -45915067.4522435     
  -45922197.2981647     
  -45929309.2429121     
  -45936403.3053234     
  -45943479.5215215     
  -45950537.9446531     
  -45957578.6446401     
  -45964601.7079410     
  -45971607.2373222     
  -45978595.3516381     
  -45985566.1856189     
  -45992519.8896644     
  -45999456.6296448     
  -46006376.5867050     
  -46013279.9570737     
  -46020166.9518747     
  -46027037.7969411     
  -46033892.7326295     
  -46040732.0136359     
  -46047555.9088101     
  -46054364.7009693     
  -46061158.6867094     
  -46067938.1762142     
  -46074703.4930604     
  -46081454.9740188     
  -46088192.9688511     
  -46094917.8401007     
  -46101629.9628778     
  -46108329.7246391     
  -46115017.5249583     
  -46121693.7752918     
  -46128358.8987346     
  -46135013.3297689     
  -46141657.5140040     
  -46148291.9079070     
  -46154916.9785250     
  -46161533.2031969     
  -46168141.0692565     
  -46174741.0737253     
  -46181333.7229955     
  -46187919.5325032     
  -46194499.0263908     
  -46201072.7371607     
  -46207641.2053173     
  -46214204.9790004     
  -46220764.6136079     
  -46227320.6714090     
  -45710822.5172933     
  -45718267.8843550     
  -45725690.8365011     
  -45733091.4247672     
  -45740469.7176258     
  -45747825.8007460     
  -45755159.7767722     
  -45762471.7651169     
  -45769761.9017674     
  -45777030.3391066     
  -45784277.2457439     
  -45791502.8063577     
  -45798707.2215458     
  -45805890.7076840     
  -45813053.4967909     
  -45820195.8363984     
  -45827317.9894256     
  -45834420.2340561     
  -45841502.8636169     
  -45848566.1864579     
  -45855610.5258313     
  -45862636.2197688     
  -45869643.6209574     
  -45876633.0966110     
  -45883605.0283378     
  -45890559.8120028     
  -45897497.8575840     
  -45904419.5890216     
  -45911325.4440596     
  -45918215.8740793     
  -45925091.3439232     
  -45931952.3317095     
  -45938799.3286366     
  -45945632.8387758     
  -45952453.3788533     
  -45959261.4780204     
  -45966057.6776110     
  -45972842.5308866     
  -45979616.6027686     
  -45986380.4695564     
  -45993134.7186334     
  -45999879.9481578     
  -46006616.7667408     
  -46013345.7931095     
  -46020067.6557572     
  -46026782.9925786     
  -46033492.4504915     
  -46040196.6850444     
  -46046896.3600101     
  -46053592.1469664     
  -45521217.9013311     
  -45528927.5169859     
  -45536609.8511873     
  -45544265.0448023     
  -45551893.2550363     
  -45559494.6552889     
  -45567069.4350283     
  -45574617.7996839     
  -45582139.9705520     
  -45589636.1847176     
  -45597106.6949860     
  -45604551.7698258     
  -45611971.6933206     
  -45619366.7651277     
  -45626737.3004422     
  -45634083.6299653     
  -45641406.0998757     
  -45648705.0718017     
  -45655980.9227932     
  -45663234.0452924     
  -45670464.8471015     
  -45677673.7513465     
  -45684861.1964353     
  -45692027.6360100     
  -45699173.5388909     
  -45706299.3890122     
  -45713405.6853484     
  -45720492.9418289     
  -45727561.6872425     
  -45734612.4651280     
  -45741645.8336528     
  -45748662.3654764     
  -45755662.6475999     
  -45762647.2811999     
  -45769616.8814458     
  -45776572.0773016     
  -45783513.5113096     
  -45790441.8393572     
  -45797357.7304254     
  -45804261.8663195     
  -45811154.9413810     
  -45818037.6621805     
  -45824910.7471922     
  -45831774.9264491     
  -45838630.9411790     
  -45845479.5434217     
  -45852321.4956268     
  -45859157.5702329     
  -45865988.5492278     
  -45872815.2236904     
  -45324596.0906741     
  -45332571.7603162     
  -45340514.9986071     
  -45348426.0379466     
  -45356305.1255438     
  -45364152.5234094     
  -45371968.5083683     
  -45379753.3720908     
  -45387507.4211383     
  -45395230.9770242     
  -45402924.3762854     
  -45410587.9705642     
  -45418222.1266975     
  -45425827.2268121     
  -45433403.6684236     
  -45440951.8645376     
  -45448472.2437510     
  -45455965.2503523     
  -45463431.3444183     
  -45470871.0019060     
  -45478284.7147390     
  -45485672.9908847     
  -45493036.3544237     
  -45500375.3456077     
  -45507690.5209055     
  -45514982.4530357     
  -45522251.7309852     
  -45529498.9600118     
  -45536724.7616301     
  -45543929.7735798     
  -45551114.6497752     
  -45558280.0602350     
  -45565426.6909919     
  -45572555.2439807     
  -45579666.4369047     
  -45586761.0030796     
  -45593839.6912536     
  -45600903.2654050     
  -45607952.5045145     
  -45614988.2023140     
  -45622011.1670097     
  -45629022.2209809     
  -45636022.2004531     
  -45643011.9551456     
  -45649992.3478942     
  -45656964.2542478     
  -45663928.5620401     
  -45670886.1709359     
  -45677837.9919523     
  -45684784.9469551     
  -45120800.9115907     
  -45129043.9790049     
  -45137249.2096842     
  -45145416.9259062     
  -45153547.4627631     
  -45161641.1683429     
  -45169698.4039309     
  -45177719.5442296     
  -45185704.9775945     
  -45193655.1062822     
  -45201570.3467093     
  -45209451.1297196     
  -45217297.9008567     
  -45225111.1206395     
  -45232891.2648390     
  -45240638.8247544     
  -45248354.3074850     
  -45256038.2361969     
  -45263691.1503831     
  -45271313.6061132     
  -45278906.1762724     
  -45286469.4507874     
  -45294004.0368382     
  -45301510.5590527     
  -45308989.6596840     
  -45316441.9987687     
  -45323868.2542631     
  -45331269.1221591     
  -45338645.3165754     
  -45345997.5698248     
  -45353326.6324558     
  -45360633.2732674     
  -45367918.2792964     
  -45375182.4557761     
  -45382426.6260657     
  -45389651.6315499     
  -45396858.3315072     
  -45404047.6029475     
  -45411220.3404176     
  -45418377.4557747     
  -45425519.8779266     
  -45432648.5525402     
  -45439764.4417155     
  -45446868.5236275     
  -45453961.7921342     
  -45461045.2563511     
  -45468119.9401935     
  -45475186.8818844     
  -45482247.1334302     
  -45489301.7600644     
  -44909681.1304517     
  -44918192.6595063     
  -44926660.7279901     
  -44935085.7418191     
  -44943468.1172463     
  -44951808.2812957     
  -44960106.6722164     
  -44968363.7399532     
  -44976579.9466325     
  -44984755.7670574     
  -44992891.6892117     
  -45000988.2147684     
  -45009045.8595999     
  -45017065.1542874     
  -45025046.6446272     
  -45032990.8921301     
  -45040898.4745129     
  -45048769.9861781     
  -45056606.0386808     
  -45064407.2611794     
  -45072174.3008689     
  -45079907.8233941     
  -45087608.5132412     
  -45095277.0741052     
  -45102914.2292328     
  -45110520.7217369     
  -45118097.3148833     
  -45125644.7923466     
  -45133163.9584349     
  -45140655.6382805     
  -45148120.6779976     
  -45155559.9448033     
  -45162974.3271031     
  -45170364.7345382     
  -45177732.0979943     
  -45185077.3695722     
  -45192401.5225166     
  -45199705.5511060     
  -45206990.4705006     
  -45214257.3165481     
  -45221507.1455482     
  -45228741.0339742     
  -45235960.0781520     
  -45243165.3938961     
  -45250358.1161033     
  -45257539.3983026     
  -45264710.4121630     
  -45271872.3469588     
  -45279026.4089917     
  -45286173.8209719     
  -44691090.8547968     
  -44699871.9206339     
  -44708603.7301259     
  -44717286.7604759     
  -44725921.4962749     
  -44734508.4302672     
  -44743048.0641341     
  -44751540.9092911     
  -44759987.4876958     
  -44768388.3326624     
  -44776743.9896789     
  -44785055.0172242     
  -44793321.9875801     
  -44801545.4876377     
  -44809726.1196923     
  -44817864.5022253     
  -44825961.2706703     
  -44834017.0781594     
  -44842032.5962480     
  -44850008.5156166     
  -44857945.5467440     
  -44865844.4205531     
  -44873705.8890252     
  -44881530.7257805     
  -44889319.7266241     
  -44897073.7100546     
  -44904793.5177341     
  -44912480.0149171     
  -44920134.0908379     
  -44927756.6590542     
  -44935348.6577457     
  -44942911.0499668     
  -44950444.8238511     
  -44957950.9927687     
  -44965430.5954328     
  -44972884.6959563     
  -44980314.3838580     
  -44987720.7740154     
  -44995105.0065662     
  -45002468.2467565     
  -45009811.6847348     
  -45017136.5352929     
  -45024444.0375525     
  -45031735.4545969     
  -45039012.0730495     
  -45046275.2025964     
  -45053526.1754562     
  -45060766.3457947     
  -45067997.0890861     
  -45075219.8014210     
  -44464889.8659882     
  -44473941.9903907     
  -44482938.9463541     
  -44491881.2620313     
  -44500769.4695994     
  -44509604.1064523     
  -44518385.7164064     
  -44527114.8509141     
  -44535792.0702811     
  -44544417.9448835     
  -44552993.0563790     
  -44561517.9989102     
  -44569993.3802943     
  -44578419.8231967     
  -44586797.9662848     
  -44595128.4653572     
  -44603411.9944480     
  -44611649.2469000     
  -44619840.9364053     
  -44627987.7980118     
  -44636090.5890895     
  -44644150.0902581     
  -44652167.1062706     
  -44660142.4668519     
  -44668077.0274899     
  -44675971.6701775     
  -44683827.3041030     
  -44691644.8662878     
  -44699425.3221692     
  -44707169.6661264     
  -44714878.9219497     
  -44722554.1432499     
  -44730196.4138074     
  -44737806.8478600     
  -44745386.5903278     
  -44752936.8169748     
  -44760458.7345061     
  -44767953.5805992     
  -44775422.6238707     
  -44782867.1637750     
  -44790288.5304377     
  -44797688.0844200     
  -44805067.2164166     
  -44812427.3468856     
  -44819769.9256099     
  -44827096.4311910     
  -44834408.3704754     
  -44841707.2779123     
  -44848994.7148451     
  -44856272.2687346     
  -44230943.8978810     
  -44240269.6715740     
  -44249534.3116378     
  -44258738.3665829     
  -44267882.3852947     
  -44276966.9187672     
  -44285992.5218392     
  -44294959.7549293     
  -44303869.1857632     
  -44312721.3910890     
  -44321516.9583758     
  -44330256.4874898     
  -44338940.5923464     
  -44347569.9025311     
  -44356145.0648876     
  -44364666.7450680     
  -44373135.6290432     
  -44381552.4245684     
  -44389917.8626023     
  -44398232.6986760     
  -44406497.7142091     
  -44414713.7177710     
  -44422881.5462838     
  -44431002.0661660     
  -44439076.1744129     
  -44447104.7996138     
  -44455088.9029022     
  -44463029.4788383     
  -44470927.5562218     
  -44478784.1988331     
  -44486600.5061019     
  -44494377.6137016     
  -44502116.6940678     
  -44509818.9568406     
  -44517485.6492285     
  -44525118.0562939     
  -44532717.5011586     
  -44540285.3451285     
  -44547822.9877373     
  -44555331.8667085     
  -44562813.4578340     
  -44570269.2747704     
  -44577700.8687523     
  -44585109.8282208     
  -44592497.7783702     
  -44599866.3806090     
  -44607217.3319389     
  -44614552.3642493     
  -44621873.2435283     
  -44629181.7689928     
  -43989124.9022593     
  -43998728.8460923     
  -44008265.7055653     
  -44017736.0060057     
  -44027140.2694188     
  -44036479.0168936     
  -44045752.7709948     
  -44054962.0581373     
  -44064107.4109371     
  -44073189.3705307     
  -44082208.4888614     
  -44091165.3309259     
  -44100060.4769765     
  -44108894.5246753     
  -44117668.0911971     
  -44126381.8152753     
  -44135036.3591902     
  -44143632.4106940     
  -44152170.6848708     
  -44160651.9259283     
  -44169076.9089193     
  -44177446.4413895     
  -44185761.3649497     
  -44194022.5567706     
  -44202230.9309976     
  -44210387.4400839     
  -44218493.0760396     
  -44226548.8715964     
  -44234555.9012839     
  -44242515.2824190     
  -44250428.1760036     
  -44258295.7875324     
  -44266119.3677068     
  -44273900.2130556     
  -44281639.6664602     
  -44289339.1175843     
  -44297000.0032049     
  -44304623.8074478     
  -44312212.0619217     
  -44319766.3457546     
  -44327288.2855289     
  -44334779.5551169     
  -44342241.8754135     
  -44349677.0139695     
  -44357086.7845216     
  -44364473.0464211     
  -44371837.7039616     
  -44379182.7056025     
  -44386510.0430958     
  -44393821.7505044     
  -43739311.3841894     
  -43749201.1110915     
  -43759017.8832548     
  -43768762.1432198     
  -43778434.3268599     
  -43788034.8666045     
  -43797564.1946248     
  -43807022.7459757     
  -43816410.9616882     
  -43825729.2918068     
  -43834978.1983659     
  -43844158.1583030     
  -43853269.6663013     
  -43862313.2375606     
  -43871289.4104918     
  -43880198.7493313     
  -43889041.8466735     
  -43897819.3259178     
  -43906531.8436275     
  -43915180.0917996     
  -43923764.8000416     
  -43932286.7376540     
  -43940746.7156172     
  -43949145.5884795     
  -43957484.2561466     
  -43965763.6655688     
  -43973984.8123254     
  -43982148.7421053     
  -43990256.5520804     
  -43998309.3921729     
  -44006308.4662135     
  -44014255.0329888     
  -44022150.4071783     
  -44029995.9601776     
  -44037793.1208088     
  -44045543.3759152     
  -44053248.2708399     
  -44060909.4097871     
  -44068528.4560656     
  -44076107.1322128     
  -44083647.2199991     
  -44091150.5603112     
  -44098619.0529157     
  -44106054.6560982     
  -44113459.3861831     
  -44120835.3169300     
  -44128184.5788060     
  -44135509.3581410     
  -44142811.8961473     
  -44150094.4878406     
  -43481388.9569625     
  -43491576.7063913     
  -43501685.7651785     
  -43511716.4139542     
  -43521668.9243255     
  -43531543.5630699     
  -43541340.5962524     
  -43551060.2932629     
  -43560702.9307652     
  -43570268.7965550     
  -43579758.1933227     
  -43589171.4423165     
  -43598508.8869035     
  -43607770.8960257     
  -43616957.8675490     
  -43626070.2315022     
  -43635108.4532063     
  -43644073.0362899     
  -43652964.5255905     
  -43661783.5099425     
  -43670530.6248468     
  -43679206.5550233     
  -43687812.0368464     
  -43696347.8606590     
  -43704814.8729670     
  -43713213.9785121     
  -43721546.1422212     
  -43729812.3910327     
  -43738013.8155962     
  -43746151.5718471     
  -43754226.8824534     
  -43762241.0381313     
  -43770195.3988327     
  -43778091.3947993     
  -43785930.5274834     
  -43793714.3703338     
  -43801444.5694452     
  -43809122.8440706     
  -43816750.9869929     
  -43824330.8647582     
  -43831864.4177652     
  -43839353.6602150     
  -43846800.6799112     
  -43854207.6379249     
  -43861576.7681053     
  -43868910.3764476     
  -43876210.8403195     
  -43883480.6075229     
  -43890722.1952571     
  -43897938.1888456     
  -43215251.3687314     
  -43225755.9931313     
  -43236176.3515906     
  -43246512.4606175     
  -43256764.3273116     
  -43266931.9546664     
  -43277015.3467398     
  -43287014.5136881     
  -43296929.4766613     
  -43306760.2725566     
  -43316506.9586276     
  -43326169.6169504     
  -43335748.3587440     
  -43345243.3285453     
  -43354654.7082403     
  -43363982.7209499     
  -43373227.6347728     
  -43382389.7663849     
  -43391469.4844964     
  -43400467.2131687     
  -43409383.4349891     
  -43418218.6941063     
  -43426973.5991258     
  -43435648.8258657     
  -43444245.1199735     
  -43452763.2994018     
  -43461204.2567446     
  -43469568.9614328     
  -43477858.4617861     
  -43486073.8869233     
  -43494216.4485265     
  -43502287.4424590     
  -43510288.2502354     
  -43518220.3403410     
  -43526085.2693984     
  -43533884.6831802     
  -43541620.3174652     
  -43549293.9987321     
  -43556907.6446983     
  -43564463.2646875     
  -43571962.9598398     
  -43579408.9231414     
  -43586803.4393108     
  -43594148.8844719     
  -43601447.7256981     
  -43608702.5203634     
  -43615915.9153038     
  -43623090.6458670     
  -43630229.5346188     
  -43637335.4902049     
  -42940802.4079616     
  -42951651.8926609     
  -42962411.6696846     
  -42973081.3629502     
  -42983660.5900182     
  -42994148.9685892     
  -43004546.1227892     
  -43014851.6892414     
  -43025065.3229282     
  -43035186.7028438     
  -43045215.5374419     
  -43055151.5698830     
  -43064994.5830842     
  -43074744.4045775     
  -43084400.9111817     
  -43093964.0334914     
  -43103433.7601899     
  -43112810.1421898     
  -43122093.2966052     
  -43131283.4105607     
  -43140380.7448406     
  -43149385.6373808     
  -43158298.5066059     
  -43167119.8546152     
  -43175850.2702167     
  -43184490.4318111     
  -43193041.1101260     
  -43201503.1707989     
  -43209877.5768094     
  -43218165.3907568     
  -43226367.7769843     
  -43234486.0035412     
  -43242521.4439888     
  -43250475.5790367     
  -43258349.9980152     
  -43266146.4001720     
  -43273866.5957890     
  -43281512.5071366     
  -43289086.1692109     
  -43296589.7303171     
  -43304025.4524278     
  -43311395.7113880     
  -43318702.9968340     
  -43325949.9120600     
  -43333139.1735081     
  -43340273.6101367     
  -43347356.1626356     
  -43354389.8821980     
  -43361377.9296744     
  -43368323.5733121     
  -42657959.3246650     
  -42669193.9113891     
  -42680333.3641707     
  -42691376.7578613     
  -42702323.1695587     
  -42713171.6862659     
  -42723921.4122223     
  -42734571.4759201     
  -42745121.0368175     
  -42755569.2917593     
  -42765915.4811168     
  -42776158.8946626     
  -42786298.8771911     
  -42796334.8338982     
  -42806266.2355350     
  -42816092.6233455     
  -42825813.6138018     
  -42835428.9031474     
  -42844938.2717590     
  -42854341.5883355     
  -42863638.8139231     
  -42872830.0057829     
  -42881915.3211063     
  -42890895.0205842     
  -42899769.4718293     
  -42908539.1526591     
  -42917204.6542337     
  -42925766.6840522     
  -42934226.0688035     
  -42942583.7570698     
  -42950840.8218717     
  -42958998.4630707     
  -42967058.0095858     
  -42975020.9214621     
  -42982888.7917420     
  -42990663.3481664     
  -42998346.4546876     
  -43005940.1127225     
  -43013446.4623139     
  -43020867.7829356     
  -43028206.4941974     
  -43035465.1561632     
  -43042646.4697309     
  -43049753.2762040     
  -43056788.5573077     
  -43063755.4345460     
  -43070657.1681093     
  -43077497.1563687     
  -43084278.9330240     
  -43091006.1683265     
  -42366658.7350552     
  -42378334.6817900     
  -42389909.8194810     
  -42401382.4909359     
  -42412751.0583123     
  -42424013.9116432     
  -42435169.4769052     
  -42446216.2236386     
  -42457152.6721515     
  -42467977.4003350     
  -42478689.0501187     
  -42489286.3335925     
  -42499768.0388230     
  -42510133.0353915     
  -42520380.2796785     
  -42530508.8199181     
  -42540517.8010467     
  -42550406.4693650     
  -42560174.1770332     
  -42569820.3864152     
  -42579344.6742871     
  -42588746.7359230     
  -42598026.3890648     
  -42607183.5777841     
  -42616218.3762495     
  -42625130.9923817     
  -42633921.7714220     
  -42642591.1993876     
  -42651139.9064267     
  -42659568.6700548     
  -42667878.4182860     
  -42676070.2325800     
  -42684145.3507254     
  -42692105.1694760     
  -42699951.2470928     
  -42707685.3056303     
  -42715309.2330143     
  -42722825.0850927     
  -42730235.0870043     
  -42737541.6348450     
  -42744747.2965712     
  -42751854.8131587     
  -42758867.0984270     
  -42765787.2406070     
  -42772618.5008073     
  -42779364.3129795     
  -42786028.2841570     
  -42792614.1911661     
  -42799125.9843223     
  -42805567.7752662     
  -42066866.4302906     
  -42079060.3549073     
  -42091147.0591691     
  -42103123.9523024     
  -42114988.4922683     
  -42126738.1944933     
  -42138370.6399142     
  -42149883.4824493     
  -42161274.4559343     
  -42172541.3805734     
  -42183682.1689604     
  -42194694.8317188     
  -42205577.4828094     
  -42216328.3445513     
  -42226945.7523986     
  -42237428.1595201     
  -42247774.1412073     
  -42257982.3991611     
  -42268051.7656732     
  -42277981.2077435     
  -42287769.8311444     
  -42297416.8844593     
  -42306921.7631098     
  -42316284.0133897     
  -42325503.3364738     
  -42334579.5924844     
  -42343512.8045118     
  -42352303.1626766     
  -42360951.0281562     
  -42369456.9371996     
  -42377821.6050457     
  -42386045.9299592     
  -42394130.9968598     
  -42402078.0811898     
  -42409888.6523243     
  -42417564.3770612     
  -42425107.1228769     
  -42432518.9602889     
  -42439802.1666009     
  -42446959.2271350     
  -42453992.8380954     
  -42460905.9071457     
  -42467701.5571431     
  -42474383.1219978     
  -42480954.1530801     
  -42487418.4170146     
  -42493779.8912328     
  -42500042.7712244     
  -42506211.4513827     
  -42512290.5602006     
  -41758593.0802401     
  -41771406.6692023     
  -41784105.0797488     
  -41796684.5863944     
  -41809141.5587075     
  -41821472.4686582     
  -41833673.8973141     
  -41845742.5407770     
  -41857675.2154851     
  -41869468.8629839     
  -41881120.5542337     
  -41892627.4935399     
  -41903987.0221792     
  -41915196.6217947     
  -41926253.9176339     
  -41937156.6816669     
  -41947902.8356937     
  -41958490.4544309     
  -41968917.7686867     
  -41979183.1686161     
  -41989285.2071359     
  -41999222.6035046     
  -42008994.2470941     
  -42018599.2013503     
  -42028036.7080891     
  -42037306.1918256     
  -42046407.2645382     
  -42055339.7304732     
  -42064103.5912439     
  -42072699.0510623     
  -42081126.5222544     
  -42089386.6302436     
  -42097480.2197942     
  -42105408.3598322     
  -42113172.3494446     
  -42120773.7227745     
  -42128214.2539622     
  -42135495.9639793     
  -42142621.1210530     
  -42149592.2495119     
  -42156412.1302468     
  -42163083.8075231     
  -42169610.5831844     
  -42175996.0371286     
  -42182244.0042464     
  -42188358.5862670     
  -42194344.1668750     
  -42200205.3788411     
  -42205947.1628405     
  -42211574.6339933     
  -41441918.4312897     
  -41455483.0065935     
  -41468921.6477270     
  -41482229.3308520     
  -41495401.1941523     
  -41508432.5421161     
  -41521318.8483737     
  -41534055.7578894     
  -41546639.0885424     
  -41559064.8321733     
  -41571329.1552368     
  -41583428.3991762     
  -41595359.0806200     
  -41607117.8914969     
  -41618701.6991529     
  -41630107.5466402     
  -41641332.6530762     
  -41652374.4144105     
  -41663230.4044104     
  -41673898.3761514     
  -41684376.2639049     
  -41694662.1855716     
  -41704754.4457058     
  -41714651.5392017     
  -41724352.1552121     
  -41733855.1824632     
  -41743159.7143387     
  -41752265.0552924     
  -41761170.7274425     
  -41769876.4778196     
  -41778382.2857205     
  -41786688.3726125     
  -41794795.2077984     
  -41802703.5200524     
  -41810414.3044361     
  -41817928.8329017     
  -41825248.6635633     
  -41832375.6428735     
  -41839311.9296134     
  -41846059.9835550     
  -41852622.5858871     
  -41859002.8343134     
  -41865204.1776577     
  -41871230.3530536     
  -41877085.4875724     
  -41882774.0465248     
  -41888300.7783892     
  -41893670.8429316     
  -41898889.6035646     
  -41903963.0786395     
  -41117027.0102435     
  -41131506.9999934     
  -41145845.7026360     
  -41160036.7283924     
  -41174073.9415526     
  -41187951.4558521     
  -41201663.6308962     
  -41215205.0676062     
  -41228570.6030774     
  -41241755.3051885     
  -41254754.4670218     
  -41267563.6012198     
  -41280178.4344111     
  -41292594.9018424     
  -41304809.1423607     
  -41316817.4935795     
  -41328616.4880317     
  -41340202.8493946     
  -41351573.4899476     
  -41362725.5085040     
  -41373656.1895278     
  -41384363.0031989     
  -41394843.6064902     
  -41405095.8453308     
  -41415117.7593835     
  -41424907.5852429     
  -41434463.7645347     
  -41443784.9505080     
  -41452870.0176648     
  -41461718.0724301     
  -41470328.4659757     
  -41478700.8011959     
  -41486834.9578693     
  -41494731.0957218     
  -41502389.6782586     
  -41509811.4828969     
  -41516997.6170674     
  -41523949.5557517     
  -41530669.0991694     
  -41537158.4666963     
  -41543420.2571587     
  -41549457.4973112     
  -41555273.5563456     
  -41560872.4038210     
  -41566258.2329369     
  -41571435.7185389     
  -41576410.2214471     
  -41581187.2713958     
  -41585773.2796760     
  -41590174.0023596     
  -40784258.0750955     
  -40799851.8423514     
  -40815281.9698475     
  -40830540.8232632     
  -40845621.1283445     
  -40860515.9616273     
  -40875218.7345708     
  -40889723.1783648     
  -40904023.3291634     
  -40918113.5131574     
  -40931988.3318520     
  -40945642.6476998     
  -40959071.5701660     
  -40972270.4422698     
  -40985234.8276635     
  -40997960.4992567     
  -41010443.4269695     
  -41022679.7687408     
  -41034665.8606351     
  -41046398.2096489     
  -41057873.4870887     
  -41069088.5238493     
  -41080040.3079016     
  -41090725.9838145     
  -41101142.8500050     
  -41111288.3694134     
  -41121160.1684058     
  -41130756.0502564     
  -41140074.0049520     
  -41149112.2227708     
  -41157869.1093863     
  -41166343.3263594     
  -41174533.7708647     
  -41182439.6498125     
  -41190060.4741918     
  -41197396.1081956     
  -41204446.7957551     
  -41211213.1234876     
  -41217696.2661775     
  -41223897.6997836     
  -41229819.4584859     
  -41235464.0589297     
  -41240834.8456297     
  -41245935.1020147     
  -41250769.5613516     
  -41255343.3055608     
  -41259661.1136182     
  -41263729.5785754     
  -41267554.5877339     
  -41271146.3540395     
  -40444170.8384943     
  -40461106.6911254     
  -40477846.6641004     
  -40494382.2638814     
  -40510705.4934897     
  -40526808.8058101     
  -40542685.0779281     
  -40558327.5841657     
  -40573729.9678949     
  -40588886.2148002     
  -40603790.6269175     
  -40618437.7973089     
  -40632822.5855155     
  -40646940.0940310     
  -40660785.6458675     
  -40674354.7604384     
  -40687643.1370302     
  -40700646.6303156     
  -40713361.2354458     
  -40725783.0689967     
  -40737908.3544042     
  -40749733.4082194     
  -40761254.6268739     
  -40772468.4767428     
  -40783371.5011286     
  -40793960.2887464     
  -40804231.5038449     
  -40814181.8717612     
  -40823808.1947455     
  -40833107.3711258     
  -40842076.4200980     
  -40850712.4433887     
  -40859012.8256321     
  -40866975.0752974     
  -40874597.0075849     
  -40881876.7342719     
  -40888812.7489818     
  -40895404.1972745     
  -40901650.1582721     
  -40907550.9788124     
  -40913107.3792475     
  -40918320.8198561     
  -40923192.5596573     
  -40927727.0875294     
  -40931926.4520177     
  -40935795.0489276     
  -40939341.6279530     
  -40942570.8029370     
  -40945492.2980984     
  -40948104.9969928     
  -40097621.9219211     
  -40116146.8954819     
  -40134430.7536326     
  -40152464.9729003     
  -40170241.5669469     
  -40187753.0998508     
  -40204992.6352982     
  -40221953.6902082     
  -40238630.1969276     
  -40255016.4644808     
  -40271107.1406483     
  -40286897.1754632     
  -40302381.7857300     
  -40317556.4198884     
  -40332416.7234829     
  -40346958.5138008     
  -40361177.7307018     
  -40375070.4245174     
  -40388632.7104202     
  -40401860.7451202     
  -40414750.6948962     
  -40427298.7074888     
  -40439500.8906011     
  -40451353.2851410     
  -40462851.7969998     
  -40473992.2862154     
  -40484770.4251962     
  -40495181.7619204     
  -40505221.6898842     
  -40514885.4283277     
  -40524168.0297367     
  -40533064.6058339     
  -40541569.7345826     
  -40549678.3371879     
  -40557385.1987810     
  -40564685.2597175     
  -40571573.6090533     
  -40578045.0299493     
  -40584096.9869522     
  -40589724.7631044     
  -40594925.6271865     
  -40599698.0468124     
  -40604044.7533518     
  -40607960.3613987     
  -40611453.3584918     
  -40614526.8478019     
  -40617173.7175033     
  -40619410.3066423     
  -40621241.1044619     
  -40622707.1459407     
  -39745845.5725359     
  -39766204.8499873     
  -39786262.4053014     
  -39806010.6155303     
  -39825442.6619530     
  -39844552.2821727     
  -39863333.7315560     
  -39881781.7503864     
  -39899891.5073920     
  -39917658.5517746     
  -39935078.7688762     
  -39952148.3363626     
  -39968863.6809996     
  -39985221.4370452     
  -40001218.4037592     
  -40016851.4767167     
  -40032117.6691885     
  -40047013.9876310     
  -40061537.4470879     
  -40075685.0017424     
  -40089453.5044413     
  -40102839.6585247     
  -40115839.9506724     
  -40128450.6170853     
  -40140667.7351319     
  -40152486.7472668     
  -40163902.9257405     
  -40174911.0075637     
  -40185505.2072081     
  -40195679.2351602     
  -40205426.2000209     
  -40214737.9266643     
  -40223607.2241071     
  -40232024.4455804     
  -40239979.7272159     
  -40247462.4313908     
  -40254461.7012861     
  -40260968.1296126     
  -40266963.8443789     
  -40272442.5963525     
  -40277393.6811180     
  -40281805.6839758     
  -40285659.1486283     
  -40288972.9708310     
  -40291720.8115037     
  -40293907.5511981     
  -40295577.5959755     
  -40296686.9014882     
  -40297244.1263444     
  -40297171.2615042     
  -39390518.8156490     
  -39412926.8103363     
  -39434955.1203438     
  -39456599.1910973     
  -39477854.5315541     
  -39498717.2675641     
  -39519184.0727800     
  -39539252.0500209     
  -39558918.7072513     
  -39578181.9174452     
  -39597039.8692432     
  -39615491.0176955     
  -39633534.0357796     
  -39651167.7646581     
  -39668391.1720842     
  -39685203.3874270     
  -39701603.4067928     
  -39717590.3753494     
  -39733163.2902525     
  -39748321.0282346     
  -39763062.2812470     
  -39777385.4953242     
  -39791288.8638859     
  -39804770.1659200     
  -39817826.2516929     
  -39830454.5608825     
  -39842650.8720212     
  -39854410.4757118     
  -39865727.8989285     
  -39876596.5132249     
  -39887008.6927624     
  -39896957.4936145     
  -39906428.0677474     
  -39915411.3563344     
  -39923894.5106246     
  -39931862.0850378     
  -39939293.9979291     
  -39946161.9834547     
  -39952465.3995410     
  -39958154.2993377     
  -39963197.0630468     
  -39967568.8945397     
  -39971272.5559254     
  -39974174.6851912     
  -39976331.6996485     
  -39977699.7464253     
  -39978142.0632886     
  -39977896.0425530     
  -39976995.1784031     
  -39975650.4339972     
  -39033792.1654659     
  -39058394.9546962     
  -39082526.3106431     
  -39106183.4448210     
  -39129365.8595009     
  -39152073.4199832     
  -39174306.2558300     
  -39196064.9777784     
  -39217350.5679081     
  -39238164.3051154     
  -39258507.7305662     
  -39278382.6243236     
  -39297790.9816229     
  -39316734.9840173     
  -39335216.9284848     
  -39353238.9369185     
  -39370803.8387493     
  -39387913.7548327     
  -39404571.0442383     
  -39420777.9707312     
  -39436536.6029994     
  -39451848.7561316     
  -39466715.7269233     
  -39481138.6188626     
  -39495119.5301776     
  -39508655.5145086     
  -39521747.4111532     
  -39534394.4299041     
  -39546594.1972167     
  -39558343.5936459     
  -39569637.2446518     
  -39580462.5196758     
  -39590829.6797070     
  -39600715.8251415     
  -39610103.7348834     
  -39618978.5283383     
  -39627332.5592424     
  -39635167.8723275     
  -39642367.2868050     
  -39648988.3640339     
  -39654989.4477513     
  -39660277.4791186     
  -39664662.3136203     
  -39668443.7268159     
  -39671170.9733234     
  -39672759.3928863     
  -39673378.0627487     
  -39671861.0997042     
  -39668100.1302759     
  -39662039.9687701     
  -38678256.5802579     
  -38705108.6973857     
  -38731376.8109174     
  -38757069.7158887     
  -38782190.9594232     
  -38806744.4867598     
  -38830735.2056225     
  -38854168.0166323     
  -38877047.9772872     
  -38899380.4596944     
  -38921171.1801623     
  -38942426.1566079     
  -38963151.6415629     
  -38983354.0719233     
  -39003040.1580373     
  -39022217.5357808     
  -39040891.2826601     
  -39059069.4841985     
  -39076759.1135862     
  -39093966.8845761     
  -39110699.5731817     
  -39126963.8752517     
  -39142766.9908677     
  -39158114.9699898     
  -39173009.1275877     
  -39187467.6139013     
  -39201488.7508489     
  -39215073.2834622     
  -39228225.5621020     
  -39240949.6408540     
  -39253254.1141318     
  -39265162.2350455     
  -39276602.8490954     
  -39287631.4598620     
  -39298267.2692406     
  -39308497.9056906     
  -39318266.7732565     
  -39327491.2089796     
  -39336512.7077761     
  -39344966.4578175     
  -39352851.3060010     
  -39360295.0028861     
  -39367629.4816956     
  -39373313.4514834     
  -39378638.0360304     
  -39383506.2544858     
  -39387124.2169396     
  -39393188.1079016     
  -39401968.7814322     
  -39432249.1911307     
  -38326896.2174735     
  -38355900.4853505     
  -38384226.4525287     
  -38411866.0613045     
  -38438828.4584977     
  -38465123.5882005     
  -38490758.9564805     
  -38515743.2817947     
  -38540086.3976890     
  -38563798.7158043     
  -38586890.9314580     
  -38609373.9700898     
  -38631259.0471235     
  -38652557.6677570     
  -38673281.1998964     
  -38693439.0991133     
  -38713051.4120849     
  -38732125.8626011     
  -38750674.5004390     
  -38768710.9772100     
  -38786248.4498508     
  -38803300.2983930     
  -38819877.8695670     
  -38835996.1818290     
  -38851682.9717078     
  -38866901.1691708     
  -38881696.5935055     
  -38896103.1455053     
  -38910130.7862256     
  -38923781.7240057     
  -38937035.1605946     
  -38949836.5836357     
  -38962485.5808965     
  -38974767.1347340     
  -38986616.2191729     
  -38998102.9032741     
  -39009444.2614724     
  -39020853.2374574     
  -39030972.5044402     
  -39041180.9319931     
  -39051474.1804844     
  -39061559.4701158     
  -39070641.5418668     
  -39084509.8289586     
  -39101907.5156779     
  -39135620.7450167     
  -39168451.2474647     
  -39213984.9296721     
  -39272409.5607918     
  -39345849.9541551     
  -37982796.5917094     
  -38013858.7547421     
  -38044058.0182162     
  -38073454.6644384     
  -38102058.0630807     
  -38129873.4355135     
  -38156918.7190291     
  -38183211.6910975     
  -38208768.1561268     
  -38233602.8123882     
  -38257730.2354556     
  -38281165.4346038     
  -38303924.1153347     
  -38326023.0936381     
  -38347481.7348729     
  -38368326.0900924     
  -38388544.1588684     
  -38408178.1169004     
  -38427255.2999571     
  -38445794.6911316     
  -38463816.1460311     
  -38481335.4657832     
  -38498373.3919500     
  -38514937.8935565     
  -38531004.0404361     
  -38546788.7792103     
  -38562163.7042634     
  -38577055.0906266     
  -38591508.9538773     
  -38605615.0399427     
  -38619547.1996385     
  -38633515.4774386     
  -38646396.6171882     
  -38659116.7269569     
  -38671999.0403367     
  -38684884.3437075     
  -38697176.8559038     
  -38708522.7739656     
  -38724172.2233920     
  -38739593.4457421     
  -38769378.6267271     
  -38799073.2423942     
  -38828228.0563200     
  -38874094.8917139     
  -38925553.8898039     
  -38988073.1051455     
  -39051160.0551344     
  -39116372.7648012     
  -39183086.3674690     
  -39246728.0036806     
  -37649808.0962298     
  -37682395.7116130     
  -37714170.6252105     
  -37744994.1334914     
  -37774887.7785086     
  -37803907.3190172     
  -37832060.4102250     
  -37859346.7424648     
  -37885771.1399792     
  -37911346.4539955     
  -37936092.9372710     
  -37960036.4653099     
  -37983206.1061608     
  -38005630.6358507     
  -38027332.8907035     
  -38048320.2410970     
  -38068741.6778674     
  -38088520.9963852     
  -38107642.3937318     
  -38126138.9918489     
  -38144051.7901210     
  -38161453.4426886     
  -38178402.8482572     
  -38194985.3145985     
  -38211343.5038393     
  -38226712.8069522     
  -38241730.2494323     
  -38256785.4241538     
  -38271760.3348410     
  -38286393.1396714     
  -38300148.7224573     
  -38312610.5141100     
  -38328282.6024819     
  -38343552.6831628     
  -38365318.9774441     
  -38391781.4722516     
  -38416699.1919423     
  -38440939.0933807     
  -38479517.5159928     
  -38520555.5977701     
  -38571734.9456450     
  -38624488.4719894     
  -38678829.9115771     
  -38736489.0436224     
  -38795633.8474826     
  -38853632.0621975     
  -38912430.6066496     
  -38970332.2369412     
  -39026918.8925213     
  -39083219.6576579     
  -37329560.6123497     
  -37364080.1619938     
  -37397210.4059946     
  -37429467.7198595     
  -37460847.4605243     
  -37491117.8621122     
  -37520205.9164585     
  -37548112.3341141     
  -37574871.1804624     
  -37600531.1959526     
  -37625147.8875528     
  -37648781.4881530     
  -37671498.7310976     
  -37693377.5804949     
  -37714514.4353892     
  -37735032.4949028     
  -37754522.8361057     
  -37773476.4283838     
  -37792113.6654067     
  -37810402.6287139     
  -37828251.4514352     
  -37845403.9143199     
  -37861669.0041958     
  -37876884.1465876     
  -37890913.6818245     
  -37907005.2447571     
  -37922794.1117371     
  -37940389.3618935     
  -37963839.3975138     
  -37985867.1576691     
  -38006488.8225363     
  -38025456.1662672     
  -38055261.6410336     
  -38087661.4969824     
  -38125314.7239205     
  -38167465.4481853     
  -38210862.1933679     
  -38256304.4739565     
  -38305332.8694935     
  -38356863.7320949     
  -38408133.3378362     
  -38461007.2617623     
  -38514491.2757736     
  -38567397.9956071     
  -38619912.8382427     
  -38672524.5090587     
  -38724687.6265435     
  -38777019.7938856     
  -38829631.3848599     
  -38882151.3927136     
  -37040200.6718779     
  -37066864.0054490     
  -37100903.4109335     
  -37136583.9575121     
  -37169413.5879788     
  -37199991.2417804     
  -37228708.4485349     
  -37255829.2111292     
  -37281535.0254849     
  -37305950.4050013     
  -37329157.9624931     
  -37351207.7586730     
  -37372123.6393635     
  -37391909.2162870     
  -37410557.4715963     
  -37428071.2258846     
  -37446431.4743451     
  -37464032.8145595     
  -37482181.0361136     
  -37503556.9583201     
  -37523892.4442090     
  -37543265.2547852     
  -37561662.1441564     
  -37578961.0855103     
  -37594882.1341981     
  -37618214.0887639     
  -37643568.7882968     
  -37670974.0228365     
  -37703166.1943873     
  -37736105.3445813     
  -37770321.7714046     
  -37806472.4673844     
  -37845935.3572630     
  -37888301.9255629     
  -37931867.6580543     
  -37976792.5405621     
  -38023528.4262502     
  -38071219.1693268     
  -38118970.4558141     
  -38166827.4780677     
  -38215277.0142536     
  -38263685.9807646     
  -38312261.2259888     
  -38361252.3748052     
  -38410520.7080844     
  -38459895.0420835     
  -38509492.2235032     
  -38559085.1665393     
  -38608612.2446829     
  -38658299.1718163     
  -36831502.8530964     
  -36841481.8390789     
  -36863729.0368374     
  -36890143.6119465     
  -36915573.7299631     
  -36940115.0460524     
  -36963821.3193056     
  -36986723.2001856     
  -37008836.4554333     
  -37030165.6613026     
  -37050705.1274831     
  -37070436.6270588     
  -37089324.6997337     
  -37107304.2320584     
  -37124258.6796842     
  -37139983.6495698     
  -37159798.4556425     
  -37179991.9160710     
  -37200987.5303096     
  -37224560.7245902     
  -37248324.5829364     
  -37272504.9779894     
  -37297397.6052371     
  -37323384.1705508     
  -37350969.5934800     
  -37381184.6606499     
  -37413898.9254451     
  -37448333.8189857     
  -37483898.2352094     
  -37521624.4208089     
  -37561147.8343706     
  -37601975.1383037     
  -37643460.1542921     
  -37685570.0318452     
  -37728581.9679074     
  -37772269.0231031     
  -37816381.3577935     
  -37860964.6076334     
  -37906085.4468043     
  -37951602.9337514     
  -37997325.7235455     
  -38043378.6349611     
  -38089666.4765459     
  -38136100.7056220     
  -38182675.3990208     
  -38229436.1271836     
  -38276455.3711161     
  -38323715.2819514     
  -38371210.1400405     
  -38418765.1655653     
  -36682558.9938325     
  -36685806.3902337     
  -36691741.9774556     
  -36700373.0133700     
  -36711453.8897976     
  -36724332.0334336     
  -36738517.6184000     
  -36753650.9219298     
  -36769475.8619943     
  -36785819.8079558     
  -36802579.4153286     
  -36819714.5249183     
  -36837246.3523560     
  -36855263.1831995     
  -36873937.7583923     
  -36893555.7365284     
  -36914723.2293024     
  -36937372.2346193     
  -36961195.0129915     
  -36985864.2552393     
  -37012096.0171922     
  -37039898.5339755     
  -37069274.1043219     
  -37100179.4611318     
  -37132433.0437309     
  -37165673.0192990     
  -37199935.9520181     
  -37235404.7748772     
  -37272128.6380696     
  -37309761.5750628     
  -37348291.4756340     
  -37387648.0935317     
  -37427779.8128931     
  -37468545.5359698     
  -37509779.6944927     
  -37551454.3941285     
  -37593568.0748366     
  -37636064.8246694     
  -37678882.8748672     
  -37722012.1441572     
  -37765428.1596534     
  -37809086.5607216     
  -37853040.3426058     
  -37897237.1171357     
  -37941720.8012240     
  -37986448.9728776     
  -38031186.4303927     
  -38075902.1348432     
  -38120858.6229208     
  -38166239.6718033     
  -36542071.8506335     
  -36542811.8357320     
  -36543973.8774783     
  -36545928.2171699     
  -36549093.3510653     
  -36553773.2313102     
  -36560069.8127677     
  -36567981.8777111     
  -36577463.4145189     
  -36588459.4883040     
  -36600928.6589061     
  -36614846.0585820     
  -36630206.3971502     
  -36647013.6867761     
  -36665254.7781179     
  -36684852.5063020     
  -36705639.5805562     
  -36727679.4609379     
  -36751095.8508019     
  -36775999.4188968     
  -36802259.9920209     
  -36829897.0717370     
  -36858857.2865622     
  -36889046.1104327     
  -36920392.2123485     
  -36952866.7231962     
  -36986334.9120804     
  -37020670.8749773     
  -37055794.5241574     
  -37091691.2716255     
  -37128279.9929797     
  -37165533.0986019     
  -37203399.0237511     
  -37241826.0575249     
  -37280772.8125318     
  -37320165.6710356     
  -37359944.8672117     
  -37400119.6249672     
  -37440654.4242766     
  -37481504.4037275     
  -37522703.9313119     
  -37564177.7838311     
  -37605753.0279686     
  -37647446.7951685     
  -37689275.3761692     
  -37731302.9983509     
  -37773765.0028046     
  -37816779.7220688     
  -37859991.0416500     
  -37903108.8419729     
  -36406689.0168504     
  -36404964.2247762     
  -36403992.1529433     
  -36403791.8256332     
  -36404416.9093711     
  -36405997.3645814     
  -36408708.7402041     
  -36412714.5944664     
  -36418149.8543009     
  -36425112.3416641     
  -36433662.2628772     
  -36443825.3610659     
  -36455604.3561077     
  -36468975.8134117     
  -36483903.1947743     
  -36500354.7390185     
  -36518332.7927468     
  -36537782.3009544     
  -36558651.6194204     
  -36580886.6837113     
  -36604464.2134250     
  -36629309.7588243     
  -36655374.9022463     
  -36682617.7645733     
  -36710986.5241269     
  -36740415.7185062     
  -36770857.0106720     
  -36802233.2393534     
  -36834479.1403869     
  -36867527.5793054     
  -36901314.8709021     
  -36935772.0844802     
  -36970868.7049338     
  -37006560.3154542     
  -37042793.3391269     
  -37079561.8114282     
  -37116830.0893198     
  -37154479.6512090     
  -37192426.6211773     
  -37230669.3926435     
  -37269165.1971246     
  -37307977.1745274     
  -37347258.1566852     
  -37387047.6385289     
  -37427154.9873752     
  -37467366.1255578     
  -37507413.1681038     
  -37547277.5479830     
  -37587147.5642194     
  -37627271.9678964     
  -36278477.0317358     
  -36274303.4575473     
  -36271000.0349087     
  -36268602.6013151     
  -36267161.8852869     
  -36266716.7083147     
  -36267309.2935255     
  -36268993.4352832     
  -36271833.1037481     
  -36275895.8603973     
  -36281238.0996613     
  -36287910.8189851     
  -36295958.0560768     
  -36305417.2293408     
  -36316303.7169112     
  -36328622.3920377     
  -36342363.2035225     
  -36357512.7139368     
  -36374038.5457473     
  -36391902.5979217     
  -36411062.7191563     
  -36431497.6166488     
  -36453172.3568868     
  -36476049.6437609     
  -36500093.2716410     
  -36525255.4012325     
  -36551491.5196258     
  -36578772.0318803     
  -36607040.7713877     
  -36636247.4376887     
  -36666360.2773642     
  -36697345.7373719     
  -36729117.3674465     
  -36761606.3549083     
  -36794742.2215284     
  -36828440.5335522     
  -36862654.6589596     
  -36897412.2632119     
  -36932794.7948707     
  -36968746.9732232     
  -37005107.6393435     
  -37041697.9173056     
  -37078357.6632135     
  -37114974.8012532     
  -37151684.9628994     
  -37188662.9104491     
  -37226154.9310842     
  -37264206.0562930     
  -37302762.1075619     
  -37341703.8652656     
  -36159103.8712908     
  -36151701.2329648     
  -36145353.1582164     
  -36140088.1844065     
  -36135871.2314512     
  -36132679.2332229     
  -36130503.6473909     
  -36129360.4895758     
  -36129245.9775642     
  -36130181.5393686     
  -36132194.9964049     
  -36135314.3233904     
  -36139548.9074271     
  -36144920.9950485     
  -36151444.2127128     
  -36159139.4422832     
  -36168046.7434496     
  -36178173.1905505     
  -36189528.4677390     
  -36202138.2476606     
  -36216008.0225242     
  -36231125.2048589     
  -36247477.7257492     
  -36265047.9251995     
  -36283821.0759822     
  -36303802.7369416     
  -36324990.2885053     
  -36347348.2827892     
  -36370855.3568768     
  -36395481.5175632     
  -36421159.7932248     
  -36447832.3190435     
  -36475478.8001882     
  -36504091.0644860     
  -36533685.9822841     
  -36564235.5336695     
  -36595624.9515335     
  -36627683.5879442     
  -36660187.7837387     
  -36693012.7943717     
  -36726241.4861328     
  -36759924.4548106     
  -36794086.6898931     
  -36828786.3280548     
  -36863904.4836071     
  -36899415.0679660     
  -36935376.2954863     
  -36971607.7253928     
  -37007975.0371542     
  -37044445.4032857     
  -36050481.2794758     
  -36038601.4207195     
  -36028131.6427262     
  -36018792.8603013     
  -36010536.0930673     
  -36003351.9676072     
  -35997214.4282982     
  -35992076.6142074     
  -35987903.5548070     
  -35984669.4286645     
  -35982369.5895515     
  -35981009.9859582     
  -35980566.8101551     
  -35981087.9859357     
  -35982615.3225050     
  -35985184.9520208     
  -35988795.8530452     
  -35993473.7556648     
  -35999248.2934709     
  -36006145.5674361     
  -36014210.9502423     
  -36023461.6953928     
  -36033923.9698853     
  -36045629.5383040     
  -36058605.1351062     
  -36072824.6497765     
  -36088256.6662441     
  -36104923.7814374     
  -36122854.0351795     
  -36142058.9331959     
  -36162563.9576816     
  -36184388.8517211     
  -36207512.8036856     
  -36231863.7694649     
  -36257308.9885123     
  -36283726.4161589     
  -36311105.7200380     
  -36339504.2468975     
  -36368961.1796508     
  -36399472.4939637     
  -36430849.8861693     
  -36463016.3014752     
  -36495912.6661553     
  -36529307.9185618     
  -36563167.1726204     
  -36597210.4913763     
  -36630773.8668656     
  -36663672.2950443     
  -36695788.0180967     
  -36727146.0453843     
  -35954422.5828315     
  -35937068.1468100     
  -35920509.5727228     
  -35905263.6194305     
  -35891366.1097604     
  -35878692.6899947     
  -35867065.8159277     
  -35856367.4804580     
  -35846578.7098508     
  -35837690.0690791     
  -35829648.5368777     
  -35822492.8365764     
  -35816244.0171883     
  -35810935.5382235     
  -35806626.0615974     
  -35803312.0580482     
  -35800989.0233233     
  -35799720.8492855     
  -35799544.2382331     
  -35800483.7458621     
  -35802513.5399918     
  -35805614.6868051     
  -35809837.7535698     
  -35815233.4580793     
  -35821834.3104557     
  -35829683.3734670     
  -35838849.5184005     
  -35849379.3027376     
  -35861277.9554256     
  -35874571.9651130     
  -35889270.5501005     
  -35905344.8658420     
  -35922779.5413121     
  -35941602.2165593     
  -35961894.5559964     
  -35983741.9619418     
  -36007161.5168259     
  -36032034.2886242     
  -36058314.7968625     
  -36085918.5390972     
  -36114787.7999452     
  -36144713.9541717     
  -36175372.7471942     
  -36206511.5749920     
  -36237641.7827248     
  -36268572.8313193     
  -36299847.9382067     
  -36331721.7297851     
  -36364649.4730204     
  -36399182.1879806     
  -35872225.9492485     
  -35845169.3558148     
  -35821418.6989850     
  -35799414.1113957     
  -35778403.1905199     
  -35758167.6665440     
  -35738712.2430680     
  -35720118.8991406     
  -35702540.1597261     
  -35686082.0924646     
  -35670741.4614797     
  -35656614.7276376     
  -35643710.8837608     
  -35632006.8234422     
  -35621387.5124489     
  -35611820.6825728     
  -35603285.2489600     
  -35595777.4164958     
  -35589271.2767846     
  -35583774.1015101     
  -35579292.0934260     
  -35575879.0530868     
  -35573575.7452410     
  -35572407.8670978     
  -35572406.0814352     
  -35573635.1223358     
  -35576145.6781403     
  -35579975.7621409     
  -35585201.8475702     
  -35591835.8406636     
  -35599918.5281275     
  -35609561.3978670     
  -35620851.8827972     
  -35633854.7728015     
  -35648603.1627143     
  -35665081.6000349     
  -35683262.0706364     
  -35703199.1168121     
  -35724808.5155345     
  -35747998.6360615     
  -35772725.5670239     
  -35798993.6801524     
  -35826818.7249657     
  -35856144.1694104     
  -35887340.8398405     
  -35920604.0278905     
  -35955561.2146984     
  -35991805.9300933     
  -36028316.0507305     
  -36062859.9667793     
  -35798106.7181237     
  -35767590.9969661     
  -35734620.3586923     
  -35700673.8836307     
  -35666864.0972331     
  -35634469.5483719     
  -35603939.6088414     
  -35575580.9988052     
  -35549419.4784448     
  -35525086.1480312     
  -35502527.5535301     
  -35481547.6113527     
  -35461972.3166946     
  -35443604.0827273     
  -35426279.9516300     
  -35409989.0619631     
  -35394676.8003083     
  -35380309.4941045     
  -35366875.4178152     
  -35354404.3887139     
  -35342926.2407753     
  -35332475.2043056     
  -35323109.2198794     
  -35314914.8376381     
  -35307947.7815597     
  -35302225.2361534     
  -35297783.3501521     
  -35294710.2282543     
  -35293071.5984239     
  -35292960.5290609     
  -35294493.8432295     
  -35297704.3080934     
  -35302648.4011193     
  -35309370.5175405     
  -35317942.3686799     
  -35328430.5452653     
  -35340854.9436240     
  -35355261.3624032     
  -35371756.3662958     
  -35390437.4631526     
  -35411356.9734875     
  -35434563.5924450     
  -35460289.4234274     
  -35489125.3291791     
  -35520861.7809658     
  -35554876.4250456     
  -35590422.7507691     
  -35626487.3884843     
  -35662917.8331169     
  -35702468.3243042     
  -35761214.8172354     
  -35697198.8645631     
  -35635962.9596943     
  -35581111.8066457     
  -35533740.8685709     
  -35491790.5463103     
  -35453889.1321689     
  -35418945.7282240     
  -35386159.5099629     
  -35355702.6912050     
  -35326641.3933539     
  -35298722.5090193     
  -35271674.1471065     
  -35245323.4401980     
  -35219726.7304951     
  -35194923.9592417     
  -35171005.2537857     
  -35148067.0426414     
  -35126201.1169833     
  -35105489.1057613     
  -35085999.3071259     
  -35067790.3638111     
  -35050915.4591490     
  -35035415.7495876     
  -35021351.6115351     
  -35008784.0295164     
  -34997772.9176074     
  -34988368.7992315     
  -34980600.7923276     
  -34974465.2355788     
  -34970017.0140961     
  -34967312.1317626     
  -34966434.2811186     
  -34967456.1224405     
  -34970442.4874214     
  -34975460.9510656     
  -34982670.5632527     
  -34992267.8634566     
  -35004378.0822627     
  -35019144.9490150     
  -35036729.7122780     
  -35057259.1357860     
  -35080607.1781480     
  -35106195.3977927     
  -35134181.8557921     
  -35165529.0633392     
  -35200887.0798620     
  -35241086.8423944     
  -35286031.1244735     
  -35328202.8206481     
  -35548898.6352346     
  -35485696.4131986     
  -35452861.6492794     
  -35426742.5702445     
  -35393824.8483637     
  -35357666.4193468     
  -35319383.2213360     
  -35279926.0254430     
  -35239386.6585873     
  -35195860.8457572     
  -35152480.5012694     
  -35109504.1516324     
  -35067318.1665903     
  -35026424.3007889     
  -34986996.2455705     
  -34949348.0733811     
  -34913591.9649260     
  -34879778.1043604     
  -34847930.6476786     
  -34818063.0526461     
  -34790193.1879556     
  -34764311.4717159     
  -34740401.8679313     
  -34718443.0325595     
  -34698394.5920223     
  -34680209.4987903     
  -34663890.2191247     
  -34649442.0132141     
  -34636873.8874846     
  -34626185.9337688     
  -34617398.0665523     
  -34610540.4813835     
  -34605637.9732775     
  -34602740.7403681     
  -34601918.9517741     
  -34603230.0913816     
  -34606729.6097067     
  -34612526.1870089     
  -34620788.6078801     
  -34631690.5190522     
  -34645393.5209302     
  -34662096.0077713     
  -34682069.4563536     
  -34705611.9800591     
  -34732630.2880056     
  -34762741.7203835     
  -34796410.0312346     
  -34834358.6535642     
  -34878348.4658827     
  -34940366.6411360     
  -36217860.4446256     
  -35854948.6723460     
  -35582452.8282474     
  -35493184.4005247     
  -35422670.5192987     
  -35336567.7974746     
  -35245848.7190181     
  -35158711.7614294     
  -35076445.0209559     
  -34998592.6428173     
  -34923788.9251399     
  -34853822.2657771     
  -34789537.3023070     
  -34730304.4241922     
  -34675552.2038113     
  -34624970.2464708     
  -34578177.9423332     
  -34534965.0394115     
  -34495089.7863861     
  -34458327.8306162     
  -34424497.2297083     
  -34393438.8312145     
  -34365010.4632502     
  -34339099.6182593     
  -34315615.9243813     
  -34294487.0241369     
  -34275636.8373589     
  -34259001.8777196     
  -34244537.5988463     
  -34232205.2695353     
  -34221987.4601920     
  -34213888.0628814     
  -34207902.0959041     
  -34204039.7872816     
  -34202336.7972451     
  -34202828.3797745     
  -34205526.6428427     
  -34210521.7079868     
  -34217899.8510945     
  -34227788.7213058     
  -34240368.7984791     
  -34255845.2319473     
  -34274518.3579927     
  -34296823.0384070     
  -34323344.0428735     
  -34354767.6198068     
  -34391189.2122215     
  -34433918.3731934     
  -34482818.6451968     
  -34532852.8845268     
SCALARS 2waySource double 
LOOKUP_TABLE default
 -7.205750288475128E-006
 -6.942879894593614E-006
 -6.706092012792824E-006
 -6.489398159142044E-006
 -6.288843306482325E-006
 -6.101656664558541E-006
 -5.925797369560216E-006
 -5.759699849757331E-006
 -5.602123932128154E-006
 -5.452062135789415E-006
 -5.308679545021490E-006
 -5.171273073025493E-006
 -5.039242777829821E-006
 -4.912070984847439E-006
 -4.789306661084602E-006
 -4.670553442769167E-006
 -4.555460279061853E-006
 -4.443713995393512E-006
 -4.335033294111535E-006
 -4.229163849275140E-006
 -4.125874245476003E-006
 -4.024952574272092E-006
 -3.926203546594780E-006
 -3.829446011407384E-006
 -3.734510793837536E-006
 -3.641238782722026E-006
 -3.549479209506764E-006
 -3.459088068850092E-006
 -3.369926636866391E-006
 -3.281860045940035E-006
 -3.194755875843572E-006
 -3.108482719079224E-006
 -3.022908673913841E-006
 -2.937899710460749E-006
 -2.853317842418478E-006
 -2.769019017299089E-006
 -2.684850608333335E-006
 -2.600648345586698E-006
 -2.516232453416536E-006
 -2.431402649818038E-006
 -2.345931482420924E-006
 -2.259555174512667E-006
 -2.171960637080493E-006
 -2.082766386498737E-006
 -1.991493432258547E-006
 -1.897519036926645E-006
 -1.800000091795251E-006
 -1.697740487855763E-006
 -1.588951320782774E-006
 -1.470798579623534E-006
 -7.330416220268007E-006
 -7.176544307449551E-006
 -7.019503781122199E-006
 -6.863638338629725E-006
 -6.710998163507581E-006
 -6.562497601054610E-006
 -6.418477318930974E-006
 -6.278984411217177E-006
 -6.143915630812533E-006
 -6.013092469174290E-006
 -5.886301375804234E-006
 -5.763315651725160E-006
 -5.643907445706163E-006
 -5.527854267690385E-006
 -5.414942395985305E-006
 -5.304968492763580E-006
 -5.197740174084368E-006
 -5.093075968161651E-006
 -4.990804919092833E-006
 -4.890765990907388E-006
 -4.792807366098131E-006
 -4.696785695801198E-006
 -4.602565335985803E-006
 -4.510017589688945E-006
 -4.419019966022885E-006
 -4.329455460942657E-006
 -4.241211860875554E-006
 -4.154181067869984E-006
 -4.068258443490124E-006
 -3.983342167694319E-006
 -3.899332608794335E-006
 -3.816131700679973E-006
 -3.733642324505647E-006
 -3.651767694001654E-006
 -3.570410747097735E-006
 -3.489473553201902E-006
 -3.408856756932388E-006
 -3.328459099766974E-006
 -3.248177098243809E-006
 -3.167905025120711E-006
 -3.087535465859634E-006
 -3.006960960804298E-006
 -2.926077702688961E-006
 -2.844793164170873E-006
 -2.763041352127827E-006
 -2.680813135121093E-006
 -2.598216971685604E-006
 -2.515602279132780E-006
 -2.433814690965850E-006
 -2.354734942592190E-006
 -7.459078473537616E-006
 -7.352963208932498E-006
 -7.245106412548816E-006
 -7.135580689094887E-006
 -7.025060286743579E-006
 -6.914278443193195E-006
 -6.803855613977086E-006
 -6.694266417275343E-006
 -6.585853359282241E-006
 -6.478852264445841E-006
 -6.373417052883203E-006
 -6.269640310717210E-006
 -6.167569300599246E-006
 -6.067218062946076E-006
 -5.968576442710979E-006
 -5.871616788855013E-006
 -5.776298921760744E-006
 -5.682573819690525E-006
 -5.590386358415530E-006
 -5.499677349402562E-006
 -5.410385056503124E-006
 -5.322446323585433E-006
 -5.235797411261233E-006
 -5.150374616111508E-006
 -5.066114727971223E-006
 -4.982955368079478E-006
 -4.900835241730165E-006
 -4.819694332873177E-006
 -4.739474063838689E-006
 -4.660117441308586E-006
 -4.581569208904692E-006
 -4.503776028009640E-006
 -4.426686711401701E-006
 -4.350252539611795E-006
 -4.274427698251178E-006
 -4.199169886782229E-006
 -4.124441166924596E-006
 -4.050209143652760E-006
 -3.976448605902515E-006
 -3.903143798824166E-006
 -3.830291553587097E-006
 -3.757905553372405E-006
 -3.686022029373874E-006
 -3.614707055949052E-006
 -3.544065083217090E-006
 -3.474246735352890E-006
 -3.405449548818289E-006
 -3.337894137820539E-006
 -3.271730240998437E-006
 -3.206757686695176E-006
 -7.646455632030560E-006
 -7.569391757027601E-006
 -7.490159231720658E-006
 -7.409203899290072E-006
 -7.326804117565278E-006
 -7.243234574024022E-006
 -7.158783343353604E-006
 -7.073735229785991E-006
 -6.988354926838965E-006
 -6.902877039494451E-006
 -6.817502316740980E-006
 -6.732397959577355E-006
 -6.647700157905246E-006
 -6.563517610851877E-006
 -6.479935290220533E-006
 -6.397018050942861E-006
 -6.314813903676934E-006
 -6.233356885602091E-006
 -6.152669529890449E-006
 -6.072764965483419E-006
 -5.993648691567771E-006
 -5.915320073735963E-006
 -5.837773606879376E-006
 -5.760999985672685E-006
 -5.684987018840706E-006
 -5.609720418978768E-006
 -5.535184495864625E-006
 -5.461362778024944E-006
 -5.388238584989316E-006
 -5.315795571048155E-006
 -5.244018260359014E-006
 -5.172892593002883E-006
 -5.102406501778974E-006
 -5.032550540048275E-006
 -4.963318581548169E-006
 -4.894708612895704E-006
 -4.826723637769077E-006
 -4.759372706024330E-006
 -4.692672068252456E-006
 -4.626646430586393E-006
 -4.561330237065743E-006
 -4.496768825303547E-006
 -4.433019172025408E-006
 -4.370149766819393E-006
 -4.308238978610703E-006
 -4.247371348243547E-006
 -4.187632339087269E-006
 -4.129106529209207E-006
 -4.071898521259666E-006
 -4.016237535662387E-006
 -7.888497433234746E-006
 -7.832087391042420E-006
 -7.773472735329216E-006
 -7.712866828236887E-006
 -7.650513121780779E-006
 -7.586636337094923E-006
 -7.521442679773755E-006
 -7.455125378125990E-006
 -7.387867143613110E-006
 -7.319839970063730E-006
 -7.251203875103700E-006
 -7.182105663883660E-006
 -7.112678188510034E-006
 -7.043040199292978E-006
 -6.973296706742498E-006
 -6.903539716423506E-006
 -6.833849200675803E-006
 -6.764294196086589E-006
 -6.694933945000711E-006
 -6.625819025867300E-006
 -6.556992438062234E-006
 -6.488490622298692E-006
 -6.420344408500688E-006
 -6.352579890219641E-006
 -6.285219229305575E-006
 -6.218281397329324E-006
 -6.151782861873312E-006
 -6.085738226451646E-006
 -6.020160833068841E-006
 -5.955063336114883E-006
 -5.890458255760495E-006
 -5.826358518012862E-006
 -5.762777987195855E-006
 -5.699731994618074E-006
 -5.637237864206378E-006
 -5.575315431868535E-006
 -5.513987549624667E-006
 -5.453280558298292E-006
 -5.393224703573702E-006
 -5.333854461176942E-006
 -5.275208731140051E-006
 -5.217330866263803E-006
 -5.160268530745857E-006
 -5.104073464116014E-006
 -5.048801375885794E-006
 -4.994512396645670E-006
 -4.941272530964122E-006
 -4.889155427691698E-006
 -4.838238211500630E-006
 -4.788564936052232E-006
 -8.186284563739647E-006
 -8.144777472765108E-006
 -8.101133516167432E-006
 -8.055518298789946E-006
 -8.008087327475114E-006
 -7.958997122649217E-006
 -7.908401826874230E-006
 -7.856450191217849E-006
 -7.803284324703368E-006
 -7.749039342811991E-006
 -7.693843254733953E-006
 -7.637816842402039E-006
 -7.581073512142915E-006
 -7.523719173427041E-006
 -7.465852198379303E-006
 -7.407563491619039E-006
 -7.348936676031724E-006
 -7.290048383583538E-006
 -7.230968631948987E-006
 -7.171761265004170E-006
 -7.112484436437440E-006
 -7.053191118503814E-006
 -6.993929621611740E-006
 -6.934744113934854E-006
 -6.875675133320924E-006
 -6.816760086368491E-006
 -6.758033731545657E-006
 -6.699528644568504E-006
 -6.641275665277896E-006
 -6.583304325626458E-006
 -6.525643258507976E-006
 -6.468320586875278E-006
 -6.411364291907993E-006
 -6.354802558158620E-006
 -6.298664092530797E-006
 -6.242978412806951E-006
 -6.187776100668973E-006
 -6.133089014016014E-006
 -6.078950454570826E-006
 -6.025395289905929E-006
 -5.972460034631158E-006
 -5.920182902513031E-006
 -5.868603845472485E-006
 -5.817764586018444E-006
 -5.767708605293316E-006
 -5.718480945659068E-006
 -5.670127550374276E-006
 -5.622693998797600E-006
 -5.576225292442388E-006
 -5.530776857710085E-006
 -8.538744426325893E-006
 -8.508188256350430E-006
 -8.475601715830278E-006
 -8.441108559422647E-006
 -8.404832391088758E-006
 -8.366893289514212E-006
 -8.327408496167058E-006
 -8.286492548568522E-006
 -8.244256895038344E-006
 -8.200809419107365E-006
 -8.156254061623005E-006
 -8.110690564620497E-006
 -8.064214308469492E-006
 -8.016916213740301E-006
 -7.968882692154565E-006
 -7.920195641181809E-006
 -7.870932481809115E-006
 -7.821166239516427E-006
 -7.770965667114230E-006
 -7.720395406374845E-006
 -7.669516183605867E-006
 -7.618385033529961E-006
 -7.567055545365056E-006
 -7.515578125136378E-006
 -7.464000268708456E-006
 -7.412366840520481E-006
 -7.360720353729142E-006
 -7.309101247986959E-006
 -7.257548161580187E-006
 -7.206098195096297E-006
 -7.154787164058201E-006
 -7.103649838121462E-006
 -7.052720164599883E-006
 -7.002031474245021E-006
 -6.951616667274128E-006
 -6.901508377969877E-006
 -6.851739116545771E-006
 -6.802341387461774E-006
 -6.753347783751984E-006
 -6.704791057126087E-006
 -6.656704162626790E-006
 -6.609120274349548E-006
 -6.562072764938507E-006
 -6.515595138814636E-006
 -6.469720915775385E-006
 -6.424483494389431E-006
 -6.379916098852678E-006
 -6.336051959876158E-006
 -6.292924394686027E-006
 -6.250563190412537E-006
 -8.944212256586616E-006
 -8.921610255935284E-006
 -8.897120182986514E-006
 -8.870838264895535E-006
 -8.842859516254197E-006
 -8.813278147234305E-006
 -8.782186917081322E-006
 -8.749676789385446E-006
 -8.715836752762792E-006
 -8.680753664269287E-006
 -8.644512084464036E-006
 -8.607194117652854E-006
 -8.568879273867678E-006
 -8.529644360986983E-006
 -8.489563408759032E-006
 -8.448707623105929E-006
 -8.407145368442818E-006
 -8.364942175616988E-006
 -8.322160773653291E-006
 -8.278861143398036E-006
 -8.235100591163605E-006
 -8.190933840268058E-006
 -8.146413138100410E-006
 -8.101588376185439E-006
 -8.056507220562344E-006
 -8.011215249785981E-006
 -7.965756097859530E-006
 -7.920171599548246E-006
 -7.874501935585908E-006
 -7.828785775501795E-006
 -7.783060415938635E-006
 -7.737361912508514E-006
 -7.691725203436065E-006
 -7.646184223425210E-006
 -7.600772006333766E-006
 -7.555520775463042E-006
 -7.510462020341628E-006
 -7.465626558962113E-006
 -7.421044584386381E-006
 -7.376745694595578E-006
 -7.332758904622356E-006
 -7.289112640480904E-006
 -7.245834716084703E-006
 -7.202952296764354E-006
 -7.160491854351192E-006
 -7.118479112407249E-006
 -7.076938953433487E-006
 -7.035895218358488E-006
 -6.995370434123965E-006
 -6.955386671605738E-006
 -9.400436637239567E-006
 -9.383471833333660E-006
 -9.364779361785698E-006
 -9.344434745101363E-006
 -9.322513081303504E-006
 -9.299088721737490E-006
 -9.274235224798432E-006
 -9.248025209810724E-006
 -9.220530188119907E-006
 -9.191820414273756E-006
 -9.161964760169450E-006
 -9.131030606035662E-006
 -9.099083744705585E-006
 -9.066188298809373E-006
 -9.032406651877469E-006
 -8.997799394234005E-006
 -8.962425284014270E-006
 -8.926341223080816E-006
 -8.889602247182435E-006
 -8.852261529479623E-006
 -8.814370396405017E-006
 -8.775978354677081E-006
 -8.737133128305610E-006
 -8.697880704196164E-006
 -8.658265385056188E-006
 -8.618329848136277E-006
 -8.578115208365927E-006
 -8.537661084413806E-006
 -8.497005666254868E-006
 -8.456185782818776E-006
 -8.415236968365918E-006
 -8.374193526358629E-006
 -8.333088589563182E-006
 -8.291954175360757E-006
 -8.250821235172865E-006
 -8.209719697124222E-006
 -8.168678501077602E-006
 -8.127725625347652E-006
 -8.086888104480327E-006
 -8.046192037739030E-006
 -8.005662588096618E-006
 -7.965323971739329E-006
 -7.925199437848014E-006
 -7.885311237816889E-006
 -7.845680581874095E-006
 -7.806327581654744E-006
 -7.767271185001813E-006
 -7.728529129057794E-006
 -7.690117923917131E-006
 -7.652052483267946E-006
 -9.904804652067967E-006
 -9.891660419745847E-006
 -9.876958702730474E-006
 -9.860758557033329E-006
 -9.843118917101242E-006
 -9.824098501770122E-006
 -9.803755658850000E-006
 -9.782148250592043E-006
 -9.759333550452116E-006
 -9.735368141867340E-006
 -9.710307821552089E-006
 -9.684207510397201E-006
 -9.657121173260639E-006
 -9.629101747804354E-006
 -9.600201082174819E-006
 -9.570469881461182E-006
 -9.539957662757341E-006
 -9.508712718803965E-006
 -9.476782089936154E-006
 -9.444211544042159E-006
 -9.411045564079950E-006
 -9.377327342608135E-006
 -9.343098782696736E-006
 -9.308400504541364E-006
 -9.273271857012519E-006
 -9.237750933388713E-006
 -9.201874590444990E-006
 -9.165678470087891E-006
 -9.129197022729180E-006
 -9.092463531527059E-006
 -9.055510136784006E-006
 -9.018367859628540E-006
 -8.981066624347177E-006
 -8.943635278555454E-006
 -8.906101610672385E-006
 -8.868492364058902E-006
 -8.830833247289272E-006
 -8.793148940146426E-006
 -8.755463094938243E-006
 -8.717798332793279E-006
 -8.680176234664645E-006
 -8.642617326729048E-006
 -8.605141060011504E-006
 -8.567765784240674E-006
 -8.530508716600955E-006
 -8.493385906421441E-006
 -8.456412195272840E-006
 -8.419601164518057E-006
 -8.382965060275132E-006
 -8.346514814841449E-006
 -1.045452305084810E-005
 -1.044377755672894E-005
 -1.043164644625207E-005
 -1.041817547780244E-005
 -1.040341054984522E-005
 -1.038739759455144E-005
 -1.037018249068955E-005
 -1.035181096975133E-005
 -1.033232852608262E-005
 -1.031178033333086E-005
 -1.029021116629881E-005
 -1.026766532766869E-005
 -1.024418657979545E-005
 -1.021981808174153E-005
 -1.019460233182925E-005
 -1.016858111571724E-005
 -1.014179545997956E-005
 -1.011428559111640E-005
 -1.008609089977060E-005
 -1.005724991001986E-005
 -1.002780025348111E-005
 -9.997778647931294E-006
 -9.967220880126385E-006
 -9.936161792455858E-006
 -9.904635272990110E-006
 -9.872674248566874E-006
 -9.840310680388992E-006
 -9.807575561731081E-006
 -9.774498917243283E-006
 -9.741109803412385E-006
 -9.707436309714937E-006
 -9.673505559983397E-006
 -9.639343713606019E-006
 -9.604975966048722E-006
 -9.570426548443969E-006
 -9.535718725774906E-006
 -9.500874793398487E-006
 -9.465916071582902E-006
 -9.430862897833725E-006
 -9.395734616771001E-006
 -9.360549567424966E-006
 -9.325325067826020E-006
 -9.290077396894523E-006
 -9.254821773572020E-006
 -9.219572333143199E-006
 -9.184342100364622E-006
 -9.149142959409600E-006
 -9.113985623057480E-006
 -9.078879606328079E-006
 -9.043833169064390E-006
 -1.104678217812409E-005
 -1.103733138625049E-005
 -1.102666280049127E-005
 -1.101481132527089E-005
 -1.100181217961595E-005
 -1.098770081536497E-005
 -1.097251283468538E-005
 -1.095628391374413E-005
 -1.093904972929888E-005
 -1.092084588809927E-005
 -1.090170785964262E-005
 -1.088167091257052E-005
 -1.086077005471515E-005
 -1.083903997679766E-005
 -1.081651499982183E-005
 -1.079322902609511E-005
 -1.076921549391610E-005
 -1.074450733585487E-005
 -1.071913694053855E-005
 -1.069313611784803E-005
 -1.066653606734913E-005
 -1.063936734984419E-005
 -1.061165986182256E-005
 -1.058344281259740E-005
 -1.055474470393285E-005
 -1.052559331190678E-005
 -1.049601567074225E-005
 -1.046603805837544E-005
 -1.043568598348636E-005
 -1.040498417369127E-005
 -1.037395656469397E-005
 -1.034262629009572E-005
 -1.031101567160205E-005
 -1.027914620942651E-005
 -1.024703857262190E-005
 -1.021471258917210E-005
 -1.018218723561619E-005
 -1.014948062607185E-005
 -1.011661000047459E-005
 -1.008359171196761E-005
 -1.005044121330145E-005
 -1.001717304219696E-005
 -9.983800805637113E-006
 -9.950337163032009E-006
 -9.916793808307272E-006
 -9.883181451094625E-006
 -9.849509797240189E-006
 -9.815787528145847E-006
 -9.782022277114598E-006
 -9.748220613362823E-006
 -1.167888491253480E-005
 -1.166988256379695E-005
 -1.165982211473086E-005
 -1.164872965130637E-005
 -1.163663168082645E-005
 -1.162355506173892E-005
 -1.160952693648443E-005
 -1.159457466583912E-005
 -1.157872576578938E-005
 -1.156200784702099E-005
 -1.154444855686577E-005
 -1.152607552378995E-005
 -1.150691630442625E-005
 -1.148699833321008E-005
 -1.146634887462190E-005
 -1.144499497799966E-005
 -1.142296343495192E-005
 -1.140028073926872E-005
 -1.137697304932578E-005
 -1.135306615288261E-005
 -1.132858543421780E-005
 -1.130355584349908E-005
 -1.127800186825952E-005
 -1.125194750691673E-005
 -1.122541624414451E-005
 -1.119843102799755E-005
 -1.117101424865062E-005
 -1.114318771858420E-005
 -1.111497265407316E-005
 -1.108638965784953E-005
 -1.105745870276393E-005
 -1.102819911629399E-005
 -1.099862956580801E-005
 -1.096876804436379E-005
 -1.093863185700996E-005
 -1.090823760740177E-005
 -1.087760118465008E-005
 -1.084673775032633E-005
 -1.081566172551098E-005
 -1.078438677787044E-005
 -1.075292580864290E-005
 -1.072129093958064E-005
 -1.068949349978598E-005
 -1.065754401247319E-005
 -1.062545218168275E-005
 -1.059322687894816E-005
 -1.056087612994290E-005
 -1.052840710125618E-005
 -1.049582608819342E-005
 -1.046313850060864E-005
 -1.234833851809802E-005
 -1.233914655362301E-005
 -1.232904553466966E-005
 -1.231805443415777E-005
 -1.230619270030293E-005
 -1.229348019772804E-005
 -1.227993715009893E-005
 -1.226558408470755E-005
 -1.225044177871186E-005
 -1.223453120720773E-005
 -1.221787349308949E-005
 -1.220048985880112E-005
 -1.218240157995061E-005
 -1.216362994082037E-005
 -1.214419619173404E-005
 -1.212412150834054E-005
 -1.210342695273869E-005
 -1.208213343646183E-005
 -1.206026168526568E-005
 -1.203783220572643E-005
 -1.201486525352019E-005
 -1.199138080343836E-005
 -1.196739852098765E-005
 -1.194293773555481E-005
 -1.191801741507594E-005
 -1.189265614207514E-005
 -1.186687209108668E-005
 -1.184068300728034E-005
 -1.181410618629913E-005
 -1.178715845514725E-005
 -1.175985615408974E-005
 -1.173221511950734E-005
 -1.170425066755463E-005
 -1.167597757860562E-005
 -1.164741008242641E-005
 -1.161856184395633E-005
 -1.158944594968538E-005
 -1.156007489459762E-005
 -1.153046056956358E-005
 -1.150061424924473E-005
 -1.147054658042740E-005
 -1.144026757080074E-005
 -1.140978657817486E-005
 -1.137911230013875E-005
 -1.134825276421757E-005
 -1.131721531850981E-005
 -1.128600662291796E-005
 -1.125463264102028E-005
 -1.122309863235145E-005
 -1.119140914610929E-005
 -1.305291176822261E-005
 -1.304305872836976E-005
 -1.303243375303162E-005
 -1.302105013493725E-005
 -1.300892165583024E-005
 -1.299606253743387E-005
 -1.298248739362238E-005
 -1.296821118377789E-005
 -1.295324916741341E-005
 -1.293761686011462E-005
 -1.292132999077751E-005
 -1.290440446021446E-005
 -1.288685630109277E-005
 -1.286870163927418E-005
 -1.284995665651446E-005
 -1.283063755457469E-005
 -1.281076052067877E-005
 -1.279034169438223E-005
 -1.276939713578506E-005
 -1.274794279508738E-005
 -1.272599448347291E-005
 -1.270356784529669E-005
 -1.268067833153885E-005
 -1.265734117447434E-005
 -1.263357136357070E-005
 -1.260938362252448E-005
 -1.258479238743372E-005
 -1.255981178602148E-005
 -1.253445561792863E-005
 -1.250873733596457E-005
 -1.248267002832514E-005
 -1.245626640171953E-005
 -1.242953876536296E-005
 -1.240249901577708E-005
 -1.237515862243009E-005
 -1.234752861410338E-005
 -1.231961956601608E-005
 -1.229144158766354E-005
 -1.226300431134747E-005
 -1.223431688141364E-005
 -1.220538794415575E-005
 -1.217622563840043E-005
 -1.214683758679819E-005
 -1.211723088780614E-005
 -1.208741210840741E-005
 -1.205738727756778E-005
 -1.202716188049037E-005
 -1.199674085366175E-005
 -1.196612858088010E-005
 -1.193532889000514E-005
 -1.379066306680221E-005
 -1.377980918977861E-005
 -1.376830823888668E-005
 -1.375616901663674E-005
 -1.374340079994920E-005
 -1.373001329994527E-005
 -1.371601662251050E-005
 -1.370142122968422E-005
 -1.368623790195283E-005
 -1.367047770138239E-005
 -1.365415193573162E-005
 -1.363727212349598E-005
 -1.361984995992519E-005
 -1.360189728403409E-005
 -1.358342604663916E-005
 -1.356444827938442E-005
 -1.354497606482203E-005
 -1.352502150748842E-005
 -1.350459670605323E-005
 -1.348371372643664E-005
 -1.346238457601233E-005
 -1.344062117876851E-005
 -1.341843535150483E-005
 -1.339583878099540E-005
 -1.337284300214430E-005
 -1.334945937707965E-005
 -1.332569907520277E-005
 -1.330157305413761E-005
 -1.327709204161458E-005
 -1.325226651818657E-005
 -1.322710670086950E-005
 -1.320162252754845E-005
 -1.317582364228845E-005
 -1.314971938140537E-005
 -1.312331876034311E-005
 -1.309663046134053E-005
 -1.306966282186032E-005
 -1.304242382379022E-005
 -1.301492108338794E-005
 -1.298716184201521E-005
 -1.295915295759206E-005
 -1.293090089685587E-005
 -1.290241172834879E-005
 -1.287369111624571E-005
 -1.284474431493243E-005
 -1.281557616444362E-005
 -1.278619108673377E-005
 -1.275659308282664E-005
 -1.272678573084583E-005
 -1.269677218505144E-005
 -1.455994623919788E-005
 -1.454785447237726E-005
 -1.453522857912807E-005
 -1.452207384598041E-005
 -1.450839600041339E-005
 -1.449420117842773E-005
 -1.447949589261240E-005
 -1.446428700072557E-005
 -1.444858167483160E-005
 -1.443238737105367E-005
 -1.441571179992960E-005
 -1.439856289744155E-005
 -1.438094879671255E-005
 -1.436287780042100E-005
 -1.434435835391991E-005
 -1.432539901910752E-005
 -1.430600844904135E-005
 -1.428619536333298E-005
 -1.426596852429459E-005
 -1.424533671388058E-005
 -1.422430871141433E-005
 -1.420289327209504E-005
 -1.418109910630614E-005
 -1.415893485968930E-005
 -1.413640909403505E-005
 -1.411353026894307E-005
 -1.409030672424157E-005
 -1.406674666323205E-005
 -1.404285813664534E-005
 -1.401864902740881E-005
 -1.399412703613817E-005
 -1.396929966740305E-005
 -1.394417421673861E-005
 -1.391875775837727E-005
 -1.389305713375814E-005
 -1.386707894074378E-005
 -1.384082952358100E-005
 -1.381431496360313E-005
 -1.378754107065970E-005
 -1.376051337530298E-005
 -1.373323712168863E-005
 -1.370571726127004E-005
 -1.367795844722327E-005
 -1.364996502965054E-005
 -1.362174105156970E-005
 -1.359329024571413E-005
 -1.356461603212134E-005
 -1.353572151658290E-005
 -1.350660948993700E-005
 -1.347728242822017E-005
 -1.535940035878643E-005
 -1.534591261317183E-005
 -1.533199256356870E-005
 -1.531764276473609E-005
 -1.530286616748729E-005
 -1.528766609306667E-005
 -1.527204620773161E-005
 -1.525601049766654E-005
 -1.523956324422250E-005
 -1.522270899951057E-005
 -1.520545256242270E-005
 -1.518779895503551E-005
 -1.516975339952537E-005
 -1.515132129552762E-005
 -1.513250819800825E-005
 -1.511331979565825E-005
 -1.509376188984622E-005
 -1.507384037410518E-005
 -1.505356121420787E-005
 -1.503293042882610E-005
 -1.501195407078181E-005
 -1.499063820892843E-005
 -1.496898891061120E-005
 -1.494701222476915E-005
 -1.492471416567737E-005
 -1.490210069729338E-005
 -1.487917771828295E-005
 -1.485595104763359E-005
 -1.483242641095687E-005
 -1.480860942741629E-005
 -1.478450559729971E-005
 -1.476012029025649E-005
 -1.473545873417985E-005
 -1.471052600472971E-005
 -1.468532701554534E-005
 -1.465986650907626E-005
 -1.463414904809901E-005
 -1.460817900792324E-005
 -1.458196056921093E-005
 -1.455549771152509E-005
 -1.452879420752671E-005
 -1.450185361789116E-005
 -1.447467928688110E-005
 -1.444727433867612E-005
 -1.441964167436889E-005
 -1.439178396971885E-005
 -1.436370367362023E-005
 -1.433540300733990E-005
 -1.430688396449893E-005
 -1.427814831183310E-005
 -1.618792902241450E-005
 -1.617294702380643E-005
 -1.615762447474089E-005
 -1.614196181790369E-005
 -1.612595984126419E-005
 -1.610961965821084E-005
 -1.609294268778636E-005
 -1.607593063505110E-005
 -1.605858547161549E-005
 -1.604090941637749E-005
 -1.602290491646799E-005
 -1.600457462849280E-005
 -1.598592140003872E-005
 -1.596694825149702E-005
 -1.594765835822503E-005
 -1.592805503307117E-005
 -1.590814170927568E-005
 -1.588792192376780E-005
 -1.586739930088170E-005
 -1.584657753650758E-005
 -1.582546038267707E-005
 -1.580405163262381E-005
 -1.578235510630948E-005
 -1.576037463642820E-005
 -1.573811405490761E-005
 -1.571557717992258E-005
 -1.569276780339443E-005
 -1.566968967904674E-005
 -1.564634651094624E-005
 -1.562274194261785E-005
 -1.559887954666477E-005
 -1.557476281494955E-005
 -1.555039514933062E-005
 -1.552577985294813E-005
 -1.550092012207378E-005
 -1.547581903852686E-005
 -1.545047956266124E-005
 -1.542490452694944E-005
 -1.539909663011994E-005
 -1.537305843191467E-005
 -1.534679234842494E-005
 -1.532030064803041E-005
 -1.529358544795641E-005
 -1.526664871144745E-005
 -1.523949224554401E-005
 -1.521211769952355E-005
 -1.518452656394216E-005
 -1.515672017033984E-005
 -1.512869969160629E-005
 -1.510046614297334E-005
 -1.704467334026542E-005
 -1.702814344022517E-005
 -1.701135586433287E-005
 -1.699430942296266E-005
 -1.697700321900811E-005
 -1.695943663289902E-005
 -1.694160930757434E-005
 -1.692352113349594E-005
 -1.690517223370432E-005
 -1.688656294896557E-005
 -1.686769382300074E-005
 -1.684856558789270E-005
 -1.682917914961820E-005
 -1.680953557380287E-005
 -1.678963607165810E-005
 -1.676948198617315E-005
 -1.674907477855046E-005
 -1.672841601492329E-005
 -1.670750735333997E-005
 -1.668635053110457E-005
 -1.666494735239564E-005
 -1.664329967624996E-005
 -1.662140940488293E-005
 -1.659927847240758E-005
 -1.657690883389169E-005
 -1.655430245483654E-005
 -1.653146130103501E-005
 -1.650838732886479E-005
 -1.648508247597560E-005
 -1.646154865242590E-005
 -1.643778773224295E-005
 -1.641380154544842E-005
 -1.638959187051402E-005
 -1.636516042728584E-005
 -1.634050887038228E-005
 -1.631563878306359E-005
 -1.629055167157282E-005
 -1.626524895996590E-005
 -1.623973198543923E-005
 -1.621400199416266E-005
 -1.618806013758893E-005
 -1.616190746929070E-005
 -1.613554494231905E-005
 -1.610897340705960E-005
 -1.608219360963134E-005
 -1.605520619081202E-005
 -1.602801168547900E-005
 -1.600061052261618E-005
 -1.597300302584064E-005
 -1.594518941449328E-005
 -1.792898180151712E-005
 -1.791088313770067E-005
 -1.789260202354625E-005
 -1.787413599973803E-005
 -1.785548284740575E-005
 -1.783664057714470E-005
 -1.781760741799629E-005
 -1.779838180631864E-005
 -1.777896237466988E-005
 -1.775934794066203E-005
 -1.773953749587233E-005
 -1.771953019477006E-005
 -1.769932534373829E-005
 -1.767892239019563E-005
 -1.765832091182395E-005
 -1.763752060593897E-005
 -1.761652127901869E-005
 -1.759532283641834E-005
 -1.757392527227621E-005
 -1.755232865962276E-005
 -1.753053314072358E-005
 -1.750853891767508E-005
 -1.748634624324125E-005
 -1.746395541196134E-005
 -1.744136675156150E-005
 -1.741858061464236E-005
 -1.739559737067361E-005
 -1.737241739831378E-005
 -1.734904107805362E-005
 -1.732546878519829E-005
 -1.730170088319200E-005
 -1.727773771729802E-005
 -1.725357960864687E-005
 -1.722922684864575E-005
 -1.720467969376496E-005
 -1.717993836071663E-005
 -1.715500302202877E-005
 -1.712987380198649E-005
 -1.710455077300716E-005
 -1.707903395241029E-005
 -1.705332329960020E-005
 -1.702741871365961E-005
 -1.700132003138344E-005
 -1.697502702571454E-005
 -1.694853940462099E-005
 -1.692185681040580E-005
 -1.689497881946331E-005
 -1.686790494243104E-005
 -1.684063462483717E-005
 -1.681316724814674E-005
 -1.884037922824803E-005
 -1.882071466944572E-005
 -1.880093644349778E-005
 -1.878104108737324E-005
 -1.876102532875636E-005
 -1.874088607838476E-005
 -1.872062042228923E-005
 -1.870022561390494E-005
 -1.867969906609563E-005
 -1.865903834315547E-005
 -1.863824115275316E-005
 -1.861730533787971E-005
 -1.859622886879932E-005
 -1.857500983503265E-005
 -1.855364643739144E-005
 -1.853213698008561E-005
 -1.851047986291574E-005
 -1.848867357356338E-005
 -1.846671668002403E-005
 -1.844460782313374E-005
 -1.842234570929538E-005
 -1.839992910334585E-005
 -1.837735682159049E-005
 -1.835462772506158E-005
 -1.833174071295490E-005
 -1.830869471628676E-005
 -1.828548869178606E-005
 -1.826212161601879E-005
 -1.823859247975921E-005
 -1.821490028261754E-005
 -1.819104402793110E-005
 -1.816702271794014E-005
 -1.814283534922311E-005
 -1.811848090844874E-005
 -1.809395836839928E-005
 -1.806926668430934E-005
 -1.804440479051936E-005
 -1.801937159741557E-005
 -1.799416598873028E-005
 -1.796878681912841E-005
 -1.794323291214720E-005
 -1.791750305845757E-005
 -1.789159601446187E-005
 -1.786551050123529E-005
 -1.783924520381104E-005
 -1.781279877078750E-005
 -1.778616981433074E-005
 -1.775935691046126E-005
 -1.773235859973789E-005
 -1.770517338826699E-005
 -1.977853627017869E-005
 -1.975732564103264E-005
 -1.973606483003400E-005
 -1.971474955758178E-005
 -1.969337568840935E-005
 -1.967193922661617E-005
 -1.965043631058098E-005
 -1.962886320770536E-005
 -1.960721630907387E-005
 -1.958549212402076E-005
 -1.956368727462141E-005
 -1.954179849014107E-005
 -1.951982260144667E-005
 -1.949775653540881E-005
 -1.947559730929241E-005
 -1.945334202518454E-005
 -1.943098786444336E-005
 -1.940853208219633E-005
 -1.938597200191083E-005
 -1.936330501004084E-005
 -1.934052855074432E-005
 -1.931764012074319E-005
 -1.929463726426351E-005
 -1.927151756813158E-005
 -1.924827865698735E-005
 -1.922491818865995E-005
 -1.920143384970692E-005
 -1.917782335111210E-005
 -1.915408442417156E-005
 -1.913021481656988E-005
 -1.910621228864062E-005
 -1.908207460984387E-005
 -1.905779955545511E-005
 -1.903338490345458E-005
 -1.900882843166515E-005
 -1.898412791511433E-005
 -1.895928112360816E-005
 -1.893428581960047E-005
 -1.890913975624221E-005
 -1.888384067573458E-005
 -1.885838630791602E-005
 -1.883277436908894E-005
 -1.880700256115078E-005
 -1.878106857093922E-005
 -1.875497006987943E-005
 -1.872870471388053E-005
 -1.870227014349637E-005
 -1.867566398437463E-005
 -1.864888384794860E-005
 -1.862192733241165E-005
 -2.074324031534307E-005
 -2.072051546201046E-005
 -2.069779967417671E-005
 -2.067508797913712E-005
 -2.065237550598784E-005
 -2.062965748283650E-005
 -2.060692923387239E-005
 -2.058418617628011E-005
 -2.056142381703939E-005
 -2.053863774961773E-005
 -2.051582365055618E-005
 -2.049297727599904E-005
 -2.047009445814129E-005
 -2.044717110165174E-005
 -2.042420318003606E-005
 -2.040118673201410E-005
 -2.037811785786104E-005
 -2.035499271578584E-005
 -2.033180751830191E-005
 -2.030855852865613E-005
 -2.028524205728116E-005
 -2.026185445832534E-005
 -2.023839212623276E-005
 -2.021485149240652E-005
 -2.019122902196269E-005
 -2.016752121058036E-005
 -2.014372458144511E-005
 -2.011983568233525E-005
 -2.009585108279995E-005
 -2.007176737149138E-005
 -2.004758115362144E-005
 -2.002328904857718E-005
 -1.999888768767013E-005
 -1.997437371205637E-005
 -1.994974377082790E-005
 -1.992499451925905E-005
 -1.990012261722379E-005
 -1.987512472781536E-005
 -1.984999751612185E-005
 -1.982473764820390E-005
 -1.979934179026846E-005
 -1.977380660800807E-005
 -1.974812876617193E-005
 -1.972230492830461E-005
 -1.969633175669411E-005
 -1.967020591253346E-005
 -1.964392405625214E-005
 -1.961748284808675E-005
 -1.959087894881757E-005
 -1.956410902071877E-005
 -2.173436827182897E-005
 -2.171016959693459E-005
 -2.168603596226081E-005
 -2.166196177438932E-005
 -2.163794150316072E-005
 -2.161396968066664E-005
 -2.159004090007288E-005
 -2.156614981429757E-005
 -2.154229113455772E-005
 -2.151845962880264E-005
 -2.149465012003376E-005
 -2.147085748453492E-005
 -2.144707665002064E-005
 -2.142330259371840E-005
 -2.139953034040569E-005
 -2.137575496037949E-005
 -2.135197156740583E-005
 -2.132817531665310E-005
 -2.130436140260808E-005
 -2.128052505698201E-005
 -2.125666154664058E-005
 -2.123276617154740E-005
 -2.120883426273032E-005
 -2.118486118029760E-005
 -2.116084231147834E-005
 -2.113677306874300E-005
 -2.111264888797596E-005
 -2.108846522669399E-005
 -2.106421756238762E-005
 -2.103990139091353E-005
 -2.101551222498428E-005
 -2.099104559274996E-005
 -2.096649703650457E-005
 -2.094186211146880E-005
 -2.091713638471029E-005
 -2.089231543416874E-005
 -2.086739484780471E-005
 -2.084237022288327E-005
 -2.081723716537564E-005
 -2.079199128949395E-005
 -2.076662821737321E-005
 -2.074114357888383E-005
 -2.071553301157838E-005
 -2.068979216079453E-005
 -2.066391667988193E-005
 -2.063790223059836E-005
 -2.061174448362344E-005
 -2.058543911924244E-005
 -2.055898182815460E-005
 -2.053236831242782E-005
 -2.275186138383272E-005
 -2.272623554254287E-005
 -2.270072831203535E-005
 -2.267533350966496E-005
 -2.265004498151663E-005
 -2.262485660281072E-005
 -2.259976227815144E-005
 -2.257475594165545E-005
 -2.254983155691459E-005
 -2.252498311686527E-005
 -2.250020464352349E-005
 -2.247549018763683E-005
 -2.245083382822457E-005
 -2.242622967205007E-005
 -2.240167185301947E-005
 -2.237715453150702E-005
 -2.235267189363665E-005
 -2.232821815051760E-005
 -2.230378753744742E-005
 -2.227937431307445E-005
 -2.225497275855894E-005
 -2.223057717671866E-005
 -2.220618189116218E-005
 -2.218178124543892E-005
 -2.215736960220879E-005
 -2.213294134240560E-005
 -2.210849086445095E-005
 -2.208401258349133E-005
 -2.205950093068107E-005
 -2.203495035250174E-005
 -2.201035531013459E-005
 -2.198571027889720E-005
 -2.196100974773554E-005
 -2.193624821877457E-005
 -2.191142020694887E-005
 -2.188652023972387E-005
 -2.186154285685261E-005
 -2.183648261024933E-005
 -2.181133406394624E-005
 -2.178609179411212E-005
 -2.176075038920275E-005
 -2.173530445015778E-005
 -2.170974859072049E-005
 -2.168407743786287E-005
 -2.165828563226573E-005
 -2.163236782893958E-005
 -2.160631869792484E-005
 -2.158013292508608E-005
 -2.155380521301488E-005
 -2.152733028202364E-005
 -2.379570205148570E-005
 -2.376870055829680E-005
 -2.374186961643660E-005
 -2.371520245287516E-005
 -2.368869229261396E-005
 -2.366233236024390E-005
 -2.363611588139732E-005
 -2.361003608402814E-005
 -2.358408619956356E-005
 -2.355825946394711E-005
 -2.353254911854894E-005
 -2.350694841097501E-005
 -2.348145059578059E-005
 -2.345604893508913E-005
 -2.343073669912538E-005
 -2.340550716666779E-005
 -2.338035362544752E-005
 -2.335526937246788E-005
 -2.333024771429314E-005
 -2.330528196725678E-005
 -2.328036545766894E-005
 -2.325549152196159E-005
 -2.323065350681559E-005
 -2.320584476928019E-005
 -2.318105867685930E-005
 -2.315628860760758E-005
 -2.313152795020435E-005
 -2.310677010405442E-005
 -2.308200847938020E-005
 -2.305723649733698E-005
 -2.303244759014411E-005
 -2.300763520122768E-005
 -2.298279278542120E-005
 -2.295791380916105E-005
 -2.293299175075152E-005
 -2.290802010063896E-005
 -2.288299236174748E-005
 -2.285790204986138E-005
 -2.283274269403318E-005
 -2.280750783707781E-005
 -2.278219103608277E-005
 -2.275678586300050E-005
 -2.273128590528562E-005
 -2.270568476659023E-005
 -2.267997606751630E-005
 -2.265415344643801E-005
 -2.262821056036649E-005
 -2.260214108589028E-005
 -2.257593872018337E-005
 -2.254959718203102E-005
 -2.486589250411854E-005
 -2.483757105021525E-005
 -2.480947114335611E-005
 -2.478158539268792E-005
 -2.475390637834582E-005
 -2.472642665399993E-005
 -2.469913874925897E-005
 -2.467203517192744E-005
 -2.464510841013838E-005
 -2.461835093437799E-005
 -2.459175519935768E-005
 -2.456531364580992E-005
 -2.453901870215760E-005
 -2.451286278610162E-005
 -2.448683830609541E-005
 -2.446093766275168E-005
 -2.443515325016309E-005
 -2.440947745714839E-005
 -2.438390266842306E-005
 -2.435842126572542E-005
 -2.433302562886577E-005
 -2.430770813675169E-005
 -2.428246116833174E-005
 -2.425727710352848E-005
 -2.423214832412395E-005
 -2.420706721461557E-005
 -2.418202616305556E-005
 -2.415701756185885E-005
 -2.413203380858945E-005
 -2.410706730676798E-005
 -2.408211046662259E-005
 -2.405715570587795E-005
 -2.403219545052469E-005
 -2.400722213559366E-005
 -2.398222820594056E-005
 -2.395720611703936E-005
 -2.393214833578724E-005
 -2.390704734132959E-005
 -2.388189562590242E-005
 -2.385668569567575E-005
 -2.383141007165802E-005
 -2.380606129058537E-005
 -2.378063190586563E-005
 -2.375511448851828E-005
 -2.372950162819013E-005
 -2.370378593413361E-005
 -2.367796003628218E-005
 -2.365201658630256E-005
 -2.362594825871265E-005
 -2.359974775199583E-005
 -2.596243510908003E-005
 -2.593285343325949E-005
 -2.590354395789826E-005
 -2.587449862558779E-005
 -2.584570932635998E-005
 -2.581716790104557E-005
 -2.578886614449437E-005
 -2.576079580864427E-005
 -2.573294860549202E-005
 -2.570531620991485E-005
 -2.567789026238655E-005
 -2.565066237157196E-005
 -2.562362411682367E-005
 -2.559676705056531E-005
 -2.557008270057043E-005
 -2.554356257216905E-005
 -2.551719815033812E-005
 -2.549098090173538E-005
 -2.546490227662210E-005
 -2.543895371073928E-005
 -2.541312662710330E-005
 -2.538741243771895E-005
 -2.536180254527626E-005
 -2.533628834473082E-005
 -2.531086122488050E-005
 -2.528551256986865E-005
 -2.526023376065632E-005
 -2.523501617644111E-005
 -2.520985119605529E-005
 -2.518473019930972E-005
 -2.515964456833419E-005
 -2.513458568887063E-005
 -2.510954495155820E-005
 -2.508451375318186E-005
 -2.505948349793514E-005
 -2.503444559862203E-005
 -2.500939147789915E-005
 -2.498431256946421E-005
 -2.495920031927669E-005
 -2.493404618673708E-005
 -2.490884164588686E-005
 -2.488357818660534E-005
 -2.485824731580123E-005
 -2.483284055860241E-005
 -2.480734945955733E-005
 -2.478176558383283E-005
 -2.475608051841432E-005
 -2.473028587332873E-005
 -2.470437328284516E-005
 -2.467833440670109E-005
 -2.708531406817111E-005
 -2.705453625994728E-005
 -2.702408148960917E-005
 -2.699394096695319E-005
 -2.696410582900270E-005
 -2.693456714406829E-005
 -2.690531591565828E-005
 -2.687634308625038E-005
 -2.684763954096968E-005
 -2.681919611110322E-005
 -2.679100357751536E-005
 -2.676305267393926E-005
 -2.673533409016078E-005
 -2.670783847509134E-005
 -2.668055643972720E-005
 -2.665347856001994E-005
 -2.662659537964585E-005
 -2.659989741267752E-005
 -2.657337514616627E-005
 -2.654701904264181E-005
 -2.652081954253803E-005
 -2.649476706651782E-005
 -2.646885201774992E-005
 -2.644306478409294E-005
 -2.641739574023255E-005
 -2.639183524973849E-005
 -2.636637366706077E-005
 -2.634100133949247E-005
 -2.631570860905068E-005
 -2.629048581432419E-005
 -2.626532329226415E-005
 -2.624021137994063E-005
 -2.621514041624879E-005
 -2.619010074358081E-005
 -2.616508270946339E-005
 -2.614007666815162E-005
 -2.611507298220982E-005
 -2.609006202403967E-005
 -2.606503417740327E-005
 -2.603997983890698E-005
 -2.601488941946695E-005
 -2.598975334574820E-005
 -2.596456206160447E-005
 -2.593930602945241E-005
 -2.591397573168493E-005
 -2.588856167202664E-005
 -2.586305437688284E-005
 -2.583744439669424E-005
 -2.581172230723291E-005
 -2.578587871093569E-005
 -2.823447824808823E-005
 -2.820257339080961E-005
 -2.817104304867661E-005
 -2.813987761778481E-005
 -2.810906740449324E-005
 -2.807860263007169E-005
 -2.804847343522860E-005
 -2.801866988451703E-005
 -2.798918197058421E-005
 -2.795999961830048E-005
 -2.793111268880256E-005
 -2.790251098335857E-005
 -2.787418424714736E-005
 -2.784612217292841E-005
 -2.781831440457988E-005
 -2.779075054054236E-005
 -2.776342013715371E-005
 -2.773631271188464E-005
 -2.770941774645632E-005
 -2.768272468990355E-005
 -2.765622296150055E-005
 -2.762990195362213E-005
 -2.760375103451942E-005
 -2.757775955100075E-005
 -2.755191683103944E-005
 -2.752621218631495E-005
 -2.750063491465150E-005
 -2.747517430242098E-005
 -2.744981962685265E-005
 -2.742456015828010E-005
 -2.739938516235119E-005
 -2.737428390213762E-005
 -2.734924564021967E-005
 -2.732425964069848E-005
 -2.729931517117080E-005
 -2.727440150463389E-005
 -2.724950792135991E-005
 -2.722462371072338E-005
 -2.719973817296342E-005
 -2.717484062093563E-005
 -2.714992038179782E-005
 -2.712496679867162E-005
 -2.709996923225911E-005
 -2.707491706243113E-005
 -2.704979968977248E-005
 -2.702460653710294E-005
 -2.699932705095001E-005
 -2.697395070301561E-005
 -2.694846699158376E-005
 -2.692286544292110E-005
 -2.940982490198700E-005
 -2.937686798703404E-005
 -2.934433809427250E-005
 -2.931222471266993E-005
 -2.928051722768399E-005
 -2.924920492644915E-005
 -2.921827700285041E-005
 -2.918772256246843E-005
 -2.915753062736031E-005
 -2.912769014074521E-005
 -2.909818997153243E-005
 -2.906901891873683E-005
 -2.904016571577564E-005
 -2.901161903462147E-005
 -2.898336748988043E-005
 -2.895539964268809E-005
 -2.892770400455735E-005
 -2.890026904107424E-005
 -2.887308317551948E-005
 -2.884613479233115E-005
 -2.881941224052414E-005
 -2.879290383697777E-005
 -2.876659786963189E-005
 -2.874048260059090E-005
 -2.871454626913623E-005
 -2.868877709464430E-005
 -2.866316327943457E-005
 -2.863769301150853E-005
 -2.861235446723756E-005
 -2.858713581394432E-005
 -2.856202521243936E-005
 -2.853701081944580E-005
 -2.851208078998895E-005
 -2.848722327969843E-005
 -2.846242644705035E-005
 -2.843767845553833E-005
 -2.841296747579489E-005
 -2.838828168763853E-005
 -2.836360928207952E-005
 -2.833893846324791E-005
 -2.831425745029002E-005
 -2.828955447919484E-005
 -2.826481780457892E-005
 -2.824003570141595E-005
 -2.821519646672950E-005
 -2.819028842120899E-005
 -2.816529991082907E-005
 -2.814021930838175E-005
 -2.811503501497202E-005
 -2.808973546149801E-005
 -3.061118405982709E-005
 -3.057725712111830E-005
 -3.054381106878538E-005
 -3.051083438031951E-005
 -3.047831541912749E-005
 -3.044624244026239E-005
 -3.041460359596419E-005
 -3.038338694107903E-005
 -3.035258043834143E-005
 -3.032217196351615E-005
 -3.029214931038683E-005
 -3.026250019565399E-005
 -3.023321226364540E-005
 -3.020427309094384E-005
 -3.017567019086141E-005
 -3.014739101781458E-005
 -3.011942297153551E-005
 -3.009175340120205E-005
 -3.006436960944214E-005
 -3.003725885620707E-005
 -3.001040836254453E-005
 -2.998380531427566E-005
 -2.995743686551628E-005
 -2.993129014216435E-005
 -2.990535224522904E-005
 -2.987961025407416E-005
 -2.985405122957738E-005
 -2.982866221718364E-005
 -2.980343024986966E-005
 -2.977834235101398E-005
 -2.975338553718518E-005
 -2.972854682084345E-005
 -2.970381321296582E-005
 -2.967917172557085E-005
 -2.965460937417798E-005
 -2.963011318021352E-005
 -2.960567017328965E-005
 -2.958126739346453E-005
 -2.955689189340315E-005
 -2.953253074047177E-005
 -2.950817101877209E-005
 -2.948379983112368E-005
 -2.945940430095334E-005
 -2.943497157414563E-005
 -2.941048882083483E-005
 -2.938594323712212E-005
 -2.936132204676133E-005
 -2.933661250275334E-005
 -2.931180188893283E-005
 -2.928687752146270E-005
 -3.183830339136940E-005
 -3.180349682330158E-005
 -3.176922662943109E-005
 -3.173548016170901E-005
 -3.170224465077810E-005
 -3.166950721217426E-005
 -3.163725485229429E-005
 -3.160547447426475E-005
 -3.157415288364582E-005
 -3.154327679399396E-005
 -3.151283283227162E-005
 -3.148280754411896E-005
 -3.145318739898795E-005
 -3.142395879513934E-005
 -3.139510806447875E-005
 -3.136662147730861E-005
 -3.133848524689165E-005
 -3.131068553392844E-005
 -3.128320845087657E-005
 -3.125604006616652E-005
 -3.122916640828735E-005
 -3.120257346974313E-005
 -3.117624721090886E-005
 -3.115017356375634E-005
 -3.112433843547826E-005
 -3.109872771199316E-005
 -3.107332726134452E-005
 -3.104812293699752E-005
 -3.102310058103966E-005
 -3.099824602725235E-005
 -3.097354510413020E-005
 -3.094898363775517E-005
 -3.092454745462240E-005
 -3.090022238432693E-005
 -3.087599426221533E-005
 -3.085184893190870E-005
 -3.082777224775264E-005
 -3.080375007719919E-005
 -3.077976830308433E-005
 -3.075581282585494E-005
 -3.073186956569307E-005
 -3.070792446457569E-005
 -3.068396348827875E-005
 -3.065997262828288E-005
 -3.063593790362193E-005
 -3.061184536267574E-005
 -3.058768108487968E-005
 -3.056343118237692E-005
 -3.053908180161445E-005
 -3.051461912486898E-005
 -3.309083337483953E-005
 -3.305524740689344E-005
 -3.302025513044566E-005
 -3.298584264915471E-005
 -3.295199594168057E-005
 -3.291870086825986E-005
 -3.288594317710456E-005
 -3.285370851064673E-005
 -3.282198241163697E-005
 -3.279075032907219E-005
 -3.275999762395536E-005
 -3.272970957492786E-005
 -3.269987138375186E-005
 -3.267046818059414E-005
 -3.264148502922969E-005
 -3.261290693205376E-005
 -3.258471883495789E-005
 -3.255690563209558E-005
 -3.252945217046444E-005
 -3.250234325438711E-005
 -3.247556364984258E-005
 -3.244909808867352E-005
 -3.242293127266051E-005
 -3.239704787747067E-005
 -3.237143255649383E-005
 -3.234606994453856E-005
 -3.232094466142632E-005
 -3.229604131546618E-005
 -3.227134450680876E-005
 -3.224683883069961E-005
 -3.222250888061223E-005
 -3.219833925129319E-005
 -3.217431454169336E-005
 -3.215041935778549E-005
 -3.212663831531605E-005
 -3.210295604242180E-005
 -3.207935718219037E-005
 -3.205582639509343E-005
 -3.203234836136238E-005
 -3.200890778325869E-005
 -3.198548938725827E-005
 -3.196207792616750E-005
 -3.193865818114125E-005
 -3.191521496363617E-005
 -3.189173311727871E-005
 -3.186819751965809E-005
 -3.184459308405404E-005
 -3.182090476109241E-005
 -3.179711754031218E-005
 -3.177321645170256E-005
 -3.436831263454915E-005
 -3.433205894299399E-005
 -3.429645823353107E-005
 -3.426149523103285E-005
 -3.422715453540319E-005
 -3.419342062852607E-005
 -3.416027788100708E-005
 -3.412771055880696E-005
 -3.409570282963391E-005
 -3.406423876920663E-005
 -3.403330236732990E-005
 -3.400287753381224E-005
 -3.397294810422481E-005
 -3.394349784546945E-005
 -3.391451046123317E-005
 -3.388596959722856E-005
 -3.385785884634212E-005
 -3.383016175357643E-005
 -3.380286182087175E-005
 -3.377594251177380E-005
 -3.374938725595590E-005
 -3.372317945359663E-005
 -3.369730247962858E-005
 -3.367173968783564E-005
 -3.364647441483476E-005
 -3.362148998389730E-005
 -3.359676970868822E-005
 -3.357229689682914E-005
 -3.354805485336842E-005
 -3.352402688412905E-005
 -3.350019629893496E-005
 -3.347654641470650E-005
 -3.345306055847689E-005
 -3.342972207026700E-005
 -3.340651430587742E-005
 -3.338342063954949E-005
 -3.336042446656211E-005
 -3.333750920567843E-005
 -3.331465830154536E-005
 -3.329185522697386E-005
 -3.326908348510566E-005
 -3.324632661154991E-005
 -3.322356817636691E-005
 -3.320079178600921E-005
 -3.317798108515176E-005
 -3.315511975847858E-005
 -3.313219153233748E-005
 -3.310918017636235E-005
 -3.308606950500326E-005
 -3.306284337898717E-005
 -3.567015334135131E-005
 -3.563335678291977E-005
 -3.559727454945167E-005
 -3.556188984967775E-005
 -3.552718577143792E-005
 -3.549314528892278E-005
 -3.545975126980190E-005
 -3.542698648206960E-005
 -3.539483360078140E-005
 -3.536327521455184E-005
 -3.533229383189175E-005
 -3.530187188736444E-005
 -3.527199174754748E-005
 -3.524263571683943E-005
 -3.521378604307268E-005
 -3.518542492296922E-005
 -3.515753450743843E-005
 -3.513009690666691E-005
 -3.510309419511067E-005
 -3.507650841626382E-005
 -3.505032158731971E-005
 -3.502451570365214E-005
 -3.499907274315666E-005
 -3.497397467044013E-005
 -3.494920344086897E-005
 -3.492474100447007E-005
 -3.490056930971024E-005
 -3.487667030711337E-005
 -3.485302595276977E-005
 -3.482961821169614E-005
 -3.480642906108894E-005
 -3.478344049344275E-005
 -3.476063451953934E-005
 -3.473799317133961E-005
 -3.471549850473860E-005
 -3.469313260222580E-005
 -3.467087757542709E-005
 -3.464871556754063E-005
 -3.462662875566282E-005
 -3.460459935303290E-005
 -3.458260961115495E-005
 -3.456064182183668E-005
 -3.453867831912460E-005
 -3.451670148117274E-005
 -3.449469373198019E-005
 -3.447263754309062E-005
 -3.445051543516823E-005
 -3.442830997951207E-005
 -3.440600379948636E-005
 -3.438357957187794E-005
 -3.699562660009904E-005
 -3.695842705496266E-005
 -3.692200523981326E-005
 -3.688634270404124E-005
 -3.685142088460933E-005
 -3.681722111361290E-005
 -3.678372462561186E-005
 -3.675091256474098E-005
 -3.671876599166289E-005
 -3.668726589026591E-005
 -3.665639317418152E-005
 -3.662612869311229E-005
 -3.659645323895749E-005
 -3.656734755173645E-005
 -3.653879232535689E-005
 -3.651076821314472E-005
 -3.648325583325636E-005
 -3.645623577386780E-005
 -3.642968859819077E-005
 -3.640359484934918E-005
 -3.637793505504648E-005
 -3.635268973210766E-005
 -3.632783939082412E-005
 -3.630336453915920E-005
 -3.627924568680336E-005
 -3.625546334906337E-005
 -3.623199805061749E-005
 -3.620883032910818E-005
 -3.618594073860642E-005
 -3.616330985294421E-005
 -3.614091826889406E-005
 -3.611874660922352E-005
 -3.609677552562621E-005
 -3.607498570152577E-005
 -3.605335785475106E-005
 -3.603187274010231E-005
 -3.601051115178647E-005
 -3.598925392575467E-005
 -3.596808194192458E-005
 -3.594697612628665E-005
 -3.592591745292544E-005
 -3.590488694591147E-005
 -3.588386568112854E-005
 -3.586283478796669E-005
 -3.584177545096106E-005
 -3.582066891131638E-005
 -3.579949646833975E-005
 -3.577823948081168E-005
 -3.575687936825051E-005
 -3.573539761210642E-005
 -3.834384777832540E-005
 -3.830640209019988E-005
 -3.826979953436972E-005
 -3.823401985305381E-005
 -3.819904268934745E-005
 -3.816484759498362E-005
 -3.813141403784283E-005
 -3.809872140925771E-005
 -3.806674903107111E-005
 -3.803547616248717E-005
 -3.800488200668355E-005
 -3.797494571724834E-005
 -3.794564640434174E-005
 -3.791696314073252E-005
 -3.788887496755371E-005
 -3.786136089990628E-005
 -3.783439993225058E-005
 -3.780797104360890E-005
 -3.778205320258005E-005
 -3.775662537216635E-005
 -3.773166651441997E-005
 -3.770715559492390E-005
 -3.768307158707868E-005
 -3.765939347624670E-005
 -3.763610026370602E-005
 -3.761317097045769E-005
 -3.759058464088078E-005
 -3.756832034620712E-005
 -3.754635718787328E-005
 -3.752467430072523E-005
 -3.750325085604608E-005
 -3.748206606449714E-005
 -3.746109917887690E-005
 -3.744032949677431E-005
 -3.741973636308100E-005
 -3.739929917238637E-005
 -3.737899737125266E-005
 -3.735881046034591E-005
 -3.733871799649765E-005
 -3.731869959461395E-005
 -3.729873492949514E-005
 -3.727880373754243E-005
 -3.725888581837068E-005
 -3.723896103631322E-005
 -3.721900932183632E-005
 -3.719901067284945E-005
 -3.717894515594886E-005
 -3.715879290754398E-005
 -3.713853413492426E-005
 -3.711814911721953E-005
 -3.971376176032240E-005
 -3.967624576037920E-005
 -3.963964014593041E-005
 -3.960392270103159E-005
 -3.956907112919353E-005
 -3.953506306128012E-005
 -3.950187606311527E-005
 -3.946948764283593E-005
 -3.943787525804458E-005
 -3.940701632265536E-005
 -3.937688821356402E-005
 -3.934746827703693E-005
 -3.931873383490911E-005
 -3.929066219052221E-005
 -3.926323063448270E-005
 -3.923641645016807E-005
 -3.921019691904610E-005
 -3.918454932577681E-005
 -3.915945096312736E-005
 -3.913487913666514E-005
 -3.911081116928555E-005
 -3.908722440553499E-005
 -3.906409621574818E-005
 -3.904140400002227E-005
 -3.901912519200052E-005
 -3.899723726249258E-005
 -3.897571772292142E-005
 -3.895454412862223E-005
 -3.893369408196219E-005
 -3.891314523532678E-005
 -3.889287529394997E-005
 -3.887286201858607E-005
 -3.885308322806165E-005
 -3.883351680166495E-005
 -3.881414068143083E-005
 -3.879493287426467E-005
 -3.877587145395842E-005
 -3.875693456308858E-005
 -3.873810041477914E-005
 -3.871934729435432E-005
 -3.870065356088622E-005
 -3.868199764863644E-005
 -3.866335806837276E-005
 -3.864471340860605E-005
 -3.862604233671919E-005
 -3.860732360000291E-005
 -3.858853602660123E-005
 -3.856965852636038E-005
 -3.855067009160764E-005
 -3.853154979782370E-005
 -4.110412814089643E-005
 -4.106673873974386E-005
 -4.103032859231191E-005
 -4.099487337213546E-005
 -4.096034869659035E-005
 -4.092673013478254E-005
 -4.089399321515594E-005
 -4.086211343282271E-005
 -4.083106625663129E-005
 -4.080082713598049E-005
 -4.077137150736248E-005
 -4.074267480064839E-005
 -4.071471244516741E-005
 -4.068745987549207E-005
 -4.066089253702268E-005
 -4.063498589133542E-005
 -4.060971542129701E-005
 -4.058505663597386E-005
 -4.056098507531253E-005
 -4.053747631461531E-005
 -4.051450596880986E-005
 -4.049204969654617E-005
 -4.047008320404241E-005
 -4.044858224880408E-005
 -4.042752264311674E-005
 -4.040688025738363E-005
 -4.038663102326649E-005
 -4.036675093669110E-005
 -4.034721606063975E-005
 -4.032800252783429E-005
 -4.030908654322475E-005
 -4.029044438635951E-005
 -4.027205241357121E-005
 -4.025388706005132E-005
 -4.023592484177706E-005
 -4.021814235730674E-005
 -4.020051628943361E-005
 -4.018302340673193E-005
 -4.016564056497231E-005
 -4.014834470841922E-005
 -4.013111287102002E-005
 -4.011392217747234E-005
 -4.009674984420750E-005
 -4.007957318025073E-005
 -4.006236958798729E-005
 -4.004511656384353E-005
 -4.002779169886763E-005
 -4.001037267922246E-005
 -3.999283728659072E-005
 -3.997516339851004E-005
 -4.251350640373162E-005
 -4.247646373189497E-005
 -4.244047046279667E-005
 -4.240550000798215E-005
 -4.237152575351678E-005
 -4.233852106777054E-005
 -4.230645930886339E-005
 -4.227531383186484E-005
 -4.224505799565735E-005
 -4.221566516954816E-005
 -4.218710873958535E-005
 -4.215936211462730E-005
 -4.213239873211923E-005
 -4.210619206364681E-005
 -4.208071562020353E-005
 -4.205594295724093E-005
 -4.203184767946231E-005
 -4.200840344539515E-005
 -4.198558397174193E-005
 -4.196336303748404E-005
 -4.194171448780086E-005
 -4.192061223776909E-005
 -4.190003027585356E-005
 -4.187994266720716E-005
 -4.186032355677666E-005
 -4.184114717222376E-005
 -4.182238782666258E-005
 -4.180401992122829E-005
 -4.178601794746952E-005
 -4.176835648957690E-005
 -4.175101022645389E-005
 -4.173395393362698E-005
 -4.171716248502422E-005
 -4.170061085457639E-005
 -4.168427411771839E-005
 -4.166812745271891E-005
 -4.165214614189784E-005
 -4.163630557272062E-005
 -4.162058123876126E-005
 -4.160494874054774E-005
 -4.158938378629452E-005
 -4.157386219254292E-005
 -4.155835988466688E-005
 -4.154285289728786E-005
 -4.152731737462841E-005
 -4.151172957069626E-005
 -4.149606584945875E-005
 -4.148030268488015E-005
 -4.146441666088657E-005
 -4.144838447126936E-005
 -4.394024116108543E-005
 -4.390379073334098E-005
 -4.386846069589317E-005
 -4.383422205038546E-005
 -4.380104581052013E-005
 -4.376890300955258E-005
 -4.373776470746969E-005
 -4.370760199784000E-005
 -4.367838601436770E-005
 -4.365008793712250E-005
 -4.362267899850112E-005
 -4.359613048888423E-005
 -4.357041376202041E-005
 -4.354550024012640E-005
 -4.352136141875557E-005
 -4.349796887134751E-005
 -4.347529425359571E-005
 -4.345330930752219E-005
 -4.343198586533748E-005
 -4.341129585306153E-005
 -4.339121129392229E-005
 -4.337170431154420E-005
 -4.335274713292353E-005
 -4.333431209118342E-005
 -4.331637162816588E-005
 -4.329889829679228E-005
 -4.328186476327381E-005
 -4.326524380912366E-005
 -4.324900833298622E-005
 -4.323313135233360E-005
 -4.321758600497021E-005
 -4.320234555037964E-005
 -4.318738337094666E-005
 -4.317267297301455E-005
 -4.315818798780078E-005
 -4.314390217218200E-005
 -4.312978940936259E-005
 -4.311582370938772E-005
 -4.310197920956577E-005
 -4.308823017476714E-005
 -4.307455099759410E-005
 -4.306091619846314E-005
 -4.304730042559182E-005
 -4.303367845485461E-005
 -4.302002518958367E-005
 -4.300631566024943E-005
 -4.299252502408052E-005
 -4.297862856456756E-005
 -4.296460169093639E-005
 -4.295041993749461E-005
 -4.538244756462340E-005
 -4.534686243742571E-005
 -4.531246896602990E-005
 -4.527923560108993E-005
 -4.524713085023852E-005
 -4.521612328512349E-005
 -4.518618154810946E-005
 -4.515727435862601E-005
 -4.512937051920080E-005
 -4.510243892116585E-005
 -4.507644855004333E-005
 -4.505136849064678E-005
 -4.502716793186334E-005
 -4.500381617118866E-005
 -4.498128261892327E-005
 -4.495953680216900E-005
 -4.493854836850971E-005
 -4.491828708946667E-005
 -4.489872286369757E-005
 -4.487982571996453E-005
 -4.486156581986136E-005
 -4.484391346033133E-005
 -4.482683907596485E-005
 -4.481031324107078E-005
 -4.479430667159448E-005
 -4.477879022677510E-005
 -4.476373491067304E-005
 -4.474911187350080E-005
 -4.473489241274558E-005
 -4.472104797418649E-005
 -4.470755015269559E-005
 -4.469437069290536E-005
 -4.468148148975361E-005
 -4.466885458881536E-005
 -4.465646218657782E-005
 -4.464427663052587E-005
 -4.463227041913143E-005
 -4.462041620170533E-005
 -4.460868677814003E-005
 -4.459705509854031E-005
 -4.458549426275310E-005
 -4.457397751978052E-005
 -4.456247826712030E-005
 -4.455097004998490E-005
 -4.453942656045241E-005
 -4.452782163654265E-005
 -4.451612926117557E-005
 -4.450432356109150E-005
 -4.449237880569163E-005
 -4.448026940579232E-005
 -4.683799703223266E-005
 -4.680357991602527E-005
 -4.677042530946416E-005
 -4.673849898179638E-005
 -4.670776681207079E-005
 -4.667819479551364E-005
 -4.664974904953420E-005
 -4.662239581934993E-005
 -4.659610148331510E-005
 -4.657083255784166E-005
 -4.654655570207008E-005
 -4.652323772215625E-005
 -4.650084557528963E-005
 -4.647934637340961E-005
 -4.645870738662026E-005
 -4.643889604634784E-005
 -4.641987994819533E-005
 -4.640162685459005E-005
 -4.638410469711383E-005
 -4.636728157865513E-005
 -4.635112577527206E-005
 -4.633560573787363E-005
 -4.632069009365848E-005
 -4.630634764734350E-005
 -4.629254738221767E-005
 -4.627925846096659E-005
 -4.626645022633116E-005
 -4.625409220159890E-005
 -4.624215409088725E-005
 -4.623060577930469E-005
 -4.621941733292516E-005
 -4.620855899862387E-005
 -4.619800120376318E-005
 -4.618771455575861E-005
 -4.617766984148621E-005
 -4.616783802656734E-005
 -4.615819025457191E-005
 -4.614869784605581E-005
 -4.613933229752383E-005
 -4.613006528026867E-005
 -4.612086863913336E-005
 -4.611171439117037E-005
 -4.610257472419207E-005
 -4.609342199528100E-005
 -4.608422872918232E-005
 -4.607496761663422E-005
 -4.606561151264567E-005
 -4.605613343467309E-005
 -4.604650656076561E-005
 -4.603670422763773E-005
 -4.830450347301234E-005
 -4.827158875265127E-005
 -4.824000615462739E-005
 -4.820971865155477E-005
 -4.818068938707279E-005
 -4.815288168132420E-005
 -4.812625903598635E-005
 -4.810078513896319E-005
 -4.807642386872101E-005
 -4.805313929824492E-005
 -4.803089569869430E-005
 -4.800965754267952E-005
 -4.798938950728779E-005
 -4.797005647674077E-005
 -4.795162354481308E-005
 -4.793405601691500E-005
 -4.791731941195199E-005
 -4.790137946387832E-005
 -4.788620212302114E-005
 -4.787175355716459E-005
 -4.785800015237769E-005
 -4.784490851364573E-005
 -4.783244546526649E-005
 -4.782057805104072E-005
 -4.780927353428310E-005
 -4.779849939762493E-005
 -4.778822334263899E-005
 -4.777841328930843E-005
 -4.776903737530794E-005
 -4.776006395514671E-005
 -4.775146159914839E-005
 -4.774319909230122E-005
 -4.773524543295648E-005
 -4.772756983142013E-005
 -4.772014170840741E-005
 -4.771293069337771E-005
 -4.770590662279147E-005
 -4.769903953821853E-005
 -4.769229968437621E-005
 -4.768565750708821E-005
 -4.767908365112425E-005
 -4.767254895798698E-005
 -4.766602446360010E-005
 -4.765948139595419E-005
 -4.765289117265216E-005
 -4.764622539841862E-005
 -4.763945586254279E-005
 -4.763255453626620E-005
 -4.762549357012343E-005
 -4.761824529123618E-005
 -4.977931023255052E-005
 -4.974826583914108E-005
 -4.971862095945755E-005
 -4.969033567472501E-005
 -4.966337030726593E-005
 -4.963768542475067E-005
 -4.961324184403051E-005
 -4.959000063457455E-005
 -4.956792312153515E-005
 -4.954697088849238E-005
 -4.952710577979674E-005
 -4.950828990261223E-005
 -4.949048562863991E-005
 -4.947365559550047E-005
 -4.945776270787502E-005
 -4.944277013830771E-005
 -4.942864132777006E-005
 -4.941533998594449E-005
 -4.940283009127602E-005
 -4.939107589076440E-005
 -4.938004189953793E-005
 -4.936969290022500E-005
 -4.935999394206667E-005
 -4.935091033990504E-005
 -4.934240767291003E-005
 -4.933445178318450E-005
 -4.932700877415207E-005
 -4.932004500881877E-005
 -4.931352710786956E-005
 -4.930742194760864E-005
 -4.930169665778683E-005
 -4.929631861927602E-005
 -4.929125546163759E-005
 -4.928647506057698E-005
 -4.928194553528247E-005
 -4.927763524566967E-005
 -4.927351278953490E-005
 -4.926954699961558E-005
 -4.926570694057194E-005
 -4.926196190589940E-005
 -4.925828141475293E-005
 -4.925463520874503E-005
 -4.925099324863131E-005
 -4.924732571099023E-005
 -4.924360298482712E-005
 -4.923979566813175E-005
 -4.923587456442005E-005
 -4.923181067921422E-005
 -4.922757521648819E-005
 -4.922313957510790E-005
 -5.125947802345820E-005
 -5.123070708953257E-005
 -5.120339969830496E-005
 -5.117751297137020E-005
 -5.115300435071056E-005
 -5.112983160136861E-005
 -5.110795281375233E-005
 -5.108732640549311E-005
 -5.106791112297900E-005
 -5.104966604250001E-005
 -5.103255057104384E-005
 -5.101652444676596E-005
 -5.100154773912620E-005
 -5.098758084874480E-005
 -5.097458450693870E-005
 -5.096251977498606E-005
 -5.095134804313512E-005
 -5.094103102935600E-005
 -5.093153077783469E-005
 -5.092280965725861E-005
 -5.091483035887115E-005
 -5.090755589432877E-005
 -5.090094959335942E-005
 -5.089497510122126E-005
 -5.088959637601692E-005
 -5.088477768582556E-005
 -5.088048360567448E-005
 -5.087667901438792E-005
 -5.087332909127658E-005
 -5.087039931272103E-005
 -5.086785544862459E-005
 -5.086566355876109E-005
 -5.086378998902524E-005
 -5.086220136757578E-005
 -5.086086460091571E-005
 -5.085974686987272E-005
 -5.085881562550916E-005
 -5.085803858498588E-005
 -5.085738372734140E-005
 -5.085681928923438E-005
 -5.085631376063203E-005
 -5.085583588046037E-005
 -5.085535463220660E-005
 -5.085483923951326E-005
 -5.085425916170701E-005
 -5.085358408935521E-005
 -5.085278393974133E-005
 -5.085182885239157E-005
 -5.085068918453311E-005
 -5.084933550658119E-005
 -5.274177415193800E-005
 -5.271571636905759E-005
 -5.269118148370002E-005
 -5.266812362309108E-005
 -5.264649732354351E-005
 -5.262625753126378E-005
 -5.260735960269701E-005
 -5.258975930451489E-005
 -5.257341281320566E-005
 -5.255827671431045E-005
 -5.254430800132458E-005
 -5.253146407424429E-005
 -5.251970273783879E-005
 -5.250898219958827E-005
 -5.249926106737276E-005
 -5.249049834686766E-005
 -5.248265343868533E-005
 -5.247568613532135E-005
 -5.246955661781768E-005
 -5.246422545223501E-005
 -5.245965358593907E-005
 -5.245580234368964E-005
 -5.245263342354265E-005
 -5.245010889261001E-005
 -5.244819118265728E-005
 -5.244684308554878E-005
 -5.244602774858064E-005
 -5.244570866968867E-005
 -5.244584969254064E-005
 -5.244641500152214E-005
 -5.244736911665321E-005
 -5.244867688840255E-005
 -5.245030349242277E-005
 -5.245221442424371E-005
 -5.245437549388294E-005
 -5.245675282041927E-005
 -5.245931282651413E-005
 -5.246202223290353E-005
 -5.246484805284494E-005
 -5.246775758656723E-005
 -5.247071841566373E-005
 -5.247369839750027E-005
 -5.247666565960104E-005
 -5.247958859404676E-005
 -5.248243585183262E-005
 -5.248517633729729E-005
 -5.248777920249270E-005
 -5.249021384161271E-005
 -5.249244988540493E-005
 -5.249445719564074E-005
 -5.422266340021733E-005
 -5.419979598317317E-005
 -5.417850465358608E-005
 -5.415874055086215E-005
 -5.414045532181120E-005
 -5.412360111911489E-005
 -5.410813059936119E-005
 -5.409399692070528E-005
 -5.408115374015740E-005
 -5.406955521052686E-005
 -5.405915597702173E-005
 -5.404991117355419E-005
 -5.404177641872584E-005
 -5.403470781155033E-005
 -5.402866192692171E-005
 -5.402359581079708E-005
 -5.401946697519049E-005
 -5.401623339292931E-005
 -5.401385349220603E-005
 -5.401228615096867E-005
 -5.401149069108893E-005
 -5.401142687242930E-005
 -5.401205488672170E-005
 -5.401333535132464E-005
 -5.401522930286041E-005
 -5.401769819075220E-005
 -5.402070387064112E-005
 -5.402420859772030E-005
 -5.402817502002146E-005
 -5.403256617158087E-005
 -5.403734546561180E-005
 -5.404247668755906E-005
 -5.404792398818342E-005
 -5.405365187656142E-005
 -5.405962521308938E-005
 -5.406580920246551E-005
 -5.407216938666669E-005
 -5.407867163791550E-005
 -5.408528215166566E-005
 -5.409196743958388E-005
 -5.409869432256615E-005
 -5.410542992375052E-005
 -5.411214166158634E-005
 -5.411879724291003E-005
 -5.412536465608042E-005
 -5.413181216412659E-005
 -5.413810829796100E-005
 -5.414422184961985E-005
 -5.415012186557781E-005
 -5.415577764008270E-005
 -5.569830097637010E-005
 -5.567913912127780E-005
 -5.566159870196826E-005
 -5.564562792678961E-005
 -5.563117561939194E-005
 -5.561819121436008E-005
 -5.560662475250077E-005
 -5.559642687572725E-005
 -5.558754882161356E-005
 -5.557994241760612E-005
 -5.557356007492615E-005
 -5.556835478219323E-005
 -5.556428009877123E-005
 -5.556129014785556E-005
 -5.555933960933690E-005
 -5.555838371244067E-005
 -5.555837822815965E-005
 -5.555927946153548E-005
 -5.556104424372218E-005
 -5.556362992393709E-005
 -5.556699436127686E-005
 -5.557109591638048E-005
 -5.557589344299705E-005
 -5.558134627949142E-005
 -5.558741424022020E-005
 -5.559405760686329E-005
 -5.560123711970219E-005
 -5.560891396883901E-005
 -5.561704978540783E-005
 -5.562560663271366E-005
 -5.563454699741912E-005
 -5.564383378068407E-005
 -5.565343028932448E-005
 -5.566330022698472E-005
 -5.567340768533927E-005
 -5.568371713530903E-005
 -5.569419341833380E-005
 -5.570480173766723E-005
 -5.571550764973816E-005
 -5.572627705557068E-005
 -5.573707619224560E-005
 -5.574787162445332E-005
 -5.575863023609787E-005
 -5.576931922199213E-005
 -5.577990607960935E-005
 -5.579035860094907E-005
 -5.580064486446046E-005
 -5.581073322706557E-005
 -5.582059231627683E-005
 -5.583019102238121E-005
 -5.716452799697578E-005
 -5.714962470094712E-005
 -5.713637847987447E-005
 -5.712473472801826E-005
 -5.711463957215442E-005
 -5.710603986390277E-005
 -5.709888317174048E-005
 -5.709311777263887E-005
 -5.708869264336496E-005
 -5.708555745153800E-005
 -5.708366254633975E-005
 -5.708295894902752E-005
 -5.708339834319433E-005
 -5.708493306479029E-005
 -5.708751609198938E-005
 -5.709110103485268E-005
 -5.709564212485297E-005
 -5.710109420423918E-005
 -5.710741271531165E-005
 -5.711455368954547E-005
 -5.712247373669463E-005
 -5.713113003374051E-005
 -5.714048031385501E-005
 -5.715048285528847E-005
 -5.716109647020920E-005
 -5.717228049357367E-005
 -5.718399477196537E-005
 -5.719619965243687E-005
 -5.720885597139277E-005
 -5.722192504348763E-005
 -5.723536865058607E-005
 -5.724914903074138E-005
 -5.726322886727914E-005
 -5.727757127792030E-005
 -5.729213980397683E-005
 -5.730689839967808E-005
 -5.732181142153198E-005
 -5.733684361783397E-005
 -5.735196011825161E-005
 -5.736712642354090E-005
 -5.738230839535779E-005
 -5.739747224622369E-005
 -5.741258452957927E-005
 -5.742761212998639E-005
 -5.744252225346886E-005
 -5.745728241796597E-005
 -5.747186044394506E-005
 -5.748622444514097E-005
 -5.750034281942138E-005
 -5.751418423983210E-005
 -5.861687002340920E-005
 -5.860681511072636E-005
 -5.859844114245104E-005
 -5.859169088703369E-005
 -5.858650797157276E-005
 -5.858283687024718E-005
 -5.858062289251405E-005
 -5.857981217092627E-005
 -5.858035164872500E-005
 -5.858218906710945E-005
 -5.858527295235660E-005
 -5.858955260267718E-005
 -5.859497807490755E-005
 -5.860150017104989E-005
 -5.860907042463477E-005
 -5.861764108701058E-005
 -5.862716511349663E-005
 -5.863759614947987E-005
 -5.864888851643350E-005
 -5.866099719789414E-005
 -5.867387782543714E-005
 -5.868748666459053E-005
 -5.870178060081623E-005
 -5.871671712547056E-005
 -5.873225432182547E-005
 -5.874835085111557E-005
 -5.876496593867615E-005
 -5.878205936014794E-005
 -5.879959142776164E-005
 -5.881752297673410E-005
 -5.883581535178073E-005
 -5.885443039372250E-005
 -5.887333042626218E-005
 -5.889247824286911E-005
 -5.891183709381802E-005
 -5.893137067339764E-005
 -5.895104310726811E-005
 -5.897081893998475E-005
 -5.899066312270836E-005
 -5.901054100108232E-005
 -5.903041830330085E-005
 -5.905026112836157E-005
 -5.907003593450499E-005
 -5.908970952786851E-005
 -5.910924905129529E-005
 -5.912862197339638E-005
 -5.914779607775306E-005
 -5.916673945236694E-005
 -5.918542047926950E-005
 -5.920380782437128E-005
 -6.005053922691637E-005
 -6.004595740022313E-005
 -6.004306636500246E-005
 -6.004180653597584E-005
 -6.004211932084284E-005
 -6.004394710420381E-005
 -6.004723323130776E-005
 -6.005192199146206E-005
 -6.005795860130353E-005
 -6.006528918778199E-005
 -6.007386077108944E-005
 -6.008362124730338E-005
 -6.009451937106331E-005
 -6.010650473802786E-005
 -6.011952776732200E-005
 -6.013353968394243E-005
 -6.014849250108482E-005
 -6.016433900252760E-005
 -6.018103272498621E-005
 -6.019852794049804E-005
 -6.021677963890466E-005
 -6.023574351034916E-005
 -6.025537592789175E-005
 -6.027563393021761E-005
 -6.029647520448196E-005
 -6.031785806924313E-005
 -6.033974145759708E-005
 -6.036208490043934E-005
 -6.038484850990265E-005
 -6.040799296299033E-005
 -6.043147948539271E-005
 -6.045526983551942E-005
 -6.047932628873265E-005
 -6.050361162182803E-005
 -6.052808909772052E-005
 -6.055272245037776E-005
 -6.057747587001074E-005
 -6.060231398849729E-005
 -6.062720186507757E-005
 -6.065210497230092E-005
 -6.067698918223283E-005
 -6.070182075294414E-005
 -6.072656631526083E-005
 -6.075119285977991E-005
 -6.077566772417794E-005
 -6.079995858076467E-005
 -6.082403342433235E-005
 -6.084786056027271E-005
 -6.087140859296525E-005
 -6.089464641442203E-005
 -6.146044080927084E-005
 -6.146198851288216E-005
 -6.146522039290021E-005
 -6.147007488013010E-005
 -6.147649153984047E-005
 -6.148441105051249E-005
 -6.149377518244531E-005
 -6.150452677612520E-005
 -6.151660972052504E-005
 -6.152996893120141E-005
 -6.154455032834493E-005
 -6.156030081477516E-005
 -6.157716825388000E-005
 -6.159510144754731E-005
 -6.161405011412109E-005
 -6.163396486640624E-005
 -6.165479718970305E-005
 -6.167649941997813E-005
 -6.169902472208733E-005
 -6.172232706817905E-005
 -6.174636121620097E-005
 -6.177108268860582E-005
 -6.179644775123293E-005
 -6.182241339237610E-005
 -6.184893730209548E-005
 -6.187597785173893E-005
 -6.190349407374335E-005
 -6.193144564164399E-005
 -6.195979285042618E-005
 -6.198849659709259E-005
 -6.201751836159314E-005
 -6.204682018801517E-005
 -6.207636466610087E-005
 -6.210611491310559E-005
 -6.213603455596550E-005
 -6.216608771382866E-005
 -6.219623898090637E-005
 -6.222645340968210E-005
 -6.225669649449552E-005
 -6.228693415544944E-005
 -6.231713272270215E-005
 -6.234725892112253E-005
 -6.237727985529045E-005
 -6.240716299488391E-005
 -6.243687616041565E-005
 -6.246638750933797E-005
 -6.249566552252373E-005
 -6.252467899107266E-005
 -6.255339700351033E-005
 -6.258178893332400E-005
 -6.284118434942172E-005
 -6.284954519494600E-005
 -6.285956452286963E-005
 -6.287117926312388E-005
 -6.288432762735614E-005
 -6.289894908176020E-005
 -6.291498431981115E-005
 -6.293237523488312E-005
 -6.295106489282747E-005
 -6.297099750453633E-005
 -6.299211839850031E-005
 -6.301437399341771E-005
 -6.303771177086984E-005
 -6.306208024809213E-005
 -6.308742895086890E-005
 -6.311370838657027E-005
 -6.314087001740958E-005
 -6.316886623382316E-005
 -6.319765032815129E-005
 -6.322717646850052E-005
 -6.325739967292013E-005
 -6.328827578384077E-005
 -6.331976144280792E-005
 -6.335181406556761E-005
 -6.338439181745602E-005
 -6.341745358917945E-005
 -6.345095897293571E-005
 -6.348486823892430E-005
 -6.351914231226564E-005
 -6.355374275031775E-005
 -6.358863172041022E-005
 -6.362377197800443E-005
 -6.365912684530678E-005
 -6.369466019030106E-005
 -6.373033640626282E-005
 -6.376612039170550E-005
 -6.380197753079987E-005
 -6.383787367426156E-005
 -6.387377512071353E-005
 -6.390964859851893E-005
 -6.394546124807406E-005
 -6.398118060460885E-005
 -6.401677458142330E-005
 -6.405221145363543E-005
 -6.408745984238181E-005
 -6.412248869949678E-005
 -6.415726729264551E-005
 -6.419176519093653E-005
 -6.422595225098960E-005
 -6.425979860344803E-005
 -6.418710077718002E-005
 -6.420297923763594E-005
 -6.422046862981757E-005
 -6.423950499638169E-005
 -6.426002581292708E-005
 -6.428196995406191E-005
 -6.430527765942518E-005
 -6.432989049979528E-005
 -6.435575134318552E-005
 -6.438280432108972E-005
 -6.441099479487666E-005
 -6.444026932228930E-005
 -6.447057562420749E-005
 -6.450186255158808E-005
 -6.453408005270022E-005
 -6.456717914062552E-005
 -6.460111186108676E-005
 -6.463583126059324E-005
 -6.467129135497815E-005
 -6.470744709828885E-005
 -6.474425435211218E-005
 -6.478166985532824E-005
 -6.481965119428204E-005
 -6.485815677346270E-005
 -6.489714578661767E-005
 -6.493657818844377E-005
 -6.497641466669539E-005
 -6.501661661489645E-005
 -6.505714610556367E-005
 -6.509796586397509E-005
 -6.513903924252123E-005
 -6.518033019561645E-005
 -6.522180325518659E-005
 -6.526342350675208E-005
 -6.530515656610271E-005
 -6.534696855656196E-005
 -6.538882608686664E-005
 -6.543069622964973E-005
 -6.547254650051198E-005
 -6.551434483773410E-005
 -6.555605958256777E-005
 -6.559765946015601E-005
 -6.563911356103808E-005
 -6.568039132329252E-005
 -6.572146251523556E-005
 -6.576229721876395E-005
 -6.580286581323312E-005
 -6.584313895997474E-005
 -6.588308758736673E-005
 -6.592268287645082E-005
 -6.549226568294208E-005
 -6.551637870898236E-005
 -6.554203034471095E-005
 -6.556915650911222E-005
 -6.559769470697560E-005
 -6.562758398724426E-005
 -6.565876490144722E-005
 -6.569117946236732E-005
 -6.572477110290974E-005
 -6.575948463516340E-005
 -6.579526620983876E-005
 -6.583206327593511E-005
 -6.586982454084454E-005
 -6.590849993079836E-005
 -6.594804055173797E-005
 -6.598839865066999E-005
 -6.602952757745080E-005
 -6.607138174712774E-005
 -6.611391660277970E-005
 -6.615708857892089E-005
 -6.620085506547980E-005
 -6.624517437240818E-005
 -6.629000569487006E-005
 -6.633530907909020E-005
 -6.638104538884839E-005
 -6.642717627267162E-005
 -6.647366413166915E-005
 -6.652047208811896E-005
 -6.656756395471019E-005
 -6.661490420456197E-005
 -6.666245794192961E-005
 -6.671019087368593E-005
 -6.675806928152327E-005
 -6.680605999492318E-005
 -6.685413036488583E-005
 -6.690224823840577E-005
 -6.695038193373923E-005
 -6.699850021640074E-005
 -6.704657227596526E-005
 -6.709456770360748E-005
 -6.714245647041243E-005
 -6.719020890646058E-005
 -6.723779568065623E-005
 -6.728518778131197E-005
 -6.733235649748554E-005
 -6.737927340105746E-005
 -6.742591032954268E-005
 -6.747223936962042E-005
 -6.751823284139018E-005
 -6.756386328333211E-005
 -6.675052964503940E-005
 -6.678359579421353E-005
 -6.681810044188811E-005
 -6.685398031886445E-005
 -6.689117389321227E-005
 -6.692962131986384E-005
 -6.696926439055616E-005
 -6.701004648404073E-005
 -6.705191251678953E-005
 -6.709480889402448E-005
 -6.713868346133173E-005
 -6.718348545669523E-005
 -6.722916546315452E-005
 -6.727567536199556E-005
 -6.732296828659216E-005
 -6.737099857688885E-005
 -6.741972173457284E-005
 -6.746909437892537E-005
 -6.751907420345836E-005
 -6.756961993325785E-005
 -6.762069128316602E-005
 -6.767224891671481E-005
 -6.772425440592909E-005
 -6.777667019192542E-005
 -6.782945954643418E-005
 -6.788258653412640E-005
 -6.793601597589852E-005
 -6.798971341298718E-005
 -6.804364507205062E-005
 -6.809777783115889E-005
 -6.815207918669248E-005
 -6.820651722119539E-005
 -6.826106057217235E-005
 -6.831567840181217E-005
 -6.837034036769072E-005
 -6.842501659439109E-005
 -6.847967764609761E-005
 -6.853429450013391E-005
 -6.858883852145239E-005
 -6.864328143805968E-005
 -6.869759531741000E-005
 -6.875175254370162E-005
 -6.880572579614254E-005
 -6.885948802810930E-005
 -6.891301244724458E-005
 -6.896627249646005E-005
 -6.901924183583041E-005
 -6.907189432538136E-005
 -6.912420400875145E-005
 -6.917614509772816E-005
 -6.795555617461471E-005
 -6.799828176976625E-005
 -6.804231488921504E-005
 -6.808759420747192E-005
 -6.813406028261555E-005
 -6.818165549603015E-005
 -6.823032399265664E-005
 -6.828001162182365E-005
 -6.833066587868614E-005
 -6.838223584633484E-005
 -6.843467213862511E-005
 -6.848792684370111E-005
 -6.854195346839127E-005
 -6.859670688336096E-005
 -6.865214326915964E-005
 -6.870822006314152E-005
 -6.876489590734149E-005
 -6.882213059725023E-005
 -6.887988503165591E-005
 -6.893812116337845E-005
 -6.899680195113003E-005
 -6.905589131236796E-005
 -6.911535407723355E-005
 -6.917515594356027E-005
 -6.923526343300077E-005
 -6.929564384826150E-005
 -6.935626523143614E-005
 -6.941709632351072E-005
 -6.947810652499473E-005
 -6.953926585770074E-005
 -6.960054492767888E-005
 -6.966191488932696E-005
 -6.972334741066189E-005
 -6.978481463972214E-005
 -6.984628917221133E-005
 -6.990774402021387E-005
 -6.996915258216031E-005
 -7.003048861389891E-005
 -7.009172620094332E-005
 -7.015283973187464E-005
 -7.021380387289016E-005
 -7.027459354346595E-005
 -7.033518389319190E-005
 -7.039555027969336E-005
 -7.045566824766592E-005
 -7.051551350902791E-005
 -7.057506192413807E-005
 -7.063428948410967E-005
 -7.069317229416501E-005
 -7.075168655801487E-005
 -6.910086771407626E-005
 -6.915392945853991E-005
 -6.920813382441161E-005
 -6.926342278600033E-005
 -6.931974033749581E-005
 -6.937703242156486E-005
 -6.943524685873741E-005
 -6.949433327768500E-005
 -6.955424304634412E-005
 -6.961492920399615E-005
 -6.967634639438287E-005
 -6.973845079978029E-005
 -6.980120007626552E-005
 -6.986455328998389E-005
 -6.992847085466662E-005
 -6.999291447026037E-005
 -7.005784706282377E-005
 -7.012323272566358E-005
 -7.018903666172655E-005
 -7.025522512728560E-005
 -7.032176537695261E-005
 -7.038862561004862E-005
 -7.045577491824787E-005
 -7.052318323467490E-005
 -7.059082128432526E-005
 -7.065866053590196E-005
 -7.072667315502635E-005
 -7.079483195885469E-005
 -7.086311037213587E-005
 -7.093148238464491E-005
 -7.099992251004209E-005
 -7.106840574615874E-005
 -7.113690753669311E-005
 -7.120540373431529E-005
 -7.127387056520175E-005
 -7.134228459494194E-005
 -7.141062269589623E-005
 -7.147886201590598E-005
 -7.154697994841920E-005
 -7.161495410398014E-005
 -7.168276228311241E-005
 -7.175038245053509E-005
 -7.181779271074728E-005
 -7.188497128495174E-005
 -7.195189648929074E-005
 -7.201854671440224E-005
 -7.208490040626678E-005
 -7.215093604834611E-005
 -7.221663214496767E-005
 -7.228196720596417E-005
 -7.017989983807064E-005
 -7.024392321176569E-005
 -7.030888740596173E-005
 -7.037473930635732E-005
 -7.044142793860755E-005
 -7.050890438445748E-005
 -7.057712169892581E-005
 -7.064603482874631E-005
 -7.071560053203845E-005
 -7.078577729927614E-005
 -7.085652527562031E-005
 -7.092780618464998E-005
 -7.099958325350290E-005
 -7.107182113956209E-005
 -7.114448585857601E-005
 -7.121754471438198E-005
 -7.129096623015890E-005
 -7.136472008131569E-005
 -7.143877702998551E-005
 -7.151310886113027E-005
 -7.158768832034514E-005
 -7.166248905331570E-005
 -7.173748554693157E-005
 -7.181265307214009E-005
 -7.188796762844995E-005
 -7.196340589017363E-005
 -7.203894515434589E-005
 -7.211456329038793E-005
 -7.219023869143963E-005
 -7.226595022743893E-005
 -7.234167719987421E-005
 -7.241739929824599E-005
 -7.249309655825625E-005
 -7.256874932162088E-005
 -7.264433819763662E-005
 -7.271984402636606E-005
 -7.279524784352162E-005
 -7.287053084698148E-005
 -7.294567436496341E-005
 -7.302065982581977E-005
 -7.309546872945224E-005
 -7.317008262034492E-005
 -7.324448306216247E-005
 -7.331865161393840E-005
 -7.339256980783841E-005
 -7.346621912843547E-005
 -7.353958099352997E-005
 -7.361263673648771E-005
 -7.368536759003682E-005
 -7.375775467156109E-005
 -7.118606333401214E-005
 -7.126159597634614E-005
 -7.133782798872692E-005
 -7.141471307037077E-005
 -7.149220715627622E-005
 -7.157026831928996E-005
 -7.164885667375911E-005
 -7.172793428080222E-005
 -7.180746505527525E-005
 -7.188741467453445E-005
 -7.196775048897827E-005
 -7.204844143440704E-005
 -7.212945794634241E-005
 -7.221077187618061E-005
 -7.229235640940021E-005
 -7.237418598563544E-005
 -7.245623622083644E-005
 -7.253848383138204E-005
 -7.262090656031227E-005
 -7.270348310549273E-005
 -7.278619304990914E-005
 -7.286901679401392E-005
 -7.295193549009687E-005
 -7.303493097874370E-005
 -7.311798572736597E-005
 -7.320108277076339E-005
 -7.328420565375193E-005
 -7.336733837584600E-005
 -7.345046533796168E-005
 -7.353357129117108E-005
 -7.361664128745987E-005
 -7.369966063250930E-005
 -7.378261484046262E-005
 -7.386548959068214E-005
 -7.394827068647922E-005
 -7.403094401581639E-005
 -7.411349551390608E-005
 -7.419591112780575E-005
 -7.427817678287680E-005
 -7.436027835115393E-005
 -7.444220162160085E-005
 -7.452393227223129E-005
 -7.460545584407166E-005
 -7.468675771695623E-005
 -7.476782308714136E-005
 -7.484863694669423E-005
 -7.492918406467141E-005
 -7.500944897007524E-005
 -7.508941593644578E-005
 -7.516906896833862E-005
 -7.211281308922178E-005
 -7.220029224587377E-005
 -7.228818730789741E-005
 -7.237646101937944E-005
 -7.246507842101865E-005
 -7.255400673652408E-005
 -7.264321526124214E-005
 -7.273267525294885E-005
 -7.282235982496898E-005
 -7.291224384159973E-005
 -7.300230381594750E-005
 -7.309251781014919E-005
 -7.318286533806545E-005
 -7.327332727042382E-005
 -7.336388574245695E-005
 -7.345452406404715E-005
 -7.354522663237781E-005
 -7.363597884708777E-005
 -7.372676702799204E-005
 -7.381757833522869E-005
 -7.390840069199006E-005
 -7.399922270974052E-005
 -7.409003361587735E-005
 -7.418082318389740E-005
 -7.427158166605581E-005
 -7.436229972839826E-005
 -7.445296838828343E-005
 -7.454357895427487E-005
 -7.463412296845277E-005
 -7.472459215105850E-005
 -7.481497834753385E-005
 -7.490527347785714E-005
 -7.499546948822465E-005
 -7.508555830497326E-005
 -7.517553179082849E-005
 -7.526538170336886E-005
 -7.535509965573681E-005
 -7.544467707955596E-005
 -7.553410519004726E-005
 -7.562337495330268E-005
 -7.571247705573691E-005
 -7.580140187565432E-005
 -7.589013945692990E-005
 -7.597867948480989E-005
 -7.606701126375646E-005
 -7.615512369736101E-005
 -7.624300527033417E-005
 -7.633064403236682E-005
 -7.641802758430303E-005
 -7.650514306578218E-005
 -7.295372154235884E-005
 -7.305343452537982E-005
 -7.315323619526548E-005
 -7.325310094266376E-005
 -7.335300546617963E-005
 -7.345292864149748E-005
 -7.355285139362992E-005
 -7.365275657201240E-005
 -7.375262882878464E-005
 -7.385245450010236E-005
 -7.395222149053606E-005
 -7.405191916067588E-005
 -7.415153821784178E-005
 -7.425107060991814E-005
 -7.435050942238727E-005
 -7.444984877843929E-005
 -7.454908374220061E-005
 -7.464821022514073E-005
 -7.474722489539864E-005
 -7.484612509027506E-005
 -7.494490873169541E-005
 -7.504357424464799E-005
 -7.514212047856830E-005
 -7.524054663162532E-005
 -7.533885217792202E-005
 -7.543703679750442E-005
 -7.553510030916839E-005
 -7.563304260607915E-005
 -7.573086359409975E-005
 -7.582856313281464E-005
 -7.592614097927535E-005
 -7.602359673434201E-005
 -7.612092979166453E-005
 -7.621813928924501E-005
 -7.631522406357350E-005
 -7.641218260626988E-005
 -7.650901302327950E-005
 -7.660571299652779E-005
 -7.670227974804526E-005
 -7.679871000654696E-005
 -7.689499997645380E-005
 -7.699114530925512E-005
 -7.708714107737271E-005
 -7.718298175025433E-005
 -7.727866117291857E-005
 -7.737417254681624E-005
 -7.746950841287613E-005
 -7.756466063729987E-005
 -7.765962039848273E-005
 -7.775437817817937E-005
 -7.370255265422758E-005
 -7.381458916669523E-005
 -7.392634261895301E-005
 -7.403780206060383E-005
 -7.414895879101431E-005
 -7.425980620997228E-005
 -7.437033967244399E-005
 -7.448055634734243E-005
 -7.459045508040972E-005
 -7.470003626115185E-005
 -7.480930169380516E-005
 -7.491825447248946E-005
 -7.502689886014961E-005
 -7.513524017168307E-005
 -7.524328466082829E-005
 -7.535103941103114E-005
 -7.545851223000321E-005
 -7.556571154813680E-005
 -7.567264632048784E-005
 -7.577932593244490E-005
 -7.588576010884182E-005
 -7.599195882665013E-005
 -7.609793223095412E-005
 -7.620369055431848E-005
 -7.630924403942901E-005
 -7.641460286488127E-005
 -7.651977707418819E-005
 -7.662477650783467E-005
 -7.672961073836609E-005
 -7.683428900851612E-005
 -7.693882017224132E-005
 -7.704321263868148E-005
 -7.714747431900561E-005
 -7.725161257608064E-005
 -7.735563417696807E-005
 -7.745954524819815E-005
 -7.756335123379110E-005
 -7.766705685609900E-005
 -7.777066607921241E-005
 -7.787418207525600E-005
 -7.797760719321611E-005
 -7.808094293061769E-005
 -7.818418990752294E-005
 -7.828734784372490E-005
 -7.839041553804152E-005
 -7.849339085043883E-005
 -7.859627068707928E-005
 -7.869905098647009E-005
 -7.880172671223109E-005
 -7.890429184100330E-005
 -7.435332959918568E-005
 -7.447752476768620E-005
 -7.460102128016400E-005
 -7.472382630020034E-005
 -7.484594908555485E-005
 -7.496740081990738E-005
 -7.508819445005825E-005
 -7.520834452864039E-005
 -7.532786706225079E-005
 -7.544677936499692E-005
 -7.556509991723741E-005
 -7.568284822960138E-005
 -7.580004471195437E-005
 -7.591671054740173E-005
 -7.603286757103730E-005
 -7.614853815340211E-005
 -7.626374508843206E-005
 -7.637851148587348E-005
 -7.649286066787621E-005
 -7.660681606976488E-005
 -7.672040114479716E-005
 -7.683363927280384E-005
 -7.694655367251977E-005
 -7.705916731766438E-005
 -7.717150285644904E-005
 -7.728358253462491E-005
 -7.739542812181435E-005
 -7.750706084119947E-005
 -7.761850130234106E-005
 -7.772976943725928E-005
 -7.784088443950804E-005
 -7.795186470642136E-005
 -7.806272778429015E-005
 -7.817349031663438E-005
 -7.828416799535738E-005
 -7.839477551496095E-005
 -7.850532652969197E-005
 -7.861583361345220E-005
 -7.872630822303976E-005
 -7.883676066389639E-005
 -7.894720005914219E-005
 -7.905763432111824E-005
 -7.916807012695685E-005
 -7.927851289501827E-005
 -7.938896676658392E-005
 -7.949943458937227E-005
 -7.960991790299441E-005
 -7.972041693252628E-005
 -7.983093057057492E-005
 -7.994145638979197E-005
 -7.490038522045959E-005
 -7.503625238354159E-005
 -7.517096428909181E-005
 -7.530455012024079E-005
 -7.543704086226544E-005
 -7.556846911664259E-005
 -7.569886892276275E-005
 -7.582827558700415E-005
 -7.595672551911686E-005
 -7.608425607549105E-005
 -7.621090540936046E-005
 -7.633671232741244E-005
 -7.646171615270745E-005
 -7.658595659359179E-005
 -7.670947361838071E-005
 -7.683230733541405E-005
 -7.695449787836271E-005
 -7.707608529648260E-005
 -7.719710944951395E-005
 -7.731760990705221E-005
 -7.743762585218771E-005
 -7.755719598911673E-005
 -7.767635845465363E-005
 -7.779515073338242E-005
 -7.791360957636748E-005
 -7.803177092323310E-005
 -7.814966982757035E-005
 -7.826734038548236E-005
 -7.838481566733343E-005
 -7.850212765245543E-005
 -7.861930716704371E-005
 -7.873638382478885E-005
 -7.885338597083519E-005
 -7.897034062837434E-005
 -7.908727344859321E-005
 -7.920420866326116E-005
 -7.932116904050186E-005
 -7.943817584426017E-005
 -7.955524879538666E-005
 -7.967240603767441E-005
 -7.978966410559460E-005
 -7.990703789690025E-005
 -8.002454064476671E-005
 -8.014218390097643E-005
 -8.025997751300124E-005
 -8.037792960972949E-005
 -8.049604659377835E-005
 -8.061433311921434E-005
 -8.073279212381596E-005
 -8.085142476340232E-005
 -7.533837813489102E-005
 -7.548503108845649E-005
 -7.563003720450249E-005
 -7.577345199520763E-005
 -7.591533229148141E-005
 -7.605573604494197E-005
 -7.619472213997600E-005
 -7.633235021594758E-005
 -7.646868049883077E-005
 -7.660377364193669E-005
 -7.673769057508555E-005
 -7.687049236187996E-005
 -7.700224006437291E-005
 -7.713299461480446E-005
 -7.726281669374424E-005
 -7.739176661425732E-005
 -7.751990421158049E-005
 -7.764728873786262E-005
 -7.777397876159111E-005
 -7.790003207130383E-005
 -7.802550558321422E-005
 -7.815045525250255E-005
 -7.827493598792728E-005
 -7.839900156964496E-005
 -7.852270456981294E-005
 -7.864609627616032E-005
 -7.876922661800692E-005
 -7.889214409505647E-005
 -7.901489570855897E-005
 -7.913752689506980E-005
 -7.926008146242426E-005
 -7.938260152906532E-005
 -7.950512746467146E-005
 -7.962769783490548E-005
 -7.975034934744460E-005
 -7.987311680251148E-005
 -7.999603304555899E-005
 -8.011912892103517E-005
 -8.024243323518200E-005
 -8.036597271493579E-005
 -8.048977197646293E-005
 -8.061385349156281E-005
 -8.073823757030654E-005
 -8.086294231954180E-005
 -8.098798364353056E-005
 -8.111337522443500E-005
 -8.123912849728861E-005
 -8.136525269265541E-005
 -8.149175470328467E-005
 -8.161863932533294E-005
 -7.566224856507154E-005
 -7.581831449192203E-005
 -7.597221767941018E-005
 -7.612404452314089E-005
 -7.627388198918437E-005
 -7.642181741581087E-005
 -7.656793832994924E-005
 -7.671233227663777E-005
 -7.685508666061222E-005
 -7.699628859925197E-005
 -7.713602478570447E-005
 -7.727438136147474E-005
 -7.741144379724117E-005
 -7.754729678129264E-005
 -7.768202411448048E-005
 -7.781570861096143E-005
 -7.794843200403123E-005
 -7.808027485610612E-005
 -7.821131647253051E-005
 -7.834163481825413E-005
 -7.847130643722403E-005
 -7.860040637383744E-005
 -7.872900809614081E-005
 -7.885718342027657E-005
 -7.898500243682408E-005
 -7.911253343717632E-005
 -7.923984284205340E-005
 -7.936699512995363E-005
 -7.949405276733364E-005
 -7.962107613945097E-005
 -7.974812348352501E-005
 -7.987525082011360E-005
 -8.000251189151087E-005
 -8.012995809597554E-005
 -8.025763843008609E-005
 -8.038559942732991E-005
 -8.051388510341820E-005
 -8.064253691090775E-005
 -8.077159367595245E-005
 -8.090109156790989E-005
 -8.103106404799227E-005
 -8.116154184311674E-005
 -8.129255288372744E-005
 -8.142412234647588E-005
 -8.155627254984226E-005
 -8.168902296484213E-005
 -8.182239025871939E-005
 -8.195638811629382E-005
 -8.209102770140772E-005
 -8.222631678283156E-005
 -7.586707614336902E-005
 -7.603060357604684E-005
 -7.619144529482345E-005
 -7.634972301184046E-005
 -7.650555789887086E-005
 -7.665907041809861E-005
 -7.681038016841052E-005
 -7.695960574939962E-005
 -7.710686464005911E-005
 -7.725227309072775E-005
 -7.739594602639671E-005
 -7.753799695989035E-005
 -7.767853791331346E-005
 -7.781767934616303E-005
 -7.795553008870181E-005
 -7.809219727956580E-005
 -7.822778630584542E-005
 -7.836240074510449E-005
 -7.849614230800100E-005
 -7.862911078091342E-005
 -7.876140396759776E-005
 -7.889311762937616E-005
 -7.902434542358078E-005
 -7.915517884042952E-005
 -7.928570713499586E-005
 -7.941601726086571E-005
 -7.954619379651311E-005
 -7.967631887378288E-005
 -7.980647210102769E-005
 -7.993673048621548E-005
 -8.006716835529777E-005
 -8.019785728099460E-005
 -8.032886599053780E-005
 -8.046026029814920E-005
 -8.059210301486841E-005
 -8.072445388369922E-005
 -8.085736950033470E-005
 -8.099090321867103E-005
 -8.112510513830076E-005
 -8.126002197981279E-005
 -8.139569706839307E-005
 -8.153217024643321E-005
 -8.166947792362486E-005
 -8.180765278206129E-005
 -8.194672408844345E-005
 -8.208671752491714E-005
 -8.222765496340205E-005
 -8.236955508353808E-005
 -8.251243176649544E-005
 -8.265629731150575E-005
 -7.594778785891944E-005
 -7.611615983092036E-005
 -7.628134235991720E-005
 -7.644349604651568E-005
 -7.660277938014459E-005
 -7.675934863508384E-005
 -7.691335779885036E-005
 -7.706495851738696E-005
 -7.721430005645601E-005
 -7.736152927707103E-005
 -7.750679062178106E-005
 -7.765022610909533E-005
 -7.779197533376350E-005
 -7.793217547049345E-005
 -7.807096127942928E-005
 -7.820846510992100E-005
 -7.834481690343321E-005
 -7.848014419103674E-005
 -7.861457208653758E-005
 -7.874822327223077E-005
 -7.888121797766842E-005
 -7.901367395028567E-005
 -7.914570641636852E-005
 -7.927742803081811E-005
 -7.940894882654573E-005
 -7.954037613817374E-005
 -7.967181453583398E-005
 -7.980336573255148E-005
 -7.993512849652553E-005
 -8.006719855033477E-005
 -8.019966847318784E-005
 -8.033262756002245E-005
 -8.046616175479414E-005
 -8.060035348388154E-005
 -8.073528158148947E-005
 -8.087102112546923E-005
 -8.100764334338943E-005
 -8.114521556960577E-005
 -8.128380092521238E-005
 -8.142345846828909E-005
 -8.156424292356311E-005
 -8.170620470623067E-005
 -8.184938954027227E-005
 -8.199383930757227E-005
 -8.213959057887856E-005
 -8.228667529809697E-005
 -8.243512154835312E-005
 -8.258495121107469E-005
 -8.273618552924225E-005
 -8.288883358244813E-005
 -7.589865182034191E-005
 -7.606852424485501E-005
 -7.623476075682286E-005
 -7.639756228277052E-005
 -7.655712548054057E-005
 -7.671364282319049E-005
 -7.686730267189763E-005
 -7.701828937627473E-005
 -7.716678339083923E-005
 -7.731296140051303E-005
 -7.745699645285805E-005
 -7.759905809352848E-005
 -7.773931250108123E-005
 -7.787792261800298E-005
 -7.801504827400482E-005
 -7.815084630344519E-005
 -7.828547064545491E-005
 -7.841907243520370E-005
 -7.855180007528608E-005
 -7.868379929184131E-005
 -7.881521316976016E-005
 -7.894618216651339E-005
 -7.907684410835061E-005
 -7.920733416941049E-005
 -7.933778479758479E-005
 -7.946832568134630E-005
 -7.959908361845693E-005
 -7.973018243617822E-005
 -7.986174284075383E-005
 -7.999388227021017E-005
 -8.012671470808152E-005
 -8.026035060907914E-005
 -8.039489652080840E-005
 -8.053045508522371E-005
 -8.066712466243335E-005
 -8.080499928862106E-005
 -8.094416836381687E-005
 -8.108471623478461E-005
 -8.122672277617360E-005
 -8.137026214149226E-005
 -8.151540330523499E-005
 -8.166220954056614E-005
 -8.181073919500661E-005
 -8.196104230401494E-005
 -8.211316615310427E-005
 -8.226715166952583E-005
 -8.242303038836559E-005
 -8.258083329502822E-005
 -8.274057159650007E-005
 -8.290227763371968E-005
 -7.571249180950443E-005
 -7.587979198144467E-005
 -7.604311863426034E-005
 -7.620271013461589E-005
 -7.635879797924069E-005
 -7.651160702943192E-005
 -7.666135588193674E-005
 -7.680825722885984E-005
 -7.695251821623395E-005
 -7.709434080892637E-005
 -7.723392215100571E-005
 -7.737145491763574E-005
 -7.750712765496908E-005
 -7.764112510508780E-005
 -7.777362851539351E-005
 -7.790481591228331E-005
 -7.803486237159940E-005
 -7.816394023743993E-005
 -7.829221932633310E-005
 -7.841986708726376E-005
 -7.854704873005633E-005
 -7.867392731818314E-005
 -7.880066380585267E-005
 -7.892741702424212E-005
 -7.905434373153509E-005
 -7.918159838037432E-005
 -7.930933315160073E-005
 -7.943769765584529E-005
 -7.956683880119279E-005
 -7.969690054665216E-005
 -7.982802367117706E-005
 -7.996034510876989E-005
 -8.009399834106034E-005
 -8.022911221707579E-005
 -8.036581124932369E-005
 -8.050421463339178E-005
 -8.064443629436157E-005
 -8.078658507756568E-005
 -8.093076152632282E-005
 -8.107706187697645E-005
 -8.122557464479454E-005
 -8.137638135436253E-005
 -8.152955349271906E-005
 -8.168516368652538E-005
 -8.184326313094513E-005
 -8.200389773981357E-005
 -8.216711859229271E-005
 -8.233294700064434E-005
 -8.250144092250994E-005
 -8.267255248400738E-005
 -7.537958921567285E-005
 -7.553962837391727E-005
 -7.569552890037516E-005
 -7.584755698993727E-005
 -7.599596864170879E-005
 -7.614101071954355E-005
 -7.628292160807319E-005
 -7.642193191882777E-005
 -7.655826521226111E-005
 -7.669213868481853E-005
 -7.682376383646411E-005
 -7.695334711664036E-005
 -7.708109054352652E-005
 -7.720719229045265E-005
 -7.733184723093486E-005
 -7.745524749451217E-005
 -7.757758289740135E-005
 -7.769904142697661E-005
 -7.781980960908365E-005
 -7.794007286092093E-005
 -7.806001577545819E-005
 -7.817982233211329E-005
 -7.829967609753531E-005
 -7.841976035621364E-005
 -7.854025780790997E-005
 -7.866135108944826E-005
 -7.878322196947169E-005
 -7.890605163211341E-005
 -7.903002006137610E-005
 -7.915530562757338E-005
 -7.928208453090700E-005
 -7.941053142108392E-005
 -7.954081599359443E-005
 -7.967310570674355E-005
 -7.980756241498965E-005
 -7.994434370218870E-005
 -8.008360035342681E-005
 -8.022547418565424E-005
 -8.037010737950580E-005
 -8.051762391936034E-005
 -8.066814202350376E-005
 -8.082177056173309E-005
 -8.097861602892025E-005
 -8.113874169035252E-005
 -8.130225332762522E-005
 -8.146922571372657E-005
 -8.163966693870037E-005
 -8.181365704299735E-005
 -8.199111566705864E-005
 -8.217228802473441E-005
 -7.488633655336263E-005
 -7.503410505138480E-005
 -7.517781129808877E-005
 -7.531772832259205E-005
 -7.545411739173991E-005
 -7.558722813245022E-005
 -7.571729992928195E-005
 -7.584456313899820E-005
 -7.596924013966463E-005
 -7.609154638968548E-005
 -7.621169144124900E-005
 -7.632987990306131E-005
 -7.644631236294430E-005
 -7.656118628505799E-005
 -7.667469689280376E-005
 -7.678703785669701E-005
 -7.689840227952550E-005
 -7.700898324271128E-005
 -7.711897460773215E-005
 -7.722857163469391E-005
 -7.733797156314766E-005
 -7.744737417985009E-005
 -7.755698210212746E-005
 -7.766700106276451E-005
 -7.777764123436412E-005
 -7.788911502758824E-005
 -7.800163972929531E-005
 -7.811543521363485E-005
 -7.823072466578075E-005
 -7.834773406065041E-005
 -7.846669133040833E-005
 -7.858782168130156E-005
 -7.871135700447432E-005
 -7.883752068295436E-005
 -7.896653687454234E-005
 -7.909862200590909E-005
 -7.923399008015864E-005
 -7.937285339980259E-005
 -7.951538558441505E-005
 -7.966179139628593E-005
 -7.981224823056150E-005
 -7.996691172943845E-005
 -8.012589646541489E-005
 -8.028941758402475E-005
 -8.045746185131553E-005
 -8.063010120208322E-005
 -8.080759694407985E-005
 -8.098984205003829E-005
 -8.117718769895876E-005
 -8.136882575043099E-005
 -7.421390184827869E-005
 -7.434461520856202E-005
 -7.447163439727135E-005
 -7.459521156622449E-005
 -7.471558196141811E-005
 -7.483296936600605E-005
 -7.494758715539104E-005
 -7.505963947488492E-005
 -7.516932277832087E-005
 -7.527682711288761E-005
 -7.538233733464414E-005
 -7.548603430487220E-005
 -7.558809605218462E-005
 -7.568869886699864E-005
 -7.578801833371082E-005
 -7.588623088112867E-005
 -7.598351404484590E-005
 -7.608004837946565E-005
 -7.617601811242715E-005
 -7.627161228527230E-005
 -7.636702594086676E-005
 -7.646246105773481E-005
 -7.655812817914091E-005
 -7.665424733835691E-005
 -7.675104535660431E-005
 -7.684876566403674E-005
 -7.694765801368136E-005
 -7.704798733107568E-005
 -7.715002984918712E-005
 -7.725407273279318E-005
 -7.736041470643235E-005
 -7.746937618993425E-005
 -7.758125835746079E-005
 -7.769639795163419E-005
 -7.781512109802654E-005
 -7.793776319624722E-005
 -7.806464008894282E-005
 -7.819604713504502E-005
 -7.833237823482154E-005
 -7.847384054024807E-005
 -7.862069609835428E-005
 -7.877324135194803E-005
 -7.893182678925118E-005
 -7.909634046680052E-005
 -7.926743916374481E-005
 -7.944524487448711E-005
 -7.962909314251366E-005
 -7.981974994529856E-005
 -8.001637789852093E-005
 -8.022175977955926E-005
 -7.333747281500712E-005
 -7.344736531114534E-005
 -7.355424209444931E-005
 -7.365828080062930E-005
 -7.375965781572456E-005
 -7.385853764545775E-005
 -7.395507555365196E-005
 -7.404942007958263E-005
 -7.414171377704819E-005
 -7.423209442726911E-005
 -7.432069627631069E-005
 -7.440765114803074E-005
 -7.449308952260066E-005
 -7.457714172937323E-005
 -7.465993920714900E-005
 -7.474161410736310E-005
 -7.482230384623661E-005
 -7.490214895567609E-005
 -7.498129636440957E-005
 -7.505990103977362E-005
 -7.513812708549427E-005
 -7.521615009861075E-005
 -7.529415721721290E-005
 -7.537235064197406E-005
 -7.545096176329484E-005
 -7.553021905427964E-005
 -7.561039567429502E-005
 -7.569177843674049E-005
 -7.577468493972635E-005
 -7.585946685912328E-005
 -7.594650495313305E-005
 -7.603617888839089E-005
 -7.612901143741956E-005
 -7.622543429344384E-005
 -7.632596280519568E-005
 -7.643111682220188E-005
 -7.654150235889261E-005
 -7.665774966979737E-005
 -7.678008324210308E-005
 -7.690941048000050E-005
 -7.704627773426388E-005
 -7.719092087412009E-005
 -7.734335423617667E-005
 -7.750522176893900E-005
 -7.767515051693421E-005
 -7.785391688119423E-005
 -7.804471723260383E-005
 -7.824450515488363E-005
 -7.845550507189171E-005
 -7.866890741220302E-005
 -7.222691558310594E-005
 -7.231421916410945E-005
 -7.239936916960257E-005
 -7.248248110562692E-005
 -7.256362952814271E-005
 -7.264288861163099E-005
 -7.272033145637513E-005
 -7.279602656411878E-005
 -7.287004026230594E-005
 -7.294243735976447E-005
 -7.301328122649614E-005
 -7.308263404100388E-005
 -7.315055716416449E-005
 -7.321711138456784E-005
 -7.328235750916898E-005
 -7.334636240300516E-005
 -7.340918688613038E-005
 -7.347090166214900E-005
 -7.353158103936533E-005
 -7.359130328098174E-005
 -7.365015585087135E-005
 -7.370823592447789E-005
 -7.376565970416964E-005
 -7.382255767554656E-005
 -7.387904162625000E-005
 -7.393534015969600E-005
 -7.399161875758468E-005
 -7.404812109373607E-005
 -7.410512531552289E-005
 -7.416294830846196E-005
 -7.422198613018930E-005
 -7.428280338223639E-005
 -7.434562697754935E-005
 -7.441130308969066E-005
 -7.448057501132233E-005
 -7.455431842639203E-005
 -7.463324189920863E-005
 -7.471822485243182E-005
 -7.481170645004447E-005
 -7.491339445469900E-005
 -7.502448365860110E-005
 -7.514729317187227E-005
 -7.528420262070780E-005
 -7.543096046311985E-005
 -7.559424675322413E-005
 -7.577185052073200E-005
 -7.595423236100428E-005
 -7.615717656097290E-005
 -7.637653900056937E-005
 -7.663716639089721E-005
 -7.084993303004363E-005
 -7.091547814214051E-005
 -7.097989878507703E-005
 -7.104306423710163E-005
 -7.110496462530176E-005
 -7.116558701292586E-005
 -7.122491249238712E-005
 -7.128293082306323E-005
 -7.133963312371889E-005
 -7.139500919622457E-005
 -7.144904753034705E-005
 -7.150173548320593E-005
 -7.155305927005747E-005
 -7.160300411480912E-005
 -7.165155261871839E-005
 -7.169866742647729E-005
 -7.174434178866109E-005
 -7.178853677971316E-005
 -7.183121311478863E-005
 -7.187234048381286E-005
 -7.191188200322254E-005
 -7.194980213501271E-005
 -7.198604619818537E-005
 -7.202057929947321E-005
 -7.205349830354743E-005
 -7.208454556008791E-005
 -7.211387101609435E-005
 -7.214148906151419E-005
 -7.216745167901804E-005
 -7.219186970688507E-005
 -7.221479926839588E-005
 -7.223609913732269E-005
 -7.225728183989265E-005
 -7.227774710345564E-005
 -7.229785521287787E-005
 -7.231830863495479E-005
 -7.234119149373609E-005
 -7.236824240517640E-005
 -7.239626839644106E-005
 -7.243355869349802E-005
 -7.248269183894392E-005
 -7.254229167779324E-005
 -7.261269425862878E-005
 -7.271904848617960E-005
 -7.284388741329211E-005
 -7.300070024768101E-005
 -7.321942744461095E-005
 -7.342890999660265E-005
 -7.363869063269001E-005
 -7.379770358043861E-005
 -6.917747929284268E-005
 -6.922533947890151E-005
 -6.927235199250572E-005
 -6.931875083218846E-005
 -6.936442325771979E-005
 -6.940927697310568E-005
 -6.945326524467003E-005
 -6.949632408690407E-005
 -6.953838863682784E-005
 -6.957940040505073E-005
 -6.961930429226525E-005
 -6.965804270351122E-005
 -6.969554983928378E-005
 -6.973174735523435E-005
 -6.976654886192663E-005
 -6.979990928994979E-005
 -6.983162781839397E-005
 -6.986161154873952E-005
 -6.988974388986778E-005
 -6.991583387784282E-005
 -6.993969113437885E-005
 -6.996109825998479E-005
 -6.997988597527465E-005
 -6.999578212212143E-005
 -7.000810321209001E-005
 -7.001755479658280E-005
 -7.002315109638104E-005
 -7.002445913564490E-005
 -7.002109454644770E-005
 -7.001268162319329E-005
 -6.999929928586571E-005
 -6.998156582180938E-005
 -6.995421820775910E-005
 -6.992113546719741E-005
 -6.988279126950446E-005
 -6.983821500637458E-005
 -6.978210840894684E-005
 -6.971344427240065E-005
 -6.965101803983197E-005
 -6.957150173325636E-005
 -6.947791127040665E-005
 -6.939017203162290E-005
 -6.931907206184546E-005
 -6.918699136939205E-005
 -6.908501894535584E-005
 -6.900233763581273E-005
 -6.890081100690406E-005
 -6.911328880124425E-005
 -6.960903253035240E-005
 -7.038977403799974E-005
 -6.719349780563358E-005
 -6.722733081442650E-005
 -6.726179487847243E-005
 -6.729572836293455E-005
 -6.732910058116942E-005
 -6.736192165225626E-005
 -6.739406806983936E-005
 -6.742550976485996E-005
 -6.745625889045123E-005
 -6.748631984809770E-005
 -6.751567141151076E-005
 -6.754426695899029E-005
 -6.757204056242286E-005
 -6.759890889774797E-005
 -6.762474309724074E-005
 -6.764922326737216E-005
 -6.767257682712738E-005
 -6.769446231127197E-005
 -6.771450414163482E-005
 -6.773254387723419E-005
 -6.774830541560997E-005
 -6.776150887978482E-005
 -6.777159842954206E-005
 -6.777830515533851E-005
 -6.778246130537188E-005
 -6.777947471076293E-005
 -6.777172351606151E-005
 -6.775932109313209E-005
 -6.774150817066827E-005
 -6.771683507896662E-005
 -6.768177739281716E-005
 -6.763225540302512E-005
 -6.758603063477199E-005
 -6.752386323510250E-005
 -6.744062138786387E-005
 -6.733880536877952E-005
 -6.723607753990584E-005
 -6.712756420999095E-005
 -6.693501129783738E-005
 -6.674220818723319E-005
 -6.653298036397435E-005
 -6.624377389475412E-005
 -6.587023738728996E-005
 -6.573421299659006E-005
 -6.550541907977622E-005
 -6.517935268134995E-005
 -6.475788482536855E-005
 -6.297759120745761E-005
 -5.996823374730865E-005
 -5.137330277147447E-005
 -6.489326477707169E-005
 -6.492254561064628E-005
 -6.494750818372309E-005
 -6.497150585696164E-005
 -6.499461799387455E-005
 -6.501674541667300E-005
 -6.503846235393684E-005
 -6.506010734343895E-005
 -6.508179964455558E-005
 -6.510357060242379E-005
 -6.512543736709222E-005
 -6.514741681972115E-005
 -6.516950933674586E-005
 -6.519169286881288E-005
 -6.521400696244851E-005
 -6.523692163299393E-005
 -6.525858149021620E-005
 -6.527944373877577E-005
 -6.530005160043989E-005
 -6.531979150453154E-005
 -6.533826367041416E-005
 -6.535472906740857E-005
 -6.536912391864034E-005
 -6.538010602690649E-005
 -6.538307771746623E-005
 -6.539355396526608E-005
 -6.539784218832282E-005
 -6.539096618618077E-005
 -6.537304415234888E-005
 -6.534800063667683E-005
 -6.532704860280553E-005
 -6.531652020556144E-005
 -6.523978436999108E-005
 -6.516559448640187E-005
 -6.510432326468388E-005
 -6.503429895222523E-005
 -6.488410801718689E-005
 -6.468492777066663E-005
 -6.473318469983743E-005
 -6.469671493422791E-005
 -6.458981852932302E-005
 -6.451397658364851E-005
 -6.430016347216611E-005
 -6.266042791242136E-005
 -6.009166037356959E-005
 -5.343534972325593E-005
 -4.716983039801521E-005
 -4.088769954440377E-005
 -3.758699709839564E-005
 -3.512927097695222E-005
 -6.232847956314107E-005
 -6.232967376603495E-005
 -6.233836289583719E-005
 -6.234570226858341E-005
 -6.235284327035803E-005
 -6.236213789825142E-005
 -6.237280951345207E-005
 -6.238417740978314E-005
 -6.239616091445760E-005
 -6.240909197742106E-005
 -6.242347077494193E-005
 -6.243980693106574E-005
 -6.245852609778669E-005
 -6.247984410472790E-005
 -6.250341751359933E-005
 -6.252740216593123E-005
 -6.255852936522804E-005
 -6.259309454920012E-005
 -6.262632771698558E-005
 -6.265832316906311E-005
 -6.268868444897014E-005
 -6.271922957809302E-005
 -6.274978048980864E-005
 -6.278402873533569E-005
 -6.283335525662491E-005
 -6.283344268890013E-005
 -6.283809080225337E-005
 -6.286505722547481E-005
 -6.290635826726367E-005
 -6.293672860411527E-005
 -6.290611848333726E-005
 -6.280452242810618E-005
 -6.293363771894551E-005
 -6.302586912011113E-005
 -6.303380707741753E-005
 -6.300233018325554E-005
 -6.311896084441009E-005
 -6.315590024595424E-005
 -6.196332198971319E-005
 -6.070168749971417E-005
 -5.597262890224919E-005
 -5.086856274247201E-005
 -4.684127964074560E-005
 -4.163636968127991E-005
 -4.023809399623585E-005
 -3.841101164739179E-005
 -3.719290268733764E-005
 -3.790710408725410E-005
 -3.951760150126411E-005
 -4.170062264969065E-005
 -5.941957379142591E-005
 -5.943234969718370E-005
 -5.941789923749027E-005
 -5.940800435946667E-005
 -5.940172833132299E-005
 -5.938908197457395E-005
 -5.937232610187677E-005
 -5.935624961882205E-005
 -5.934491041508310E-005
 -5.934084218346862E-005
 -5.934512317677289E-005
 -5.935773560525853E-005
 -5.937807985828838E-005
 -5.940574110217403E-005
 -5.944177702462176E-005
 -5.949097211131536E-005
 -5.952514773045285E-005
 -5.955965004834097E-005
 -5.961406181738039E-005
 -5.968585766385178E-005
 -5.977150988853999E-005
 -5.985401080526773E-005
 -5.992214513514486E-005
 -5.995696278889949E-005
 -5.992869388680966E-005
 -6.009381481739517E-005
 -6.023966328738794E-005
 -6.029618025744828E-005
 -6.029099173343734E-005
 -6.030436478332953E-005
 -6.049825759192466E-005
 -6.083521536830748E-005
 -6.012946333247825E-005
 -5.942009774616491E-005
 -5.713459737965969E-005
 -5.347822476384378E-005
 -4.974309846291351E-005
 -4.694746870699795E-005
 -4.289648346351094E-005
 -4.146777475509770E-005
 -4.024967819928500E-005
 -3.872048338533871E-005
 -3.850047847178795E-005
 -3.892321749824730E-005
 -4.018714170667176E-005
 -4.164548117986216E-005
 -4.308759566347260E-005
 -4.473483198663790E-005
 -4.627644178947224E-005
 -4.774145129471436E-005
 -5.662263999332120E-005
 -5.647726731239293E-005
 -5.639936570136674E-005
 -5.627528836627165E-005
 -5.610302944955703E-005
 -5.594220459925119E-005
 -5.581592617186822E-005
 -5.573074395500267E-005
 -5.568603739415970E-005
 -5.567829757948597E-005
 -5.570289635174360E-005
 -5.575448087864131E-005
 -5.582646287948901E-005
 -5.590969313598738E-005
 -5.599027351232493E-005
 -5.604649623021614E-005
 -5.618443795744783E-005
 -5.633595992616280E-005
 -5.641882192531783E-005
 -5.644231329979222E-005
 -5.642168509124662E-005
 -5.643828465853794E-005
 -5.655581805644403E-005
 -5.683785540871898E-005
 -5.733023564908931E-005
 -5.699768336120423E-005
 -5.664587699529020E-005
 -5.579044034961980E-005
 -5.339624087223282E-005
 -5.106745565881133E-005
 -4.863209877662488E-005
 -4.663162811162075E-005
 -4.406668348715885E-005
 -4.174748541046685E-005
 -4.138642607855525E-005
 -4.037964284453754E-005
 -3.903462245329500E-005
 -3.872694379648173E-005
 -3.880682664830338E-005
 -3.938004066116366E-005
 -4.027455833230431E-005
 -4.113994248975235E-005
 -4.217569224133968E-005
 -4.343829852526507E-005
 -4.463739196069201E-005
 -4.590587842434398E-005
 -4.717440542135436E-005
 -4.831917474257190E-005
 -4.940946053500376E-005
 -5.044645296352478E-005
 -5.016478595436381E-005
 -5.225211172967905E-005
 -5.235754362427236E-005
 -5.159355720960302E-005
 -5.116946543253784E-005
 -5.095539985214966E-005
 -5.087326686822618E-005
 -5.087576310764563E-005
 -5.093461647853097E-005
 -5.103414355703506E-005
 -5.116777677115423E-005
 -5.133641915181461E-005
 -5.154796048878132E-005
 -5.181762638259195E-005
 -5.216857414305212E-005
 -5.263168760880287E-005
 -5.274311325750726E-005
 -5.272741329512193E-005
 -5.245132939204827E-005
 -5.128003744269312E-005
 -5.022079703023842E-005
 -4.916523218967970E-005
 -4.802572310053116E-005
 -4.673343769182301E-005
 -4.533763198678390E-005
 -4.387611672305856E-005
 -4.187314578408158E-005
 -4.158666553565985E-005
 -4.117155786002308E-005
 -4.039985201391106E-005
 -3.928466477905961E-005
 -3.849896168249570E-005
 -3.838898853096406E-005
 -3.823609365086241E-005
 -3.856864479025148E-005
 -3.891320476519867E-005
 -3.927620345657447E-005
 -3.984137084471114E-005
 -4.066942492272205E-005
 -4.153542539752861E-005
 -4.248113235167515E-005
 -4.352383018634183E-005
 -4.453244705230049E-005
 -4.547155226125868E-005
 -4.640494726917763E-005
 -4.729672301263129E-005
 -4.817841203512345E-005
 -4.907582084792223E-005
 -4.996352060765107E-005
 -5.083725656776247E-005
 -3.144667184557090E-005
 -3.585984692885953E-005
 -3.844909015707911E-005
 -4.006842580067690E-005
 -4.132698811574441E-005
 -4.230608244229143E-005
 -4.306483115842108E-005
 -4.364498643339768E-005
 -4.407532248413152E-005
 -4.437473862149663E-005
 -4.455429451351833E-005
 -4.461849944039806E-005
 -4.456607226634928E-005
 -4.439070051664467E-005
 -4.408229122283697E-005
 -4.362959480752993E-005
 -4.246946863748287E-005
 -4.164483082180439E-005
 -4.054921796857211E-005
 -4.061947511304586E-005
 -4.060919779426930E-005
 -4.032529817186193E-005
 -3.977516908180538E-005
 -3.894750719143420E-005
 -3.790282790417975E-005
 -3.765915240374040E-005
 -3.722325403297940E-005
 -3.709593875038910E-005
 -3.704731769680252E-005
 -3.694665932028233E-005
 -3.687230013993767E-005
 -3.694528983621384E-005
 -3.727492880483956E-005
 -3.776460176412673E-005
 -3.829319008737873E-005
 -3.897580485375361E-005
 -3.975267962886900E-005
 -4.053017747046044E-005
 -4.128158310060808E-005
 -4.205598596125050E-005
 -4.282957009028453E-005
 -4.359732093520938E-005
 -4.438542697928896E-005
 -4.518707200301301E-005
 -4.598019005005661E-005
 -4.677172761673142E-005
 -4.755213485300399E-005
 -4.831876382669501E-005
 -4.907877686535766E-005
 -4.982908978227339E-005
 -2.064521017367326E-005
 -2.323584417370582E-005
 -2.565659670937389E-005
 -2.782424286920231E-005
 -2.971038479760053E-005
 -3.133703733499144E-005
 -3.272696882263710E-005
 -3.390114441164193E-005
 -3.487679317837215E-005
 -3.566627429805184E-005
 -3.627646832241979E-005
 -3.670865144089123E-005
 -3.695819229922817E-005
 -3.701449915251727E-005
 -3.686092587382211E-005
 -3.647443552114582E-005
 -3.579924045143938E-005
 -3.558806158018620E-005
 -3.530845362594745E-005
 -3.522310892967617E-005
 -3.505099634060937E-005
 -3.478714436441541E-005
 -3.447190133168006E-005
 -3.415639933147810E-005
 -3.390728528877790E-005
 -3.384837498214069E-005
 -3.395665105893018E-005
 -3.409824799296778E-005
 -3.435306104372235E-005
 -3.474360352262069E-005
 -3.522633680285297E-005
 -3.574929315197437E-005
 -3.627936435870608E-005
 -3.684316695230136E-005
 -3.746004851145540E-005
 -3.809090025096553E-005
 -3.874497574546914E-005
 -3.943039821234376E-005
 -4.013638849577968E-005
 -4.084237051229042E-005
 -4.155203751416052E-005
 -4.226419453625738E-005
 -4.297362516642595E-005
 -4.368371313425400E-005
 -4.439720635117362E-005
 -4.510874150451370E-005
 -4.581787266065114E-005
 -4.652294845991639E-005
 -4.722116200706312E-005
 -4.791448036485662E-005
 -1.726296649697286E-005
 -1.822886013867216E-005
 -1.946233106348499E-005
 -2.084775646722472E-005
 -2.227543301621452E-005
 -2.365807539927380E-005
 -2.493829825174075E-005
 -2.607995050521132E-005
 -2.706206143797124E-005
 -2.787460379689163E-005
 -2.851581276588666E-005
 -2.899048837829792E-005
 -2.931012203886246E-005
 -2.949356278433007E-005
 -2.956818449227953E-005
 -2.957167904464966E-005
 -2.955379370960001E-005
 -2.958344003352768E-005
 -2.965467495409920E-005
 -2.968543189797696E-005
 -2.976523766665589E-005
 -2.990263321620055E-005
 -3.009750502664607E-005
 -3.034613280832562E-005
 -3.063344227193401E-005
 -3.093229699835615E-005
 -3.126099175757226E-005
 -3.165644954367293E-005
 -3.209612724279586E-005
 -3.257396329121988E-005
 -3.309232495261784E-005
 -3.364952857703846E-005
 -3.423862543053529E-005
 -3.484301142615843E-005
 -3.545433518372180E-005
 -3.607893737397665E-005
 -3.671183340372028E-005
 -3.735159767997631E-005
 -3.800014527227220E-005
 -3.865885127073925E-005
 -3.932256701365939E-005
 -3.998877111046233E-005
 -4.065603813657318E-005
 -4.132210914181518E-005
 -4.198561451956375E-005
 -4.264768653820343E-005
 -4.330873498917378E-005
 -4.396877573538506E-005
 -4.462673890855754E-005
 -4.528233812009482E-005
 -1.679386523309500E-005
 -1.718284874484904E-005
 -1.758891519927936E-005
 -1.804825074761056E-005
 -1.857017293379158E-005
 -1.914378124781221E-005
 -1.974676951149609E-005
 -2.035509377115612E-005
 -2.094796202274009E-005
 -2.151004940420256E-005
 -2.203235134415094E-005
 -2.251216619883307E-005
 -2.295263364243462E-005
 -2.336094610223024E-005
 -2.374550192219362E-005
 -2.411139279755345E-005
 -2.445623113234851E-005
 -2.477184930760080E-005
 -2.507385443025911E-005
 -2.539691105186778E-005
 -2.573241901757915E-005
 -2.609109840514335E-005
 -2.647733750177767E-005
 -2.688995593716812E-005
 -2.732845593831595E-005
 -2.779490943786864E-005
 -2.828161249109635E-005
 -2.877963035161831E-005
 -2.929394112603840E-005
 -2.982328863821341E-005
 -3.036640688508979E-005
 -3.092383328350095E-005
 -3.149563407082076E-005
 -3.208195925858477E-005
 -3.268027169169141E-005
 -3.328603990901097E-005
 -3.389823823427350E-005
 -3.451495350354634E-005
 -3.513474583360831E-005
 -3.575690934971970E-005
 -3.638177505759944E-005
 -3.700890117194185E-005
 -3.763808575274526E-005
 -3.826821668412666E-005
 -3.889896219682679E-005
 -3.952952219406052E-005
 -4.015964244879653E-005
 -4.078993207373115E-005
 -4.141981632951479E-005
 -4.204814068780438E-005
 -1.712840895280860E-005
 -1.726070892929455E-005
 -1.737127400637490E-005
 -1.746655361187819E-005
 -1.755991149985503E-005
 -1.766492380427709E-005
 -1.779290131588252E-005
 -1.795037139248549E-005
 -1.813992966995235E-005
 -1.836159166885236E-005
 -1.861371257447694E-005
 -1.889384234689225E-005
 -1.919883825654464E-005
 -1.952492205359893E-005
 -1.986750045949399E-005
 -2.022290933045070E-005
 -2.059075932311110E-005
 -2.097374783203803E-005
 -2.137031864541207E-005
 -2.177562003519339E-005
 -2.219417086786464E-005
 -2.262432596869542E-005
 -2.306663345493137E-005
 -2.352297056931088E-005
 -2.399433574163658E-005
 -2.447977105568537E-005
 -2.497917272217209E-005
 -2.549155605321461E-005
 -2.601365647147039E-005
 -2.654497993529579E-005
 -2.708463790715794E-005
 -2.763144411780283E-005
 -2.818490936062366E-005
 -2.874506696266428E-005
 -2.931220155604088E-005
 -2.988617087178453E-005
 -3.046578695540553E-005
 -3.105040999173437E-005
 -3.163929217952902E-005
 -3.223127642309899E-005
 -3.282562827483016E-005
 -3.342204129973352E-005
 -3.402036090514144E-005
 -3.462097146393776E-005
 -3.522325026059829E-005
 -3.582712022606920E-005
 -3.643242925350922E-005
 -3.703830713146134E-005
 -3.764593013583331E-005
 -3.825651675731192E-005
 -1.756812383237240E-005
 -1.751574132532269E-005
 -1.744554542322191E-005
 -1.736303578534463E-005
 -1.727248977040156E-005
 -1.718233008936056E-005
 -1.709974702881561E-005
 -1.703289390451158E-005
 -1.698870526974063E-005
 -1.697332073812505E-005
 -1.699128646553329E-005
 -1.704535830377882E-005
 -1.713619007904848E-005
 -1.726390425692322E-005
 -1.742800907628407E-005
 -1.762768666254292E-005
 -1.786139841669320E-005
 -1.812582198526965E-005
 -1.841816266159933E-005
 -1.873655381081342E-005
 -1.907728240587070E-005
 -1.943874198229305E-005
 -1.981890145754273E-005
 -2.021592866518910E-005
 -2.062842052969218E-005
 -2.105554202509901E-005
 -2.149640108264179E-005
 -2.195034830663000E-005
 -2.241718405749099E-005
 -2.289561982424325E-005
 -2.338461711445981E-005
 -2.388348098015437E-005
 -2.439142058506889E-005
 -2.490766962691219E-005
 -2.543158719583408E-005
 -2.596265316502581E-005
 -2.650062421639045E-005
 -2.704511023925576E-005
 -2.759574291659335E-005
 -2.815235710355123E-005
 -2.871453551055520E-005
 -2.928170528895897E-005
 -2.985323065389323E-005
 -3.042818326189292E-005
 -3.100681993948784E-005
 -3.158876394208888E-005
 -3.217334215512250E-005
 -3.276133465845988E-005
 -3.335315465519429E-005
 -3.394939417133089E-005
 -1.811992049591565E-005
 -1.788823169367572E-005
 -1.765135767421823E-005
 -1.741282967035571E-005
 -1.718285534717470E-005
 -1.695818748995512E-005
 -1.674198404573931E-005
 -1.653715785345265E-005
 -1.634780575226124E-005
 -1.617828869685050E-005
 -1.603285442467478E-005
 -1.591511917295103E-005
 -1.582735213350181E-005
 -1.577215778109768E-005
 -1.575104448118815E-005
 -1.576439224677524E-005
 -1.581123927080310E-005
 -1.589131094861745E-005
 -1.600387115402371E-005
 -1.614770484397283E-005
 -1.632175472733859E-005
 -1.652373445629413E-005
 -1.675213721168011E-005
 -1.700574977558888E-005
 -1.728328794753665E-005
 -1.758303127754212E-005
 -1.790365889517995E-005
 -1.824438404694405E-005
 -1.860424270933290E-005
 -1.898248664554259E-005
 -1.937832357586792E-005
 -1.979078817598234E-005
 -2.021885890963581E-005
 -2.066159992451027E-005
 -2.111811976577803E-005
 -2.158756797187557E-005
 -2.206938110482416E-005
 -2.256292953421634E-005
 -2.306772300904930E-005
 -2.358291016572043E-005
 -2.410790799559214E-005
 -2.464222872307152E-005
 -2.518503180977894E-005
 -2.573584427419215E-005
 -2.629418753740076E-005
 -2.685950324078249E-005
 -2.743179547427823E-005
 -2.801087524699460E-005
 -2.859640356497814E-005
 -2.918750025019976E-005
 -1.884717064175142E-005
 -1.840595555710899E-005
 -1.798720194621722E-005
 -1.759940980541897E-005
 -1.720826135617108E-005
 -1.683068347902864E-005
 -1.646659648327316E-005
 -1.611890859752268E-005
 -1.579075884649457E-005
 -1.548364789400869E-005
 -1.519695468970150E-005
 -1.493205847023637E-005
 -1.468977950391544E-005
 -1.447115981048287E-005
 -1.427760149038008E-005
 -1.410972188780415E-005
 -1.396844044074590E-005
 -1.385559794329082E-005
 -1.377234106086448E-005
 -1.371943760885264E-005
 -1.369684433920174E-005
 -1.370463815397801E-005
 -1.374343481490338E-005
 -1.381307737519917E-005
 -1.391309316565927E-005
 -1.404296410733571E-005
 -1.420216666526524E-005
 -1.439005984692347E-005
 -1.460582560552420E-005
 -1.484873135285706E-005
 -1.511790817558170E-005
 -1.541260132131663E-005
 -1.573194491382374E-005
 -1.607523744056942E-005
 -1.644164623495995E-005
 -1.683023406863183E-005
 -1.723992382842339E-005
 -1.766948202888013E-005
 -1.811765349952186E-005
 -1.858326315578429E-005
 -1.906529171323941E-005
 -1.956276978080241E-005
 -2.007496693905762E-005
 -2.060135157789181E-005
 -2.114167655650238E-005
 -2.169604892949242E-005
 -2.226252242119231E-005
 -2.283926345308186E-005
 -2.342558729053286E-005
 -2.402020659306518E-005
 -1.976055129352182E-005
 -1.914649560392535E-005
 -1.856070241462905E-005
 -1.790455846179813E-005
 -1.731268216926503E-005
 -1.674616749827649E-005
 -1.621147197093841E-005
 -1.570447494098023E-005
 -1.522016556497537E-005
 -1.475382771050749E-005
 -1.430246748844660E-005
 -1.386661444793583E-005
 -1.344725496523734E-005
 -1.304588732424434E-005
 -1.266336258953818E-005
 -1.230278878279798E-005
 -1.196681941800427E-005
 -1.165788150093688E-005
 -1.137766157747317E-005
 -1.112803330713792E-005
 -1.091008087888616E-005
 -1.072490651542269E-005
 -1.057337089614106E-005
 -1.045620853881693E-005
 -1.037365843930979E-005
 -1.032596916496731E-005
 -1.031309720189720E-005
 -1.033490988490907E-005
 -1.039141161812069E-005
 -1.048193644709004E-005
 -1.060645443579615E-005
 -1.076496997169737E-005
 -1.095713702843932E-005
 -1.118251562654885E-005
 -1.144092955463424E-005
 -1.173186286874093E-005
 -1.205422647936797E-005
 -1.240716016447173E-005
 -1.278954634193692E-005
 -1.319995631909329E-005
 -1.363689297577147E-005
 -1.409878069405360E-005
 -1.458431134146591E-005
 -1.509252298187780E-005
 -1.562141307824781E-005
 -1.616956159165505E-005
 -1.673615057605501E-005
 -1.732084185549924E-005
 -1.792236421313263E-005
 -1.853705745147077E-005
 -2.129219889952251E-005
 -2.023184514862295E-005
 -1.903779078884530E-005
 -1.828618688242883E-005
 -1.748499928435983E-005
 -1.674407074630408E-005
 -1.602180647006130E-005
 -1.530551087238512E-005
 -1.459335664095783E-005
 -1.388691017487189E-005
 -1.319296593428930E-005
 -1.251630352522181E-005
 -1.186115330808651E-005
 -1.123081781046683E-005
 -1.062826557781601E-005
 -1.005689916156300E-005
 -9.518565822909579E-006
 -9.014634323771896E-006
 -8.546026278598440E-006
 -8.113600940611626E-006
 -7.717887598044591E-006
 -7.359177363352510E-006
 -7.037738822516719E-006
 -6.753893344966769E-006
 -6.507650151692849E-006
 -6.298900999637623E-006
 -6.127689214433108E-006
 -5.994397446177476E-006
 -5.899159244371655E-006
 -5.841929399954172E-006
 -5.823279037220108E-006
 -5.843338324936919E-006
 -5.902811771392189E-006
 -6.002028817877907E-006
 -6.141550410727717E-006
 -6.321773477246108E-006
 -6.543027398337020E-006
 -6.806136590250856E-006
 -7.111449344497992E-006
 -7.458874234399938E-006
 -7.847806326001016E-006
 -8.276994952080483E-006
 -8.744349358559212E-006
 -9.247424128785808E-006
 -9.782090132280175E-006
 -1.034417594378652E-005
 -1.092990607101541E-005
 -1.153817717799729E-005
 -1.216910582962259E-005
 -1.283339541348266E-005
 -2.155047438878802E-005
 -2.027177110563453E-005
 -2.031940867819511E-005
 -1.898637042920252E-005
 -1.798171697000207E-005
 -1.688627755475803E-005
 -1.575847796377355E-005
 -1.463393883282698E-005
 -1.353361282879113E-005
 -1.247481229303971E-005
 -1.145833075657023E-005
 -1.048934489302341E-005
 -9.570127579628860E-006
 -8.700743250149552E-006
 -7.881395649552987E-006
 -7.110900203012478E-006
 -6.388193686760460E-006
 -5.712103693519614E-006
 -5.081434403564497E-006
 -4.495004634321262E-006
 -3.951711876098440E-006
 -3.450602227534247E-006
 -2.990880316265565E-006
 -2.571864938007503E-006
 -2.192979615577205E-006
 -1.853503429887718E-006
 -1.553321693791359E-006
 -1.292553583163414E-006
 -1.071131288962646E-006
 -8.889958438088963E-007
 -7.466733909331366E-007
 -6.444991024470998E-007
 -5.832428168538520E-007
 -5.639276240273838E-007
 -5.876396376955784E-007
 -6.553675542833005E-007
 -7.687713535606365E-007
 -9.306124126017247E-007
 -1.143083114774300E-006
 -1.408521605343925E-006
 -1.729338817782594E-006
 -2.107676277797343E-006
 -2.544884175655755E-006
 -3.040379741643522E-006
 -3.593663826707044E-006
 -4.204301601007481E-006
 -4.866877132673775E-006
 -5.567840997212511E-006
 -6.291939906929894E-006
 -7.009116215251366E-006
 -2.818149687282585E-005
 -2.703958376746153E-005
 -2.063013015184194E-005
 -1.978694870837376E-005
 -1.777868413290739E-005
 -1.593300206668806E-005
 -1.422961951860932E-005
 -1.265959759426191E-005
 -1.120258444184142E-005
 -9.822267496375685E-006
 -8.536284302668134E-006
 -7.335327987640158E-006
 -6.211854446484233E-006
 -5.161101132561481E-006
 -4.176608305808281E-006
 -3.256188871901226E-006
 -2.395900606090097E-006
 -1.592088846735713E-006
 -8.415414300920741E-007
 -1.416948674787362E-007
  5.094682518924459E-007
  1.113905931783931E-006
  1.673273125151954E-006
  2.188969899261338E-006
  2.662179453032413E-006
  3.093902641480347E-006
  3.484802184573626E-006
  3.835360441733488E-006
  4.145864556990437E-006
  4.416762450153322E-006
  4.647905996502834E-006
  4.838796253926566E-006
  4.989132249951531E-006
  5.098277606229895E-006
  5.164906001569508E-006
  5.187885445518919E-006
  5.165679437560029E-006
  5.096087475190745E-006
  4.975872221760804E-006
  4.801214197182716E-006
  4.567884713133836E-006
  4.270691064585256E-006
  3.903314058291220E-006
  3.458841671953975E-006
  2.930258824052668E-006
  2.308793525167917E-006
  1.584239004816063E-006
  7.429873319116008E-007
 -2.191337418558261E-007
 -1.307976140108044E-006
 -3.729178298567561E-005
 -3.421039547803144E-005
 -2.862251200474525E-005
 -1.552544305372576E-005
 -1.388038184340415E-005
 -1.209860717774960E-005
 -1.030923764860972E-005
 -8.622311586810313E-006
 -7.046929607373643E-006
 -5.569412359711669E-006
 -4.148370930755705E-006
 -2.809271451095422E-006
 -1.568531693139229E-006
 -4.147750237298793E-007
  6.615733158401090E-007
  1.666601206311438E-006
  2.606670158093582E-006
  3.484670105014302E-006
  4.304141962443877E-006
  5.068522289062364E-006
  5.780582587912509E-006
  6.442664281247944E-006
  7.056931600850497E-006
  7.625056496812085E-006
  8.148471415921518E-006
  8.628360170864121E-006
  9.065793915213995E-006
  9.461660315342833E-006
  9.816544680320782E-006
  1.013083619592578E-005
  1.040474549834632E-005
  1.063810959772498E-005
  1.083068699745576E-005
  1.098201327276161E-005
  1.109134069638312E-005
  1.115766578840227E-005
  1.118038551969547E-005
  1.115704808561792E-005
  1.108530796237002E-005
  1.096196652807554E-005
  1.078257815674434E-005
  1.054198616349270E-005
  1.023345899036461E-005
  9.848174327362141E-006
  9.374288570113116E-006
  8.797027424288296E-006
  8.102097254416820E-006
  7.247825913910791E-006
  6.193452619626062E-006
  4.891429484373526E-006
SCALARS elementIsPlast double 
LOOKUP_TABLE default
  0.000000000000000E+000
  0.000000000000000E+000
  0.000000000000000E+000
  0.000000000000000E+000
  0.000000000000000E+000
  0.000000000000000E+000
  0.000000000000000E+000
  0.000000000000000E+000
  0.000000000000000E+000
  0.000000000000000E+000
  0.000000000000000E+000
  0.000000000000000E+000
  0.000000000000000E+000
  0.000000000000000E+000
  0.000000000000000E+000
  0.000000000000000E+000
  0.000000000000000E+000
  0.000000000000000E+000
  0.000000000000000E+000
  0.000000000000000E+000
  0.000000000000000E+000
  0.000000000000000E+000
  0.000000000000000E+000
  0.000000000000000E+000
  0.000000000000000E+000
  0.000000000000000E+000
  0.000000000000000E+000
  0.000000000000000E+000
  0.000000000000000E+000
  0.000000000000000E+000
  0.000000000000000E+000
  0.000000000000000E+000
  0.000000000000000E+000
  0.000000000000000E+000
  0.000000000000000E+000
  0.000000000000000E+000
  0.000000000000000E+000
  0.000000000000000E+000
  0.000000000000000E+000
  0.000000000000000E+000
  0.000000000000000E+000
  0.000000000000000E+000
  0.000000000000000E+000
  0.000000000000000E+000
  0.000000000000000E+000
  0.000000000000000E+000
  0.000000000000000E+000
  0.000000000000000E+000
  0.000000000000000E+000
  0.000000000000000E+000
  0.000000000000000E+000
  0.000000000000000E+000
  0.000000000000000E+000
  0.000000000000000E+000
  0.000000000000000E+000
  0.000000000000000E+000
  0.000000000000000E+000
  0.000000000000000E+000
  0.000000000000000E+000
  0.000000000000000E+000
  0.000000000000000E+000
  0.000000000000000E+000
  0.000000000000000E+000
  0.000000000000000E+000
  0.000000000000000E+000
  0.000000000000000E+000
  0.000000000000000E+000
  0.000000000000000E+000
  0.000000000000000E+000
  0.000000000000000E+000
  0.000000000000000E+000
  0.000000000000000E+000
  0.000000000000000E+000
  0.000000000000000E+000
  0.000000000000000E+000
  0.000000000000000E+000
  0.000000000000000E+000
  0.000000000000000E+000
  0.000000000000000E+000
  0.000000000000000E+000
  0.000000000000000E+000
  0.000000000000000E+000
  0.000000000000000E+000
  0.000000000000000E+000
  0.000000000000000E+000
  0.000000000000000E+000
  0.000000000000000E+000
  0.000000000000000E+000
  0.000000000000000E+000
  0.000000000000000E+000
  0.000000000000000E+000
  0.000000000000000E+000
  0.000000000000000E+000
  0.000000000000000E+000
  0.000000000000000E+000
  0.000000000000000E+000
  0.000000000000000E+000
  0.000000000000000E+000
  0.000000000000000E+000
  0.000000000000000E+000
  0.000000000000000E+000
  0.000000000000000E+000
  0.000000000000000E+000
  0.000000000000000E+000
  0.000000000000000E+000
  0.000000000000000E+000
  0.000000000000000E+000
  0.000000000000000E+000
  0.000000000000000E+000
  0.000000000000000E+000
  0.000000000000000E+000
  0.000000000000000E+000
  0.000000000000000E+000
  0.000000000000000E+000
  0.000000000000000E+000
  0.000000000000000E+000
  0.000000000000000E+000
  0.000000000000000E+000
  0.000000000000000E+000
  0.000000000000000E+000
  0.000000000000000E+000
  0.000000000000000E+000
  0.000000000000000E+000
  0.000000000000000E+000
  0.000000000000000E+000
  0.000000000000000E+000
  0.000000000000000E+000
  0.000000000000000E+000
  0.000000000000000E+000
  0.000000000000000E+000
  0.000000000000000E+000
  0.000000000000000E+000
  0.000000000000000E+000
  0.000000000000000E+000
  0.000000000000000E+000
  0.000000000000000E+000
  0.000000000000000E+000
  0.000000000000000E+000
  0.000000000000000E+000
  0.000000000000000E+000
  0.000000000000000E+000
  0.000000000000000E+000
  0.000000000000000E+000
  0.000000000000000E+000
  0.000000000000000E+000
  0.000000000000000E+000
  0.000000000000000E+000
  0.000000000000000E+000
  0.000000000000000E+000
  0.000000000000000E+000
  0.000000000000000E+000
  0.000000000000000E+000
  0.000000000000000E+000
  0.000000000000000E+000
  0.000000000000000E+000
  0.000000000000000E+000
  0.000000000000000E+000
  0.000000000000000E+000
  0.000000000000000E+000
  0.000000000000000E+000
  0.000000000000000E+000
  0.000000000000000E+000
  0.000000000000000E+000
  0.000000000000000E+000
  0.000000000000000E+000
  0.000000000000000E+000
  0.000000000000000E+000
  0.000000000000000E+000
  0.000000000000000E+000
  0.000000000000000E+000
  0.000000000000000E+000
  0.000000000000000E+000
  0.000000000000000E+000
  0.000000000000000E+000
  0.000000000000000E+000
  0.000000000000000E+000
  0.000000000000000E+000
  0.000000000000000E+000
  0.000000000000000E+000
  0.000000000000000E+000
  0.000000000000000E+000
  0.000000000000000E+000
  0.000000000000000E+000
  0.000000000000000E+000
  0.000000000000000E+000
  0.000000000000000E+000
  0.000000000000000E+000
  0.000000000000000E+000
  0.000000000000000E+000
  0.000000000000000E+000
  0.000000000000000E+000
  0.000000000000000E+000
  0.000000000000000E+000
  0.000000000000000E+000
  0.000000000000000E+000
  0.000000000000000E+000
  0.000000000000000E+000
  0.000000000000000E+000
  0.000000000000000E+000
  0.000000000000000E+000
  0.000000000000000E+000
  0.000000000000000E+000
  0.000000000000000E+000
  0.000000000000000E+000
  0.000000000000000E+000
  0.000000000000000E+000
  0.000000000000000E+000
  0.000000000000000E+000
  0.000000000000000E+000
  0.000000000000000E+000
  0.000000000000000E+000
  0.000000000000000E+000
  0.000000000000000E+000
  0.000000000000000E+000
  0.000000000000000E+000
  0.000000000000000E+000
  0.000000000000000E+000
  0.000000000000000E+000
  0.000000000000000E+000
  0.000000000000000E+000
  0.000000000000000E+000
  0.000000000000000E+000
  0.000000000000000E+000
  0.000000000000000E+000
  0.000000000000000E+000
  0.000000000000000E+000
  0.000000000000000E+000
  0.000000000000000E+000
  0.000000000000000E+000
  0.000000000000000E+000
  0.000000000000000E+000
  0.000000000000000E+000
  0.000000000000000E+000
  0.000000000000000E+000
  0.000000000000000E+000
  0.000000000000000E+000
  0.000000000000000E+000
  0.000000000000000E+000
  0.000000000000000E+000
  0.000000000000000E+000
  0.000000000000000E+000
  0.000000000000000E+000
  0.000000000000000E+000
  0.000000000000000E+000
  0.000000000000000E+000
  0.000000000000000E+000
  0.000000000000000E+000
  0.000000000000000E+000
  0.000000000000000E+000
  0.000000000000000E+000
  0.000000000000000E+000
  0.000000000000000E+000
  0.000000000000000E+000
  0.000000000000000E+000
  0.000000000000000E+000
  0.000000000000000E+000
  0.000000000000000E+000
  0.000000000000000E+000
  0.000000000000000E+000
  0.000000000000000E+000
  0.000000000000000E+000
  0.000000000000000E+000
  0.000000000000000E+000
  0.000000000000000E+000
  0.000000000000000E+000
  0.000000000000000E+000
  0.000000000000000E+000
  0.000000000000000E+000
  0.000000000000000E+000
  0.000000000000000E+000
  0.000000000000000E+000
  0.000000000000000E+000
  0.000000000000000E+000
  0.000000000000000E+000
  0.000000000000000E+000
  0.000000000000000E+000
  0.000000000000000E+000
  0.000000000000000E+000
  0.000000000000000E+000
  0.000000000000000E+000
  0.000000000000000E+000
  0.000000000000000E+000
  0.000000000000000E+000
  0.000000000000000E+000
  0.000000000000000E+000
  0.000000000000000E+000
  0.000000000000000E+000
  0.000000000000000E+000
  0.000000000000000E+000
  0.000000000000000E+000
  0.000000000000000E+000
  0.000000000000000E+000
  0.000000000000000E+000
  0.000000000000000E+000
  0.000000000000000E+000
  0.000000000000000E+000
  0.000000000000000E+000
  0.000000000000000E+000
  0.000000000000000E+000
  0.000000000000000E+000
  0.000000000000000E+000
  0.000000000000000E+000
  0.000000000000000E+000
  0.000000000000000E+000
  0.000000000000000E+000
  0.000000000000000E+000
  0.000000000000000E+000
  0.000000000000000E+000
  0.000000000000000E+000
  0.000000000000000E+000
  0.000000000000000E+000
  0.000000000000000E+000
  0.000000000000000E+000
  0.000000000000000E+000
  0.000000000000000E+000
  0.000000000000000E+000
  0.000000000000000E+000
  0.000000000000000E+000
  0.000000000000000E+000
  0.000000000000000E+000
  0.000000000000000E+000
  0.000000000000000E+000
  0.000000000000000E+000
  0.000000000000000E+000
  0.000000000000000E+000
  0.000000000000000E+000
  0.000000000000000E+000
  0.000000000000000E+000
  0.000000000000000E+000
  0.000000000000000E+000
  0.000000000000000E+000
  0.000000000000000E+000
  0.000000000000000E+000
  0.000000000000000E+000
  0.000000000000000E+000
  0.000000000000000E+000
  0.000000000000000E+000
  0.000000000000000E+000
  0.000000000000000E+000
  0.000000000000000E+000
  0.000000000000000E+000
  0.000000000000000E+000
  0.000000000000000E+000
  0.000000000000000E+000
  0.000000000000000E+000
  0.000000000000000E+000
  0.000000000000000E+000
  0.000000000000000E+000
  0.000000000000000E+000
  0.000000000000000E+000
  0.000000000000000E+000
  0.000000000000000E+000
  0.000000000000000E+000
  0.000000000000000E+000
  0.000000000000000E+000
  0.000000000000000E+000
  0.000000000000000E+000
  0.000000000000000E+000
  0.000000000000000E+000
  0.000000000000000E+000
  0.000000000000000E+000
  0.000000000000000E+000
  0.000000000000000E+000
  0.000000000000000E+000
  0.000000000000000E+000
  0.000000000000000E+000
  0.000000000000000E+000
  0.000000000000000E+000
  0.000000000000000E+000
  0.000000000000000E+000
  0.000000000000000E+000
  0.000000000000000E+000
  0.000000000000000E+000
  0.000000000000000E+000
  0.000000000000000E+000
  0.000000000000000E+000
  0.000000000000000E+000
  0.000000000000000E+000
  0.000000000000000E+000
  0.000000000000000E+000
  0.000000000000000E+000
  0.000000000000000E+000
  0.000000000000000E+000
  0.000000000000000E+000
  0.000000000000000E+000
  0.000000000000000E+000
  0.000000000000000E+000
  0.000000000000000E+000
  0.000000000000000E+000
  0.000000000000000E+000
  0.000000000000000E+000
  0.000000000000000E+000
  0.000000000000000E+000
  0.000000000000000E+000
  0.000000000000000E+000
  0.000000000000000E+000
  0.000000000000000E+000
  0.000000000000000E+000
  0.000000000000000E+000
  0.000000000000000E+000
  0.000000000000000E+000
  0.000000000000000E+000
  0.000000000000000E+000
  0.000000000000000E+000
  0.000000000000000E+000
  0.000000000000000E+000
  0.000000000000000E+000
  0.000000000000000E+000
  0.000000000000000E+000
  0.000000000000000E+000
  0.000000000000000E+000
  0.000000000000000E+000
  0.000000000000000E+000
  0.000000000000000E+000
  0.000000000000000E+000
  0.000000000000000E+000
  0.000000000000000E+000
  0.000000000000000E+000
  0.000000000000000E+000
  0.000000000000000E+000
  0.000000000000000E+000
  0.000000000000000E+000
  0.000000000000000E+000
  0.000000000000000E+000
  0.000000000000000E+000
  0.000000000000000E+000
  0.000000000000000E+000
  0.000000000000000E+000
  0.000000000000000E+000
  0.000000000000000E+000
  0.000000000000000E+000
  0.000000000000000E+000
  0.000000000000000E+000
  0.000000000000000E+000
  0.000000000000000E+000
  0.000000000000000E+000
  0.000000000000000E+000
  0.000000000000000E+000
  0.000000000000000E+000
  0.000000000000000E+000
  0.000000000000000E+000
  0.000000000000000E+000
  0.000000000000000E+000
  0.000000000000000E+000
  0.000000000000000E+000
  0.000000000000000E+000
  0.000000000000000E+000
  0.000000000000000E+000
  0.000000000000000E+000
  0.000000000000000E+000
  0.000000000000000E+000
  0.000000000000000E+000
  0.000000000000000E+000
  0.000000000000000E+000
  0.000000000000000E+000
  0.000000000000000E+000
  0.000000000000000E+000
  0.000000000000000E+000
  0.000000000000000E+000
  0.000000000000000E+000
  0.000000000000000E+000
  0.000000000000000E+000
  0.000000000000000E+000
  0.000000000000000E+000
  0.000000000000000E+000
  0.000000000000000E+000
  0.000000000000000E+000
  0.000000000000000E+000
  0.000000000000000E+000
  0.000000000000000E+000
  0.000000000000000E+000
  0.000000000000000E+000
  0.000000000000000E+000
  0.000000000000000E+000
  0.000000000000000E+000
  0.000000000000000E+000
  0.000000000000000E+000
  0.000000000000000E+000
  0.000000000000000E+000
  0.000000000000000E+000
  0.000000000000000E+000
  0.000000000000000E+000
  0.000000000000000E+000
  0.000000000000000E+000
  0.000000000000000E+000
  0.000000000000000E+000
  0.000000000000000E+000
  0.000000000000000E+000
  0.000000000000000E+000
  0.000000000000000E+000
  0.000000000000000E+000
  0.000000000000000E+000
  0.000000000000000E+000
  0.000000000000000E+000
  0.000000000000000E+000
  0.000000000000000E+000
  0.000000000000000E+000
  0.000000000000000E+000
  0.000000000000000E+000
  0.000000000000000E+000
  0.000000000000000E+000
  0.000000000000000E+000
  0.000000000000000E+000
  0.000000000000000E+000
  0.000000000000000E+000
  0.000000000000000E+000
  0.000000000000000E+000
  0.000000000000000E+000
  0.000000000000000E+000
  0.000000000000000E+000
  0.000000000000000E+000
  0.000000000000000E+000
  0.000000000000000E+000
  0.000000000000000E+000
  0.000000000000000E+000
  0.000000000000000E+000
  0.000000000000000E+000
  0.000000000000000E+000
  0.000000000000000E+000
  0.000000000000000E+000
  0.000000000000000E+000
  0.000000000000000E+000
  0.000000000000000E+000
  0.000000000000000E+000
  0.000000000000000E+000
  0.000000000000000E+000
  0.000000000000000E+000
  0.000000000000000E+000
  0.000000000000000E+000
  0.000000000000000E+000
  0.000000000000000E+000
  0.000000000000000E+000
  0.000000000000000E+000
  0.000000000000000E+000
  0.000000000000000E+000
  0.000000000000000E+000
  0.000000000000000E+000
  0.000000000000000E+000
  0.000000000000000E+000
  0.000000000000000E+000
  0.000000000000000E+000
  0.000000000000000E+000
  0.000000000000000E+000
  0.000000000000000E+000
  0.000000000000000E+000
  0.000000000000000E+000
  0.000000000000000E+000
  0.000000000000000E+000
  0.000000000000000E+000
  0.000000000000000E+000
  0.000000000000000E+000
  0.000000000000000E+000
  0.000000000000000E+000
  0.000000000000000E+000
  0.000000000000000E+000
  0.000000000000000E+000
  0.000000000000000E+000
  0.000000000000000E+000
  0.000000000000000E+000
  0.000000000000000E+000
  0.000000000000000E+000
  0.000000000000000E+000
  0.000000000000000E+000
  0.000000000000000E+000
  0.000000000000000E+000
  0.000000000000000E+000
  0.000000000000000E+000
  0.000000000000000E+000
  0.000000000000000E+000
  0.000000000000000E+000
  0.000000000000000E+000
  0.000000000000000E+000
  0.000000000000000E+000
  0.000000000000000E+000
  0.000000000000000E+000
  0.000000000000000E+000
  0.000000000000000E+000
  0.000000000000000E+000
  0.000000000000000E+000
  0.000000000000000E+000
  0.000000000000000E+000
  0.000000000000000E+000
  0.000000000000000E+000
  0.000000000000000E+000
  0.000000000000000E+000
  0.000000000000000E+000
  0.000000000000000E+000
  0.000000000000000E+000
  0.000000000000000E+000
  0.000000000000000E+000
  0.000000000000000E+000
  0.000000000000000E+000
  0.000000000000000E+000
  0.000000000000000E+000
  0.000000000000000E+000
  0.000000000000000E+000
  0.000000000000000E+000
  0.000000000000000E+000
  0.000000000000000E+000
  0.000000000000000E+000
  0.000000000000000E+000
  0.000000000000000E+000
  0.000000000000000E+000
  0.000000000000000E+000
  0.000000000000000E+000
  0.000000000000000E+000
  0.000000000000000E+000
  0.000000000000000E+000
  0.000000000000000E+000
  0.000000000000000E+000
  0.000000000000000E+000
  0.000000000000000E+000
  0.000000000000000E+000
  0.000000000000000E+000
  0.000000000000000E+000
  0.000000000000000E+000
  0.000000000000000E+000
  0.000000000000000E+000
  0.000000000000000E+000
  0.000000000000000E+000
  0.000000000000000E+000
  0.000000000000000E+000
  0.000000000000000E+000
  0.000000000000000E+000
  0.000000000000000E+000
  0.000000000000000E+000
  0.000000000000000E+000
  0.000000000000000E+000
  0.000000000000000E+000
  0.000000000000000E+000
  0.000000000000000E+000
  0.000000000000000E+000
  0.000000000000000E+000
  0.000000000000000E+000
  0.000000000000000E+000
  0.000000000000000E+000
  0.000000000000000E+000
  0.000000000000000E+000
  0.000000000000000E+000
  0.000000000000000E+000
  0.000000000000000E+000
  0.000000000000000E+000
  0.000000000000000E+000
  0.000000000000000E+000
  0.000000000000000E+000
  0.000000000000000E+000
  0.000000000000000E+000
  0.000000000000000E+000
  0.000000000000000E+000
  0.000000000000000E+000
  0.000000000000000E+000
  0.000000000000000E+000
  0.000000000000000E+000
  0.000000000000000E+000
  0.000000000000000E+000
  0.000000000000000E+000
  0.000000000000000E+000
  0.000000000000000E+000
  0.000000000000000E+000
  0.000000000000000E+000
  0.000000000000000E+000
  0.000000000000000E+000
  0.000000000000000E+000
  0.000000000000000E+000
  0.000000000000000E+000
  0.000000000000000E+000
  0.000000000000000E+000
  0.000000000000000E+000
  0.000000000000000E+000
  0.000000000000000E+000
  0.000000000000000E+000
  0.000000000000000E+000
  0.000000000000000E+000
  0.000000000000000E+000
  0.000000000000000E+000
  0.000000000000000E+000
  0.000000000000000E+000
  0.000000000000000E+000
  0.000000000000000E+000
  0.000000000000000E+000
  0.000000000000000E+000
  0.000000000000000E+000
  0.000000000000000E+000
  0.000000000000000E+000
  0.000000000000000E+000
  0.000000000000000E+000
  0.000000000000000E+000
  0.000000000000000E+000
  0.000000000000000E+000
  0.000000000000000E+000
  0.000000000000000E+000
  0.000000000000000E+000
  0.000000000000000E+000
  0.000000000000000E+000
  0.000000000000000E+000
  0.000000000000000E+000
  0.000000000000000E+000
  0.000000000000000E+000
  0.000000000000000E+000
  0.000000000000000E+000
  0.000000000000000E+000
  0.000000000000000E+000
  0.000000000000000E+000
  0.000000000000000E+000
  0.000000000000000E+000
  0.000000000000000E+000
  0.000000000000000E+000
  0.000000000000000E+000
  0.000000000000000E+000
  0.000000000000000E+000
  0.000000000000000E+000
  0.000000000000000E+000
  0.000000000000000E+000
  0.000000000000000E+000
  0.000000000000000E+000
  0.000000000000000E+000
  0.000000000000000E+000
  0.000000000000000E+000
  0.000000000000000E+000
  0.000000000000000E+000
  0.000000000000000E+000
  0.000000000000000E+000
  0.000000000000000E+000
  0.000000000000000E+000
  0.000000000000000E+000
  0.000000000000000E+000
  0.000000000000000E+000
  0.000000000000000E+000
  0.000000000000000E+000
  0.000000000000000E+000
  0.000000000000000E+000
  0.000000000000000E+000
  0.000000000000000E+000
  0.000000000000000E+000
  0.000000000000000E+000
  0.000000000000000E+000
  0.000000000000000E+000
  0.000000000000000E+000
  0.000000000000000E+000
  0.000000000000000E+000
  0.000000000000000E+000
  0.000000000000000E+000
  0.000000000000000E+000
  0.000000000000000E+000
  0.000000000000000E+000
  0.000000000000000E+000
  0.000000000000000E+000
  0.000000000000000E+000
  0.000000000000000E+000
  0.000000000000000E+000
  0.000000000000000E+000
  0.000000000000000E+000
  0.000000000000000E+000
  0.000000000000000E+000
  0.000000000000000E+000
  0.000000000000000E+000
  0.000000000000000E+000
  0.000000000000000E+000
  0.000000000000000E+000
  0.000000000000000E+000
  0.000000000000000E+000
  0.000000000000000E+000
  0.000000000000000E+000
  0.000000000000000E+000
  0.000000000000000E+000
  0.000000000000000E+000
  0.000000000000000E+000
  0.000000000000000E+000
  0.000000000000000E+000
  0.000000000000000E+000
  0.000000000000000E+000
  0.000000000000000E+000
  0.000000000000000E+000
  0.000000000000000E+000
  0.000000000000000E+000
  0.000000000000000E+000
  0.000000000000000E+000
  0.000000000000000E+000
  0.000000000000000E+000
  0.000000000000000E+000
  0.000000000000000E+000
  0.000000000000000E+000
  0.000000000000000E+000
  0.000000000000000E+000
  0.000000000000000E+000
  0.000000000000000E+000
  0.000000000000000E+000
  0.000000000000000E+000
  0.000000000000000E+000
  0.000000000000000E+000
  0.000000000000000E+000
  0.000000000000000E+000
  0.000000000000000E+000
  0.000000000000000E+000
  0.000000000000000E+000
  0.000000000000000E+000
  0.000000000000000E+000
  0.000000000000000E+000
  0.000000000000000E+000
  0.000000000000000E+000
  0.000000000000000E+000
  0.000000000000000E+000
  0.000000000000000E+000
  0.000000000000000E+000
  0.000000000000000E+000
  0.000000000000000E+000
  0.000000000000000E+000
  0.000000000000000E+000
  0.000000000000000E+000
  0.000000000000000E+000
  0.000000000000000E+000
  0.000000000000000E+000
  0.000000000000000E+000
  0.000000000000000E+000
  0.000000000000000E+000
  0.000000000000000E+000
  0.000000000000000E+000
  0.000000000000000E+000
  0.000000000000000E+000
  0.000000000000000E+000
  0.000000000000000E+000
  0.000000000000000E+000
  0.000000000000000E+000
  0.000000000000000E+000
  0.000000000000000E+000
  0.000000000000000E+000
  0.000000000000000E+000
  0.000000000000000E+000
  0.000000000000000E+000
  0.000000000000000E+000
  0.000000000000000E+000
  0.000000000000000E+000
  0.000000000000000E+000
  0.000000000000000E+000
  0.000000000000000E+000
  0.000000000000000E+000
  0.000000000000000E+000
  0.000000000000000E+000
  0.000000000000000E+000
  0.000000000000000E+000
  0.000000000000000E+000
  0.000000000000000E+000
  0.000000000000000E+000
  0.000000000000000E+000
  0.000000000000000E+000
  0.000000000000000E+000
  0.000000000000000E+000
  0.000000000000000E+000
  0.000000000000000E+000
  0.000000000000000E+000
  0.000000000000000E+000
  0.000000000000000E+000
  0.000000000000000E+000
  0.000000000000000E+000
  0.000000000000000E+000
  0.000000000000000E+000
  0.000000000000000E+000
  0.000000000000000E+000
  0.000000000000000E+000
  0.000000000000000E+000
  0.000000000000000E+000
  0.000000000000000E+000
  0.000000000000000E+000
  0.000000000000000E+000
  0.000000000000000E+000
  0.000000000000000E+000
  0.000000000000000E+000
  0.000000000000000E+000
  0.000000000000000E+000
  0.000000000000000E+000
  0.000000000000000E+000
  0.000000000000000E+000
  0.000000000000000E+000
  0.000000000000000E+000
  0.000000000000000E+000
  0.000000000000000E+000
  0.000000000000000E+000
  0.000000000000000E+000
  0.000000000000000E+000
  0.000000000000000E+000
  0.000000000000000E+000
  0.000000000000000E+000
  0.000000000000000E+000
  0.000000000000000E+000
  0.000000000000000E+000
  0.000000000000000E+000
  0.000000000000000E+000
  0.000000000000000E+000
  0.000000000000000E+000
  0.000000000000000E+000
  0.000000000000000E+000
  0.000000000000000E+000
  0.000000000000000E+000
  0.000000000000000E+000
  0.000000000000000E+000
  0.000000000000000E+000
  0.000000000000000E+000
  0.000000000000000E+000
  0.000000000000000E+000
  0.000000000000000E+000
  0.000000000000000E+000
  0.000000000000000E+000
  0.000000000000000E+000
  0.000000000000000E+000
  0.000000000000000E+000
  0.000000000000000E+000
  0.000000000000000E+000
  0.000000000000000E+000
  0.000000000000000E+000
  0.000000000000000E+000
  0.000000000000000E+000
  0.000000000000000E+000
  0.000000000000000E+000
  0.000000000000000E+000
  0.000000000000000E+000
  0.000000000000000E+000
  0.000000000000000E+000
  0.000000000000000E+000
  0.000000000000000E+000
  0.000000000000000E+000
  0.000000000000000E+000
  0.000000000000000E+000
  0.000000000000000E+000
  0.000000000000000E+000
  0.000000000000000E+000
  0.000000000000000E+000
  0.000000000000000E+000
  0.000000000000000E+000
  0.000000000000000E+000
  0.000000000000000E+000
  0.000000000000000E+000
  0.000000000000000E+000
  0.000000000000000E+000
  0.000000000000000E+000
  0.000000000000000E+000
  0.000000000000000E+000
  0.000000000000000E+000
  0.000000000000000E+000
  0.000000000000000E+000
  0.000000000000000E+000
  0.000000000000000E+000
  0.000000000000000E+000
  0.000000000000000E+000
  0.000000000000000E+000
  0.000000000000000E+000
  0.000000000000000E+000
  0.000000000000000E+000
  0.000000000000000E+000
  0.000000000000000E+000
  0.000000000000000E+000
  0.000000000000000E+000
  0.000000000000000E+000
  0.000000000000000E+000
  0.000000000000000E+000
  0.000000000000000E+000
  0.000000000000000E+000
  0.000000000000000E+000
  0.000000000000000E+000
  0.000000000000000E+000
  0.000000000000000E+000
  0.000000000000000E+000
  0.000000000000000E+000
  0.000000000000000E+000
  0.000000000000000E+000
  0.000000000000000E+000
  0.000000000000000E+000
  0.000000000000000E+000
  0.000000000000000E+000
  0.000000000000000E+000
  0.000000000000000E+000
  0.000000000000000E+000
  0.000000000000000E+000
  0.000000000000000E+000
  0.000000000000000E+000
  0.000000000000000E+000
  0.000000000000000E+000
  0.000000000000000E+000
  0.000000000000000E+000
  0.000000000000000E+000
  0.000000000000000E+000
  0.000000000000000E+000
  0.000000000000000E+000
  0.000000000000000E+000
  0.000000000000000E+000
  0.000000000000000E+000
  0.000000000000000E+000
  0.000000000000000E+000
  0.000000000000000E+000
  0.000000000000000E+000
  0.000000000000000E+000
  0.000000000000000E+000
  0.000000000000000E+000
  0.000000000000000E+000
  0.000000000000000E+000
  0.000000000000000E+000
  0.000000000000000E+000
  0.000000000000000E+000
  0.000000000000000E+000
  0.000000000000000E+000
  0.000000000000000E+000
  0.000000000000000E+000
  0.000000000000000E+000
  0.000000000000000E+000
  0.000000000000000E+000
  0.000000000000000E+000
  0.000000000000000E+000
  0.000000000000000E+000
  0.000000000000000E+000
  0.000000000000000E+000
  0.000000000000000E+000
  0.000000000000000E+000
  0.000000000000000E+000
  0.000000000000000E+000
  0.000000000000000E+000
  0.000000000000000E+000
  0.000000000000000E+000
  0.000000000000000E+000
  0.000000000000000E+000
  0.000000000000000E+000
  0.000000000000000E+000
  0.000000000000000E+000
  0.000000000000000E+000
  0.000000000000000E+000
  0.000000000000000E+000
  0.000000000000000E+000
  0.000000000000000E+000
  0.000000000000000E+000
  0.000000000000000E+000
  0.000000000000000E+000
  0.000000000000000E+000
  0.000000000000000E+000
  0.000000000000000E+000
  0.000000000000000E+000
  0.000000000000000E+000
  0.000000000000000E+000
  0.000000000000000E+000
  0.000000000000000E+000
  0.000000000000000E+000
  0.000000000000000E+000
  0.000000000000000E+000
  0.000000000000000E+000
  0.000000000000000E+000
  0.000000000000000E+000
  0.000000000000000E+000
  0.000000000000000E+000
  0.000000000000000E+000
  0.000000000000000E+000
  0.000000000000000E+000
  0.000000000000000E+000
  0.000000000000000E+000
  0.000000000000000E+000
  0.000000000000000E+000
  0.000000000000000E+000
  0.000000000000000E+000
  0.000000000000000E+000
  0.000000000000000E+000
  0.000000000000000E+000
  0.000000000000000E+000
  0.000000000000000E+000
  0.000000000000000E+000
  0.000000000000000E+000
  0.000000000000000E+000
  0.000000000000000E+000
  0.000000000000000E+000
  0.000000000000000E+000
  0.000000000000000E+000
  0.000000000000000E+000
  0.000000000000000E+000
  0.000000000000000E+000
  0.000000000000000E+000
  0.000000000000000E+000
  0.000000000000000E+000
  0.000000000000000E+000
  0.000000000000000E+000
  0.000000000000000E+000
  0.000000000000000E+000
  0.000000000000000E+000
  0.000000000000000E+000
  0.000000000000000E+000
  0.000000000000000E+000
  0.000000000000000E+000
  0.000000000000000E+000
  0.000000000000000E+000
  0.000000000000000E+000
  0.000000000000000E+000
  0.000000000000000E+000
  0.000000000000000E+000
  0.000000000000000E+000
  0.000000000000000E+000
  0.000000000000000E+000
  0.000000000000000E+000
  0.000000000000000E+000
  0.000000000000000E+000
  0.000000000000000E+000
  0.000000000000000E+000
  0.000000000000000E+000
  0.000000000000000E+000
  0.000000000000000E+000
  0.000000000000000E+000
  0.000000000000000E+000
  0.000000000000000E+000
  0.000000000000000E+000
  0.000000000000000E+000
  0.000000000000000E+000
  0.000000000000000E+000
  0.000000000000000E+000
  0.000000000000000E+000
  0.000000000000000E+000
  0.000000000000000E+000
  0.000000000000000E+000
  0.000000000000000E+000
  0.000000000000000E+000
  0.000000000000000E+000
  0.000000000000000E+000
  0.000000000000000E+000
  0.000000000000000E+000
  0.000000000000000E+000
  0.000000000000000E+000
  0.000000000000000E+000
  0.000000000000000E+000
  0.000000000000000E+000
  0.000000000000000E+000
  0.000000000000000E+000
  0.000000000000000E+000
  0.000000000000000E+000
  0.000000000000000E+000
  0.000000000000000E+000
  0.000000000000000E+000
  0.000000000000000E+000
  0.000000000000000E+000
  0.000000000000000E+000
  0.000000000000000E+000
  0.000000000000000E+000
  0.000000000000000E+000
  0.000000000000000E+000
  0.000000000000000E+000
  0.000000000000000E+000
  0.000000000000000E+000
  0.000000000000000E+000
  0.000000000000000E+000
  0.000000000000000E+000
  0.000000000000000E+000
  0.000000000000000E+000
  0.000000000000000E+000
  0.000000000000000E+000
  0.000000000000000E+000
  0.000000000000000E+000
  0.000000000000000E+000
  0.000000000000000E+000
  0.000000000000000E+000
  0.000000000000000E+000
  0.000000000000000E+000
  0.000000000000000E+000
  0.000000000000000E+000
  0.000000000000000E+000
  0.000000000000000E+000
  0.000000000000000E+000
  0.000000000000000E+000
  0.000000000000000E+000
  0.000000000000000E+000
  0.000000000000000E+000
  0.000000000000000E+000
  0.000000000000000E+000
  0.000000000000000E+000
  0.000000000000000E+000
  0.000000000000000E+000
  0.000000000000000E+000
  0.000000000000000E+000
  0.000000000000000E+000
  0.000000000000000E+000
  0.000000000000000E+000
  0.000000000000000E+000
  0.000000000000000E+000
  0.000000000000000E+000
  0.000000000000000E+000
  0.000000000000000E+000
  0.000000000000000E+000
  0.000000000000000E+000
  0.000000000000000E+000
  0.000000000000000E+000
  0.000000000000000E+000
  0.000000000000000E+000
  0.000000000000000E+000
  0.000000000000000E+000
  0.000000000000000E+000
  0.000000000000000E+000
  0.000000000000000E+000
  0.000000000000000E+000
  0.000000000000000E+000
  0.000000000000000E+000
  0.000000000000000E+000
  0.000000000000000E+000
  0.000000000000000E+000
  0.000000000000000E+000
  0.000000000000000E+000
  0.000000000000000E+000
  0.000000000000000E+000
  0.000000000000000E+000
  0.000000000000000E+000
  0.000000000000000E+000
  0.000000000000000E+000
  0.000000000000000E+000
  0.000000000000000E+000
  0.000000000000000E+000
  0.000000000000000E+000
  0.000000000000000E+000
  0.000000000000000E+000
  0.000000000000000E+000
  0.000000000000000E+000
  0.000000000000000E+000
  0.000000000000000E+000
  0.000000000000000E+000
  0.000000000000000E+000
  0.000000000000000E+000
  0.000000000000000E+000
  0.000000000000000E+000
  0.000000000000000E+000
  0.000000000000000E+000
  0.000000000000000E+000
  0.000000000000000E+000
  0.000000000000000E+000
  0.000000000000000E+000
  0.000000000000000E+000
  0.000000000000000E+000
  0.000000000000000E+000
  0.000000000000000E+000
  0.000000000000000E+000
  0.000000000000000E+000
  0.000000000000000E+000
  0.000000000000000E+000
  0.000000000000000E+000
  0.000000000000000E+000
  0.000000000000000E+000
  0.000000000000000E+000
  0.000000000000000E+000
  0.000000000000000E+000
  0.000000000000000E+000
  0.000000000000000E+000
  0.000000000000000E+000
  0.000000000000000E+000
  0.000000000000000E+000
  0.000000000000000E+000
  0.000000000000000E+000
  0.000000000000000E+000
  0.000000000000000E+000
  0.000000000000000E+000
  0.000000000000000E+000
  0.000000000000000E+000
  0.000000000000000E+000
  0.000000000000000E+000
  0.000000000000000E+000
  0.000000000000000E+000
  0.000000000000000E+000
  0.000000000000000E+000
  0.000000000000000E+000
  0.000000000000000E+000
  0.000000000000000E+000
  0.000000000000000E+000
  0.000000000000000E+000
  0.000000000000000E+000
  0.000000000000000E+000
  0.000000000000000E+000
  0.000000000000000E+000
  0.000000000000000E+000
  0.000000000000000E+000
  0.000000000000000E+000
  0.000000000000000E+000
  0.000000000000000E+000
  0.000000000000000E+000
  0.000000000000000E+000
  0.000000000000000E+000
  0.000000000000000E+000
  0.000000000000000E+000
  0.000000000000000E+000
  0.000000000000000E+000
  0.000000000000000E+000
  0.000000000000000E+000
  0.000000000000000E+000
  0.000000000000000E+000
  0.000000000000000E+000
  0.000000000000000E+000
  0.000000000000000E+000
  0.000000000000000E+000
  0.000000000000000E+000
  0.000000000000000E+000
  0.000000000000000E+000
  0.000000000000000E+000
  0.000000000000000E+000
  0.000000000000000E+000
  0.000000000000000E+000
  0.000000000000000E+000
  0.000000000000000E+000
  0.000000000000000E+000
  0.000000000000000E+000
  0.000000000000000E+000
  0.000000000000000E+000
  0.000000000000000E+000
  0.000000000000000E+000
  0.000000000000000E+000
  0.000000000000000E+000
  0.000000000000000E+000
  0.000000000000000E+000
  0.000000000000000E+000
  0.000000000000000E+000
  0.000000000000000E+000
  0.000000000000000E+000
  0.000000000000000E+000
  0.000000000000000E+000
  0.000000000000000E+000
  0.000000000000000E+000
  0.000000000000000E+000
  0.000000000000000E+000
  0.000000000000000E+000
  0.000000000000000E+000
  0.000000000000000E+000
  0.000000000000000E+000
  0.000000000000000E+000
  0.000000000000000E+000
  0.000000000000000E+000
  0.000000000000000E+000
  0.000000000000000E+000
  0.000000000000000E+000
  0.000000000000000E+000
  0.000000000000000E+000
  0.000000000000000E+000
  0.000000000000000E+000
  0.000000000000000E+000
  0.000000000000000E+000
  0.000000000000000E+000
  0.000000000000000E+000
  0.000000000000000E+000
  0.000000000000000E+000
  0.000000000000000E+000
  0.000000000000000E+000
  0.000000000000000E+000
  0.000000000000000E+000
  0.000000000000000E+000
  0.000000000000000E+000
  0.000000000000000E+000
  0.000000000000000E+000
  0.000000000000000E+000
  0.000000000000000E+000
  0.000000000000000E+000
  0.000000000000000E+000
  0.000000000000000E+000
  0.000000000000000E+000
  0.000000000000000E+000
  0.000000000000000E+000
  0.000000000000000E+000
  0.000000000000000E+000
  0.000000000000000E+000
  0.000000000000000E+000
  0.000000000000000E+000
  0.000000000000000E+000
  0.000000000000000E+000
  0.000000000000000E+000
  0.000000000000000E+000
  0.000000000000000E+000
  0.000000000000000E+000
  0.000000000000000E+000
  0.000000000000000E+000
  0.000000000000000E+000
  0.000000000000000E+000
  0.000000000000000E+000
  0.000000000000000E+000
  0.000000000000000E+000
  0.000000000000000E+000
  0.000000000000000E+000
  0.000000000000000E+000
  0.000000000000000E+000
  0.000000000000000E+000
  0.000000000000000E+000
  0.000000000000000E+000
  0.000000000000000E+000
  0.000000000000000E+000
  0.000000000000000E+000
  0.000000000000000E+000
  0.000000000000000E+000
  0.000000000000000E+000
  0.000000000000000E+000
  0.000000000000000E+000
  0.000000000000000E+000
  0.000000000000000E+000
  0.000000000000000E+000
  0.000000000000000E+000
  0.000000000000000E+000
  0.000000000000000E+000
  0.000000000000000E+000
  0.000000000000000E+000
  0.000000000000000E+000
  0.000000000000000E+000
  0.000000000000000E+000
  0.000000000000000E+000
  0.000000000000000E+000
  0.000000000000000E+000
  0.000000000000000E+000
  0.000000000000000E+000
  0.000000000000000E+000
  0.000000000000000E+000
  0.000000000000000E+000
  0.000000000000000E+000
  0.000000000000000E+000
  0.000000000000000E+000
  0.000000000000000E+000
  0.000000000000000E+000
  0.000000000000000E+000
  0.000000000000000E+000
  0.000000000000000E+000
  0.000000000000000E+000
  0.000000000000000E+000
  0.000000000000000E+000
  0.000000000000000E+000
  0.000000000000000E+000
  0.000000000000000E+000
  0.000000000000000E+000
  0.000000000000000E+000
  0.000000000000000E+000
  0.000000000000000E+000
  0.000000000000000E+000
  0.000000000000000E+000
  0.000000000000000E+000
  0.000000000000000E+000
  0.000000000000000E+000
  0.000000000000000E+000
  0.000000000000000E+000
  0.000000000000000E+000
  0.000000000000000E+000
  0.000000000000000E+000
  0.000000000000000E+000
  0.000000000000000E+000
  0.000000000000000E+000
  0.000000000000000E+000
  0.000000000000000E+000
  0.000000000000000E+000
  0.000000000000000E+000
  0.000000000000000E+000
  0.000000000000000E+000
  0.000000000000000E+000
  0.000000000000000E+000
  0.000000000000000E+000
  0.000000000000000E+000
  0.000000000000000E+000
  0.000000000000000E+000
  0.000000000000000E+000
  0.000000000000000E+000
  0.000000000000000E+000
  0.000000000000000E+000
  0.000000000000000E+000
  0.000000000000000E+000
  0.000000000000000E+000
  0.000000000000000E+000
  0.000000000000000E+000
  0.000000000000000E+000
  0.000000000000000E+000
  0.000000000000000E+000
  0.000000000000000E+000
  0.000000000000000E+000
  0.000000000000000E+000
  0.000000000000000E+000
  0.000000000000000E+000
  0.000000000000000E+000
  0.000000000000000E+000
  0.000000000000000E+000
  0.000000000000000E+000
  0.000000000000000E+000
  0.000000000000000E+000
  0.000000000000000E+000
  0.000000000000000E+000
  0.000000000000000E+000
  0.000000000000000E+000
  0.000000000000000E+000
  0.000000000000000E+000
  0.000000000000000E+000
  0.000000000000000E+000
  0.000000000000000E+000
  0.000000000000000E+000
  0.000000000000000E+000
  0.000000000000000E+000
  0.000000000000000E+000
  0.000000000000000E+000
  0.000000000000000E+000
  0.000000000000000E+000
  0.000000000000000E+000
  0.000000000000000E+000
  0.000000000000000E+000
  0.000000000000000E+000
  0.000000000000000E+000
  0.000000000000000E+000
  0.000000000000000E+000
  0.000000000000000E+000
  0.000000000000000E+000
  0.000000000000000E+000
  0.000000000000000E+000
  0.000000000000000E+000
  0.000000000000000E+000
  0.000000000000000E+000
  0.000000000000000E+000
  0.000000000000000E+000
  0.000000000000000E+000
  0.000000000000000E+000
  0.000000000000000E+000
  0.000000000000000E+000
  0.000000000000000E+000
  0.000000000000000E+000
  0.000000000000000E+000
  0.000000000000000E+000
  0.000000000000000E+000
  0.000000000000000E+000
  0.000000000000000E+000
  0.000000000000000E+000
  0.000000000000000E+000
  0.000000000000000E+000
  0.000000000000000E+000
  0.000000000000000E+000
  0.000000000000000E+000
  0.000000000000000E+000
  0.000000000000000E+000
  0.000000000000000E+000
  0.000000000000000E+000
  0.000000000000000E+000
  0.000000000000000E+000
  0.000000000000000E+000
  0.000000000000000E+000
  0.000000000000000E+000
  0.000000000000000E+000
  0.000000000000000E+000
  0.000000000000000E+000
  0.000000000000000E+000
  0.000000000000000E+000
  0.000000000000000E+000
  0.000000000000000E+000
  0.000000000000000E+000
  0.000000000000000E+000
  0.000000000000000E+000
  0.000000000000000E+000
  0.000000000000000E+000
  0.000000000000000E+000
  0.000000000000000E+000
  0.000000000000000E+000
  0.000000000000000E+000
  0.000000000000000E+000
  0.000000000000000E+000
  0.000000000000000E+000
  0.000000000000000E+000
  0.000000000000000E+000
  0.000000000000000E+000
  0.000000000000000E+000
  0.000000000000000E+000
  0.000000000000000E+000
  0.000000000000000E+000
  0.000000000000000E+000
  0.000000000000000E+000
  0.000000000000000E+000
  0.000000000000000E+000
  0.000000000000000E+000
  0.000000000000000E+000
  0.000000000000000E+000
  0.000000000000000E+000
  0.000000000000000E+000
  0.000000000000000E+000
  0.000000000000000E+000
  0.000000000000000E+000
  0.000000000000000E+000
  0.000000000000000E+000
  0.000000000000000E+000
  0.000000000000000E+000
  0.000000000000000E+000
  0.000000000000000E+000
  0.000000000000000E+000
  0.000000000000000E+000
  0.000000000000000E+000
  0.000000000000000E+000
  0.000000000000000E+000
  0.000000000000000E+000
  0.000000000000000E+000
  0.000000000000000E+000
  0.000000000000000E+000
  0.000000000000000E+000
  0.000000000000000E+000
  0.000000000000000E+000
  0.000000000000000E+000
  0.000000000000000E+000
  0.000000000000000E+000
  0.000000000000000E+000
  0.000000000000000E+000
  0.000000000000000E+000
  0.000000000000000E+000
  0.000000000000000E+000
  0.000000000000000E+000
  0.000000000000000E+000
  0.000000000000000E+000
  0.000000000000000E+000
  0.000000000000000E+000
  0.000000000000000E+000
  0.000000000000000E+000
  0.000000000000000E+000
  0.000000000000000E+000
  0.000000000000000E+000
  0.000000000000000E+000
  0.000000000000000E+000
  0.000000000000000E+000
  0.000000000000000E+000
  0.000000000000000E+000
  0.000000000000000E+000
  0.000000000000000E+000
  0.000000000000000E+000
  0.000000000000000E+000
  0.000000000000000E+000
  0.000000000000000E+000
  0.000000000000000E+000
  0.000000000000000E+000
  0.000000000000000E+000
  0.000000000000000E+000
  0.000000000000000E+000
  0.000000000000000E+000
  0.000000000000000E+000
  0.000000000000000E+000
  0.000000000000000E+000
  0.000000000000000E+000
  0.000000000000000E+000
  0.000000000000000E+000
  0.000000000000000E+000
  0.000000000000000E+000
  0.000000000000000E+000
  0.000000000000000E+000
  0.000000000000000E+000
  0.000000000000000E+000
  0.000000000000000E+000
  0.000000000000000E+000
  0.000000000000000E+000
  0.000000000000000E+000
  0.000000000000000E+000
  0.000000000000000E+000
  0.000000000000000E+000
  0.000000000000000E+000
  0.000000000000000E+000
  0.000000000000000E+000
  0.000000000000000E+000
  0.000000000000000E+000
  0.000000000000000E+000
  0.000000000000000E+000
  0.000000000000000E+000
  0.000000000000000E+000
  0.000000000000000E+000
  0.000000000000000E+000
  0.000000000000000E+000
  0.000000000000000E+000
  0.000000000000000E+000
  0.000000000000000E+000
  0.000000000000000E+000
  0.000000000000000E+000
  0.000000000000000E+000
  0.000000000000000E+000
  0.000000000000000E+000
  0.000000000000000E+000
  0.000000000000000E+000
  0.000000000000000E+000
  0.000000000000000E+000
  0.000000000000000E+000
  0.000000000000000E+000
  0.000000000000000E+000
  0.000000000000000E+000
  0.000000000000000E+000
  0.000000000000000E+000
  0.000000000000000E+000
  0.000000000000000E+000
  0.000000000000000E+000
  0.000000000000000E+000
  0.000000000000000E+000
  0.000000000000000E+000
  0.000000000000000E+000
  0.000000000000000E+000
  0.000000000000000E+000
  0.000000000000000E+000
  0.000000000000000E+000
  0.000000000000000E+000
  0.000000000000000E+000
  0.000000000000000E+000
  0.000000000000000E+000
  0.000000000000000E+000
  0.000000000000000E+000
  0.000000000000000E+000
  0.000000000000000E+000
  0.000000000000000E+000
  0.000000000000000E+000
  0.000000000000000E+000
  0.000000000000000E+000
  0.000000000000000E+000
  0.000000000000000E+000
  0.000000000000000E+000
  0.000000000000000E+000
  0.000000000000000E+000
  0.000000000000000E+000
  0.000000000000000E+000
  0.000000000000000E+000
  0.000000000000000E+000
  0.000000000000000E+000
  0.000000000000000E+000
  0.000000000000000E+000
  0.000000000000000E+000
  0.000000000000000E+000
  0.000000000000000E+000
  0.000000000000000E+000
  0.000000000000000E+000
  0.000000000000000E+000
  0.000000000000000E+000
  0.000000000000000E+000
  0.000000000000000E+000
  0.000000000000000E+000
  0.000000000000000E+000
  0.000000000000000E+000
  0.000000000000000E+000
  0.000000000000000E+000
  0.000000000000000E+000
  0.000000000000000E+000
  0.000000000000000E+000
  0.000000000000000E+000
  0.000000000000000E+000
  0.000000000000000E+000
  0.000000000000000E+000
  0.000000000000000E+000
  0.000000000000000E+000
  0.000000000000000E+000
  0.000000000000000E+000
  0.000000000000000E+000
  0.000000000000000E+000
  0.000000000000000E+000
  0.000000000000000E+000
  0.000000000000000E+000
  0.000000000000000E+000
  0.000000000000000E+000
  0.000000000000000E+000
  0.000000000000000E+000
  0.000000000000000E+000
  0.000000000000000E+000
  0.000000000000000E+000
  0.000000000000000E+000
  0.000000000000000E+000
  0.000000000000000E+000
  0.000000000000000E+000
  0.000000000000000E+000
  0.000000000000000E+000
  0.000000000000000E+000
  0.000000000000000E+000
  0.000000000000000E+000
  0.000000000000000E+000
  0.000000000000000E+000
  0.000000000000000E+000
  0.000000000000000E+000
  0.000000000000000E+000
  0.000000000000000E+000
  0.000000000000000E+000
  0.000000000000000E+000
  0.000000000000000E+000
  0.000000000000000E+000
  0.000000000000000E+000
  0.000000000000000E+000
  0.000000000000000E+000
  0.000000000000000E+000
  0.000000000000000E+000
  0.000000000000000E+000
  0.000000000000000E+000
  0.000000000000000E+000
  0.000000000000000E+000
  0.000000000000000E+000
  0.000000000000000E+000
  0.000000000000000E+000
  0.000000000000000E+000
  0.000000000000000E+000
  0.000000000000000E+000
  0.000000000000000E+000
  0.000000000000000E+000
  0.000000000000000E+000
  0.000000000000000E+000
  0.000000000000000E+000
  0.000000000000000E+000
  0.000000000000000E+000
  0.000000000000000E+000
  0.000000000000000E+000
  0.000000000000000E+000
  0.000000000000000E+000
  0.000000000000000E+000
  0.000000000000000E+000
  0.000000000000000E+000
  0.000000000000000E+000
  0.000000000000000E+000
  0.000000000000000E+000
  0.000000000000000E+000
  0.000000000000000E+000
  0.000000000000000E+000
  0.000000000000000E+000
  0.000000000000000E+000
  0.000000000000000E+000
  0.000000000000000E+000
  0.000000000000000E+000
  0.000000000000000E+000
  0.000000000000000E+000
  0.000000000000000E+000
  0.000000000000000E+000
  0.000000000000000E+000
  0.000000000000000E+000
  0.000000000000000E+000
  0.000000000000000E+000
  0.000000000000000E+000
  0.000000000000000E+000
  0.000000000000000E+000
  0.000000000000000E+000
  0.000000000000000E+000
  0.000000000000000E+000
  0.000000000000000E+000
  0.000000000000000E+000
  0.000000000000000E+000
  0.000000000000000E+000
  0.000000000000000E+000
  0.000000000000000E+000
  0.000000000000000E+000
  0.000000000000000E+000
  0.000000000000000E+000
  0.000000000000000E+000
  0.000000000000000E+000
  0.000000000000000E+000
  0.000000000000000E+000
  0.000000000000000E+000
  0.000000000000000E+000
  0.000000000000000E+000
  0.000000000000000E+000
  0.000000000000000E+000
  0.000000000000000E+000
  0.000000000000000E+000
  0.000000000000000E+000
  0.000000000000000E+000
  0.000000000000000E+000
  0.000000000000000E+000
  0.000000000000000E+000
  0.000000000000000E+000
  0.000000000000000E+000
  0.000000000000000E+000
  0.000000000000000E+000
  0.000000000000000E+000
  0.000000000000000E+000
  0.000000000000000E+000
  0.000000000000000E+000
  0.000000000000000E+000
  0.000000000000000E+000
  0.000000000000000E+000
  0.000000000000000E+000
  0.000000000000000E+000
  0.000000000000000E+000
  0.000000000000000E+000
  0.000000000000000E+000
  0.000000000000000E+000
  0.000000000000000E+000
  0.000000000000000E+000
  0.000000000000000E+000
  0.000000000000000E+000
  0.000000000000000E+000
  0.000000000000000E+000
  0.000000000000000E+000
  0.000000000000000E+000
  0.000000000000000E+000
  0.000000000000000E+000
  0.000000000000000E+000
  0.000000000000000E+000
  0.000000000000000E+000
  0.000000000000000E+000
  0.000000000000000E+000
  0.000000000000000E+000
  0.000000000000000E+000
  0.000000000000000E+000
  0.000000000000000E+000
  0.000000000000000E+000
  0.000000000000000E+000
  0.000000000000000E+000
  0.000000000000000E+000
  0.000000000000000E+000
  0.000000000000000E+000
  0.000000000000000E+000
  0.000000000000000E+000
  0.000000000000000E+000
  0.000000000000000E+000
  0.000000000000000E+000
  0.000000000000000E+000
  0.000000000000000E+000
  0.000000000000000E+000
  0.000000000000000E+000
  0.000000000000000E+000
  0.000000000000000E+000
  0.000000000000000E+000
  0.000000000000000E+000
  0.000000000000000E+000
  0.000000000000000E+000
  0.000000000000000E+000
  0.000000000000000E+000
  0.000000000000000E+000
  0.000000000000000E+000
  0.000000000000000E+000
  0.000000000000000E+000
  0.000000000000000E+000
  0.000000000000000E+000
  0.000000000000000E+000
  0.000000000000000E+000
  0.000000000000000E+000
  0.000000000000000E+000
  0.000000000000000E+000
  0.000000000000000E+000
  0.000000000000000E+000
  0.000000000000000E+000
  0.000000000000000E+000
  0.000000000000000E+000
  0.000000000000000E+000
  0.000000000000000E+000
  0.000000000000000E+000
  0.000000000000000E+000
  0.000000000000000E+000
  0.000000000000000E+000
  0.000000000000000E+000
  0.000000000000000E+000
  0.000000000000000E+000
  0.000000000000000E+000
  0.000000000000000E+000
  0.000000000000000E+000
  0.000000000000000E+000
  0.000000000000000E+000
  0.000000000000000E+000
  0.000000000000000E+000
  0.000000000000000E+000
  0.000000000000000E+000
  0.000000000000000E+000
  0.000000000000000E+000
  0.000000000000000E+000
  0.000000000000000E+000
  0.000000000000000E+000
  0.000000000000000E+000
  0.000000000000000E+000
  0.000000000000000E+000
  0.000000000000000E+000
  0.000000000000000E+000
  0.000000000000000E+000
  0.000000000000000E+000
  0.000000000000000E+000
  0.000000000000000E+000
  0.000000000000000E+000
  0.000000000000000E+000
  0.000000000000000E+000
  0.000000000000000E+000
  0.000000000000000E+000
  0.000000000000000E+000
  0.000000000000000E+000
  0.000000000000000E+000
  0.000000000000000E+000
  0.000000000000000E+000
  0.000000000000000E+000
  0.000000000000000E+000
  0.000000000000000E+000
  0.000000000000000E+000
  0.000000000000000E+000
  0.000000000000000E+000
  0.000000000000000E+000
  0.000000000000000E+000
  0.000000000000000E+000
  0.000000000000000E+000
  0.000000000000000E+000
  0.000000000000000E+000
  0.000000000000000E+000
  0.000000000000000E+000
  0.000000000000000E+000
  0.000000000000000E+000
  0.000000000000000E+000
  0.000000000000000E+000
  0.000000000000000E+000
  0.000000000000000E+000
  0.000000000000000E+000
  0.000000000000000E+000
  0.000000000000000E+000
  0.000000000000000E+000
  0.000000000000000E+000
  0.000000000000000E+000
  0.000000000000000E+000
  0.000000000000000E+000
  0.000000000000000E+000
  0.000000000000000E+000
  0.000000000000000E+000
  0.000000000000000E+000
  0.000000000000000E+000
  0.000000000000000E+000
  0.000000000000000E+000
  0.000000000000000E+000
  0.000000000000000E+000
  0.000000000000000E+000
  0.000000000000000E+000
  0.000000000000000E+000
  0.000000000000000E+000
  0.000000000000000E+000
  0.000000000000000E+000
  0.000000000000000E+000
  0.000000000000000E+000
  0.000000000000000E+000
  0.000000000000000E+000
  0.000000000000000E+000
  0.000000000000000E+000
  0.000000000000000E+000
  0.000000000000000E+000
  0.000000000000000E+000
  0.000000000000000E+000
  0.000000000000000E+000
  0.000000000000000E+000
  0.000000000000000E+000
  0.000000000000000E+000
  0.000000000000000E+000
  0.000000000000000E+000
  0.000000000000000E+000
  0.000000000000000E+000
  0.000000000000000E+000
  0.000000000000000E+000
  0.000000000000000E+000
  0.000000000000000E+000
  0.000000000000000E+000
  0.000000000000000E+000
  0.000000000000000E+000
  0.000000000000000E+000
  0.000000000000000E+000
  0.000000000000000E+000
  0.000000000000000E+000
  0.000000000000000E+000
  0.000000000000000E+000
  0.000000000000000E+000
  0.000000000000000E+000
  0.000000000000000E+000
  0.000000000000000E+000
  0.000000000000000E+000
  0.000000000000000E+000
  0.000000000000000E+000
  0.000000000000000E+000
  0.000000000000000E+000
  0.000000000000000E+000
  0.000000000000000E+000
  0.000000000000000E+000
  0.000000000000000E+000
  0.000000000000000E+000
  0.000000000000000E+000
  0.000000000000000E+000
  0.000000000000000E+000
  0.000000000000000E+000
  0.000000000000000E+000
  0.000000000000000E+000
  0.000000000000000E+000
  0.000000000000000E+000
  0.000000000000000E+000
  0.000000000000000E+000
  0.000000000000000E+000
  0.000000000000000E+000
  0.000000000000000E+000
  0.000000000000000E+000
  0.000000000000000E+000
  0.000000000000000E+000
  0.000000000000000E+000
  0.000000000000000E+000
  0.000000000000000E+000
  0.000000000000000E+000
  0.000000000000000E+000
  0.000000000000000E+000
  0.000000000000000E+000
  0.000000000000000E+000
  0.000000000000000E+000
  0.000000000000000E+000
  0.000000000000000E+000
  0.000000000000000E+000
  0.000000000000000E+000
  0.000000000000000E+000
  0.000000000000000E+000
  0.000000000000000E+000
  0.000000000000000E+000
  0.000000000000000E+000
  0.000000000000000E+000
  0.000000000000000E+000
  0.000000000000000E+000
  0.000000000000000E+000
  0.000000000000000E+000
  0.000000000000000E+000
  0.000000000000000E+000
  0.000000000000000E+000
  0.000000000000000E+000
  0.000000000000000E+000
  0.000000000000000E+000
  0.000000000000000E+000
  0.000000000000000E+000
  0.000000000000000E+000
  0.000000000000000E+000
  0.000000000000000E+000
  0.000000000000000E+000
  0.000000000000000E+000
  0.000000000000000E+000
  0.000000000000000E+000
  0.000000000000000E+000
  0.000000000000000E+000
  0.000000000000000E+000
  0.000000000000000E+000
  0.000000000000000E+000
  0.000000000000000E+000
  0.000000000000000E+000
  0.000000000000000E+000
  0.000000000000000E+000
  0.000000000000000E+000
  0.000000000000000E+000
  0.000000000000000E+000
  0.000000000000000E+000
  0.000000000000000E+000
  0.000000000000000E+000
  0.000000000000000E+000
  0.000000000000000E+000
  0.000000000000000E+000
  0.000000000000000E+000
  0.000000000000000E+000
  0.000000000000000E+000
  0.000000000000000E+000
  0.000000000000000E+000
  0.000000000000000E+000
  0.000000000000000E+000
  0.000000000000000E+000
  0.000000000000000E+000
  0.000000000000000E+000
  0.000000000000000E+000
  0.000000000000000E+000
  0.000000000000000E+000
  0.000000000000000E+000
  0.000000000000000E+000
  0.000000000000000E+000
  0.000000000000000E+000
  0.000000000000000E+000
  0.000000000000000E+000
  0.000000000000000E+000
  0.000000000000000E+000
  0.000000000000000E+000
  0.000000000000000E+000
  0.000000000000000E+000
  0.000000000000000E+000
  0.000000000000000E+000
  0.000000000000000E+000
  0.000000000000000E+000
  0.000000000000000E+000
  0.000000000000000E+000
  0.000000000000000E+000
  0.000000000000000E+000
  0.000000000000000E+000
  0.000000000000000E+000
  0.000000000000000E+000
  0.000000000000000E+000
  0.000000000000000E+000
  0.000000000000000E+000
  0.000000000000000E+000
  0.000000000000000E+000
  0.000000000000000E+000
  0.000000000000000E+000
  0.000000000000000E+000
  0.000000000000000E+000
  0.000000000000000E+000
  0.000000000000000E+000
  0.000000000000000E+000
  0.000000000000000E+000
  0.000000000000000E+000
  0.000000000000000E+000
  0.000000000000000E+000
  0.000000000000000E+000
  0.000000000000000E+000
  0.000000000000000E+000
  0.000000000000000E+000
  0.000000000000000E+000
  0.000000000000000E+000
  0.000000000000000E+000
  0.000000000000000E+000
  0.000000000000000E+000
  0.000000000000000E+000
  0.000000000000000E+000
  0.000000000000000E+000
  0.000000000000000E+000
  0.000000000000000E+000
  0.000000000000000E+000
  0.000000000000000E+000
  0.000000000000000E+000
  0.000000000000000E+000
  0.000000000000000E+000
  0.000000000000000E+000
  0.000000000000000E+000
  0.000000000000000E+000
  0.000000000000000E+000
  0.000000000000000E+000
  0.000000000000000E+000
  0.000000000000000E+000
  0.000000000000000E+000
  0.000000000000000E+000
  0.000000000000000E+000
  0.000000000000000E+000
  0.000000000000000E+000
  0.000000000000000E+000
  0.000000000000000E+000
  0.000000000000000E+000
  0.000000000000000E+000
  0.000000000000000E+000
  0.000000000000000E+000
  0.000000000000000E+000
  0.000000000000000E+000
  0.000000000000000E+000
  0.000000000000000E+000
  0.000000000000000E+000
  0.000000000000000E+000
  0.000000000000000E+000
  0.000000000000000E+000
  0.000000000000000E+000
  0.000000000000000E+000
  0.000000000000000E+000
  0.000000000000000E+000
  0.000000000000000E+000
  0.000000000000000E+000
  0.000000000000000E+000
  0.000000000000000E+000
  0.000000000000000E+000
  0.000000000000000E+000
  0.000000000000000E+000
  0.000000000000000E+000
  0.000000000000000E+000
  0.000000000000000E+000
  0.000000000000000E+000
  0.000000000000000E+000
  0.000000000000000E+000
  0.000000000000000E+000
  0.000000000000000E+000
  0.000000000000000E+000
  0.000000000000000E+000
  0.000000000000000E+000
  0.000000000000000E+000
  0.000000000000000E+000
  0.000000000000000E+000
  0.000000000000000E+000
  0.000000000000000E+000
  0.000000000000000E+000
  0.000000000000000E+000
  0.000000000000000E+000
  0.000000000000000E+000
  0.000000000000000E+000
  0.000000000000000E+000
  0.000000000000000E+000
  0.000000000000000E+000
  0.000000000000000E+000
  0.000000000000000E+000
  0.000000000000000E+000
  0.000000000000000E+000
  0.000000000000000E+000
  0.000000000000000E+000
  0.000000000000000E+000
  0.000000000000000E+000
  0.000000000000000E+000
  0.000000000000000E+000
  0.000000000000000E+000
  0.000000000000000E+000
  0.000000000000000E+000
  0.000000000000000E+000
  0.000000000000000E+000
  0.000000000000000E+000
  0.000000000000000E+000
  0.000000000000000E+000
  0.000000000000000E+000
  0.000000000000000E+000
  0.000000000000000E+000
  0.000000000000000E+000
  0.000000000000000E+000
  0.000000000000000E+000
  0.000000000000000E+000
  0.000000000000000E+000
  0.000000000000000E+000
  0.000000000000000E+000
  0.000000000000000E+000
  0.000000000000000E+000
  0.000000000000000E+000
  0.000000000000000E+000
  0.000000000000000E+000
  0.000000000000000E+000
  0.000000000000000E+000
  0.000000000000000E+000
  0.000000000000000E+000
  0.000000000000000E+000
  0.000000000000000E+000
  0.000000000000000E+000
  0.000000000000000E+000
  0.000000000000000E+000
  0.000000000000000E+000
  0.000000000000000E+000
  0.000000000000000E+000
  0.000000000000000E+000
  0.000000000000000E+000
  0.000000000000000E+000
  0.000000000000000E+000
  0.000000000000000E+000
  0.000000000000000E+000
  0.000000000000000E+000
  0.000000000000000E+000
  0.000000000000000E+000
  0.000000000000000E+000
  0.000000000000000E+000
  0.000000000000000E+000
  0.000000000000000E+000
  0.000000000000000E+000
  0.000000000000000E+000
  0.000000000000000E+000
  0.000000000000000E+000
  0.000000000000000E+000
  0.000000000000000E+000
  0.000000000000000E+000
  0.000000000000000E+000
  0.000000000000000E+000
  0.000000000000000E+000
  0.000000000000000E+000
  0.000000000000000E+000
  0.000000000000000E+000
  0.000000000000000E+000
  0.000000000000000E+000
  0.000000000000000E+000
  0.000000000000000E+000
  0.000000000000000E+000
  0.000000000000000E+000
  0.000000000000000E+000
  0.000000000000000E+000
  0.000000000000000E+000
  0.000000000000000E+000
  0.000000000000000E+000
  0.000000000000000E+000
  0.000000000000000E+000
  0.000000000000000E+000
  0.000000000000000E+000
  0.000000000000000E+000
  0.000000000000000E+000
  0.000000000000000E+000
  0.000000000000000E+000
  0.000000000000000E+000
  0.000000000000000E+000
  0.000000000000000E+000
  0.000000000000000E+000
  0.000000000000000E+000
  0.000000000000000E+000
  0.000000000000000E+000
  0.000000000000000E+000
  0.000000000000000E+000
  0.000000000000000E+000
  0.000000000000000E+000
  0.000000000000000E+000
  0.000000000000000E+000
  0.000000000000000E+000
  0.000000000000000E+000
  0.000000000000000E+000
  0.000000000000000E+000
  0.000000000000000E+000
  0.000000000000000E+000
  0.000000000000000E+000
  0.000000000000000E+000
  0.000000000000000E+000
  0.000000000000000E+000
  0.000000000000000E+000
  0.000000000000000E+000
  0.000000000000000E+000
  0.000000000000000E+000
  0.000000000000000E+000
  0.000000000000000E+000
  0.000000000000000E+000
  0.000000000000000E+000
  0.000000000000000E+000
  0.000000000000000E+000
  0.000000000000000E+000
  0.000000000000000E+000
  0.000000000000000E+000
  0.000000000000000E+000
  0.000000000000000E+000
  0.000000000000000E+000
  0.000000000000000E+000
  0.000000000000000E+000
  0.000000000000000E+000
  0.000000000000000E+000
  0.000000000000000E+000
  0.000000000000000E+000
  0.000000000000000E+000
  0.000000000000000E+000
  0.000000000000000E+000
  0.000000000000000E+000
  0.000000000000000E+000
  0.000000000000000E+000
  0.000000000000000E+000
  0.000000000000000E+000
  0.000000000000000E+000
  0.000000000000000E+000
  0.000000000000000E+000
  0.000000000000000E+000
  0.000000000000000E+000
  0.000000000000000E+000
  0.000000000000000E+000
  0.000000000000000E+000
  0.000000000000000E+000
  0.000000000000000E+000
  0.000000000000000E+000
  0.000000000000000E+000
  0.000000000000000E+000
  0.000000000000000E+000
  0.000000000000000E+000
  0.000000000000000E+000
  0.000000000000000E+000
  0.000000000000000E+000
  0.000000000000000E+000
  0.000000000000000E+000
  0.000000000000000E+000
  0.000000000000000E+000
  0.000000000000000E+000
  0.000000000000000E+000
  0.000000000000000E+000
  0.000000000000000E+000
  0.000000000000000E+000
  0.000000000000000E+000
  0.000000000000000E+000
  0.000000000000000E+000
  0.000000000000000E+000
  0.000000000000000E+000
  0.000000000000000E+000
  0.000000000000000E+000
  0.000000000000000E+000
  0.000000000000000E+000
  0.000000000000000E+000
  0.000000000000000E+000
  0.000000000000000E+000
  0.000000000000000E+000
  0.000000000000000E+000
  0.000000000000000E+000
  0.000000000000000E+000
  0.000000000000000E+000
  0.000000000000000E+000
  0.000000000000000E+000
  0.000000000000000E+000
  0.000000000000000E+000
  0.000000000000000E+000
  0.000000000000000E+000
  0.000000000000000E+000
  0.000000000000000E+000
  0.000000000000000E+000
  0.000000000000000E+000
  0.000000000000000E+000
  0.000000000000000E+000
  0.000000000000000E+000
  0.000000000000000E+000
  0.000000000000000E+000
  0.000000000000000E+000
  0.000000000000000E+000
  0.000000000000000E+000
  0.000000000000000E+000
  0.000000000000000E+000
  0.000000000000000E+000
  0.000000000000000E+000
  0.000000000000000E+000
  0.000000000000000E+000
  0.000000000000000E+000
  0.000000000000000E+000
  0.000000000000000E+000
  0.000000000000000E+000
  0.000000000000000E+000
  0.000000000000000E+000
  0.000000000000000E+000
  0.000000000000000E+000
  0.000000000000000E+000
  0.000000000000000E+000
  0.000000000000000E+000
  0.000000000000000E+000
  0.000000000000000E+000
  0.000000000000000E+000
  0.000000000000000E+000
  0.000000000000000E+000
  0.000000000000000E+000
  0.000000000000000E+000
  0.000000000000000E+000
  0.000000000000000E+000
  0.000000000000000E+000
  0.000000000000000E+000
  0.000000000000000E+000
  0.000000000000000E+000
  0.000000000000000E+000
  0.000000000000000E+000
  0.000000000000000E+000
  0.000000000000000E+000
  0.000000000000000E+000
  0.000000000000000E+000
  0.000000000000000E+000
  0.000000000000000E+000
  0.000000000000000E+000
  0.000000000000000E+000
  0.000000000000000E+000
  0.000000000000000E+000
  0.000000000000000E+000
  0.000000000000000E+000
  0.000000000000000E+000
  0.000000000000000E+000
  0.000000000000000E+000
  0.000000000000000E+000
  0.000000000000000E+000
  0.000000000000000E+000
  0.000000000000000E+000
  0.000000000000000E+000
  0.000000000000000E+000
  0.000000000000000E+000
  0.000000000000000E+000
  0.000000000000000E+000
  0.000000000000000E+000
  0.000000000000000E+000
  0.000000000000000E+000
  0.000000000000000E+000
  0.000000000000000E+000
  0.000000000000000E+000
  0.000000000000000E+000
  0.000000000000000E+000
  0.000000000000000E+000
  0.000000000000000E+000
  0.000000000000000E+000
  0.000000000000000E+000
  0.000000000000000E+000
  0.000000000000000E+000
  0.000000000000000E+000
  0.000000000000000E+000
  0.000000000000000E+000
  0.000000000000000E+000
  0.000000000000000E+000
  0.000000000000000E+000
  0.000000000000000E+000
  0.000000000000000E+000
  0.000000000000000E+000
  0.000000000000000E+000
  0.000000000000000E+000
  0.000000000000000E+000
  0.000000000000000E+000
  0.000000000000000E+000
  0.000000000000000E+000
  0.000000000000000E+000
  0.000000000000000E+000
  0.000000000000000E+000
  0.000000000000000E+000
  0.000000000000000E+000
  0.000000000000000E+000
  0.000000000000000E+000
  0.000000000000000E+000
  0.000000000000000E+000
  0.000000000000000E+000
  0.000000000000000E+000
  0.000000000000000E+000
  0.000000000000000E+000
  0.000000000000000E+000
  0.000000000000000E+000
  0.000000000000000E+000
  0.000000000000000E+000
  0.000000000000000E+000
  0.000000000000000E+000
  0.000000000000000E+000
  0.000000000000000E+000
  0.000000000000000E+000
  0.000000000000000E+000
  0.000000000000000E+000
  0.000000000000000E+000
  0.000000000000000E+000
  0.000000000000000E+000
  0.000000000000000E+000
  0.000000000000000E+000
  0.000000000000000E+000
  0.000000000000000E+000
  0.000000000000000E+000
  0.000000000000000E+000
  0.000000000000000E+000
  0.000000000000000E+000
  0.000000000000000E+000
  0.000000000000000E+000
  0.000000000000000E+000
  0.000000000000000E+000
  0.000000000000000E+000
  0.000000000000000E+000
  0.000000000000000E+000
  0.000000000000000E+000
  0.000000000000000E+000
  0.000000000000000E+000
  0.000000000000000E+000
  0.000000000000000E+000
  0.000000000000000E+000
  0.000000000000000E+000
  0.000000000000000E+000
  0.000000000000000E+000
  0.000000000000000E+000
  0.000000000000000E+000
  0.000000000000000E+000
  0.000000000000000E+000
  0.000000000000000E+000
  0.000000000000000E+000
  0.000000000000000E+000
  0.000000000000000E+000
  0.000000000000000E+000
  0.000000000000000E+000
  0.000000000000000E+000
  0.000000000000000E+000
  0.000000000000000E+000
  0.000000000000000E+000
  0.000000000000000E+000
  0.000000000000000E+000
  0.000000000000000E+000
  0.000000000000000E+000
  0.000000000000000E+000
  0.000000000000000E+000
  0.000000000000000E+000
  0.000000000000000E+000
  0.000000000000000E+000
  0.000000000000000E+000
  0.000000000000000E+000
  0.000000000000000E+000
  0.000000000000000E+000
  0.000000000000000E+000
  0.000000000000000E+000
  0.000000000000000E+000
  0.000000000000000E+000
  0.000000000000000E+000
  0.000000000000000E+000
  0.000000000000000E+000
  0.000000000000000E+000
  0.000000000000000E+000
  0.000000000000000E+000
  0.000000000000000E+000
  0.000000000000000E+000
  0.000000000000000E+000
  0.000000000000000E+000
  0.000000000000000E+000
  0.000000000000000E+000
  0.000000000000000E+000
  0.000000000000000E+000
  0.000000000000000E+000
  0.000000000000000E+000
  0.000000000000000E+000
  0.000000000000000E+000
  0.000000000000000E+000
  0.000000000000000E+000
  0.000000000000000E+000
  0.000000000000000E+000
  0.000000000000000E+000
  0.000000000000000E+000
  0.000000000000000E+000
  0.000000000000000E+000
  0.000000000000000E+000
  0.000000000000000E+000
  0.000000000000000E+000
  0.000000000000000E+000
  0.000000000000000E+000
  0.000000000000000E+000
  0.000000000000000E+000
  0.000000000000000E+000
  0.000000000000000E+000
  0.000000000000000E+000
  0.000000000000000E+000
  0.000000000000000E+000
  0.000000000000000E+000
  0.000000000000000E+000
  0.000000000000000E+000
  0.000000000000000E+000
  0.000000000000000E+000
  0.000000000000000E+000
  0.000000000000000E+000
  0.000000000000000E+000
  0.000000000000000E+000
  0.000000000000000E+000
  0.000000000000000E+000
  0.000000000000000E+000
  0.000000000000000E+000
  0.000000000000000E+000
  0.000000000000000E+000
  0.000000000000000E+000
  0.000000000000000E+000
  0.000000000000000E+000
  0.000000000000000E+000
  0.000000000000000E+000
  0.000000000000000E+000
  0.000000000000000E+000
  0.000000000000000E+000
  0.000000000000000E+000
  0.000000000000000E+000
  0.000000000000000E+000
  0.000000000000000E+000
  0.000000000000000E+000
  0.000000000000000E+000
  0.000000000000000E+000
  0.000000000000000E+000
  0.000000000000000E+000
  0.000000000000000E+000
  0.000000000000000E+000
  0.000000000000000E+000
  0.000000000000000E+000
  0.000000000000000E+000
  0.000000000000000E+000
  0.000000000000000E+000
  0.000000000000000E+000
  0.000000000000000E+000
  0.000000000000000E+000
  0.000000000000000E+000
  0.000000000000000E+000
  0.000000000000000E+000
  0.000000000000000E+000
  0.000000000000000E+000
  0.000000000000000E+000
  0.000000000000000E+000
  0.000000000000000E+000
  0.000000000000000E+000
  0.000000000000000E+000
  0.000000000000000E+000
  0.000000000000000E+000
  0.000000000000000E+000
  0.000000000000000E+000
  0.000000000000000E+000
  0.000000000000000E+000
  0.000000000000000E+000
  0.000000000000000E+000
  0.000000000000000E+000
  0.000000000000000E+000
  0.000000000000000E+000
  0.000000000000000E+000
  0.000000000000000E+000
  0.000000000000000E+000
  0.000000000000000E+000
  0.000000000000000E+000
  0.000000000000000E+000
  0.000000000000000E+000
  0.000000000000000E+000
  0.000000000000000E+000
  0.000000000000000E+000
  0.000000000000000E+000
  0.000000000000000E+000
  0.000000000000000E+000
  0.000000000000000E+000
  0.000000000000000E+000
  0.000000000000000E+000
  0.000000000000000E+000
  0.000000000000000E+000
  0.000000000000000E+000
  0.000000000000000E+000
  0.000000000000000E+000
  0.000000000000000E+000
  0.000000000000000E+000
  0.000000000000000E+000
  0.000000000000000E+000
  0.000000000000000E+000
  0.000000000000000E+000
  0.000000000000000E+000
  0.000000000000000E+000
  0.000000000000000E+000
  0.000000000000000E+000
  0.000000000000000E+000
  0.000000000000000E+000
  0.000000000000000E+000
  0.000000000000000E+000
  0.000000000000000E+000
  0.000000000000000E+000
  0.000000000000000E+000
  0.000000000000000E+000
  0.000000000000000E+000
  0.000000000000000E+000
  0.000000000000000E+000
  0.000000000000000E+000
  0.000000000000000E+000
  0.000000000000000E+000
  0.000000000000000E+000
  0.000000000000000E+000
  0.000000000000000E+000
  0.000000000000000E+000
  0.000000000000000E+000
  0.000000000000000E+000
  0.000000000000000E+000
  0.000000000000000E+000
  0.000000000000000E+000
  0.000000000000000E+000
  0.000000000000000E+000
  0.000000000000000E+000
  0.000000000000000E+000
  0.000000000000000E+000
  0.000000000000000E+000
  0.000000000000000E+000
  0.000000000000000E+000
  0.000000000000000E+000
  0.000000000000000E+000
  0.000000000000000E+000
  0.000000000000000E+000
  0.000000000000000E+000
  0.000000000000000E+000
  0.000000000000000E+000
  0.000000000000000E+000
  0.000000000000000E+000
  0.000000000000000E+000
  0.000000000000000E+000
  0.000000000000000E+000
  0.000000000000000E+000
  0.000000000000000E+000
  0.000000000000000E+000
  0.000000000000000E+000
  0.000000000000000E+000
  0.000000000000000E+000
  0.000000000000000E+000
  0.000000000000000E+000
  0.000000000000000E+000
  0.000000000000000E+000
  0.000000000000000E+000
  0.000000000000000E+000
  0.000000000000000E+000
  0.000000000000000E+000
  0.000000000000000E+000
  0.000000000000000E+000
  0.000000000000000E+000
  0.000000000000000E+000
  0.000000000000000E+000
  0.000000000000000E+000
  0.000000000000000E+000
  0.000000000000000E+000
  0.000000000000000E+000
  0.000000000000000E+000
  0.000000000000000E+000
  0.000000000000000E+000
  0.000000000000000E+000
  0.000000000000000E+000
  0.000000000000000E+000
  0.000000000000000E+000
  0.000000000000000E+000
  0.000000000000000E+000
  0.000000000000000E+000
  0.000000000000000E+000
  0.000000000000000E+000
  0.000000000000000E+000
  0.000000000000000E+000
  0.000000000000000E+000
  0.000000000000000E+000
  0.000000000000000E+000
  0.000000000000000E+000
  0.000000000000000E+000
  0.000000000000000E+000
  0.000000000000000E+000
  0.000000000000000E+000
  0.000000000000000E+000
  0.000000000000000E+000
  0.000000000000000E+000
  0.000000000000000E+000
  0.000000000000000E+000
  0.000000000000000E+000
  0.000000000000000E+000
  0.000000000000000E+000
  0.000000000000000E+000
  0.000000000000000E+000
  0.000000000000000E+000
  0.000000000000000E+000
  0.000000000000000E+000
  0.000000000000000E+000
  0.000000000000000E+000
  0.000000000000000E+000
  0.000000000000000E+000
  0.000000000000000E+000
  0.000000000000000E+000
  0.000000000000000E+000
  0.000000000000000E+000
  0.000000000000000E+000
  0.000000000000000E+000
  0.000000000000000E+000
  0.000000000000000E+000
  0.000000000000000E+000
  0.000000000000000E+000
  0.000000000000000E+000
  0.000000000000000E+000
  0.000000000000000E+000
  0.000000000000000E+000
  0.000000000000000E+000
  0.000000000000000E+000
  0.000000000000000E+000
  0.000000000000000E+000
  0.000000000000000E+000
  0.000000000000000E+000
  0.000000000000000E+000
  0.000000000000000E+000
  0.000000000000000E+000
  0.000000000000000E+000
  0.000000000000000E+000
  0.000000000000000E+000
  0.000000000000000E+000
  0.000000000000000E+000
  0.000000000000000E+000
  0.000000000000000E+000
  0.000000000000000E+000
  0.000000000000000E+000
  0.000000000000000E+000
  0.000000000000000E+000
  0.000000000000000E+000
  0.000000000000000E+000
  0.000000000000000E+000
  0.000000000000000E+000
  0.000000000000000E+000
  0.000000000000000E+000
  0.000000000000000E+000
  0.000000000000000E+000
  0.000000000000000E+000
  0.000000000000000E+000
  0.000000000000000E+000
  0.000000000000000E+000
  0.000000000000000E+000
  0.000000000000000E+000
  0.000000000000000E+000
  0.000000000000000E+000
  0.000000000000000E+000
  0.000000000000000E+000
  0.000000000000000E+000
  0.000000000000000E+000
  0.000000000000000E+000
  0.000000000000000E+000
  0.000000000000000E+000
  0.000000000000000E+000
  0.000000000000000E+000
  0.000000000000000E+000
  0.000000000000000E+000
  0.000000000000000E+000
  0.000000000000000E+000
  0.000000000000000E+000
  0.000000000000000E+000
  0.000000000000000E+000
  0.000000000000000E+000
  0.000000000000000E+000
  0.000000000000000E+000
  0.000000000000000E+000
  0.000000000000000E+000
  0.000000000000000E+000
  0.000000000000000E+000
  0.000000000000000E+000
  0.000000000000000E+000
  0.000000000000000E+000
  0.000000000000000E+000
  0.000000000000000E+000
  0.000000000000000E+000
  0.000000000000000E+000
  0.000000000000000E+000
  0.000000000000000E+000
  0.000000000000000E+000
  0.000000000000000E+000
  0.000000000000000E+000
  0.000000000000000E+000
  0.000000000000000E+000
  0.000000000000000E+000
  0.000000000000000E+000
  0.000000000000000E+000
  0.000000000000000E+000
  0.000000000000000E+000
  0.000000000000000E+000
  0.000000000000000E+000
  0.000000000000000E+000
  0.000000000000000E+000
  0.000000000000000E+000
  0.000000000000000E+000
  0.000000000000000E+000
  0.000000000000000E+000
  0.000000000000000E+000
  0.000000000000000E+000
  0.000000000000000E+000
  0.000000000000000E+000
  0.000000000000000E+000
  0.000000000000000E+000
  0.000000000000000E+000
  0.000000000000000E+000
  0.000000000000000E+000
  0.000000000000000E+000
  0.000000000000000E+000
  0.000000000000000E+000
  0.000000000000000E+000
  0.000000000000000E+000
  0.000000000000000E+000
  0.000000000000000E+000
  0.000000000000000E+000
  0.000000000000000E+000
  0.000000000000000E+000
  0.000000000000000E+000
  0.000000000000000E+000
  0.000000000000000E+000
  0.000000000000000E+000
  0.000000000000000E+000
  0.000000000000000E+000
  0.000000000000000E+000
  0.000000000000000E+000
  0.000000000000000E+000
  0.000000000000000E+000
  0.000000000000000E+000
  0.000000000000000E+000
  0.000000000000000E+000
  0.000000000000000E+000
  0.000000000000000E+000
  0.000000000000000E+000
  0.000000000000000E+000
  0.000000000000000E+000
  0.000000000000000E+000
  0.000000000000000E+000
  0.000000000000000E+000
  0.000000000000000E+000
  0.000000000000000E+000
  0.000000000000000E+000
  0.000000000000000E+000
  0.000000000000000E+000
  0.000000000000000E+000
  0.000000000000000E+000
  0.000000000000000E+000
  0.000000000000000E+000
  0.000000000000000E+000
  0.000000000000000E+000
  0.000000000000000E+000
  0.000000000000000E+000
  0.000000000000000E+000
  0.000000000000000E+000
  0.000000000000000E+000
  0.000000000000000E+000
  0.000000000000000E+000
  0.000000000000000E+000
  0.000000000000000E+000
  0.000000000000000E+000
  0.000000000000000E+000
  0.000000000000000E+000
  0.000000000000000E+000
  0.000000000000000E+000
  0.000000000000000E+000
  0.000000000000000E+000
  0.000000000000000E+000
  0.000000000000000E+000
  0.000000000000000E+000
  0.000000000000000E+000
  0.000000000000000E+000
  0.000000000000000E+000
  0.000000000000000E+000
  0.000000000000000E+000
  0.000000000000000E+000
  0.000000000000000E+000
  0.000000000000000E+000
  0.000000000000000E+000
  0.000000000000000E+000
  0.000000000000000E+000
  0.000000000000000E+000
  0.000000000000000E+000
  0.000000000000000E+000
  0.000000000000000E+000
  0.000000000000000E+000
  0.000000000000000E+000
  0.000000000000000E+000
  0.000000000000000E+000
  0.000000000000000E+000
  0.000000000000000E+000
  0.000000000000000E+000
  0.000000000000000E+000
  0.000000000000000E+000
  0.000000000000000E+000
  0.000000000000000E+000
  0.000000000000000E+000
  0.000000000000000E+000
  0.000000000000000E+000
  0.000000000000000E+000
  0.000000000000000E+000
  0.000000000000000E+000
  0.000000000000000E+000
  0.000000000000000E+000
  0.000000000000000E+000
  0.000000000000000E+000
  0.000000000000000E+000
  0.000000000000000E+000
  0.000000000000000E+000
  0.000000000000000E+000
  0.000000000000000E+000
  0.000000000000000E+000
  0.000000000000000E+000
  0.000000000000000E+000
  0.000000000000000E+000
  0.000000000000000E+000
  0.000000000000000E+000
  0.000000000000000E+000
  0.000000000000000E+000
  0.000000000000000E+000
  0.000000000000000E+000
  0.000000000000000E+000
  0.000000000000000E+000
  0.000000000000000E+000
  0.000000000000000E+000
  0.000000000000000E+000
  0.000000000000000E+000
  0.000000000000000E+000
  0.000000000000000E+000
  0.000000000000000E+000
  0.000000000000000E+000
  0.000000000000000E+000
  0.000000000000000E+000
  0.000000000000000E+000
  0.000000000000000E+000
  0.000000000000000E+000
  0.000000000000000E+000
  0.000000000000000E+000
  0.000000000000000E+000
  0.000000000000000E+000
  0.000000000000000E+000
  0.000000000000000E+000
  0.000000000000000E+000
  0.000000000000000E+000
  0.000000000000000E+000
  0.000000000000000E+000
  0.000000000000000E+000
  0.000000000000000E+000
  0.000000000000000E+000
  0.000000000000000E+000
  0.000000000000000E+000
  0.000000000000000E+000
  0.000000000000000E+000
  0.000000000000000E+000
  0.000000000000000E+000
  0.000000000000000E+000
  0.000000000000000E+000
  0.000000000000000E+000
  0.000000000000000E+000
  0.000000000000000E+000
  0.000000000000000E+000
  0.000000000000000E+000
  0.000000000000000E+000
  0.000000000000000E+000
  0.000000000000000E+000
  0.000000000000000E+000
  0.000000000000000E+000
  0.000000000000000E+000
  0.000000000000000E+000
  0.000000000000000E+000
  0.000000000000000E+000
  0.000000000000000E+000
  0.000000000000000E+000
  0.000000000000000E+000
  0.000000000000000E+000
  0.000000000000000E+000
  0.000000000000000E+000
  0.000000000000000E+000
  0.000000000000000E+000
  0.000000000000000E+000
  0.000000000000000E+000
  0.000000000000000E+000
  0.000000000000000E+000
  0.000000000000000E+000
  0.000000000000000E+000
  0.000000000000000E+000
  0.000000000000000E+000
  0.000000000000000E+000
  0.000000000000000E+000
  0.000000000000000E+000
  0.000000000000000E+000
  0.000000000000000E+000
  0.000000000000000E+000
  0.000000000000000E+000
  0.000000000000000E+000
  0.000000000000000E+000
  0.000000000000000E+000
  0.000000000000000E+000
  0.000000000000000E+000
  0.000000000000000E+000
  0.000000000000000E+000
  0.000000000000000E+000
  0.000000000000000E+000
  0.000000000000000E+000
  0.000000000000000E+000
  0.000000000000000E+000
  0.000000000000000E+000
  0.000000000000000E+000
  0.000000000000000E+000
  0.000000000000000E+000
  0.000000000000000E+000
  0.000000000000000E+000
  0.000000000000000E+000
  0.000000000000000E+000
  0.000000000000000E+000
  0.000000000000000E+000
  0.000000000000000E+000
  0.000000000000000E+000
  0.000000000000000E+000
  0.000000000000000E+000
  0.000000000000000E+000
  0.000000000000000E+000
  0.000000000000000E+000
  0.000000000000000E+000
  0.000000000000000E+000
  0.000000000000000E+000
  0.000000000000000E+000
  0.000000000000000E+000
  0.000000000000000E+000
  0.000000000000000E+000
  0.000000000000000E+000
  0.000000000000000E+000
  0.000000000000000E+000
  0.000000000000000E+000
  0.000000000000000E+000
  0.000000000000000E+000
  0.000000000000000E+000
  0.000000000000000E+000
  0.000000000000000E+000
  0.000000000000000E+000
  0.000000000000000E+000
  0.000000000000000E+000
  0.000000000000000E+000
  0.000000000000000E+000
  0.000000000000000E+000
  0.000000000000000E+000
  0.000000000000000E+000
  0.000000000000000E+000
  0.000000000000000E+000
  0.000000000000000E+000
  0.000000000000000E+000
  0.000000000000000E+000
  0.000000000000000E+000
  0.000000000000000E+000
  0.000000000000000E+000
  0.000000000000000E+000
  0.000000000000000E+000
  0.000000000000000E+000
  0.000000000000000E+000
  0.000000000000000E+000
  0.000000000000000E+000
  0.000000000000000E+000
  0.000000000000000E+000
  0.000000000000000E+000
  0.000000000000000E+000
  0.000000000000000E+000
  0.000000000000000E+000
  0.000000000000000E+000
  0.000000000000000E+000
  0.000000000000000E+000
  0.000000000000000E+000
  0.000000000000000E+000
  0.000000000000000E+000
  0.000000000000000E+000
  0.000000000000000E+000
  0.000000000000000E+000
  0.000000000000000E+000
  0.000000000000000E+000
  0.000000000000000E+000
  0.000000000000000E+000
  0.000000000000000E+000
  0.000000000000000E+000
  0.000000000000000E+000
  0.000000000000000E+000
  0.000000000000000E+000
  0.000000000000000E+000
  0.000000000000000E+000
  0.000000000000000E+000
  0.000000000000000E+000
  0.000000000000000E+000
  0.000000000000000E+000
  0.000000000000000E+000
  0.000000000000000E+000
  0.000000000000000E+000
  0.000000000000000E+000
  0.000000000000000E+000
  0.000000000000000E+000
  0.000000000000000E+000
  0.000000000000000E+000
  0.000000000000000E+000
  0.000000000000000E+000
  0.000000000000000E+000
  0.000000000000000E+000
  0.000000000000000E+000
  0.000000000000000E+000
  0.000000000000000E+000
  0.000000000000000E+000
  0.000000000000000E+000
  0.000000000000000E+000
  0.000000000000000E+000
  0.000000000000000E+000
  0.000000000000000E+000
  0.000000000000000E+000
  0.000000000000000E+000
  0.000000000000000E+000
  0.000000000000000E+000
  0.000000000000000E+000
  0.000000000000000E+000
  0.000000000000000E+000
  0.000000000000000E+000
  0.000000000000000E+000
  0.000000000000000E+000
  0.000000000000000E+000
  0.000000000000000E+000
  0.000000000000000E+000
  0.000000000000000E+000
  0.000000000000000E+000
  0.000000000000000E+000
  0.000000000000000E+000
  0.000000000000000E+000
  0.000000000000000E+000
  0.000000000000000E+000
  0.000000000000000E+000
  0.000000000000000E+000
  0.000000000000000E+000
  0.000000000000000E+000
  0.000000000000000E+000
  0.000000000000000E+000
  0.000000000000000E+000
  0.000000000000000E+000
  0.000000000000000E+000
  0.000000000000000E+000
  0.000000000000000E+000
  0.000000000000000E+000
  0.000000000000000E+000
  0.000000000000000E+000
  0.000000000000000E+000
  0.000000000000000E+000
  0.000000000000000E+000
  0.000000000000000E+000
  0.000000000000000E+000
  0.000000000000000E+000
  0.000000000000000E+000
  0.000000000000000E+000
  0.000000000000000E+000
  0.000000000000000E+000
  0.000000000000000E+000
  0.000000000000000E+000
  0.000000000000000E+000
  0.000000000000000E+000
  0.000000000000000E+000
  0.000000000000000E+000
  0.000000000000000E+000
  0.000000000000000E+000
  0.000000000000000E+000
  0.000000000000000E+000
  0.000000000000000E+000
  0.000000000000000E+000
  0.000000000000000E+000
  0.000000000000000E+000
  0.000000000000000E+000
  0.000000000000000E+000
  0.000000000000000E+000
  0.000000000000000E+000
  0.000000000000000E+000
  0.000000000000000E+000
  0.000000000000000E+000
  0.000000000000000E+000
  0.000000000000000E+000
  0.000000000000000E+000
  0.000000000000000E+000
  0.000000000000000E+000
  0.000000000000000E+000
  0.000000000000000E+000
  0.000000000000000E+000
  0.000000000000000E+000
  0.000000000000000E+000
  0.000000000000000E+000
  0.000000000000000E+000
  0.000000000000000E+000
  0.000000000000000E+000
  0.000000000000000E+000
  0.000000000000000E+000
  0.000000000000000E+000
  0.000000000000000E+000
  0.000000000000000E+000
  0.000000000000000E+000
  0.000000000000000E+000
  0.000000000000000E+000
  0.000000000000000E+000
  0.000000000000000E+000
  0.000000000000000E+000
  0.000000000000000E+000
  0.000000000000000E+000
  0.000000000000000E+000
  0.000000000000000E+000
  0.000000000000000E+000
  0.000000000000000E+000
  0.000000000000000E+000
  0.000000000000000E+000
  0.000000000000000E+000
  0.000000000000000E+000
  0.000000000000000E+000
  0.000000000000000E+000
  0.000000000000000E+000
  0.000000000000000E+000
  0.000000000000000E+000
  0.000000000000000E+000
  0.000000000000000E+000
  0.000000000000000E+000
  0.000000000000000E+000
  0.000000000000000E+000
  0.000000000000000E+000
  0.000000000000000E+000
  0.000000000000000E+000
  0.000000000000000E+000
  0.000000000000000E+000
  0.000000000000000E+000
  0.000000000000000E+000
  0.000000000000000E+000
  0.000000000000000E+000
  0.000000000000000E+000
  0.000000000000000E+000
  0.000000000000000E+000
  0.000000000000000E+000
  0.000000000000000E+000
  0.000000000000000E+000
  0.000000000000000E+000
  0.000000000000000E+000
  0.000000000000000E+000
  0.000000000000000E+000
  0.000000000000000E+000
  0.000000000000000E+000
  0.000000000000000E+000
  0.000000000000000E+000
  0.000000000000000E+000
  0.000000000000000E+000
  0.000000000000000E+000
  0.000000000000000E+000
  0.000000000000000E+000
  0.000000000000000E+000
  0.000000000000000E+000
  0.000000000000000E+000
  0.000000000000000E+000
  0.000000000000000E+000
  0.000000000000000E+000
  0.000000000000000E+000
  0.000000000000000E+000
  0.000000000000000E+000
  0.000000000000000E+000
  0.000000000000000E+000
  0.000000000000000E+000
  0.000000000000000E+000
  0.000000000000000E+000
  0.000000000000000E+000
  0.000000000000000E+000
  0.000000000000000E+000
  0.000000000000000E+000
  0.000000000000000E+000
  0.000000000000000E+000
  0.000000000000000E+000
  0.000000000000000E+000
  0.000000000000000E+000
  0.000000000000000E+000
  0.000000000000000E+000
  0.000000000000000E+000
  0.000000000000000E+000
  0.000000000000000E+000
  0.000000000000000E+000
  0.000000000000000E+000
  0.000000000000000E+000
  0.000000000000000E+000
  0.000000000000000E+000
  0.000000000000000E+000
  0.000000000000000E+000
  0.000000000000000E+000
  0.000000000000000E+000
  0.000000000000000E+000
  0.000000000000000E+000
  0.000000000000000E+000
  0.000000000000000E+000
  0.000000000000000E+000
  0.000000000000000E+000
  0.000000000000000E+000
  0.000000000000000E+000
  0.000000000000000E+000
  0.000000000000000E+000
  0.000000000000000E+000
  0.000000000000000E+000
  0.000000000000000E+000
  0.000000000000000E+000
  0.000000000000000E+000
  0.000000000000000E+000
  0.000000000000000E+000
  0.000000000000000E+000
  0.000000000000000E+000
  0.000000000000000E+000
  0.000000000000000E+000
  0.000000000000000E+000
  0.000000000000000E+000
  0.000000000000000E+000
  0.000000000000000E+000
  0.000000000000000E+000
  0.000000000000000E+000
  0.000000000000000E+000
  0.000000000000000E+000
  0.000000000000000E+000
  0.000000000000000E+000
  0.000000000000000E+000
  0.000000000000000E+000
  0.000000000000000E+000
  0.000000000000000E+000
  0.000000000000000E+000
  0.000000000000000E+000
  0.000000000000000E+000
  0.000000000000000E+000
  0.000000000000000E+000
  0.000000000000000E+000
  0.000000000000000E+000
  0.000000000000000E+000
  0.000000000000000E+000
  0.000000000000000E+000
  0.000000000000000E+000
  0.000000000000000E+000
  0.000000000000000E+000
  0.000000000000000E+000
  0.000000000000000E+000
  0.000000000000000E+000
  0.000000000000000E+000
  0.000000000000000E+000
  0.000000000000000E+000
  0.000000000000000E+000
  0.000000000000000E+000
  0.000000000000000E+000
  0.000000000000000E+000
  0.000000000000000E+000
  0.000000000000000E+000
  0.000000000000000E+000
  0.000000000000000E+000
  0.000000000000000E+000
  0.000000000000000E+000
  0.000000000000000E+000
  0.000000000000000E+000
  0.000000000000000E+000
  0.000000000000000E+000
  0.000000000000000E+000
  0.000000000000000E+000
  0.000000000000000E+000
  0.000000000000000E+000
  0.000000000000000E+000
  0.000000000000000E+000
  0.000000000000000E+000
  0.000000000000000E+000
  0.000000000000000E+000
  0.000000000000000E+000
  0.000000000000000E+000
  0.000000000000000E+000
  0.000000000000000E+000
  0.000000000000000E+000
  0.000000000000000E+000
  0.000000000000000E+000
  0.000000000000000E+000
  0.000000000000000E+000
  0.000000000000000E+000
  0.000000000000000E+000
  0.000000000000000E+000
  0.000000000000000E+000
  0.000000000000000E+000
  0.000000000000000E+000
  0.000000000000000E+000
  0.000000000000000E+000
  0.000000000000000E+000
  0.000000000000000E+000
  0.000000000000000E+000
  0.000000000000000E+000
  0.000000000000000E+000
  0.000000000000000E+000
  0.000000000000000E+000
  0.000000000000000E+000
  0.000000000000000E+000
  0.000000000000000E+000
  0.000000000000000E+000
  0.000000000000000E+000
  0.000000000000000E+000
  0.000000000000000E+000
  0.000000000000000E+000
  0.000000000000000E+000
  0.000000000000000E+000
  0.000000000000000E+000
  0.000000000000000E+000
  0.000000000000000E+000
  0.000000000000000E+000
  0.000000000000000E+000
  0.000000000000000E+000
  0.000000000000000E+000
  0.000000000000000E+000
  0.000000000000000E+000
  0.000000000000000E+000
  0.000000000000000E+000
  0.000000000000000E+000
  0.000000000000000E+000
  0.000000000000000E+000
  0.000000000000000E+000
  0.000000000000000E+000
  0.000000000000000E+000
  0.000000000000000E+000
  0.000000000000000E+000
  0.000000000000000E+000
  0.000000000000000E+000
  0.000000000000000E+000
  0.000000000000000E+000
  0.000000000000000E+000
  0.000000000000000E+000
  0.000000000000000E+000
  0.000000000000000E+000
  0.000000000000000E+000
  0.000000000000000E+000
  0.000000000000000E+000
  0.000000000000000E+000
  0.000000000000000E+000
  0.000000000000000E+000
  0.000000000000000E+000
  0.000000000000000E+000
  0.000000000000000E+000
  0.000000000000000E+000
  0.000000000000000E+000
  0.000000000000000E+000
  0.000000000000000E+000
  0.000000000000000E+000
  0.000000000000000E+000
  0.000000000000000E+000
  0.000000000000000E+000
  0.000000000000000E+000
  0.000000000000000E+000
  0.000000000000000E+000
  0.000000000000000E+000
  0.000000000000000E+000
  0.000000000000000E+000
  0.000000000000000E+000
  0.000000000000000E+000
  0.000000000000000E+000
  0.000000000000000E+000
  0.000000000000000E+000
  0.000000000000000E+000
  0.000000000000000E+000
  0.000000000000000E+000
  0.000000000000000E+000
  0.000000000000000E+000
  0.000000000000000E+000
  0.000000000000000E+000
  0.000000000000000E+000
  0.000000000000000E+000
  0.000000000000000E+000
  0.000000000000000E+000
  0.000000000000000E+000
  0.000000000000000E+000
  0.000000000000000E+000
  0.000000000000000E+000
  0.000000000000000E+000
  0.000000000000000E+000
  0.000000000000000E+000
  0.000000000000000E+000
  0.000000000000000E+000
  0.000000000000000E+000
  0.000000000000000E+000
  0.000000000000000E+000
  0.000000000000000E+000
  0.000000000000000E+000
  0.000000000000000E+000
  0.000000000000000E+000
  0.000000000000000E+000
  0.000000000000000E+000
  0.000000000000000E+000
  0.000000000000000E+000
  0.000000000000000E+000
  0.000000000000000E+000
  0.000000000000000E+000
  0.000000000000000E+000
  0.000000000000000E+000
  0.000000000000000E+000
  0.000000000000000E+000
  0.000000000000000E+000
  0.000000000000000E+000
  0.000000000000000E+000
  0.000000000000000E+000
  0.000000000000000E+000
  0.000000000000000E+000
  0.000000000000000E+000
  0.000000000000000E+000
  0.000000000000000E+000
  0.000000000000000E+000
  0.000000000000000E+000
  0.000000000000000E+000
  0.000000000000000E+000
  0.000000000000000E+000
  0.000000000000000E+000
  0.000000000000000E+000
  0.000000000000000E+000
  0.000000000000000E+000
  0.000000000000000E+000
  0.000000000000000E+000
  0.000000000000000E+000
  0.000000000000000E+000
  0.000000000000000E+000
  0.000000000000000E+000
  0.000000000000000E+000
  0.000000000000000E+000
  0.000000000000000E+000
  0.000000000000000E+000
  0.000000000000000E+000
  0.000000000000000E+000
  0.000000000000000E+000
  0.000000000000000E+000
  0.000000000000000E+000
  0.000000000000000E+000
  0.000000000000000E+000
  0.000000000000000E+000
  0.000000000000000E+000
  0.000000000000000E+000
  0.000000000000000E+000
  0.000000000000000E+000
  0.000000000000000E+000
  0.000000000000000E+000
  0.000000000000000E+000
  0.000000000000000E+000
  0.000000000000000E+000
  0.000000000000000E+000
  0.000000000000000E+000
  0.000000000000000E+000
  0.000000000000000E+000
  0.000000000000000E+000
  0.000000000000000E+000
  0.000000000000000E+000
  0.000000000000000E+000
  0.000000000000000E+000
  0.000000000000000E+000
  0.000000000000000E+000
  0.000000000000000E+000
  0.000000000000000E+000
  0.000000000000000E+000
  0.000000000000000E+000
  0.000000000000000E+000
  0.000000000000000E+000
  0.000000000000000E+000
  0.000000000000000E+000
  0.000000000000000E+000
  0.000000000000000E+000
  0.000000000000000E+000
  0.000000000000000E+000
  0.000000000000000E+000
  0.000000000000000E+000
  0.000000000000000E+000
  0.000000000000000E+000
  0.000000000000000E+000
  0.000000000000000E+000
  0.000000000000000E+000
  0.000000000000000E+000
  0.000000000000000E+000
  0.000000000000000E+000
  0.000000000000000E+000
  0.000000000000000E+000
  0.000000000000000E+000
  0.000000000000000E+000
  0.000000000000000E+000
  0.000000000000000E+000
  0.000000000000000E+000
  0.000000000000000E+000
  0.000000000000000E+000
  0.000000000000000E+000
  0.000000000000000E+000
  0.000000000000000E+000
  0.000000000000000E+000
  0.000000000000000E+000
  0.000000000000000E+000
  0.000000000000000E+000
  0.000000000000000E+000
  0.000000000000000E+000
  0.000000000000000E+000
  0.000000000000000E+000
  0.000000000000000E+000
  0.000000000000000E+000
  0.000000000000000E+000
  0.000000000000000E+000
  0.000000000000000E+000
  0.000000000000000E+000
  0.000000000000000E+000
  0.000000000000000E+000
  0.000000000000000E+000
  0.000000000000000E+000
  0.000000000000000E+000
  0.000000000000000E+000
  0.000000000000000E+000
  0.000000000000000E+000
  0.000000000000000E+000
  0.000000000000000E+000
  0.000000000000000E+000
  0.000000000000000E+000
  0.000000000000000E+000
  0.000000000000000E+000
  0.000000000000000E+000
  0.000000000000000E+000
  0.000000000000000E+000
  0.000000000000000E+000
  0.000000000000000E+000
  0.000000000000000E+000
  0.000000000000000E+000
  0.000000000000000E+000
  0.000000000000000E+000
  0.000000000000000E+000
  0.000000000000000E+000
  0.000000000000000E+000
  0.000000000000000E+000
  0.000000000000000E+000
  0.000000000000000E+000
  0.000000000000000E+000
  0.000000000000000E+000
  0.000000000000000E+000
  0.000000000000000E+000
  0.000000000000000E+000
  0.000000000000000E+000
  0.000000000000000E+000
  0.000000000000000E+000
  0.000000000000000E+000
  0.000000000000000E+000
  0.000000000000000E+000
  0.000000000000000E+000
  0.000000000000000E+000
  0.000000000000000E+000
  0.000000000000000E+000
  0.000000000000000E+000
  0.000000000000000E+000
  0.000000000000000E+000
  0.000000000000000E+000
  0.000000000000000E+000
  0.000000000000000E+000
  0.000000000000000E+000
  0.000000000000000E+000
  0.000000000000000E+000
  0.000000000000000E+000
  0.000000000000000E+000
  0.000000000000000E+000
  0.000000000000000E+000
  0.000000000000000E+000
  0.000000000000000E+000
  0.000000000000000E+000
  0.000000000000000E+000
  0.000000000000000E+000
  0.000000000000000E+000
  0.000000000000000E+000
  0.000000000000000E+000
  0.000000000000000E+000
  0.000000000000000E+000
  0.000000000000000E+000
  0.000000000000000E+000
  0.000000000000000E+000
  0.000000000000000E+000
  0.000000000000000E+000
  0.000000000000000E+000
  0.000000000000000E+000
  0.000000000000000E+000
  0.000000000000000E+000
  0.000000000000000E+000
  0.000000000000000E+000
  0.000000000000000E+000
  0.000000000000000E+000
  0.000000000000000E+000
  0.000000000000000E+000
  0.000000000000000E+000
  0.000000000000000E+000
  0.000000000000000E+000
  0.000000000000000E+000
  0.000000000000000E+000
  0.000000000000000E+000
  0.000000000000000E+000
  0.000000000000000E+000
  0.000000000000000E+000
  0.000000000000000E+000
  0.000000000000000E+000
  0.000000000000000E+000
  0.000000000000000E+000
  0.000000000000000E+000
  0.000000000000000E+000
  0.000000000000000E+000
  0.000000000000000E+000
  0.000000000000000E+000
  0.000000000000000E+000
  0.000000000000000E+000
  0.000000000000000E+000
  0.000000000000000E+000
  0.000000000000000E+000
  0.000000000000000E+000
  0.000000000000000E+000
  0.000000000000000E+000
  0.000000000000000E+000
  0.000000000000000E+000
  0.000000000000000E+000
  0.000000000000000E+000
  0.000000000000000E+000
  0.000000000000000E+000
  0.000000000000000E+000
  0.000000000000000E+000
  0.000000000000000E+000
  0.000000000000000E+000
  0.000000000000000E+000
  0.000000000000000E+000
  0.000000000000000E+000
  0.000000000000000E+000
  0.000000000000000E+000
  0.000000000000000E+000
  0.000000000000000E+000
  0.000000000000000E+000
  0.000000000000000E+000
  0.000000000000000E+000
  0.000000000000000E+000
  0.000000000000000E+000
  0.000000000000000E+000
  0.000000000000000E+000
  0.000000000000000E+000
  0.000000000000000E+000
  0.000000000000000E+000
  0.000000000000000E+000
  0.000000000000000E+000
  0.000000000000000E+000
  0.000000000000000E+000
  0.000000000000000E+000
  0.000000000000000E+000
  0.000000000000000E+000
  0.000000000000000E+000
  0.000000000000000E+000
  0.000000000000000E+000
  0.000000000000000E+000
  0.000000000000000E+000
  0.000000000000000E+000
  0.000000000000000E+000
  0.000000000000000E+000
  0.000000000000000E+000
  0.000000000000000E+000
  0.000000000000000E+000
  0.000000000000000E+000
  0.000000000000000E+000
  0.000000000000000E+000
  0.000000000000000E+000
  0.000000000000000E+000
  0.000000000000000E+000
  0.000000000000000E+000
  0.000000000000000E+000
  0.000000000000000E+000
  0.000000000000000E+000
  0.000000000000000E+000
  0.000000000000000E+000
  0.000000000000000E+000
  0.000000000000000E+000
  0.000000000000000E+000
  0.000000000000000E+000
  0.000000000000000E+000
  0.000000000000000E+000
  0.000000000000000E+000
  0.000000000000000E+000
  0.000000000000000E+000
  0.000000000000000E+000
  0.000000000000000E+000
  0.000000000000000E+000
  0.000000000000000E+000
  0.000000000000000E+000
  0.000000000000000E+000
  0.000000000000000E+000
  0.000000000000000E+000
  0.000000000000000E+000
  0.000000000000000E+000
  0.000000000000000E+000
  0.000000000000000E+000
  0.000000000000000E+000
  0.000000000000000E+000
  0.000000000000000E+000
  0.000000000000000E+000
  0.000000000000000E+000
  0.000000000000000E+000
  0.000000000000000E+000
  0.000000000000000E+000
  0.000000000000000E+000
  0.000000000000000E+000
  0.000000000000000E+000
  0.000000000000000E+000
  0.000000000000000E+000
  0.000000000000000E+000
  0.000000000000000E+000
  0.000000000000000E+000
  0.000000000000000E+000
  0.000000000000000E+000
  0.000000000000000E+000
  0.000000000000000E+000
  0.000000000000000E+000
  0.000000000000000E+000
  0.000000000000000E+000
  0.000000000000000E+000
  0.000000000000000E+000
  0.000000000000000E+000
  0.000000000000000E+000
  0.000000000000000E+000
  0.000000000000000E+000
  0.000000000000000E+000
  0.000000000000000E+000
  0.000000000000000E+000
  0.000000000000000E+000
  0.000000000000000E+000
  0.000000000000000E+000
  0.000000000000000E+000
  0.000000000000000E+000
  0.000000000000000E+000
  0.000000000000000E+000
  0.000000000000000E+000
  0.000000000000000E+000
  0.000000000000000E+000
  0.000000000000000E+000
  0.000000000000000E+000
  0.000000000000000E+000
  0.000000000000000E+000
  0.000000000000000E+000
  0.000000000000000E+000
  0.000000000000000E+000
  0.000000000000000E+000
  0.000000000000000E+000
  0.000000000000000E+000
  0.000000000000000E+000
  0.000000000000000E+000
  0.000000000000000E+000
  0.000000000000000E+000
  0.000000000000000E+000
  0.000000000000000E+000
  0.000000000000000E+000
  0.000000000000000E+000
  0.000000000000000E+000
  0.000000000000000E+000
  0.000000000000000E+000
  0.000000000000000E+000
  0.000000000000000E+000
  0.000000000000000E+000
  0.000000000000000E+000
  0.000000000000000E+000
  0.000000000000000E+000
  0.000000000000000E+000
  0.000000000000000E+000
  0.000000000000000E+000
  0.000000000000000E+000
  0.000000000000000E+000
  0.000000000000000E+000
  0.000000000000000E+000
  0.000000000000000E+000
  0.000000000000000E+000
  0.000000000000000E+000
  0.000000000000000E+000
  0.000000000000000E+000
  0.000000000000000E+000
  0.000000000000000E+000
  0.000000000000000E+000
  0.000000000000000E+000
  0.000000000000000E+000
  0.000000000000000E+000
  0.000000000000000E+000
  0.000000000000000E+000
  0.000000000000000E+000
  0.000000000000000E+000
  0.000000000000000E+000
  0.000000000000000E+000
  0.000000000000000E+000
  0.000000000000000E+000
  0.000000000000000E+000
  0.000000000000000E+000
  0.000000000000000E+000
  0.000000000000000E+000
  0.000000000000000E+000
  0.000000000000000E+000
  0.000000000000000E+000
  0.000000000000000E+000
  0.000000000000000E+000
  0.000000000000000E+000
  0.000000000000000E+000
  0.000000000000000E+000
  0.000000000000000E+000
  0.000000000000000E+000
  0.000000000000000E+000
  0.000000000000000E+000
  0.000000000000000E+000
  0.000000000000000E+000
  0.000000000000000E+000
  0.000000000000000E+000
  0.000000000000000E+000
  0.000000000000000E+000
  0.000000000000000E+000
  0.000000000000000E+000
  0.000000000000000E+000
  0.000000000000000E+000
  0.000000000000000E+000
  0.000000000000000E+000
  0.000000000000000E+000
  0.000000000000000E+000
  0.000000000000000E+000
  0.000000000000000E+000
  0.000000000000000E+000
  0.000000000000000E+000
  0.000000000000000E+000
  0.000000000000000E+000
  0.000000000000000E+000
  0.000000000000000E+000
  0.000000000000000E+000
  0.000000000000000E+000
  0.000000000000000E+000
  0.000000000000000E+000
  0.000000000000000E+000
  0.000000000000000E+000
  0.000000000000000E+000
  0.000000000000000E+000
  0.000000000000000E+000
  0.000000000000000E+000
  0.000000000000000E+000
  0.000000000000000E+000
  0.000000000000000E+000
  0.000000000000000E+000
  0.000000000000000E+000
  0.000000000000000E+000
  0.000000000000000E+000
  0.000000000000000E+000
  0.000000000000000E+000
  0.000000000000000E+000
  0.000000000000000E+000
  0.000000000000000E+000
  0.000000000000000E+000
  0.000000000000000E+000
  0.000000000000000E+000
  0.000000000000000E+000
  0.000000000000000E+000
  0.000000000000000E+000
  0.000000000000000E+000
  0.000000000000000E+000
  0.000000000000000E+000
  0.000000000000000E+000
  0.000000000000000E+000
   1.00000000000000     
   1.00000000000000     
  0.000000000000000E+000
  0.000000000000000E+000
  0.000000000000000E+000
  0.000000000000000E+000
  0.000000000000000E+000
  0.000000000000000E+000
  0.000000000000000E+000
  0.000000000000000E+000
  0.000000000000000E+000
  0.000000000000000E+000
  0.000000000000000E+000
  0.000000000000000E+000
  0.000000000000000E+000
  0.000000000000000E+000
  0.000000000000000E+000
  0.000000000000000E+000
  0.000000000000000E+000
  0.000000000000000E+000
  0.000000000000000E+000
  0.000000000000000E+000
  0.000000000000000E+000
  0.000000000000000E+000
  0.000000000000000E+000
  0.000000000000000E+000
  0.000000000000000E+000
  0.000000000000000E+000
  0.000000000000000E+000
  0.000000000000000E+000
  0.000000000000000E+000
  0.000000000000000E+000
  0.000000000000000E+000
  0.000000000000000E+000
  0.000000000000000E+000
  0.000000000000000E+000
  0.000000000000000E+000
  0.000000000000000E+000
  0.000000000000000E+000
  0.000000000000000E+000
  0.000000000000000E+000
  0.000000000000000E+000
  0.000000000000000E+000
  0.000000000000000E+000
  0.000000000000000E+000
  0.000000000000000E+000
   1.00000000000000     
   1.00000000000000     
   1.00000000000000     
   1.00000000000000     
   1.00000000000000     
   1.00000000000000     
  0.000000000000000E+000
  0.000000000000000E+000
  0.000000000000000E+000
  0.000000000000000E+000
  0.000000000000000E+000
  0.000000000000000E+000
  0.000000000000000E+000
  0.000000000000000E+000
  0.000000000000000E+000
  0.000000000000000E+000
  0.000000000000000E+000
  0.000000000000000E+000
  0.000000000000000E+000
  0.000000000000000E+000
  0.000000000000000E+000
  0.000000000000000E+000
  0.000000000000000E+000
  0.000000000000000E+000
  0.000000000000000E+000
  0.000000000000000E+000
  0.000000000000000E+000
  0.000000000000000E+000
  0.000000000000000E+000
  0.000000000000000E+000
  0.000000000000000E+000
  0.000000000000000E+000
  0.000000000000000E+000
  0.000000000000000E+000
  0.000000000000000E+000
  0.000000000000000E+000
  0.000000000000000E+000
  0.000000000000000E+000
  0.000000000000000E+000
  0.000000000000000E+000
  0.000000000000000E+000
  0.000000000000000E+000
  0.000000000000000E+000
  0.000000000000000E+000
  0.000000000000000E+000
   1.00000000000000     
   1.00000000000000     
   1.00000000000000     
   1.00000000000000     
   1.00000000000000     
   1.00000000000000     
   1.00000000000000     
   1.00000000000000     
   1.00000000000000     
   1.00000000000000     
   1.00000000000000     
  0.000000000000000E+000
  0.000000000000000E+000
  0.000000000000000E+000
  0.000000000000000E+000
  0.000000000000000E+000
  0.000000000000000E+000
  0.000000000000000E+000
  0.000000000000000E+000
  0.000000000000000E+000
  0.000000000000000E+000
  0.000000000000000E+000
  0.000000000000000E+000
  0.000000000000000E+000
  0.000000000000000E+000
  0.000000000000000E+000
  0.000000000000000E+000
  0.000000000000000E+000
  0.000000000000000E+000
  0.000000000000000E+000
  0.000000000000000E+000
  0.000000000000000E+000
  0.000000000000000E+000
  0.000000000000000E+000
  0.000000000000000E+000
  0.000000000000000E+000
  0.000000000000000E+000
  0.000000000000000E+000
  0.000000000000000E+000
  0.000000000000000E+000
  0.000000000000000E+000
  0.000000000000000E+000
  0.000000000000000E+000
  0.000000000000000E+000
  0.000000000000000E+000
   1.00000000000000     
   1.00000000000000     
   1.00000000000000     
   1.00000000000000     
   1.00000000000000     
   1.00000000000000     
   1.00000000000000     
   1.00000000000000     
   1.00000000000000     
   1.00000000000000     
   1.00000000000000     
   1.00000000000000     
   1.00000000000000     
   1.00000000000000     
   1.00000000000000     
   1.00000000000000     
  0.000000000000000E+000
  0.000000000000000E+000
  0.000000000000000E+000
  0.000000000000000E+000
  0.000000000000000E+000
  0.000000000000000E+000
  0.000000000000000E+000
  0.000000000000000E+000
  0.000000000000000E+000
  0.000000000000000E+000
  0.000000000000000E+000
  0.000000000000000E+000
  0.000000000000000E+000
  0.000000000000000E+000
  0.000000000000000E+000
  0.000000000000000E+000
  0.000000000000000E+000
  0.000000000000000E+000
  0.000000000000000E+000
  0.000000000000000E+000
  0.000000000000000E+000
  0.000000000000000E+000
  0.000000000000000E+000
  0.000000000000000E+000
  0.000000000000000E+000
  0.000000000000000E+000
  0.000000000000000E+000
   1.00000000000000     
   1.00000000000000     
   1.00000000000000     
   1.00000000000000     
   1.00000000000000     
   1.00000000000000     
   1.00000000000000     
   1.00000000000000     
   1.00000000000000     
   1.00000000000000     
   1.00000000000000     
   1.00000000000000     
   1.00000000000000     
   1.00000000000000     
   1.00000000000000     
   1.00000000000000     
   1.00000000000000     
   1.00000000000000     
   1.00000000000000     
   1.00000000000000     
   1.00000000000000     
   1.00000000000000     
   1.00000000000000     
   1.00000000000000     
   1.00000000000000     
  0.000000000000000E+000
  0.000000000000000E+000
  0.000000000000000E+000
  0.000000000000000E+000
  0.000000000000000E+000
  0.000000000000000E+000
  0.000000000000000E+000
  0.000000000000000E+000
  0.000000000000000E+000
  0.000000000000000E+000
  0.000000000000000E+000
  0.000000000000000E+000
  0.000000000000000E+000
  0.000000000000000E+000
  0.000000000000000E+000
  0.000000000000000E+000
   1.00000000000000     
   1.00000000000000     
   1.00000000000000     
   1.00000000000000     
   1.00000000000000     
   1.00000000000000     
   1.00000000000000     
   1.00000000000000     
   1.00000000000000     
   1.00000000000000     
   1.00000000000000     
   1.00000000000000     
   1.00000000000000     
   1.00000000000000     
   1.00000000000000     
   1.00000000000000     
   1.00000000000000     
   1.00000000000000     
   1.00000000000000     
   1.00000000000000     
   1.00000000000000     
   1.00000000000000     
   1.00000000000000     
   1.00000000000000     
   1.00000000000000     
   1.00000000000000     
   1.00000000000000     
   1.00000000000000     
   1.00000000000000     
   1.00000000000000     
   1.00000000000000     
   1.00000000000000     
   1.00000000000000     
   1.00000000000000     
   1.00000000000000     
   1.00000000000000     
   1.00000000000000     
   1.00000000000000     
   1.00000000000000     
   1.00000000000000     
   1.00000000000000     
   1.00000000000000     
   1.00000000000000     
   1.00000000000000     
   1.00000000000000     
   1.00000000000000     
   1.00000000000000     
   1.00000000000000     
   1.00000000000000     
   1.00000000000000     
   1.00000000000000     
   1.00000000000000     
   1.00000000000000     
   1.00000000000000     
   1.00000000000000     
   1.00000000000000     
   1.00000000000000     
   1.00000000000000     
   1.00000000000000     
   1.00000000000000     
   1.00000000000000     
   1.00000000000000     
   1.00000000000000     
   1.00000000000000     
   1.00000000000000     
   1.00000000000000     
   1.00000000000000     
   1.00000000000000     
   1.00000000000000     
   1.00000000000000     
   1.00000000000000     
   1.00000000000000     
   1.00000000000000     
   1.00000000000000     
   1.00000000000000     
   1.00000000000000     
   1.00000000000000     
   1.00000000000000     
   1.00000000000000     
   1.00000000000000     
   1.00000000000000     
   1.00000000000000     
   1.00000000000000     
   1.00000000000000     
   1.00000000000000     
   1.00000000000000     
   1.00000000000000     
   1.00000000000000     
   1.00000000000000     
   1.00000000000000     
   1.00000000000000     
   1.00000000000000     
   1.00000000000000     
   1.00000000000000     
   1.00000000000000     
   1.00000000000000     
   1.00000000000000     
   1.00000000000000     
   1.00000000000000     
   1.00000000000000     
   1.00000000000000     
   1.00000000000000     
   1.00000000000000     
   1.00000000000000     
   1.00000000000000     
   1.00000000000000     
   1.00000000000000     
   1.00000000000000     
   1.00000000000000     
   1.00000000000000     
   1.00000000000000     
   1.00000000000000     
   1.00000000000000     
   1.00000000000000     
   1.00000000000000     
   1.00000000000000     
   1.00000000000000     
   1.00000000000000     
   1.00000000000000     
   1.00000000000000     
   1.00000000000000     
   1.00000000000000     
   1.00000000000000     
   1.00000000000000     
   1.00000000000000     
   1.00000000000000     
   1.00000000000000     
   1.00000000000000     
   1.00000000000000     
   1.00000000000000     
   1.00000000000000     
   1.00000000000000     
   1.00000000000000     
   1.00000000000000     
   1.00000000000000     
   1.00000000000000     
   1.00000000000000     
   1.00000000000000     
   1.00000000000000     
   1.00000000000000     
   1.00000000000000     
   1.00000000000000     
   1.00000000000000     
   1.00000000000000     
   1.00000000000000     
   1.00000000000000     
   1.00000000000000     
   1.00000000000000     
   1.00000000000000     
   1.00000000000000     
   1.00000000000000     
   1.00000000000000     
   1.00000000000000     
   1.00000000000000     
   1.00000000000000     
   1.00000000000000     
   1.00000000000000     
   1.00000000000000     
   1.00000000000000     
   1.00000000000000     
   1.00000000000000     
   1.00000000000000     
   1.00000000000000     
   1.00000000000000     
   1.00000000000000     
   1.00000000000000     
   1.00000000000000     
   1.00000000000000     
   1.00000000000000     
   1.00000000000000     
   1.00000000000000     
   1.00000000000000     
   1.00000000000000     
   1.00000000000000     
   1.00000000000000     
   1.00000000000000     
   1.00000000000000     
   1.00000000000000     
   1.00000000000000     
   1.00000000000000     
   1.00000000000000     
   1.00000000000000     
   1.00000000000000     
   1.00000000000000     
   1.00000000000000     
   1.00000000000000     
   1.00000000000000     
   1.00000000000000     
   1.00000000000000     
   1.00000000000000     
   1.00000000000000     
   1.00000000000000     
   1.00000000000000     
   1.00000000000000     
   1.00000000000000     
   1.00000000000000     
   1.00000000000000     
   1.00000000000000     
   1.00000000000000     
   1.00000000000000     
   1.00000000000000     
   1.00000000000000     
   1.00000000000000     
   1.00000000000000     
   1.00000000000000     
   1.00000000000000     
   1.00000000000000     
   1.00000000000000     
   1.00000000000000     
   1.00000000000000     
   1.00000000000000     
   1.00000000000000     
   1.00000000000000     
   1.00000000000000     
   1.00000000000000     
   1.00000000000000     
   1.00000000000000     
   1.00000000000000     
   1.00000000000000     
   1.00000000000000     
   1.00000000000000     
   1.00000000000000     
   1.00000000000000     
   1.00000000000000     
   1.00000000000000     
   1.00000000000000     
   1.00000000000000     
   1.00000000000000     
   1.00000000000000     
   1.00000000000000     
   1.00000000000000     
   1.00000000000000     
   1.00000000000000     
   1.00000000000000     
   1.00000000000000     
   1.00000000000000     
   1.00000000000000     
   1.00000000000000     
   1.00000000000000     
   1.00000000000000     
   1.00000000000000     
   1.00000000000000     
   1.00000000000000     
   1.00000000000000     
   1.00000000000000     
   1.00000000000000     
   1.00000000000000     
   1.00000000000000     
   1.00000000000000     
   1.00000000000000     
   1.00000000000000     
   1.00000000000000     
   1.00000000000000     
   1.00000000000000     
   1.00000000000000     
   1.00000000000000     
   1.00000000000000     
   1.00000000000000     
   1.00000000000000     
   1.00000000000000     
   1.00000000000000     
   1.00000000000000     
   1.00000000000000     
   1.00000000000000     
   1.00000000000000     
   1.00000000000000     
   1.00000000000000     
   1.00000000000000     
   1.00000000000000     
   1.00000000000000     
   1.00000000000000     
   1.00000000000000     
   1.00000000000000     
   1.00000000000000     
   1.00000000000000     
   1.00000000000000     
   1.00000000000000     
   1.00000000000000     
   1.00000000000000     
   1.00000000000000     
   1.00000000000000     
   1.00000000000000     
   1.00000000000000     
   1.00000000000000     
   1.00000000000000     
   1.00000000000000     
   1.00000000000000     
   1.00000000000000     
   1.00000000000000     
   1.00000000000000     
   1.00000000000000     
   1.00000000000000     
   1.00000000000000     
   1.00000000000000     
   1.00000000000000     
   1.00000000000000     
   1.00000000000000     
   1.00000000000000     
   1.00000000000000     
   1.00000000000000     
   1.00000000000000     
   1.00000000000000     
   1.00000000000000     
   1.00000000000000     
   1.00000000000000     
   1.00000000000000     
   1.00000000000000     
   1.00000000000000     
   1.00000000000000     
   1.00000000000000     
   1.00000000000000     
   1.00000000000000     
   1.00000000000000     
   1.00000000000000     
   1.00000000000000     
   1.00000000000000     
   1.00000000000000     
   1.00000000000000     
   1.00000000000000     
   1.00000000000000     
   1.00000000000000     
   1.00000000000000     
   1.00000000000000     
   1.00000000000000     
   1.00000000000000     
   1.00000000000000     
   1.00000000000000     
   1.00000000000000     
   1.00000000000000     
   1.00000000000000     
   1.00000000000000     
   1.00000000000000     
   1.00000000000000     
   1.00000000000000     
   1.00000000000000     
   1.00000000000000     
   1.00000000000000     
   1.00000000000000     
   1.00000000000000     
   1.00000000000000     
   1.00000000000000     
   1.00000000000000     
   1.00000000000000     
   1.00000000000000     
   1.00000000000000     
   1.00000000000000     
   1.00000000000000     
   1.00000000000000     
   1.00000000000000     
   1.00000000000000     
   1.00000000000000     
   1.00000000000000     
   1.00000000000000     
   1.00000000000000     
   1.00000000000000     
   1.00000000000000     
   1.00000000000000     
   1.00000000000000     
   1.00000000000000     
   1.00000000000000     
   1.00000000000000     
   1.00000000000000     
   1.00000000000000     
   1.00000000000000     
   1.00000000000000     
   1.00000000000000     
   1.00000000000000     
   1.00000000000000     
   1.00000000000000     
   1.00000000000000     
   1.00000000000000     
   1.00000000000000     
   1.00000000000000     
   1.00000000000000     
   1.00000000000000     
   1.00000000000000     
   1.00000000000000     
   1.00000000000000     
   1.00000000000000     
   1.00000000000000     
   1.00000000000000     
   1.00000000000000     
   1.00000000000000     
   1.00000000000000     
   1.00000000000000     
   1.00000000000000     
   1.00000000000000     
   1.00000000000000     
   1.00000000000000     
   1.00000000000000     
   1.00000000000000     
   1.00000000000000     
   1.00000000000000     
   1.00000000000000     
   1.00000000000000     
   1.00000000000000     
   1.00000000000000     
   1.00000000000000     
   1.00000000000000     
   1.00000000000000     
   1.00000000000000     
   1.00000000000000     
   1.00000000000000     
   1.00000000000000     
   1.00000000000000     
   1.00000000000000     
   1.00000000000000     
   1.00000000000000     
   1.00000000000000     
   1.00000000000000     
   1.00000000000000     
   1.00000000000000     
   1.00000000000000     
   1.00000000000000     
   1.00000000000000     
   1.00000000000000     
   1.00000000000000     
   1.00000000000000     
   1.00000000000000     
   1.00000000000000     
   1.00000000000000     
   1.00000000000000     
   1.00000000000000     
   1.00000000000000     
   1.00000000000000     
   1.00000000000000     
   1.00000000000000     
   1.00000000000000     
   1.00000000000000     
   1.00000000000000     
   1.00000000000000     
   1.00000000000000     
   1.00000000000000     
   1.00000000000000     
   1.00000000000000     
   1.00000000000000     
   1.00000000000000     
   1.00000000000000     
   1.00000000000000     
   1.00000000000000     
   1.00000000000000     
   1.00000000000000     
   1.00000000000000     
   1.00000000000000     
   1.00000000000000     
   1.00000000000000     
   1.00000000000000     
   1.00000000000000     
   1.00000000000000     
   1.00000000000000     
   1.00000000000000     
   1.00000000000000     
   1.00000000000000     
   1.00000000000000     
   1.00000000000000     
   1.00000000000000     
   1.00000000000000     
   1.00000000000000     
   1.00000000000000     
   1.00000000000000     
   1.00000000000000     
   1.00000000000000     
   1.00000000000000     
   1.00000000000000     
   1.00000000000000     
   1.00000000000000     
   1.00000000000000     
   1.00000000000000     
   1.00000000000000     
   1.00000000000000     
   1.00000000000000     
   1.00000000000000     
   1.00000000000000     
   1.00000000000000     
   1.00000000000000     
   1.00000000000000     
   1.00000000000000     
   1.00000000000000     
   1.00000000000000     
   1.00000000000000     
   1.00000000000000     
   1.00000000000000     
   1.00000000000000     
   1.00000000000000     
   1.00000000000000     
   1.00000000000000     
   1.00000000000000     
   1.00000000000000     
   1.00000000000000     
   1.00000000000000     
   1.00000000000000     
   1.00000000000000     
   1.00000000000000     
   1.00000000000000     
   1.00000000000000     
   1.00000000000000     
   1.00000000000000     
   1.00000000000000     
   1.00000000000000     
   1.00000000000000     
   1.00000000000000     
   1.00000000000000     
   1.00000000000000     
   1.00000000000000     
   1.00000000000000     
   1.00000000000000     
   1.00000000000000     
   1.00000000000000     
   1.00000000000000     
   1.00000000000000     
   1.00000000000000     
   1.00000000000000     
   1.00000000000000     
   1.00000000000000     
   1.00000000000000     
   1.00000000000000     
   1.00000000000000     
   1.00000000000000     
   1.00000000000000     
   1.00000000000000     
   1.00000000000000     
   1.00000000000000     
   1.00000000000000     
   1.00000000000000     
   1.00000000000000     
   1.00000000000000     
   1.00000000000000     
   1.00000000000000     
   1.00000000000000     
   1.00000000000000     
   1.00000000000000     
   1.00000000000000     
   1.00000000000000     
   1.00000000000000     
   1.00000000000000     
   1.00000000000000     
   1.00000000000000     
   1.00000000000000     
   1.00000000000000     
   1.00000000000000     
   1.00000000000000     
   1.00000000000000     
   1.00000000000000     
   1.00000000000000     
   1.00000000000000     
   1.00000000000000     
   1.00000000000000     
   1.00000000000000     
   1.00000000000000     
   1.00000000000000     
   1.00000000000000     
   1.00000000000000     
   1.00000000000000     
   1.00000000000000     
   1.00000000000000     
   1.00000000000000     
   1.00000000000000     
   1.00000000000000     
   1.00000000000000     
   1.00000000000000     
   1.00000000000000     
   1.00000000000000     
   1.00000000000000     
   1.00000000000000     
   1.00000000000000     
   1.00000000000000     
   1.00000000000000     
   1.00000000000000     
   1.00000000000000     
   1.00000000000000     
   1.00000000000000     
   1.00000000000000     
   1.00000000000000     
   1.00000000000000     
   1.00000000000000     
   1.00000000000000     
   1.00000000000000     
   1.00000000000000     
   1.00000000000000     
   1.00000000000000     
   1.00000000000000     
   1.00000000000000     
   1.00000000000000     
   1.00000000000000     
   1.00000000000000     
   1.00000000000000     
   1.00000000000000     
   1.00000000000000     
   1.00000000000000     
   1.00000000000000     
   1.00000000000000     
   1.00000000000000     
   1.00000000000000     
   1.00000000000000     
   1.00000000000000     
   1.00000000000000     
   1.00000000000000     
   1.00000000000000     
   1.00000000000000     
   1.00000000000000     
   1.00000000000000     
   1.00000000000000     
   1.00000000000000     
   1.00000000000000     
   1.00000000000000     
   1.00000000000000     
   1.00000000000000     
   1.00000000000000     
   1.00000000000000     
   1.00000000000000     
   1.00000000000000     
   1.00000000000000     
   1.00000000000000     
   1.00000000000000     
   1.00000000000000     
   1.00000000000000     
   1.00000000000000     
   1.00000000000000     
   1.00000000000000     
   1.00000000000000     
   1.00000000000000     
   1.00000000000000     
   1.00000000000000     
   1.00000000000000     
   1.00000000000000     
   1.00000000000000     
   1.00000000000000     
   1.00000000000000     
   1.00000000000000     
   1.00000000000000     
   1.00000000000000     
   1.00000000000000     
  0.000000000000000E+000
  0.000000000000000E+000
   1.00000000000000     
   1.00000000000000     
   1.00000000000000     
   1.00000000000000     
   1.00000000000000     
   1.00000000000000     
   1.00000000000000     
   1.00000000000000     
   1.00000000000000     
   1.00000000000000     
   1.00000000000000     
   1.00000000000000     
   1.00000000000000     
   1.00000000000000     
   1.00000000000000     
   1.00000000000000     
   1.00000000000000     
   1.00000000000000     
   1.00000000000000     
   1.00000000000000     
   1.00000000000000     
   1.00000000000000     
   1.00000000000000     
   1.00000000000000     
   1.00000000000000     
   1.00000000000000     
   1.00000000000000     
   1.00000000000000     
   1.00000000000000     
   1.00000000000000     
   1.00000000000000     
   1.00000000000000     
   1.00000000000000     
   1.00000000000000     
   1.00000000000000     
   1.00000000000000     
   1.00000000000000     
   1.00000000000000     
   1.00000000000000     
   1.00000000000000     
   1.00000000000000     
   1.00000000000000     
   1.00000000000000     
   1.00000000000000     
   1.00000000000000     
   1.00000000000000     
   1.00000000000000     
   1.00000000000000     
